time,disloc_density,disp_y,fp_yy,slip_increment_0,slip_increment_1,slip_increment_10,slip_increment_11,slip_increment_12,slip_increment_13,slip_increment_14,slip_increment_15,slip_increment_16,slip_increment_17,slip_increment_18,slip_increment_19,slip_increment_2,slip_increment_20,slip_increment_21,slip_increment_22,slip_increment_23,slip_increment_24,slip_increment_25,slip_increment_26,slip_increment_27,slip_increment_28,slip_increment_29,slip_increment_3,slip_increment_30,slip_increment_31,slip_increment_32,slip_increment_33,slip_increment_34,slip_increment_35,slip_increment_36,slip_increment_37,slip_increment_38,slip_increment_39,slip_increment_4,slip_increment_40,slip_increment_41,slip_increment_42,slip_increment_43,slip_increment_44,slip_increment_45,slip_increment_46,slip_increment_47,slip_increment_5,slip_increment_6,slip_increment_7,slip_increment_8,slip_increment_9,slip_resistance_0,slip_resistance_1,slip_resistance_10,slip_resistance_11,slip_resistance_12,slip_resistance_13,slip_resistance_14,slip_resistance_15,slip_resistance_16,slip_resistance_17,slip_resistance_18,slip_resistance_19,slip_resistance_2,slip_resistance_20,slip_resistance_21,slip_resistance_22,slip_resistance_23,slip_resistance_24,slip_resistance_25,slip_resistance_26,slip_resistance_27,slip_resistance_28,slip_resistance_29,slip_resistance_3,slip_resistance_30,slip_resistance_31,slip_resistance_32,slip_resistance_33,slip_resistance_34,slip_resistance_35,slip_resistance_36,slip_resistance_37,slip_resistance_38,slip_resistance_39,slip_resistance_4,slip_resistance_40,slip_resistance_41,slip_resistance_42,slip_resistance_43,slip_resistance_44,slip_resistance_45,slip_resistance_46,slip_resistance_47,slip_resistance_5,slip_resistance_6,slip_resistance_7,slip_resistance_8,slip_resistance_9,stress_vm,stress_yy,total_twin_volume_fraction
5e-07,20000000,1.4683012712106e-07,1,1.7924739672625e-191,-1.7924759228733e-191,1.7924744536047e-191,1.7924767731678e-191,2.4968353213884e-215,-2.4968414973058e-215,-2.496844412178e-215,2.4968380454672e-215,-3.1651205519638e-185,3.1651186854304e-185,-3.165116777453e-185,3.1651188858345e-185,-1.79247389878e-191,2.4968326866735e-215,2.4968357269287e-215,-2.4968414612663e-215,-2.4968382302161e-215,1.2634276556274e-203,-1.2634299873737e-203,-1.2634307489873e-203,1.2634283207e-203,-5.1366139669929e-186,5.1366098626958e-186,-1.7924759913557e-191,-5.1366077330002e-186,5.1366122297882e-186,9.9666745867025e-234,-9.9667117559409e-234,-9.9667346459356e-234,9.9666967150357e-234,-5.1366132201921e-186,5.1366112661667e-186,-5.136607203022e-186,5.1366095495386e-186,0,9.9666566375978e-234,9.9666812900846e-234,-9.9667154345541e-234,-9.9666900203954e-234,1.2634267934947e-203,1.263427538562e-203,-1.2634297268596e-203,-1.2634288852506e-203,0,0,0,1.792474522087e-191,-1.7924767046857e-191,254.08025451769,254.08025451769,254.08025451769,254.08025451769,254.08025451769,254.08025451769,254.08025451769,254.08025451769,254.08025451769,254.08025451769,254.08025451769,254.08025451769,254.08025451769,254.08025451769,254.08025451769,254.08025451769,254.08025451769,254.08025451769,254.08025451769,254.08025451769,254.08025451769,254.08025451769,254.08025451769,254.08025451769,254.08025451769,254.08025451769,254.08025451769,254.08025451769,254.08025451769,254.08025451769,254.08025451769,254.08025451769,254.08025451769,254.08025451769,254.08025451769,254.08025451769,254.08025451769,254.08025451769,254.08025451769,254.08025451769,254.08025451769,254.08025451769,254.08025451769,254.08025451769,254.08025451769,254.08025451769,254.08025451769,254.08025451769,6.9477996920957,6.9477996919068,0
1e-06,20000000,2.9366025413982e-07,1,2.2779190035316e-161,-2.2779202448721e-161,2.2779193131886e-161,2.2779207851219e-161,3.1730391560525e-185,-3.173043074984e-185,-3.173044925281e-185,3.1730408851846e-185,-4.0223086428008e-155,4.0223074584386e-155,-4.022306247277e-155,4.0223075852306e-155,-2.2779189600404e-161,3.1730374802527e-185,3.1730394094255e-185,-3.1730430494339e-185,-3.1730409990956e-185,1.6055943155793e-173,-1.6055957951836e-173,-1.6055962786465e-173,1.6055947377321e-173,-6.5277279850716e-156,6.5277253807564e-156,-2.2779202883633e-161,-6.5277240288323e-156,6.5277268824079e-156,1.266589808142e-203,-1.266592166728e-203,-1.2665936197225e-203,1.2665912127686e-203,-6.5277275105591e-156,6.5277262707167e-156,-6.5277236914991e-156,6.5277251806019e-156,0,1.2665886666368e-203,1.2665902309643e-203,-1.2665923983606e-203,-1.266590785665e-203,1.6055937671337e-173,1.6055942398982e-173,-1.6055956289762e-173,-1.6055950949015e-173,0,0,0,2.2779193566797e-161,-2.2779207416308e-161,254.08025451769,254.08025451769,254.08025451769,254.08025451769,254.08025451769,254.08025451769,254.08025451769,254.08025451769,254.08025451769,254.08025451769,254.08025451769,254.08025451769,254.08025451769,254.08025451769,254.08025451769,254.08025451769,254.08025451769,254.08025451769,254.08025451769,254.08025451769,254.08025451769,254.08025451769,254.08025451769,254.08025451769,254.08025451769,254.08025451769,254.08025451769,254.08025451769,254.08025451769,254.08025451769,254.08025451769,254.08025451769,254.08025451769,254.08025451769,254.08025451769,254.08025451769,254.08025451769,254.08025451769,254.08025451769,254.08025451769,254.08025451769,254.08025451769,254.08025451769,254.08025451769,254.08025451769,254.08025451769,254.08025451769,254.08025451769,13.897144886016,13.897144885849,0
1.5e-06,20000000,4.4049038115857e-07,1,9.2843158066668e-144,-9.2843191759996e-144,9.2843166498204e-144,9.2843206438103e-144,1.2932637228333e-167,-1.2932647861604e-167,-1.2932652884025e-167,1.2932641921663e-167,-1.6394075249425e-137,1.6394072036044e-137,-1.6394068748417e-137,1.6394072378964e-137,-9.2843156885415e-144,1.2932632670248e-167,1.2932637904607e-167,-1.2932647784899e-167,-1.2932642221448e-167,6.5440627664997e-156,-6.5440667811019e-156,-6.5440680934333e-156,6.5440639123088e-156,-2.6605631740829e-138,2.6605624674747e-138,-9.2843192941249e-144,-2.6605621004961e-138,2.6605628748053e-138,5.1623531708616e-186,-5.1623595704675e-186,-5.1623635144145e-186,5.1623569834408e-186,-2.6605630451585e-138,2.6605627087798e-138,-2.6605620086731e-138,2.6605624127529e-138,0,5.1623500664371e-186,5.1623543109428e-186,-5.1623601940153e-186,-5.1623558181412e-186,6.5440612744986e-156,6.5440625571914e-156,-6.5440663276618e-156,-6.5440648784465e-156,0,0,0,9.2843167679456e-144,-9.2843205256852e-144,254.08025451769,254.08025451769,254.08025451769,254.08025451769,254.08025451769,254.08025451769,254.08025451769,254.08025451769,254.08025451769,254.08025451769,254.08025451769,254.08025451769,254.08025451769,254.08025451769,254.08025451769,254.08025451769,254.08025451769,254.08025451769,254.08025451769,254.08025451769,254.08025451769,254.08025451769,254.08025451769,254.08025451769,254.08025451769,254.08025451769,254.08025451769,254.08025451769,254.08025451769,254.08025451769,254.08025451769,254.08025451769,254.08025451769,254.08025451769,254.08025451769,254.08025451769,254.08025451769,254.08025451769,254.08025451769,254.08025451769,254.08025451769,254.08025451769,254.08025451769,254.08025451769,254.08025451769,254.08025451769,254.08025451769,254.08025451769,20.848035839634,20.848035839476,0
2e-06,20000000,5.8732050817732e-07,1,2.9020790170051e-131,-2.9020798060399e-131,2.9020792150777e-131,2.9020801501084e-131,4.0424666199829e-155,-4.0424691092189e-155,-4.0424702854275e-155,4.0424677190732e-155,-5.1244375546988e-125,5.1244368024877e-125,-5.1244360325379e-125,5.124436882507e-125,-2.9020789893239e-131,4.0424655503401e-155,4.042466775678e-155,-4.0424690895351e-155,-4.0424677870787e-155,2.0455344041669e-143,-2.0455353439755e-143,-2.0455356513185e-143,2.0455346724874e-143,-8.3163518258187e-126,8.3163501717117e-126,-2.9020798337211e-131,-8.3163493122454e-126,8.3163511250021e-126,1.6136416288436e-173,-1.6136431269916e-173,-1.6136440506209e-173,1.6136425216887e-173,-8.3163515236001e-126,8.316350736209e-126,-8.3163490966015e-126,8.3163500426422e-126,0,1.6136409004256e-173,1.6136418940596e-173,-1.6136432718063e-173,-1.613642247388e-173,2.0455340539797e-143,2.0455343542416e-143,-2.0455352372479e-143,-2.0455348979635e-143,0,0,0,2.902079242759e-131,-2.9020801224271e-131,254.08025451769,254.08025451769,254.08025451769,254.08025451769,254.08025451769,254.08025451769,254.08025451769,254.08025451769,254.08025451769,254.08025451769,254.08025451769,254.08025451769,254.08025451769,254.08025451769,254.08025451769,254.08025451769,254.08025451769,254.08025451769,254.08025451769,254.08025451769,254.08025451769,254.08025451769,254.08025451769,254.08025451769,254.08025451769,254.08025451769,254.08025451769,254.08025451769,254.08025451769,254.08025451769,254.08025451769,254.08025451769,254.08025451769,254.08025451769,254.08025451769,254.08025451769,254.08025451769,254.08025451769,254.08025451769,254.08025451769,254.08025451769,254.08025451769,254.08025451769,254.08025451769,254.08025451769,254.08025451769,254.08025451769,254.08025451769,27.800472810811,27.800472810664,0
2.5e-06,20000000,7.3415063519607e-07,1,1.4282234644668e-121,-1.4282237747825e-121,1.4282235426108e-121,1.428223910232e-121,1.9894516293674e-145,-1.989452608003e-145,-1.989453070609e-145,1.9894520616234e-145,-2.5219304627538e-115,2.521930167039e-115,-2.5219298642096e-115,2.5219301983971e-115,-1.4282234535728e-121,1.9894512078154e-145,1.9894516895456e-145,-1.9894525995822e-145,-1.9894520875021e-145,1.0066852870485e-133,-1.0066856565294e-133,-1.0066857774107e-133,1.0066853925724e-133,-4.09279276182e-116,4.0927921115341e-116,-1.4282237856765e-121,-4.0927917734906e-116,4.0927924862131e-116,7.9413447317234e-164,-7.9413506216782e-164,-7.941354254298e-164,7.9413482431926e-164,-4.0927926428423e-116,4.0927923333086e-116,-4.09279168844e-116,4.0927920604104e-116,0,7.9413418613617e-164,7.9413457678045e-164,-7.9413511864431e-164,-7.9413471588494e-164,1.0066851490141e-133,1.0066852670553e-133,-1.0066856143416e-133,-1.0066854809431e-133,0,0,0,1.4282235535047e-121,-1.4282238993381e-121,254.08025451769,254.08025451769,254.08025451769,254.08025451769,254.08025451769,254.08025451769,254.08025451769,254.08025451769,254.08025451769,254.08025451769,254.08025451769,254.08025451769,254.08025451769,254.08025451769,254.08025451769,254.08025451769,254.08025451769,254.08025451769,254.08025451769,254.08025451769,254.08025451769,254.08025451769,254.08025451769,254.08025451769,254.08025451769,254.08025451769,254.08025451769,254.08025451769,254.08025451769,254.08025451769,254.08025451769,254.08025451769,254.08025451769,254.08025451769,254.08025451769,254.08025451769,254.08025451769,254.08025451769,254.08025451769,254.08025451769,254.08025451769,254.08025451769,254.08025451769,254.08025451769,254.08025451769,254.08025451769,254.08025451769,254.08025451769,34.754456057466,34.754456057338,0
3e-06,20000000,8.8098076221482e-07,1,1.1857861300627e-113,-1.1857863445307e-113,1.1857861842388e-113,1.185786438235e-113,1.6517472563109e-137,-1.6517479324371e-137,-1.6517482521715e-137,1.6517475550553e-137,-2.0938390297435e-107,2.0938388254484e-107,-2.0938386161409e-107,2.0938388470436e-107,-1.1857861225284e-113,1.6517469643605e-137,1.6517472971761e-137,-1.6517479261496e-137,-1.6517475723442e-137,8.3580299894716e-126,-8.3580325421523e-126,-8.3580333776509e-126,8.3580307187596e-126,-3.3980513464373e-108,3.3980508971783e-108,-1.185786352065e-113,-3.3980506635273e-108,3.3980511559673e-108,6.5933217664536e-156,-6.593325835766e-156,-6.5933283464579e-156,6.5933241933585e-156,-3.3980512641262e-108,3.398051050292e-108,-3.3980506045805e-108,3.3980508615958e-108,0,6.5933197788102e-156,6.5933224777195e-156,-6.5933262228085e-156,-6.593323440112e-156,8.3580290333374e-126,8.3580298488273e-126,-8.358032249112e-126,-8.3580313274114e-126,0,0,0,1.185786191773e-113,-1.1857864307007e-113,254.08025451769,254.08025451769,254.08025451769,254.08025451769,254.08025451769,254.08025451769,254.08025451769,254.08025451769,254.08025451769,254.08025451769,254.08025451769,254.08025451769,254.08025451769,254.08025451769,254.08025451769,254.08025451769,254.08025451769,254.08025451769,254.08025451769,254.08025451769,254.08025451769,254.08025451769,254.08025451769,254.08025451769,254.08025451769,254.08025451769,254.08025451769,254.08025451769,254.08025451769,254.08025451769,254.08025451769,254.08025451769,254.08025451769,254.08025451769,254.08025451769,254.08025451769,254.08025451769,254.08025451769,254.08025451769,254.08025451769,254.08025451769,254.08025451769,254.08025451769,254.08025451769,254.08025451769,254.08025451769,254.08025451769,254.08025451769,41.709985837579,41.709985837457,0
3.5e-06,20000000,1.0278108892336e-06,1,5.885331045355e-107,-5.8853319567558e-107,5.8853312762994e-107,5.8853323553517e-107,8.1980040740952e-131,-8.1980069463512e-131,-8.1980083051509e-131,8.198005343636e-131,-1.0392207455329e-100,1.0392206587505e-100,-1.0392205697977e-100,1.0392206678949e-100,-5.8853310133157e-107,8.1980028308494e-131,8.1980042446623e-131,-8.1980069176317e-131,-8.1980054145597e-131,4.1482837627386e-119,-4.1482848471386e-119,-4.1482852022141e-119,4.1482840726482e-119,-1.6865314846688e-101,1.6865312938251e-101,-5.885331988795e-107,-1.6865311945248e-101,1.6865314037311e-101,3.2724183166571e-149,-3.2724200453533e-149,-3.27242111233e-149,3.2724193480037e-149,-1.6865314496547e-101,1.6865313588235e-101,-1.6865311694041e-101,1.6865312785979e-101,0,3.2724174703447e-149,3.27241861687e-149,-3.2724202084269e-149,-3.2724190262713e-149,4.1482833555081e-119,4.1482837019194e-119,-4.1482847219799e-119,-4.1482843304026e-119,0,0,0,5.8853313083386e-107,-5.8853323233124e-107,254.08025451769,254.08025451769,254.08025451769,254.08025451769,254.08025451769,254.08025451769,254.08025451769,254.08025451769,254.08025451769,254.08025451769,254.08025451769,254.08025451769,254.08025451769,254.08025451769,254.08025451769,254.08025451769,254.08025451769,254.08025451769,254.08025451769,254.08025451769,254.08025451769,254.08025451769,254.08025451769,254.08025451769,254.08025451769,254.08025451769,254.08025451769,254.08025451769,254.08025451769,254.08025451769,254.08025451769,254.08025451769,254.08025451769,254.08025451769,254.08025451769,254.08025451769,254.08025451769,254.08025451769,254.08025451769,254.08025451769,254.08025451769,254.08025451769,254.08025451769,254.08025451769,254.08025451769,254.08025451769,254.08025451769,254.08025451769,48.667062409172,48.667062409064,0
4e-06,20000000,1.1746410162523e-06,1,3.7157897526877e-101,-3.715790255639e-101,3.7157898805294e-101,3.7157904758189e-101,5.1759297098178e-125,-5.1759312943058e-125,-5.1759320441852e-125,5.1759304104065e-125,-6.5612718756446e-95,6.5612713969314e-95,-6.5612709060183e-95,6.5612714472144e-95,-3.715789734995e-101,5.1759290223165e-125,5.1759298022376e-125,-5.1759312773507e-125,-5.1759304481389e-125,2.61907957361e-113,-2.619080171819e-113,-2.6190803677782e-113,2.6190797446276e-113,-1.0648162703591e-95,1.0648161650831e-95,-3.7157902733317e-101,-1.0648161102801e-95,1.0648162256964e-95,2.0660891704259e-143,-2.066090124071e-143,-2.0660907128961e-143,2.0660897395753e-143,-1.0648162510171e-95,1.0648162009142e-95,-1.0648160963784e-95,1.0648161566216e-95,0,2.0660887024841e-143,2.066089334968e-143,-2.0660902132863e-143,-2.0660895611266e-143,2.6190793483782e-113,2.6190795394673e-113,-2.619080102403e-113,-2.6190798863723e-113,0,0,0,3.7157898982221e-101,-3.7157904581261e-101,254.08025451769,254.08025451769,254.08025451769,254.08025451769,254.08025451769,254.08025451769,254.08025451769,254.08025451769,254.08025451769,254.08025451769,254.08025451769,254.08025451769,254.08025451769,254.08025451769,254.08025451769,254.08025451769,254.08025451769,254.08025451769,254.08025451769,254.08025451769,254.08025451769,254.08025451769,254.08025451769,254.08025451769,254.08025451769,254.08025451769,254.08025451769,254.08025451769,254.08025451769,254.08025451769,254.08025451769,254.08025451769,254.08025451769,254.08025451769,254.08025451769,254.08025451769,254.08025451769,254.08025451769,254.08025451769,254.08025451769,254.08025451769,254.08025451769,254.08025451769,254.08025451769,254.08025451769,254.08025451769,254.08025451769,254.08025451769,55.625686030332,55.625686030237,0
4.5e-06,20000000,1.3214711432711e-06,1,4.8572324457855e-96,-4.8572330295512e-96,4.8572325946256e-96,4.8572332853596e-96,6.7659086158836e-120,-6.7659104543326e-120,-6.7659113247423e-120,6.7659094290434e-120,-8.5768098254021e-90,8.5768092699891e-90,-8.5768087001583e-90,8.5768093281439e-90,-4.8572324252357e-96,6.7659078162739e-120,6.7659087211857e-120,-6.7659104333799e-120,-6.765909471218e-120,3.4236270477322e-108,-3.4236277418181e-108,-3.423627969279e-108,3.423627246224e-108,-1.391914069975e-90,1.3919139478295e-90,-4.857233050101e-96,-1.3919138842154e-90,1.3919140181386e-90,2.700765169266e-138,-2.7007662757668e-138,-2.7007669592281e-138,2.7007658298745e-138,-1.3919140475027e-90,1.3919139893744e-90,-1.391913868035e-90,1.391913937941e-90,0,2.7007646250872e-138,2.7007653589454e-138,-2.7007663784238e-138,-2.7007656217128e-138,3.423626785729e-108,3.4236270074346e-108,-3.423627660848e-108,-3.4236274101733e-108,0,0,0,4.8572326151753e-96,-4.8572332648099e-96,254.08025451769,254.08025451769,254.08025451769,254.08025451769,254.08025451769,254.08025451769,254.08025451769,254.08025451769,254.08025451769,254.08025451769,254.08025451769,254.08025451769,254.08025451769,254.08025451769,254.08025451769,254.08025451769,254.08025451769,254.08025451769,254.08025451769,254.08025451769,254.08025451769,254.08025451769,254.08025451769,254.08025451769,254.08025451769,254.08025451769,254.08025451769,254.08025451769,254.08025451769,254.08025451769,254.08025451769,254.08025451769,254.08025451769,254.08025451769,254.08025451769,254.08025451769,254.08025451769,254.08025451769,254.08025451769,254.08025451769,254.08025451769,254.08025451769,254.08025451769,254.08025451769,254.08025451769,254.08025451769,254.08025451769,254.08025451769,62.585856959194,62.585856959112,0
5e-06,20000000,1.4683012702898e-06,1,1.8332573100141e-91,-1.8332575080946e-91,1.8332573606725e-91,1.8332575949793e-91,2.5536458545067e-115,-2.5536464781059e-115,-2.5536467734626e-115,2.5536461304241e-115,-3.2371312790943e-85,3.2371310907086e-85,-3.2371308973436e-85,3.2371311103713e-85,-1.8332573030364e-91,2.553645582631e-115,2.5536458895707e-115,-2.5536464705643e-115,-2.5536461441853e-115,1.2921739672036e-103,-1.2921742026353e-103,-1.2921742798213e-103,1.2921740345532e-103,-5.2534784632188e-86,5.2534780489169e-86,-1.8332575150723e-91,-5.2534778330462e-86,5.2534782873392e-86,1.0193454025147e-133,-1.0193457778401e-133,-1.0193460097569e-133,1.0193456266718e-133,-5.2534783868903e-86,5.2534781897371e-86,-5.2534777779912e-86,5.2534780151355e-86,0,1.0193452175113e-133,1.019345466435e-133,-1.0193458123702e-133,-1.0193455556869e-133,1.292173878105e-103,1.2921739533034e-103,-1.292174175025e-103,-1.2921740899902e-103,0,0,0,1.8332573676501e-91,-1.8332575880016e-91,254.08025451769,254.08025451769,254.08025451769,254.08025451769,254.08025451769,254.08025451769,254.08025451769,254.08025451769,254.08025451769,254.08025451769,254.08025451769,254.08025451769,254.08025451769,254.08025451769,254.08025451769,254.08025451769,254.08025451769,254.08025451769,254.08025451769,254.08025451769,254.08025451769,254.08025451769,254.08025451769,254.08025451769,254.08025451769,254.08025451769,254.08025451769,254.08025451769,254.08025451769,254.08025451769,254.08025451769,254.08025451769,254.08025451769,254.08025451769,254.08025451769,254.08025451769,254.08025451769,254.08025451769,254.08025451769,254.08025451769,254.08025451769,254.08025451769,254.08025451769,254.08025451769,254.08025451769,254.08025451769,254.08025451769,254.08025451769,69.547575453951,69.54757545388,0
5.5e-06,20000000,1.6151313973086e-06,1,2.5326629395418e-87,-2.5326631880432e-87,2.5326630032902e-87,2.532663297152e-87,3.5278867899325e-111,-3.527887571999e-111,-3.5278879425548e-111,3.5278871360839e-111,-4.4721285323907e-81,4.472128296145e-81,-4.4721280535433e-81,4.4721283207251e-81,-2.5326629307819e-87,3.5278864481491e-111,3.5278868330812e-111,-3.5278875619905e-111,-3.527887152654e-111,1.7851510005299e-99,-1.7851512957873e-99,-1.7851513926272e-99,1.785151085021e-99,-7.2577318893001e-82,7.2577313697342e-82,-2.5326631968031e-87,-7.2577310988909e-82,7.2577316686624e-82,1.4082356801421e-129,-1.4082361508468e-129,-1.4082364418075e-129,1.4082359613612e-129,-7.257731793445e-82,7.2577315462135e-82,-7.2577310296297e-82,7.2577313270668e-82,0,1.4082354475978e-129,1.4082357597772e-129,-1.4082361937828e-129,-1.4082358718617e-129,1.785150888503e-99,1.7851509828058e-99,-1.7851512609767e-99,-1.785151154325e-99,0,0,0,2.5326630120501e-87,-2.5326632883922e-87,254.08025451769,254.08025451769,254.08025451769,254.08025451769,254.08025451769,254.08025451769,254.08025451769,254.08025451769,254.08025451769,254.08025451769,254.08025451769,254.08025451769,254.08025451769,254.08025451769,254.08025451769,254.08025451769,254.08025451769,254.08025451769,254.08025451769,254.08025451769,254.08025451769,254.08025451769,254.08025451769,254.08025451769,254.08025451769,254.08025451769,254.08025451769,254.08025451769,254.08025451769,254.08025451769,254.08025451769,254.08025451769,254.08025451769,254.08025451769,254.08025451769,254.08025451769,254.08025451769,254.08025451769,254.08025451769,254.08025451769,254.08025451769,254.08025451769,254.08025451769,254.08025451769,254.08025451769,254.08025451769,254.08025451769,254.08025451769,76.510841772846,76.510841772789,0
6e-06,20000000,1.7619615243273e-06,1,1.5258748359015e-83,-1.5258749729917e-83,1.5258748711752e-83,1.5258750332415e-83,2.1254757644614e-107,-2.125476195755e-107,-2.1254764001881e-107,2.1254759554219e-107,-2.6943610285465e-77,2.6943608982685e-77,-2.6943607644241e-77,2.6943609117805e-77,-1.5258748310656e-83,2.1254755755306e-107,2.1254757878093e-107,-2.1254761899391e-107,-2.1254759641879e-107,1.0755150042102e-95,-1.0755151670377e-95,-1.0755152204647e-95,1.07551505082e-95,-4.3726269953475e-78,4.3726267088272e-78,-1.5258749778277e-83,-4.3726265593988e-78,4.3726268736353e-78,8.4843165488054e-126,-8.4843191446594e-126,-8.4843207498518e-126,8.4843181002189e-126,-4.3726269424152e-78,4.3726268060841e-78,-4.3726265210854e-78,4.3726266851327e-78,0,8.4843152635073e-126,8.4843169851131e-126,-8.4843193794564e-126,-8.4843176040716e-126,1.075514942274e-95,1.0755149942774e-95,-1.0755151477413e-95,-1.0755150889206e-95,0,0,0,1.5258748760111e-83,-1.5258750284056e-83,254.08025451769,254.08025451769,254.08025451769,254.08025451769,254.08025451769,254.08025451769,254.08025451769,254.08025451769,254.08025451769,254.08025451769,254.08025451769,254.08025451769,254.08025451769,254.08025451769,254.08025451769,254.08025451769,254.08025451769,254.08025451769,254.08025451769,254.08025451769,254.08025451769,254.08025451769,254.08025451769,254.08025451769,254.08025451769,254.08025451769,254.08025451769,254.08025451769,254.08025451769,254.08025451769,254.08025451769,254.08025451769,254.08025451769,254.08025451769,254.08025451769,254.08025451769,254.08025451769,254.08025451769,254.08025451769,254.08025451769,254.08025451769,254.08025451769,254.08025451769,254.08025451769,254.08025451769,254.08025451769,254.08025451769,254.08025451769,83.475656174182,83.475656174134,0
6.5e-06,20000000,1.9087916513461e-06,1,4.5794670215755e-80,-4.5794674009465e-80,4.5794671194878e-80,4.5794675678442e-80,6.3789938541891e-104,-6.3789950473072e-104,-6.3789956130629e-104,6.378994382636e-104,-8.0863364939853e-74,8.0863361336065e-74,-8.0863357631927e-74,8.0863361708658e-74,-4.5794670081836e-80,6.3789933302788e-104,6.3789939175106e-104,-6.3789950303675e-104,-6.3789944058269e-104,3.227843713203e-92,-3.2278441636417e-92,-3.2278443115008e-92,3.2278438421835e-92,-1.3123160874125e-74,1.312316008153e-74,-4.5794674143384e-80,-1.312315966798e-74,1.3123160537328e-74,2.5463194787603e-122,-2.5463201968735e-122,-2.5463206410957e-122,2.5463199080897e-122,-1.3123160727494e-74,1.3123160350384e-74,-1.312315956166e-74,1.3123160015522e-74,0,2.5463191223875e-122,2.5463195986475e-122,-2.5463202612573e-122,-2.5463197701046e-122,3.2278435414243e-92,3.2278436852776e-92,-3.2278441099761e-92,-3.2278439472442e-92,0,0,0,4.5794671328797e-80,-4.5794675544523e-80,254.08025451769,254.08025451769,254.08025451769,254.08025451769,254.08025451769,254.08025451769,254.08025451769,254.08025451769,254.08025451769,254.08025451769,254.08025451769,254.08025451769,254.08025451769,254.08025451769,254.08025451769,254.08025451769,254.08025451769,254.08025451769,254.08025451769,254.08025451769,254.08025451769,254.08025451769,254.08025451769,254.08025451769,254.08025451769,254.08025451769,254.08025451769,254.08025451769,254.08025451769,254.08025451769,254.08025451769,254.08025451769,254.08025451769,254.08025451769,254.08025451769,254.08025451769,254.08025451769,254.08025451769,254.08025451769,254.08025451769,254.08025451769,254.08025451769,254.08025451769,254.08025451769,254.08025451769,254.08025451769,254.08025451769,254.08025451769,90.44201891631,90.442018916276,0
7e-06,20000000,2.0556217783648e-06,1,7.5922175606672e-77,-7.5922181440534e-77,7.5922177116859e-77,7.5922184009551e-77,1.0575621369739e-100,-1.0575623203863e-100,-1.0575624073907e-100,1.057562218237e-100,-1.34061944763e-70,1.3406193922336e-70,-1.3406193352685e-70,1.3406193979429e-70,-7.592217540059e-77,1.0575620562456e-100,1.0575621465164e-100,-1.0575623176545e-100,-1.0575622216424e-100,5.351385132954e-89,-5.3513858253882e-89,-5.3513860527771e-89,5.3513853312914e-89,-2.1756656661872e-71,2.1756655443494e-71,-7.5922181646616e-77,-2.1756654807493e-71,2.1756656143982e-71,4.2214981595547e-119,-4.2214992634819e-119,-4.2214999466186e-119,4.2214988197736e-119,-2.175665643616e-71,2.1756655856499e-71,-2.1756654643552e-71,2.1756655341324e-71,0,4.2214976104936e-119,4.2214983426253e-119,-4.2214993616006e-119,-4.2214986065511e-119,5.351384868221e-89,5.3513850893485e-89,-5.3513857424637e-89,-5.3513854922846e-89,0,0,0,7.5922177322941e-77,-7.5922183803469e-77,254.08025451769,254.08025451769,254.08025451769,254.08025451769,254.08025451769,254.08025451769,254.08025451769,254.08025451769,254.08025451769,254.08025451769,254.08025451769,254.08025451769,254.08025451769,254.08025451769,254.08025451769,254.08025451769,254.08025451769,254.08025451769,254.08025451769,254.08025451769,254.08025451769,254.08025451769,254.08025451769,254.08025451769,254.08025451769,254.08025451769,254.08025451769,254.08025451769,254.08025451769,254.08025451769,254.08025451769,254.08025451769,254.08025451769,254.08025451769,254.08025451769,254.08025451769,254.08025451769,254.08025451769,254.08025451769,254.08025451769,254.08025451769,254.08025451769,254.08025451769,254.08025451769,254.08025451769,254.08025451769,254.08025451769,254.08025451769,97.40993025764,97.409930257617,0
7.5e-06,20000000,2.2024519053836e-06,1,7.5470343497802e-74,-7.5470348904381e-74,7.5470344901602e-74,7.5470351287615e-74,1.0512683192301e-97,-1.0512684891519e-97,-1.0512685697877e-97,1.0512683945413e-97,-1.3326410732127e-67,1.3326410218934e-67,-1.332640969097e-67,1.3326410271659e-67,-7.5470343306678e-74,1.0512682442618e-97,1.0512683278916e-97,-1.0512684865009e-97,-1.0512683975465e-97,5.3195376863336e-86,-5.3195383278337e-86,-5.3195385385826e-86,5.3195378701397e-86,-2.1627177141592e-68,2.1627176012868e-68,-7.5470349095504e-74,-2.1627175423397e-68,2.1627176661659e-68,4.196374980749e-116,-4.1963760034847e-116,-4.1963766366097e-116,4.1963755926197e-116,-2.1627176932198e-68,2.1627176395221e-68,-2.1627175271047e-68,2.1627175917563e-68,0,4.1963744709258e-116,4.1963751492071e-116,-4.1963760935809e-116,-4.1963753940453e-116,5.3195374404503e-86,5.3195376453028e-86,-5.3195382506064e-86,-5.3195380188112e-86,0,0,0,7.5470345092726e-74,-7.5470351096492e-74,254.08025451769,254.08025451769,254.08025451769,254.08025451769,254.08025451769,254.08025451769,254.08025451769,254.08025451769,254.08025451769,254.08025451769,254.08025451769,254.08025451769,254.08025451769,254.08025451769,254.08025451769,254.08025451769,254.08025451769,254.08025451769,254.08025451769,254.08025451769,254.08025451769,254.08025451769,254.08025451769,254.08025451769,254.08025451769,254.08025451769,254.08025451769,254.08025451769,254.08025451769,254.08025451769,254.08025451769,254.08025451769,254.08025451769,254.08025451769,254.08025451769,254.08025451769,254.08025451769,254.08025451769,254.08025451769,254.08025451769,254.08025451769,254.08025451769,254.08025451769,254.08025451769,254.08025451769,254.08025451769,254.08025451769,254.08025451769,104.37939045663,104.37939045662,0
8e-06,20000000,2.3492820324023e-06,1,4.8054493450566e-71,-4.8054496674403e-71,4.8054494290112e-71,4.8054498096869e-71,6.6937772279274e-95,-6.6937782407985e-95,-6.6937787216363e-95,6.6937776769934e-95,-8.4853716581847e-65,8.4853713522963e-65,-8.4853710374603e-65,8.4853713836241e-65,-4.8054493336522e-71,6.6937767800084e-95,6.6937772785009e-95,-6.6937782242906e-95,-6.6937776940263e-95,3.3871276738412e-83,-3.3871280562248e-83,-3.3871281818988e-83,3.3871277834383e-83,-1.3770747397556e-65,1.3770746724769e-65,-4.8054496788447e-71,-1.3770746373248e-65,1.3770747111397e-65,2.6719724040251e-113,-2.6719730136613e-113,-2.6719733911947e-113,2.671972768876e-113,-1.3770747272574e-65,1.377074695252e-65,-1.3770746282159e-65,1.3770746667574e-65,0,2.6719720994536e-113,2.6719725037639e-113,-2.6719730668933e-113,-2.6719726499005e-113,3.3871275269082e-83,3.3871276490104e-83,-3.3871280099553e-83,-3.3871278717762e-83,0,0,0,4.8054494404156e-71,-4.8054497982825e-71,254.08025451769,254.08025451769,254.08025451769,254.08025451769,254.08025451769,254.08025451769,254.08025451769,254.08025451769,254.08025451769,254.08025451769,254.08025451769,254.08025451769,254.08025451769,254.08025451769,254.08025451769,254.08025451769,254.08025451769,254.08025451769,254.08025451769,254.08025451769,254.08025451769,254.08025451769,254.08025451769,254.08025451769,254.08025451769,254.08025451769,254.08025451769,254.08025451769,254.08025451769,254.08025451769,254.08025451769,254.08025451769,254.08025451769,254.08025451769,254.08025451769,254.08025451769,254.08025451769,254.08025451769,254.08025451769,254.08025451769,254.08025451769,254.08025451769,254.08025451769,254.08025451769,254.08025451769,254.08025451769,254.08025451769,254.08025451769,111.35039977181,111.35039977181,0
8.5e-06,20000000,2.4961121594211e-06,1,2.068774553258e-68,-2.0687746837379e-68,2.0687745873387e-68,2.0687747413674e-68,2.8817109547975e-92,-2.8817113646053e-92,-2.8817115592263e-92,2.8817111365502e-92,-3.653003000619e-62,3.6530028768629e-62,-3.6530027494291e-62,3.6530028894977e-62,-2.0687745486389e-68,2.881710773142e-92,2.8817109748288e-92,-2.8817113576366e-92,-2.8817111430815e-92,1.4581786300787e-80,-1.4581787847903e-80,-1.4581788356584e-80,1.4581786744353e-80,-5.9283887114209e-63,5.9283884392202e-63,-2.0687746883569e-68,-5.9283882969347e-63,5.9283885956087e-63,1.1503000336967e-110,-1.1503002803569e-110,-1.1503004331634e-110,1.1503001813664e-110,-5.9283886607844e-63,5.9283885313024e-63,-5.928388259968e-63,5.9283884159233e-63,0,1.1502999101911e-110,1.1503000737751e-110,-1.1503003017006e-110,-1.1503001329799e-110,1.45817857048e-80,1.4581786198801e-80,-1.4581787659729e-80,-1.4581787100613e-80,0,0,0,2.0687745919578e-68,-2.0687747367484e-68,254.08025451769,254.08025451769,254.08025451769,254.08025451769,254.08025451769,254.08025451769,254.08025451769,254.08025451769,254.08025451769,254.08025451769,254.08025451769,254.08025451769,254.08025451769,254.08025451769,254.08025451769,254.08025451769,254.08025451769,254.08025451769,254.08025451769,254.08025451769,254.08025451769,254.08025451769,254.08025451769,254.08025451769,254.08025451769,254.08025451769,254.08025451769,254.08025451769,254.08025451769,254.08025451769,254.08025451769,254.08025451769,254.08025451769,254.08025451769,254.08025451769,254.08025451769,254.08025451769,254.08025451769,254.08025451769,254.08025451769,254.08025451769,254.08025451769,254.08025451769,254.08025451769,254.08025451769,254.08025451769,254.08025451769,254.08025451769,118.32295846173,118.32295846175,0
9e-06,20000000,2.6429422864398e-06,1,6.2973350492214e-66,-6.297335423921e-66,6.2973351473809e-66,6.2973355895797e-66,8.7719076973066e-90,-8.7719088737623e-90,-8.7719094326827e-90,8.7719082192464e-90,-1.1119715145355e-59,1.1119714790101e-59,-1.1119714424123e-59,1.1119714826256e-59,-6.2973350359473e-66,8.7719071745975e-90,8.7719077535801e-90,-8.7719088529306e-90,-8.7719082369673e-90,4.4386853965278e-78,-4.4386858406637e-78,-4.4386859867519e-78,4.4386855239034e-78,-1.804597305699e-60,1.8045972275597e-60,-6.2973354371951e-66,-1.8045971866958e-60,1.804597272443e-60,3.5015051492495e-108,-3.5015058573533e-108,-3.501506296184e-108,3.5015055733185e-108,-1.804597291143e-60,1.8045972539752e-60,-1.8045971760515e-60,1.804597220827e-60,0,3.5015047939077e-108,3.5015052635165e-108,-3.501505918072e-108,-3.5015054337014e-108,4.4386852250073e-78,4.4386853668151e-78,-4.4386857863671e-78,-4.4386856258467e-78,0,0,0,6.2973351606551e-66,-6.2973355763056e-66,254.08025451769,254.08025451769,254.08025451769,254.08025451769,254.08025451769,254.08025451769,254.08025451769,254.08025451769,254.08025451769,254.08025451769,254.08025451769,254.08025451769,254.08025451769,254.08025451769,254.08025451769,254.08025451769,254.08025451769,254.08025451769,254.08025451769,254.08025451769,254.08025451769,254.08025451769,254.08025451769,254.08025451769,254.08025451769,254.08025451769,254.08025451769,254.08025451769,254.08025451769,254.08025451769,254.08025451769,254.08025451769,254.08025451769,254.08025451769,254.08025451769,254.08025451769,254.08025451769,254.08025451769,254.08025451769,254.08025451769,254.08025451769,254.08025451769,254.08025451769,254.08025451769,254.08025451769,254.08025451769,254.08025451769,254.08025451769,125.29706678504,125.29706678507,0
9.5e-06,20000000,2.7897724134586e-06,1,1.4071863725631e-63,-1.4071864517979e-63,1.407186393381e-63,1.4071864868629e-63,1.9601480459604e-87,-1.9601482946543e-87,-1.9601484128504e-87,1.9601481563309e-87,-2.4847830768193e-57,2.4847830017251e-57,-2.4847829243294e-57,2.4847830093437e-57,-1.4071863697542e-63,1.9601479352069e-87,1.9601480575975e-87,-1.9601482900769e-87,-1.9601481598607e-87,9.9185727853307e-76,-9.9185737241958e-76,-9.9185740331383e-76,9.9185730546748e-76,-4.0325069357501e-58,4.032506770575e-58,-1.4071864546069e-63,-4.0325066841557e-58,4.0325068654301e-58,7.8243738187134e-106,-7.8243753156e-106,-7.8243762435944e-106,7.8243747154699e-106,-4.0325069049386e-58,4.0325068263758e-58,-4.032506661587e-58,4.032506756249e-58,0,7.824373065891e-106,7.824374058609e-106,-7.8243754427909e-106,-7.824374418835e-106,9.9185724218513e-76,9.9185727216068e-76,-9.9185736088359e-76,-9.9185732694819e-76,0,0,0,1.40718639619e-63,-1.4071864840539e-63,254.08025451769,254.08025451769,254.08025451769,254.08025451769,254.08025451769,254.08025451769,254.08025451769,254.08025451769,254.08025451769,254.08025451769,254.08025451769,254.08025451769,254.08025451769,254.08025451769,254.08025451769,254.08025451769,254.08025451769,254.08025451769,254.08025451769,254.08025451769,254.08025451769,254.08025451769,254.08025451769,254.08025451769,254.08025451769,254.08025451769,254.08025451769,254.08025451769,254.08025451769,254.08025451769,254.08025451769,254.08025451769,254.08025451769,254.08025451769,254.08025451769,254.08025451769,254.08025451769,254.08025451769,254.08025451769,254.08025451769,254.08025451769,254.08025451769,254.08025451769,254.08025451769,254.08025451769,254.08025451769,254.08025451769,254.08025451769,132.27272500041,132.27272500045,0
1e-05,20000000,2.9366025404773e-06,1,2.3827380481953e-61,-2.382738175511e-61,2.3827380817434e-61,2.3827382319095e-61,3.3190481563453e-85,-3.3190485558196e-85,-3.3190487457481e-85,3.3190483336904e-85,-4.2073937565537e-55,4.2073936359371e-55,-4.2073935115677e-55,4.2073936481358e-55,-2.3827380436785e-61,3.319047978031e-85,3.3190481746222e-85,-3.3190485481876e-85,-3.3190483390129e-85,1.6794762390021e-73,-1.6794763898101e-73,-1.6794764394549e-73,1.6794762822796e-73,-6.8280988629421e-56,6.8280985976322e-56,-2.3827381800278e-61,-6.8280984587599e-56,6.8280987499569e-56,1.32487306799e-103,-1.3248733084346e-103,-1.3248734575516e-103,1.3248732120841e-103,-6.8280988133838e-56,6.8280986872006e-56,-6.8280984223996e-56,6.8280985744699e-56,0,1.3248729467989e-103,1.3248731062581e-103,-1.3248733286779e-103,-1.3248731641958e-103,1.6794761804725e-73,1.6794762286194e-73,-1.6794763711866e-73,-1.6794763166723e-73,0,0,0,2.3827380862602e-61,-2.3827382273927e-61,254.08025451769,254.08025451769,254.08025451769,254.08025451769,254.08025451769,254.08025451769,254.08025451769,254.08025451769,254.08025451769,254.08025451769,254.08025451769,254.08025451769,254.08025451769,254.08025451769,254.08025451769,254.08025451769,254.08025451769,254.08025451769,254.08025451769,254.08025451769,254.08025451769,254.08025451769,254.08025451769,254.08025451769,254.08025451769,254.08025451769,254.08025451769,254.08025451769,254.08025451769,254.08025451769,254.08025451769,254.08025451769,254.08025451769,254.08025451769,254.08025451769,254.08025451769,254.08025451769,254.08025451769,254.08025451769,254.08025451769,254.08025451769,254.08025451769,254.08025451769,254.08025451769,254.08025451769,254.08025451769,254.08025451769,254.08025451769,139.24993336656,139.24993336661,0
1.05e-05,20000000,3.0834326674961e-06,1,3.1411696135531e-59,-3.1411697732237e-59,3.1411696557503e-59,3.1411698440258e-59,4.375509609722e-83,-4.3755101105516e-83,-4.3755103487584e-83,4.375509832136e-83,-5.5466178454286e-53,5.5466176942168e-53,-5.5466175382304e-53,5.5466177094619e-53,-3.1411696078843e-59,4.3755093856438e-83,4.3755096321104e-83,-4.3755101006275e-83,-4.3755098383681e-83,2.2140577869657e-71,-2.2140579760359e-71,-2.2140580383014e-71,2.2140578412399e-71,-9.0015000231428e-54,9.0014996905295e-54,-3.1411697788925e-59,-9.0014995163497e-54,9.0014998814525e-54,1.7465835320594e-101,-1.7465838335116e-101,-1.7465840205308e-101,1.7465837127746e-101,-9.0014999609263e-54,9.001499802742e-54,-9.0014994706272e-54,9.001499661301e-54,0,1.7465833797826e-101,1.7465835797e-101,-1.7465838586528e-101,-1.7465836524313e-101,2.2140577134035e-71,2.2140577737631e-71,-2.2140579525682e-71,-2.2140578842173e-71,0,0,0,3.1411696614191e-59,-3.141169838357e-59,254.08025451769,254.08025451769,254.08025451769,254.08025451769,254.08025451769,254.08025451769,254.08025451769,254.08025451769,254.08025451769,254.08025451769,254.08025451769,254.08025451769,254.08025451769,254.08025451769,254.08025451769,254.08025451769,254.08025451769,254.08025451769,254.08025451769,254.08025451769,254.08025451769,254.08025451769,254.08025451769,254.08025451769,254.08025451769,254.08025451769,254.08025451769,254.08025451769,254.08025451769,254.08025451769,254.08025451769,254.08025451769,254.08025451769,254.08025451769,254.08025451769,254.08025451769,254.08025451769,254.08025451769,254.08025451769,254.08025451769,254.08025451769,254.08025451769,254.08025451769,254.08025451769,254.08025451769,254.08025451769,254.08025451769,254.08025451769,146.2286921423,146.22869214236,0
1.1e-05,20000000,3.2302627945148e-06,1,3.3000091955982e-57,-3.3000093555398e-57,3.3000092379907e-57,3.3000094265335e-57,4.5967660903108e-81,-4.5967665918276e-81,-4.5967668304502e-81,4.5967663131023e-81,-5.8270937562514e-51,5.82709360484e-51,-5.8270934485779e-51,5.8270936200576e-51,-3.3000091899157e-57,4.5967658654023e-81,4.5967661122029e-81,-4.5967665815325e-81,-4.5967663189008e-81,2.3260160886073e-69,-2.3260162779359e-69,-2.3260163403114e-69,2.3260161429721e-69,-9.4566790132709e-52,9.4566786802125e-52,-3.3000093612223e-57,-9.4566785057213e-52,9.456678871348e-52,1.8349030591763e-99,-1.8349033610438e-99,-1.8349035483873e-99,1.8349032402005e-99,-9.4566789508845e-52,9.4566787924974e-52,-9.4566784597992e-52,9.4566786507546e-52,0,1.8349029063529e-99,1.8349031065446e-99,-1.83490338598e-99,-1.8349031794689e-99,2.3260160147613e-69,2.3260160752006e-69,-2.3260162543165e-69,-2.3260161858665e-69,0,0,0,3.3000092436733e-57,-3.300009420851e-57,254.08025451769,254.08025451769,254.08025451769,254.08025451769,254.08025451769,254.08025451769,254.08025451769,254.08025451769,254.08025451769,254.08025451769,254.08025451769,254.08025451769,254.08025451769,254.08025451769,254.08025451769,254.08025451769,254.08025451769,254.08025451769,254.08025451769,254.08025451769,254.08025451769,254.08025451769,254.08025451769,254.08025451769,254.08025451769,254.08025451769,254.08025451769,254.08025451769,254.08025451769,254.08025451769,254.08025451769,254.08025451769,254.08025451769,254.08025451769,254.08025451769,254.08025451769,254.08025451769,254.08025451769,254.08025451769,254.08025451769,254.08025451769,254.08025451769,254.08025451769,254.08025451769,254.08025451769,254.08025451769,254.08025451769,254.08025451769,153.20900158646,153.20900158654,0
1.15e-05,20000000,3.3770929215336e-06,1,2.8191344975978e-55,-2.8191346281465e-55,2.8191345322999e-55,2.8191346861512e-55,3.9269290197607e-79,-3.9269294289799e-79,-3.9269296237596e-79,3.9269292016091e-79,-4.9779743063591e-49,4.9779741828194e-49,-4.9779740552651e-49,4.977974195197e-49,-2.8191344929562e-55,3.9269288358203e-79,3.9269290371971e-79,-3.9269294202909e-79,-3.9269292059828e-79,1.9870708867755e-67,-1.9870710412598e-67,-1.987071092176e-67,1.9870709311483e-67,-8.0786592963737e-50,8.0786590246197e-50,-2.8191346327881e-55,-8.0786588821823e-50,8.0786591805389e-50,1.5675224585397e-97,-1.5675227048538e-97,-1.5675228577744e-97,1.5675226062984e-97,-8.0786592454004e-50,8.0786591161741e-50,-8.0786588446005e-50,8.0786590004295e-50,0,1.5675223335681e-97,1.5675224969172e-97,-1.5675227250075e-97,-1.5675225564966e-97,1.9870708263718e-67,1.9870708756855e-67,-1.9870710218907e-67,-1.9870709660337e-67,0,0,0,2.8191345369415e-55,-2.8191346815095e-55,254.08025451769,254.08025451769,254.08025451769,254.08025451769,254.08025451769,254.08025451769,254.08025451769,254.08025451769,254.08025451769,254.08025451769,254.08025451769,254.08025451769,254.08025451769,254.08025451769,254.08025451769,254.08025451769,254.08025451769,254.08025451769,254.08025451769,254.08025451769,254.08025451769,254.08025451769,254.08025451769,254.08025451769,254.08025451769,254.08025451769,254.08025451769,254.08025451769,254.08025451769,254.08025451769,254.08025451769,254.08025451769,254.08025451769,254.08025451769,254.08025451769,254.08025451769,254.08025451769,254.08025451769,254.08025451769,254.08025451769,254.08025451769,254.08025451769,254.08025451769,254.08025451769,254.08025451769,254.08025451769,254.08025451769,254.08025451769,160.19086195795,160.19086195804,0
1.2e-05,20000000,3.5239230485523e-06,1,1.9931567958674e-53,-1.993156884222e-53,1.9931568194214e-53,1.9931569235187e-53,2.7763788058144e-77,-2.7763790826829e-77,-2.7763792145152e-77,2.7763789288885e-77,-3.519478514867e-47,3.5194784312872e-47,-3.519478344953e-47,3.5194784396351e-47,-1.9931567927237e-53,2.7763786810776e-77,2.7763788173223e-77,-2.7763790766077e-77,-2.7763789316049e-77,1.4048793507168e-65,-1.4048794552368e-65,-1.4048794896991e-65,1.4048793807474e-65,-5.7116943698265e-48,5.7116941859703e-48,-1.9931568873658e-53,-5.7116940895605e-48,5.7116942914345e-48,1.1082543422862e-95,-1.1082545089376e-95,-1.1082546124373e-95,1.1082544422898e-95,-5.7116943352926e-48,5.711694247869e-48,-5.7116940640584e-48,5.7116941694999e-48,0,1.1082542575479e-95,1.1082543680662e-95,-1.1082545224416e-95,-1.1082544084273e-95,1.4048793097488e-65,1.4048793431115e-65,-1.4048794420665e-65,-1.404879404272e-65,0,0,0,1.9931568225651e-53,-1.9931569203749e-53,254.08025451769,254.08025451769,254.08025451769,254.08025451769,254.08025451769,254.08025451769,254.08025451769,254.08025451769,254.08025451769,254.08025451769,254.08025451769,254.08025451769,254.08025451769,254.08025451769,254.08025451769,254.08025451769,254.08025451769,254.08025451769,254.08025451769,254.08025451769,254.08025451769,254.08025451769,254.08025451769,254.08025451769,254.08025451769,254.08025451769,254.08025451769,254.08025451769,254.08025451769,254.08025451769,254.08025451769,254.08025451769,254.08025451769,254.08025451769,254.08025451769,254.08025451769,254.08025451769,254.08025451769,254.08025451769,254.08025451769,254.08025451769,254.08025451769,254.08025451769,254.08025451769,254.08025451769,254.08025451769,254.08025451769,254.08025451769,167.17427351571,167.17427351581,0
1.25e-05,20000000,3.6707531755711e-06,1,1.1844131837792e-51,-1.1844132341265e-51,1.1844131972395e-51,1.1844132565413e-51,1.6498349103237e-75,-1.6498350680418e-75,-1.6498351431677e-75,1.6498349804552e-75,-2.0914143596597e-45,2.091414312051e-45,-2.0914142628515e-45,2.0914143167913e-45,-1.1844131819865e-51,1.6498348391047e-75,1.6498349167151e-75,-1.6498350644698e-75,-1.649834981865e-75,8.348352865849e-64,-8.3483534612436e-64,-8.3483536576345e-64,8.3483530369678e-64,-3.394116364437e-46,3.394116259707e-46,-1.1844132359193e-51,-3.3941162047646e-46,3.3941163197693e-46,6.5856888912037e-94,-6.5856898405387e-94,-6.5856904303349e-94,6.5856894610635e-94,-3.3941163447385e-46,3.3941162949421e-46,-3.3941161901947e-46,3.3941162502657e-46,0,6.5856884074413e-94,6.5856890370085e-94,-6.5856899167187e-94,-6.5856892672151e-94,8.3483526319056e-64,8.3483528219463e-64,-8.3483533858469e-64,-8.348353170534e-64,0,0,0,1.1844131990322e-51,-1.1844132547486e-51,254.08025451769,254.08025451769,254.08025451769,254.08025451769,254.08025451769,254.08025451769,254.08025451769,254.08025451769,254.08025451769,254.08025451769,254.08025451769,254.08025451769,254.08025451769,254.08025451769,254.08025451769,254.08025451769,254.08025451769,254.08025451769,254.08025451769,254.08025451769,254.08025451769,254.08025451769,254.08025451769,254.08025451769,254.08025451769,254.08025451769,254.08025451769,254.08025451769,254.08025451769,254.08025451769,254.08025451769,254.08025451769,254.08025451769,254.08025451769,254.08025451769,254.08025451769,254.08025451769,254.08025451769,254.08025451769,254.08025451769,254.08025451769,254.08025451769,254.08025451769,254.08025451769,254.08025451769,254.08025451769,254.08025451769,254.08025451769,174.15923651875,174.15923651886,0
1.3e-05,20000000,3.8175833025899e-06,1,5.9968364934907e-50,-5.9968367383264e-50,5.996836559133e-50,5.9968368474362e-50,8.3533266445622e-74,-8.3533274112913e-74,-8.353327776642e-74,8.3533269856075e-74,-1.0589100240938e-43,1.0589100009506e-43,-1.0589099770235e-43,1.0589100032478e-43,-5.9968364847663e-50,8.3533262975509e-74,8.353326674839e-74,-8.3533273933877e-74,-8.3533269917941e-74,4.2268785774938e-62,-4.2268788669367e-62,-4.2268789624472e-62,4.2268786607055e-62,-1.718484825468e-44,1.7184847745564e-44,-5.9968367470508e-50,-1.7184847478358e-44,1.7184848037476e-44,3.3344191114458e-92,-3.3344195729572e-92,-3.3344198597821e-92,3.3344193885687e-92,-1.718484815879e-44,1.7184847916733e-44,-1.7184847407322e-44,1.7184847699381e-44,0,3.334418875761e-92,3.3344191818182e-92,-3.3344196096301e-92,-3.3344192938708e-92,4.2268784634892e-62,4.2268785558706e-62,-4.2268788301033e-62,-4.2268787254231e-62,0,0,0,5.9968365678574e-50,-5.9968368387118e-50,254.08025451769,254.08025451769,254.08025451769,254.08025451769,254.08025451769,254.08025451769,254.08025451769,254.08025451769,254.08025451769,254.08025451769,254.08025451769,254.08025451769,254.08025451769,254.08025451769,254.08025451769,254.08025451769,254.08025451769,254.08025451769,254.08025451769,254.08025451769,254.08025451769,254.08025451769,254.08025451769,254.08025451769,254.08025451769,254.08025451769,254.08025451769,254.08025451769,254.08025451769,254.08025451769,254.08025451769,254.08025451769,254.08025451769,254.08025451769,254.08025451769,254.08025451769,254.08025451769,254.08025451769,254.08025451769,254.08025451769,254.08025451769,254.08025451769,254.08025451769,254.08025451769,254.08025451769,254.08025451769,254.08025451769,254.08025451769,181.14575122613,181.14575122626,0
1.35e-05,20000000,3.9644134296086e-06,1,2.6184774876647e-48,-2.6184775904954e-48,2.6184775153131e-48,2.6184776363678e-48,3.6474227378969e-72,-3.6474230598208e-72,-3.6474232132754e-72,3.6474228811356e-72,-4.6236579192799e-42,4.6236578221145e-42,-4.6236577216136e-42,4.6236578317291e-42,-2.6184774839977e-48,3.6474225918648e-72,3.6474227502728e-72,-3.647423052074e-72,-3.6474228834502e-72,1.8456375143554e-60,-1.8456376358821e-60,-1.8456376759993e-60,1.8456375493032e-60,-7.5036460046869e-43,7.5036457909336e-43,-2.6184775941624e-48,-7.5036456786968e-43,7.5036459134667e-43,1.4559512175788e-90,-1.4559514113531e-90,-1.4559515318238e-90,1.4559513339717e-90,-7.5036459643716e-43,7.5036458627491e-43,-7.5036456487838e-43,7.5036457714228e-43,0,1.4559511184071e-90,1.4559512469102e-90,-1.4559514265969e-90,-1.4559512940159e-90,1.8456374663721e-60,1.8456375051578e-60,-1.8456376203401e-60,-1.845637576385e-60,0,0,0,2.6184775189801e-48,-2.6184776327008e-48,254.08025451769,254.08025451769,254.08025451769,254.08025451769,254.08025451769,254.08025451769,254.08025451769,254.08025451769,254.08025451769,254.08025451769,254.08025451769,254.08025451769,254.08025451769,254.08025451769,254.08025451769,254.08025451769,254.08025451769,254.08025451769,254.08025451769,254.08025451769,254.08025451769,254.08025451769,254.08025451769,254.08025451769,254.08025451769,254.08025451769,254.08025451769,254.08025451769,254.08025451769,254.08025451769,254.08025451769,254.08025451769,254.08025451769,254.08025451769,254.08025451769,254.08025451769,254.08025451769,254.08025451769,254.08025451769,254.08025451769,254.08025451769,254.08025451769,254.08025451769,254.08025451769,254.08025451769,254.08025451769,254.08025451769,254.08025451769,188.13381789698,188.13381789711,0
1.4e-05,20000000,4.1112435566274e-06,1,9.9669103850263e-47,-9.9669107620359e-47,9.9669104866803e-47,9.9669109303861e-47,1.3883463104311e-70,-1.3883464284212e-70,-1.3883464846852e-70,1.3883463629469e-70,-1.7599381422861e-40,1.7599381066753e-40,-1.7599380698259e-40,1.7599381101881e-40,-9.966910371572e-47,1.3883462567867e-70,1.3883463148447e-70,-1.3883464254985e-70,-1.3883463636923e-70,7.0251907063987e-59,-7.0251911518105e-59,-7.0251912989033e-59,7.025190834525e-59,-2.8561699501002e-41,2.856169871759e-41,-9.9669107754901e-47,-2.8561698306057e-41,2.856169916658e-41,5.5418980703411e-89,-5.541898780558e-89,-5.5418992222581e-89,5.5418984970792e-89,-2.8561699353043e-41,2.8561698980615e-41,-2.8561698196104e-41,2.8561698645642e-41,0,5.5418977060768e-89,5.5418981770611e-89,-5.5418988358706e-89,-5.5418983499244e-89,7.025190530108e-59,7.0251906722565e-59,-7.0251910945682e-59,-7.0251909334533e-59,0,0,0,9.9669105001346e-47,-9.9669109169318e-47,254.08025451769,254.08025451769,254.08025451769,254.08025451769,254.08025451769,254.08025451769,254.08025451769,254.08025451769,254.08025451769,254.08025451769,254.08025451769,254.08025451769,254.08025451769,254.08025451769,254.08025451769,254.08025451769,254.08025451769,254.08025451769,254.08025451769,254.08025451769,254.08025451769,254.08025451769,254.08025451769,254.08025451769,254.08025451769,254.08025451769,254.08025451769,254.08025451769,254.08025451769,254.08025451769,254.08025451769,254.08025451769,254.08025451769,254.08025451769,254.08025451769,254.08025451769,254.08025451769,254.08025451769,254.08025451769,254.08025451769,254.08025451769,254.08025451769,254.08025451769,254.08025451769,254.08025451769,254.08025451769,254.08025451769,254.08025451769,195.12343679044,195.12343679059,0
1.45e-05,20000000,4.2580736836461e-06,1,3.3391980081508e-45,-3.3391981299668e-45,3.3391980410895e-45,3.339198184418e-45,4.6513543899165e-69,-4.6513547710367e-69,-4.6513549528411e-69,4.6513545596008e-69,-5.8962925346789e-39,5.8962924196586e-39,-5.8962923005854e-39,5.8962924309697e-39,-3.3391980038003e-45,4.651354216244e-69,4.6513544037741e-69,-4.6513547613229e-69,-4.6513545616727e-69,2.3536383804376e-57,-2.3536385243094e-57,-2.3536385718402e-57,2.3536384218355e-57,-9.5689803797122e-40,9.5689801266708e-40,-3.3391981343173e-45,-9.5689799936875e-40,9.5689802716627e-40,1.8566932292273e-87,-1.856693458636e-87,-1.8566936013596e-87,1.856693367113e-87,-9.5689803318552e-40,9.568980211568e-40,-9.5689799580681e-40,9.5689801032892e-40,0,1.8566931113107e-87,1.8566932634434e-87,-1.8566934763194e-87,-1.8566933193487e-87,2.3536383233558e-57,2.3536383692688e-57,-2.3536385057282e-57,-2.3536384536824e-57,0,0,0,3.33919804544e-45,-3.3391981800675e-45,254.08025451769,254.08025451769,254.08025451769,254.08025451769,254.08025451769,254.08025451769,254.08025451769,254.08025451769,254.08025451769,254.08025451769,254.08025451769,254.08025451769,254.08025451769,254.08025451769,254.08025451769,254.08025451769,254.08025451769,254.08025451769,254.08025451769,254.08025451769,254.08025451769,254.08025451769,254.08025451769,254.08025451769,254.08025451769,254.08025451769,254.08025451769,254.08025451769,254.08025451769,254.08025451769,254.08025451769,254.08025451769,254.08025451769,254.08025451769,254.08025451769,254.08025451769,254.08025451769,254.08025451769,254.08025451769,254.08025451769,254.08025451769,254.08025451769,254.08025451769,254.08025451769,254.08025451769,254.08025451769,254.08025451769,254.08025451769,202.11460816577,202.11460816592,0
1.5e-05,20000000,4.4049038106649e-06,1,9.9323677511713e-44,-9.9323681010371e-44,9.9323678460364e-44,9.9323682575796e-44,1.3835346767685e-67,-1.3835347861954e-67,-1.3835348384137e-67,1.3835347255033e-67,-1.7538386640062e-37,1.7538386309835e-37,-1.7538385967822e-37,1.7538386342209e-37,-9.9323677386669e-44,1.3835346267925e-67,1.383534680635e-67,-1.3835347833299e-67,-1.3835347260037e-67,7.0008432843415e-56,-7.0008436974225e-56,-7.0008438339447e-56,7.0008434032364e-56,-2.8462712229671e-38,2.8462711503167e-38,-9.9323681135414e-44,-2.8462711121191e-38,2.8462711919362e-38,5.5226913579143e-86,-5.5226920165938e-86,-5.5226924265237e-86,5.5226917539386e-86,-2.8462712092083e-38,2.8462711746748e-38,-2.846271101863e-38,2.8462711435632e-38,0,5.5226910186334e-86,5.5226914554354e-86,-5.5226920668539e-86,-5.5226916161462e-86,7.0008431200595e-56,7.0008432518773e-56,-7.0008436438166e-56,-7.0008434943714e-56,0,0,0,9.9323678585408e-44,-9.9323682450752e-44,254.08025451769,254.08025451769,254.08025451769,254.08025451769,254.08025451769,254.08025451769,254.08025451769,254.08025451769,254.08025451769,254.08025451769,254.08025451769,254.08025451769,254.08025451769,254.08025451769,254.08025451769,254.08025451769,254.08025451769,254.08025451769,254.08025451769,254.08025451769,254.08025451769,254.08025451769,254.08025451769,254.08025451769,254.08025451769,254.08025451769,254.08025451769,254.08025451769,254.08025451769,254.08025451769,254.08025451769,254.08025451769,254.08025451769,254.08025451769,254.08025451769,254.08025451769,254.08025451769,254.08025451769,254.08025451769,254.08025451769,254.08025451769,254.08025451769,254.08025451769,254.08025451769,254.08025451769,254.08025451769,254.08025451769,254.08025451769,209.10733228222,209.10733228239,0
1.55e-05,20000000,4.5517339376836e-06,1,2.6435139827458e-42,-2.6435140727576e-42,2.6435140072207e-42,2.6435141130729e-42,3.6822974715427e-66,-3.6822977529837e-66,-3.6822978873353e-66,3.682297596925e-66,-4.6678668585342e-36,4.6678667736056e-36,-4.6678666856078e-36,4.6678667819061e-36,-2.6435139795264e-42,3.6822973427159e-66,3.6822974811941e-66,-3.6822977454125e-66,-3.6822975979651e-66,1.8632845237706e-54,-1.8632846300126e-54,-1.8632846651389e-54,1.8632845543584e-54,-7.5753918440253e-37,7.575391657178e-37,-2.643514075977e-42,-7.5753915588961e-37,7.5753917641951e-37,1.4698722614453e-84,-1.4698724308557e-84,-1.4698725363245e-84,1.4698723633338e-84,-7.5753918085907e-37,7.57539171978e-37,-7.575391532442e-37,7.5753916397044e-37,0,1.4698721739959e-84,1.4698722863395e-84,-1.4698724436475e-84,-1.4698723277237e-84,1.8632844814165e-54,1.8632845153176e-54,-1.8632846161581e-54,-1.8632845777184e-54,0,0,0,2.6435140104402e-42,-2.6435141098534e-42,254.08025451769,254.08025451769,254.08025451769,254.08025451769,254.08025451769,254.08025451769,254.08025451769,254.08025451769,254.08025451769,254.08025451769,254.08025451769,254.08025451769,254.08025451769,254.08025451769,254.08025451769,254.08025451769,254.08025451769,254.08025451769,254.08025451769,254.08025451769,254.08025451769,254.08025451769,254.08025451769,254.08025451769,254.08025451769,254.08025451769,254.08025451769,254.08025451769,254.08025451769,254.08025451769,254.08025451769,254.08025451769,254.08025451769,254.08025451769,254.08025451769,254.08025451769,254.08025451769,254.08025451769,254.08025451769,254.08025451769,254.08025451769,254.08025451769,254.08025451769,254.08025451769,254.08025451769,254.08025451769,254.08025451769,254.08025451769,216.10160939914,216.10160939932,0
1.6e-05,20000000,4.6985640647024e-06,1,6.3400829893281e-41,-6.3400831982251e-41,6.3400830462874e-41,6.340083291883e-41,8.8314537866463e-65,-8.8314544396072e-65,-8.8314547514227e-65,8.8314540776306e-65,-1.1195198292992e-34,1.1195198095963e-34,-1.1195197891725e-34,1.1195198115161e-34,-6.3400829818507e-41,8.8314534870859e-65,8.8314538083585e-65,-8.8314544215739e-65,-8.83145407947e-65,4.4688163526765e-53,-4.4688165991632e-53,-4.4688166806895e-53,4.468816423662e-53,-1.8168473181644e-35,1.8168472748162e-35,-6.3400832057024e-41,-1.816847252005e-35,1.8168472996387e-35,3.525274386516e-83,-3.525274779561e-83,-3.5252750243398e-83,3.5252746229796e-83,-1.8168473099323e-35,1.8168472893295e-35,-1.8168472458499e-35,1.8168472707381e-35,0,3.5252741831921e-83,3.5252744438362e-83,-3.5252748089255e-83,-3.5252745399662e-83,4.4688162541769e-53,4.4688163328255e-53,-4.4688165668636e-53,-4.4688164776742e-53,0,0,0,6.3400830537647e-41,-6.3400832844057e-41,254.08025451769,254.08025451769,254.08025451769,254.08025451769,254.08025451769,254.08025451769,254.08025451769,254.08025451769,254.08025451769,254.08025451769,254.08025451769,254.08025451769,254.08025451769,254.08025451769,254.08025451769,254.08025451769,254.08025451769,254.08025451769,254.08025451769,254.08025451769,254.08025451769,254.08025451769,254.08025451769,254.08025451769,254.08025451769,254.08025451769,254.08025451769,254.08025451769,254.08025451769,254.08025451769,254.08025451769,254.08025451769,254.08025451769,254.08025451769,254.08025451769,254.08025451769,254.08025451769,254.08025451769,254.08025451769,254.08025451769,254.08025451769,254.08025451769,254.08025451769,254.08025451769,254.08025451769,254.08025451769,254.08025451769,254.08025451769,223.09743977591,223.0974397761,0
1.65e-05,20000000,4.8453941917211e-06,1,1.3790371109501e-39,-1.3790371549607e-39,1.3790371229835e-39,1.3790371747124e-39,1.9209373981067e-63,-1.9209375356309e-63,-1.9209376013276e-63,1.9209374594115e-63,-2.4350775719032e-33,2.4350775304079e-33,-2.4350774873757e-33,2.4350775344386e-33,-1.3790371093736e-39,1.9209373348735e-63,1.9209374025376e-63,-1.9209375317351e-63,-1.920937459679e-63,9.7201623437967e-52,-9.7201628629345e-52,-9.7201630347072e-52,9.7201624933451e-52,-3.9518408159855e-34,3.9518407246904e-34,-1.3790371565372e-39,-3.951840676627e-34,3.9518407769577e-34,7.6678557987188e-82,-7.6678566265397e-82,-7.667857142261e-82,7.6678562969081e-82,-3.9518407986242e-34,3.9518407552355e-34,-3.9518406636266e-34,3.9518407160508e-34,0,7.6678553695745e-82,7.6678559185331e-82,-7.6678566877319e-82,-7.6678561212414e-82,9.7201621358484e-52,9.7201623014862e-52,-9.72016279458e-52,-9.7201626067179e-52,0,0,0,1.37903712456e-39,-1.3790371731359e-39,254.08025451769,254.08025451769,254.08025451769,254.08025451769,254.08025451769,254.08025451769,254.08025451769,254.08025451769,254.08025451769,254.08025451769,254.08025451769,254.08025451769,254.08025451769,254.08025451769,254.08025451769,254.08025451769,254.08025451769,254.08025451769,254.08025451769,254.08025451769,254.08025451769,254.08025451769,254.08025451769,254.08025451769,254.08025451769,254.08025451769,254.08025451769,254.08025451769,254.08025451769,254.08025451769,254.08025451769,254.08025451769,254.08025451769,254.08025451769,254.08025451769,254.08025451769,254.08025451769,254.08025451769,254.08025451769,254.08025451769,254.08025451769,254.08025451769,254.08025451769,254.08025451769,254.08025451769,254.08025451769,254.08025451769,254.08025451769,230.09482367198,230.09482367218,0
1.7e-05,20000000,4.9922243187399e-06,1,2.7362671583034e-38,-2.736267242964e-38,2.7362671815153e-38,2.7362672809979e-38,3.8114985276657e-62,-3.8114987921326e-62,-3.8114989185161e-62,3.811498645594e-62,-4.8316486389152e-32,4.8316485591216e-32,-4.831648476337e-32,4.8316485668488e-32,-2.7362671552684e-38,3.8114984057922e-62,3.8114985359119e-62,-3.8114987844513e-62,-3.8114986458765e-62,1.9286617296861e-50,-1.9286618295187e-50,-1.9286618625641e-50,1.928661758453e-50,-7.8411901611846e-33,7.8411899856248e-33,-2.7362672459989e-38,-7.8411898931594e-33,7.8411900861134e-33,1.5214457866944e-80,-1.5214459458901e-80,-1.5214460451002e-80,1.5214458825295e-80,-7.8411901277529e-33,7.8411900443216e-33,-7.841189868088e-33,7.8411899689135e-33,0,1.5214457039914e-80,1.5214458095593e-80,-1.5214459575307e-80,-1.5214458485877e-80,1.9286616896013e-50,1.9286617214528e-50,-1.9286618163104e-50,-1.9286617801806e-50,0,0,0,2.7362671845503e-38,-2.7362672779629e-38,254.08025451769,254.08025451769,254.08025451769,254.08025451769,254.08025451769,254.08025451769,254.08025451769,254.08025451769,254.08025451769,254.08025451769,254.08025451769,254.08025451769,254.08025451769,254.08025451769,254.08025451769,254.08025451769,254.08025451769,254.08025451769,254.08025451769,254.08025451769,254.08025451769,254.08025451769,254.08025451769,254.08025451769,254.08025451769,254.08025451769,254.08025451769,254.08025451769,254.08025451769,254.08025451769,254.08025451769,254.08025451769,254.08025451769,254.08025451769,254.08025451769,254.08025451769,254.08025451769,254.08025451769,254.08025451769,254.08025451769,254.08025451769,254.08025451769,254.08025451769,254.08025451769,254.08025451769,254.08025451769,254.08025451769,254.08025451769,237.09376134684,237.09376134705,0
1.75e-05,20000000,5.1390544457586e-06,1,4.9791593976034e-37,-4.9791595470877e-37,4.9791594387011e-37,4.9791596143121e-37,6.9357477260609e-61,-6.9357481928865e-61,-6.935748416052e-61,6.9357479342858e-61,-8.7921051958938e-31,8.7921050550531e-31,-8.7921049088703e-31,8.7921050686504e-31,-4.9791593922406e-37,6.9357475104556e-61,6.9357477401333e-61,-6.9357481789939e-61,-6.9357479343757e-61,3.5095674586538e-49,-3.5095676348731e-49,-3.5095676932253e-49,3.5095675094459e-49,-1.4268539355007e-31,1.4268539045127e-31,-4.9791595524506e-37,-1.4268538881847e-31,1.4268539222463e-31,2.7685604719686e-79,-2.7685607529756e-79,-2.7685609281568e-79,2.7685606411859e-79,-1.4268539295916e-31,1.426853914866e-31,-1.4268538837467e-31,1.4268539015459e-31,0,2.7685603256747e-79,2.7685605120186e-79,-2.7685607732994e-79,-2.7685605809916e-79,3.5095673877305e-49,3.5095674439503e-49,-3.5095676114467e-49,-3.5095675476668e-49,0,0,0,4.979159444064e-37,-4.9791596089492e-37,254.08025451769,254.08025451769,254.08025451769,254.08025451769,254.08025451769,254.08025451769,254.08025451769,254.08025451769,254.08025451769,254.08025451769,254.08025451769,254.08025451769,254.08025451769,254.08025451769,254.08025451769,254.08025451769,254.08025451769,254.08025451769,254.08025451769,254.08025451769,254.08025451769,254.08025451769,254.08025451769,254.08025451769,254.08025451769,254.08025451769,254.08025451769,254.08025451769,254.08025451769,254.08025451769,254.08025451769,254.08025451769,254.08025451769,254.08025451769,254.08025451769,254.08025451769,254.08025451769,254.08025451769,254.08025451769,254.08025451769,254.08025451769,254.08025451769,254.08025451769,254.08025451769,254.08025451769,254.08025451769,254.08025451769,254.08025451769,244.09425306005,244.09425306027,0
1.8e-05,20000000,5.2858845727774e-06,1,8.3499994133193e-36,-8.3499996567618e-36,8.3499994804311e-36,8.3499997663504e-36,1.1631178044791e-59,-1.1631178804811e-59,-1.1631179168266e-59,1.1631178383895e-59,-1.4744270526167e-29,1.4744270296882e-29,-1.4744270058799e-29,1.4744270318951e-29,-8.3499994045789e-36,1.1631177692996e-59,1.1631178066919e-59,-1.1631178781653e-59,-1.163117838338e-59,5.8855087541817e-48,-5.8855090410758e-48,-5.8855091361123e-48,5.8855088368967e-48,-2.392819462051e-30,2.3928194116024e-30,-8.3499996655022e-36,-2.3928193850088e-30,2.3928194404667e-30,4.6428476164423e-78,-4.6428480739414e-78,-4.6428483592438e-78,4.6428478920248e-78,-2.3928194524178e-30,2.3928194284459e-30,-2.3928193777633e-30,2.3928194067446e-30,0,4.6428473777649e-78,4.6428476811443e-78,-4.6428481066678e-78,-4.6428477935685e-78,5.8855086384434e-48,5.8855087299676e-48,-5.8855090027555e-48,-5.8855088989098e-48,0,0,0,8.3499994891715e-36,-8.3499997576099e-36,254.08025451769,254.08025451769,254.08025451769,254.08025451769,254.08025451769,254.08025451769,254.08025451769,254.08025451769,254.08025451769,254.08025451769,254.08025451769,254.08025451769,254.08025451769,254.08025451769,254.08025451769,254.08025451769,254.08025451769,254.08025451769,254.08025451769,254.08025451769,254.08025451769,254.08025451769,254.08025451769,254.08025451769,254.08025451769,254.08025451769,254.08025451769,254.08025451769,254.08025451769,254.08025451769,254.08025451769,254.08025451769,254.08025451769,254.08025451769,254.08025451769,254.08025451769,254.08025451769,254.08025451769,254.08025451769,254.08025451769,254.08025451769,254.08025451769,254.08025451769,254.08025451769,254.08025451769,254.08025451769,254.08025451769,254.08025451769,251.0962990712,251.09629907144,0
1.85e-05,20000000,5.4327146997961e-06,1,1.2962641839601e-34,-1.2962642206891e-34,1.2962641941132e-34,1.29626423724e-34,1.8056383930323e-58,-1.8056385076648e-58,-1.8056385625032e-58,1.8056384441941e-58,-2.288918697694e-28,2.2889186631133e-28,-2.2889186271902e-28,2.2889186664315e-28,-1.2962641826404e-34,1.8056383398537e-58,1.8056383962508e-58,-1.8056385040893e-58,-1.8056384440156e-58,9.1367362144086e-47,-9.1367366471234e-47,-9.1367367905186e-47,9.1367363391999e-47,-3.7146423737108e-29,3.7146422976229e-29,-1.2962642220088e-34,-3.7146422574964e-29,3.7146423411479e-29,7.2076137792095e-77,-7.2076144692509e-77,-7.2076148997125e-77,7.2076141949952e-77,-3.7146423591617e-29,3.7146423230087e-29,-3.7146422465374e-29,3.714642290254e-29,0,7.207613418453e-77,7.2076138760345e-77,-7.207614518058e-77,-7.2076140458004e-77,9.1367360394307e-47,9.1367361774676e-47,-9.1367365890493e-47,-9.1367364324085e-47,0,0,0,1.2962641954329e-34,-1.2962642359203e-34,254.08025451769,254.08025451769,254.08025451769,254.08025451769,254.08025451769,254.08025451769,254.08025451769,254.08025451769,254.08025451769,254.08025451769,254.08025451769,254.08025451769,254.08025451769,254.08025451769,254.08025451769,254.08025451769,254.08025451769,254.08025451769,254.08025451769,254.08025451769,254.08025451769,254.08025451769,254.08025451769,254.08025451769,254.08025451769,254.08025451769,254.08025451769,254.08025451769,254.08025451769,254.08025451769,254.08025451769,254.08025451769,254.08025451769,254.08025451769,254.08025451769,254.08025451769,254.08025451769,254.08025451769,254.08025451769,254.08025451769,254.08025451769,254.08025451769,254.08025451769,254.08025451769,254.08025451769,254.08025451769,254.08025451769,254.08025451769,258.09989963998,258.09989964022,0
1.9e-05,20000000,5.5795448268149e-06,1,1.8705335237514e-33,-1.8705335752983e-33,1.8705335380393e-33,1.8705335985503e-33,2.6055700596793e-57,-2.6055702205115e-57,-2.6055702974779e-57,2.6055701314818e-57,-3.302952597291e-27,3.302952548776e-27,-3.3029524983563e-27,3.3029525534173e-27,-1.8705335218979e-33,2.6055699849037e-57,2.6055700640288e-57,-2.6055702153797e-57,-2.6055701310907e-57,1.3184481681591e-45,-1.3184482288697e-45,-1.3184482489958e-45,1.3184481856723e-45,-5.3602985933845e-28,5.3602984866351e-28,-1.8705335771519e-33,-5.3602984303145e-28,5.3602985476871e-28,1.0400721843453e-75,-1.0400722811604e-75,-1.0400723415755e-75,1.0400722426991e-75,-5.3602985729444e-28,5.3602985222256e-28,-5.3602984148959e-28,5.360298476238e-28,0,1.0400721336237e-75,1.0400721978235e-75,-1.0400722879308e-75,-1.0400722216697e-75,1.3184481435518e-45,1.3184481629176e-45,-1.3184482206832e-45,-1.3184481987044e-45,0,0,0,1.8705335398929e-33,-1.8705335966967e-33,254.08025451769,254.08025451769,254.08025451769,254.08025451769,254.08025451769,254.08025451769,254.08025451769,254.08025451769,254.08025451769,254.08025451769,254.08025451769,254.08025451769,254.08025451769,254.08025451769,254.08025451769,254.08025451769,254.08025451769,254.08025451769,254.08025451769,254.08025451769,254.08025451769,254.08025451769,254.08025451769,254.08025451769,254.08025451769,254.08025451769,254.08025451769,254.08025451769,254.08025451769,254.08025451769,254.08025451769,254.08025451769,254.08025451769,254.08025451769,254.08025451769,254.08025451769,254.08025451769,254.08025451769,254.08025451769,254.08025451769,254.08025451769,254.08025451769,254.08025451769,254.08025451769,254.08025451769,254.08025451769,254.08025451769,254.08025451769,265.10505502608,265.10505502633,0
1.95e-05,20000000,5.7263749538336e-06,1,2.5185537823361e-32,-2.5185538498837e-32,2.5185538011093e-32,2.5185538803839e-32,3.5082334787749e-56,-3.5082336894691e-56,-3.5082337903318e-56,3.5082335728657e-56,-4.4472144678496e-26,4.4472144042971e-26,-4.4472143382216e-26,4.4472144103586e-26,-2.5185537799053e-32,3.508233380603e-56,3.508233484257e-56,-3.5082336825966e-56,-3.5082335721705e-56,1.7752061531041e-44,-1.775206232636e-44,-1.7752062590115e-44,1.7752061760529e-44,-7.2172992960523e-27,7.2172991562129e-27,-2.5185538523145e-32,-7.2172990824026e-27,7.2172992361735e-27,1.4003906922116e-74,-1.4003908190424e-74,-1.4003908982141e-74,1.4003907686801e-74,-7.2172992692399e-27,7.2172992028031e-27,-7.2172990621481e-27,7.2172991425165e-27,0,1.4003906256265e-74,1.4003907097299e-74,-1.4003908278116e-74,-1.4003907410051e-74,1.7752061207932e-44,1.7752061461616e-44,-1.7752062218615e-44,-1.7752061930664e-44,0,0,0,2.5185538035401e-32,-2.5185538779531e-32,254.08025451769,254.08025451769,254.08025451769,254.08025451769,254.08025451769,254.08025451769,254.08025451769,254.08025451769,254.08025451769,254.08025451769,254.08025451769,254.08025451769,254.08025451769,254.08025451769,254.08025451769,254.08025451769,254.08025451769,254.08025451769,254.08025451769,254.08025451769,254.08025451769,254.08025451769,254.08025451769,254.08025451769,254.08025451769,254.08025451769,254.08025451769,254.08025451769,254.08025451769,254.08025451769,254.08025451769,254.08025451769,254.08025451769,254.08025451769,254.08025451769,254.08025451769,254.08025451769,254.08025451769,254.08025451769,254.08025451769,254.08025451769,254.08025451769,254.08025451769,254.08025451769,254.08025451769,254.08025451769,254.08025451769,254.08025451769,272.11176548928,272.11176548954,0
2e-05,20000000,5.8732050808524e-06,1,3.175223680689e-31,-3.1752237636243e-31,3.1752237038011e-31,3.1752238011113e-31,4.422945462173e-55,-4.4229457207889e-55,-4.4229458446353e-55,4.4229455776982e-55,-5.6067497063553e-25,5.6067496283523e-25,-5.6067495472182e-25,5.6067496357696e-25,-3.1752236777021e-31,4.4229453414062e-55,4.4229454686339e-55,-4.4229457121661e-55,-4.4229455766173e-55,2.2380608487815e-43,-2.2380609464021e-43,-2.2380609787886e-43,2.2380608769574e-43,-9.0990868552604e-26,9.099086683621e-26,-3.1752237666112e-31,-9.0990865929874e-26,9.0990867817453e-26,1.7655186572143e-73,-1.7655188128933e-73,-1.7655189101047e-73,1.7655187511041e-73,-9.0990868223052e-26,9.0990867407652e-26,-9.0990865680571e-26,9.0990866667157e-26,0,1.7655185753126e-73,1.765518678545e-73,-1.7655188235316e-73,-1.7655187169777e-73,2.2380608090289e-43,2.2380608401655e-43,-2.2380609331144e-43,-2.2380608977672e-43,0,0,0,3.175223706788e-31,-3.1752237981245e-31,254.08025451769,254.08025451769,254.08025451769,254.08025451769,254.08025451769,254.08025451769,254.08025451769,254.08025451769,254.08025451769,254.08025451769,254.08025451769,254.08025451769,254.08025451769,254.08025451769,254.08025451769,254.08025451769,254.08025451769,254.08025451769,254.08025451769,254.08025451769,254.08025451769,254.08025451769,254.08025451769,254.08025451769,254.08025451769,254.08025451769,254.08025451769,254.08025451769,254.08025451769,254.08025451769,254.08025451769,254.08025451769,254.08025451769,254.08025451769,254.08025451769,254.08025451769,254.08025451769,254.08025451769,254.08025451769,254.08025451769,254.08025451769,254.08025451769,254.08025451769,254.08025451769,254.08025451769,254.08025451769,254.08025451769,254.08025451769,279.12003128941,279.12003128968,0
2.05e-05,20000000,6.0200352078712e-06,1,3.7604992140183e-30,-3.7604993097351e-30,3.7604992407631e-30,3.7604993530431e-30,5.2382082687424e-54,-5.2382085671279e-54,-5.2382087100681e-54,5.2382084020717e-54,-6.6402181286692e-24,6.6402180386759e-24,-6.6402179450309e-24,6.6402180472076e-24,-3.7604992105684e-30,5.2382081291021e-54,5.2382082758921e-54,-5.238208556967e-54,-5.2382084005661e-54,2.6505931265426e-42,-2.6505932391745e-42,-2.650593276555e-42,2.6505931590598e-42,-1.0776282989674e-24,1.0776282791647e-24,-3.7604993131849e-30,-1.0776282687035e-24,1.0776282904834e-24,2.0909492356513e-72,-2.0909494152713e-72,-2.0909495274688e-72,2.0909493440123e-72,-1.07762829516e-24,1.077628285753e-24,-1.0776282658193e-24,1.0776282772035e-24,0,2.0909491409592e-72,2.0909492600665e-72,-2.0909494274036e-72,-2.0909493044598e-72,2.6505930805714e-42,2.6505931164942e-42,-2.6505932237725e-42,-2.6505931829864e-42,0,0,0,3.760499244213e-30,-3.7604993495932e-30,254.08025451769,254.08025451769,254.08025451769,254.08025451769,254.08025451769,254.08025451769,254.08025451769,254.08025451769,254.08025451769,254.08025451769,254.08025451769,254.08025451769,254.08025451769,254.08025451769,254.08025451769,254.08025451769,254.08025451769,254.08025451769,254.08025451769,254.08025451769,254.08025451769,254.08025451769,254.08025451769,254.08025451769,254.08025451769,254.08025451769,254.08025451769,254.08025451769,254.08025451769,254.08025451769,254.08025451769,254.08025451769,254.08025451769,254.08025451769,254.08025451769,254.08025451769,254.08025451769,254.08025451769,254.08025451769,254.08025451769,254.08025451769,254.08025451769,254.08025451769,254.08025451769,254.08025451769,254.08025451769,254.08025451769,254.08025451769,286.12985268634,286.12985268662,0
2.1e-05,20000000,6.1668653348899e-06,1,4.1963671745236e-29,-4.1963672786717e-29,4.1963672037021e-29,4.196367325843e-29,5.8453529671828e-53,-5.845353291758e-53,-5.8453534472975e-53,5.8453531122565e-53,-7.409865493852e-23,7.409865395965e-23,-7.4098652940635e-23,7.4098654052173e-23,-4.1963671707669e-29,5.8453528149537e-53,5.8453529746249e-53,-5.8453532804709e-53,-5.845353110334e-53,2.957815267827e-41,-2.9578153903441e-41,-2.9578154310204e-41,2.9578153032075e-41,-1.2025328976625e-23,1.2025328761224e-23,-4.1963672824284e-29,-1.2025328647387e-23,1.2025328884317e-23,2.3333047671265e-71,-2.3333049625132e-71,-2.3333050845986e-71,2.3333048850342e-71,-1.2025328935154e-23,1.2025328832837e-23,-1.2025328615926e-23,1.2025328739774e-23,0,2.3333046639081e-71,2.3333047934696e-71,-2.3333049755532e-71,-2.3333048418141e-71,2.9578152177049e-41,2.9578152567787e-41,-2.9578153735119e-41,-2.9578153291423e-41,0,0,0,4.1963672074587e-29,-4.1963673220864e-29,254.08025451769,254.08025451769,254.08025451769,254.08025451769,254.08025451769,254.08025451769,254.08025451769,254.08025451769,254.08025451769,254.08025451769,254.08025451769,254.08025451769,254.08025451769,254.08025451769,254.08025451769,254.08025451769,254.08025451769,254.08025451769,254.08025451769,254.08025451769,254.08025451769,254.08025451769,254.08025451769,254.08025451769,254.08025451769,254.08025451769,254.08025451769,254.08025451769,254.08025451769,254.08025451769,254.08025451769,254.08025451769,254.08025451769,254.08025451769,254.08025451769,254.08025451769,254.08025451769,254.08025451769,254.08025451769,254.08025451769,254.08025451769,254.08025451769,254.08025451769,254.08025451769,254.08025451769,254.08025451769,254.08025451769,254.08025451769,293.14122994001,293.1412299403,0
2.15e-05,20000000,6.3136954619087e-06,1,4.4246057902874e-28,-4.4246058974229e-28,4.4246058203833e-28,4.4246059459977e-28,6.163279216643e-52,-6.1632795504323e-52,-6.1632797104415e-52,6.163279365878e-52,-7.8128849030647e-22,7.8128848024044e-22,-7.812884697572e-22,7.8128848118903e-22,-4.42460578642e-28,6.163279059749e-52,6.1632792239501e-52,-6.1632795385814e-52,-6.1632793636061e-52,3.1186895753051e-40,-3.1186897012995e-40,-3.1186897431457e-40,3.1186896116994e-40,-1.267938146651e-22,1.2679381245002e-22,-4.4246059012903e-28,-1.2679381127888e-22,1.267938137156e-22,2.460212217224e-70,-2.4602124181585e-70,-2.4602125437507e-70,2.4602123385154e-70,-1.2679381423804e-22,1.2679381318592e-22,-1.2679381095446e-22,1.2679381222823e-22,0,2.460212110853e-70,2.4602122440926e-70,-2.4602124314057e-70,-2.4602122938654e-70,3.1186895236405e-40,3.1186895638213e-40,-3.1186896839081e-40,-3.1186896382754e-40,0,0,0,4.4246058242507e-28,-4.4246059421303e-28,254.08025451769,254.08025451769,254.08025451769,254.08025451769,254.08025451769,254.08025451769,254.08025451769,254.08025451769,254.08025451769,254.08025451769,254.08025451769,254.08025451769,254.08025451769,254.08025451769,254.08025451769,254.08025451769,254.08025451769,254.08025451769,254.08025451769,254.08025451769,254.08025451769,254.08025451769,254.08025451769,254.08025451769,254.08025451769,254.08025451769,254.08025451769,254.08025451769,254.08025451769,254.08025451769,254.08025451769,254.08025451769,254.08025451769,254.08025451769,254.08025451769,254.08025451769,254.08025451769,254.08025451769,254.08025451769,254.08025451769,254.08025451769,254.08025451769,254.08025451769,254.08025451769,254.08025451769,254.08025451769,254.08025451769,254.08025451769,300.15416331041,300.15416331071,0
2.2e-05,20000000,6.4605255889274e-06,1,4.4195823541663e-27,-4.4195824586274e-27,4.4195823835884e-27,4.4195825060383e-27,6.1562817950399e-51,-6.1562821204044e-51,-6.1562822764277e-51,6.1562819405497e-51,-7.8040146095246e-21,7.8040145114102e-21,-7.8040144091869e-21,7.8040145206287e-21,-4.4195823503924e-27,6.1562816417744e-51,6.1562818018283e-51,-6.1562821086181e-51,-6.1562819380507e-51,3.1151487994947e-39,-3.1151489223083e-39,-3.1151489631131e-39,3.1151488349795e-39,-1.2664986036305e-21,1.2664985820396e-21,-4.4195824624012e-27,-1.2664985706194e-21,1.2664985943731e-21,2.4574190392816e-69,-2.4574192351457e-69,-2.4574193576078e-69,2.457419157547e-69,-1.2664985994622e-21,1.2664985892075e-21,-1.2664985674485e-21,1.266498579866e-21,0,2.4574189353808e-69,2.4574190652574e-69,-2.4574192479013e-69,-2.457419113828e-69,3.1151487490185e-39,3.1151487881831e-39,-3.1151489052774e-39,-3.1151488607929e-39,0,0,0,4.4195823873622e-27,-4.4195825022645e-27,254.08025451769,254.08025451769,254.08025451769,254.08025451769,254.08025451769,254.08025451769,254.08025451769,254.08025451769,254.08025451769,254.08025451769,254.08025451769,254.08025451769,254.08025451769,254.08025451769,254.08025451769,254.08025451769,254.08025451769,254.08025451769,254.08025451769,254.08025451769,254.08025451769,254.08025451769,254.08025451769,254.08025451769,254.08025451769,254.08025451769,254.08025451769,254.08025451769,254.08025451769,254.08025451769,254.08025451769,254.08025451769,254.08025451769,254.08025451769,254.08025451769,254.08025451769,254.08025451769,254.08025451769,254.08025451769,254.08025451769,254.08025451769,254.08025451769,254.08025451769,254.08025451769,254.08025451769,254.08025451769,254.08025451769,254.08025451769,307.16865305758,307.1686530579,0
2.25e-05,20000000,6.6073557159462e-06,1,4.1922723589856e-26,-4.1922724557603e-26,4.1922723863142e-26,4.1922724997276e-26,5.8396490758328e-50,-5.839649377171e-50,-5.8396495217214e-50,5.8396492106357e-50,-7.4026349309059e-20,7.4026348400417e-20,-7.4026347453328e-20,7.4026348485535e-20,-4.1922723554868e-26,5.8396489335797e-50,5.8396490818119e-50,-5.8396493660389e-50,-5.8396492080592e-50,2.95492903183e-38,-2.9549291455739e-38,-2.954929183379e-38,2.9549290647028e-38,-1.2013594632936e-20,1.2013594432978e-20,-4.1922724592592e-26,-1.2013594327169e-20,1.201359454718e-20,2.3310279329921e-68,-2.3310281143937e-68,-2.3310282278494e-68,2.3310280425568e-68,-1.201359459428e-20,1.2013594499314e-20,-1.2013594297722e-20,1.2013594412741e-20,0,2.331027836566e-68,2.3310279568519e-68,-2.3310281260626e-68,-2.3310280018857e-68,2.9549289849747e-38,2.9549290212452e-38,-2.9549291297284e-38,-2.9549290885255e-38,0,0,0,4.1922723898131e-26,-4.1922724962287e-26,254.08025451769,254.08025451769,254.08025451769,254.08025451769,254.08025451769,254.08025451769,254.08025451769,254.08025451769,254.08025451769,254.08025451769,254.08025451769,254.08025451769,254.08025451769,254.08025451769,254.08025451769,254.08025451769,254.08025451769,254.08025451769,254.08025451769,254.08025451769,254.08025451769,254.08025451769,254.08025451769,254.08025451769,254.08025451769,254.08025451769,254.08025451769,254.08025451769,254.08025451769,254.08025451769,254.08025451769,254.08025451769,254.08025451769,254.08025451769,254.08025451769,254.08025451769,254.08025451769,254.08025451769,254.08025451769,254.08025451769,254.08025451769,254.08025451769,254.08025451769,254.08025451769,254.08025451769,254.08025451769,254.08025451769,254.08025451769,314.18469944162,314.18469944195,0
2.3e-05,20000000,6.7541858429649e-06,1,3.784999121387e-25,-3.7849992067619e-25,3.7849991455599e-25,3.7849992455902e-25,5.2723355578922e-49,-5.2723358236588e-49,-5.2723359511884e-49,5.2723356768158e-49,-6.6834795768045e-19,6.6834794966707e-19,-6.6834794131119e-19,6.6834795041551e-19,-3.7849991182978e-25,5.2723354321594e-49,5.2723355628911e-49,-5.2723358136473e-49,-5.2723356743094e-49,2.6678619211826e-37,-2.6678620214989e-37,-2.6678620548533e-37,2.6678619501822e-37,-1.0846491164274e-19,1.0846490987927e-19,-3.7849992098511e-25,-1.0846490894572e-19,1.0846491088624e-19,2.1045719191035e-67,-2.1045720790925e-67,-2.1045721791875e-67,2.1045720157632e-67,-1.0846491130135e-19,1.0846491046388e-19,-1.084649086853e-19,1.0846490969983e-19,0,2.1045718338839e-67,2.1045719399706e-67,-2.1045720892542e-67,-2.1045719797322e-67,2.6678618797636e-37,2.6678619117508e-37,-2.6678620074592e-37,-2.6678619711173e-37,0,0,0,3.784999148649e-25,-3.7849992425011e-25,254.08025451769,254.08025451769,254.08025451769,254.08025451769,254.08025451769,254.08025451769,254.08025451769,254.08025451769,254.08025451769,254.08025451769,254.08025451769,254.08025451769,254.08025451769,254.08025451769,254.08025451769,254.08025451769,254.08025451769,254.08025451769,254.08025451769,254.08025451769,254.08025451769,254.08025451769,254.08025451769,254.08025451769,254.08025451769,254.08025451769,254.08025451769,254.08025451769,254.08025451769,254.08025451769,254.08025451769,254.08025451769,254.08025451769,254.08025451769,254.08025451769,254.08025451769,254.08025451769,254.08025451769,254.08025451769,254.08025451769,254.08025451769,254.08025451769,254.08025451769,254.08025451769,254.08025451769,254.08025451769,254.08025451769,254.08025451769,321.20230272269,321.20230272303,0
2.35e-05,20000000,6.9010159699837e-06,1,3.259514250379e-24,-3.2595143222534e-24,3.2595142707823e-24,3.2595143549752e-24,4.5403584879708e-48,-4.5403587116485e-48,-4.5403588190173e-48,4.5403585880886e-48,-5.755588366297e-18,5.7555882988576e-18,-5.7555882285066e-18,5.7555883051377e-18,-3.2595142477763e-24,4.5403583819235e-48,4.5403584919497e-48,-4.5403587030617e-48,-4.5403585857847e-48,2.2974731754602e-36,-2.2974732598892e-36,-2.2974732879714e-36,2.2974731998733e-36,-9.3406342670364e-19,9.3406341186219e-19,-3.2595143248561e-24,-9.3406340400217e-19,9.340634203353e-19,1.8123867259853e-66,-1.812386860638e-66,-1.8123869449081e-66,1.8123868073611e-66,-9.3406342382661e-19,9.340634167788e-19,-9.3406340180459e-19,9.3406341034408e-19,0,1.812386654115e-66,1.812386743401e-66,-1.8123868690827e-66,-1.8123867769023e-66,2.2974731405217e-36,2.2974731674417e-36,-2.2974732480192e-36,-2.2974732174302e-36,0,0,0,3.259514273385e-24,-3.2595143523725e-24,254.08025451769,254.08025451769,254.08025451769,254.08025451769,254.08025451769,254.08025451769,254.08025451769,254.08025451769,254.08025451769,254.08025451769,254.08025451769,254.08025451769,254.08025451769,254.08025451769,254.08025451769,254.08025451769,254.08025451769,254.08025451769,254.08025451769,254.08025451769,254.08025451769,254.08025451769,254.08025451769,254.08025451769,254.08025451769,254.08025451769,254.08025451769,254.08025451769,254.08025451769,254.08025451769,254.08025451769,254.08025451769,254.08025451769,254.08025451769,254.08025451769,254.08025451769,254.08025451769,254.08025451769,254.08025451769,254.08025451769,254.08025451769,254.08025451769,254.08025451769,254.08025451769,254.08025451769,254.08025451769,254.08025451769,254.08025451769,328.221463161,328.22146316135,0
2.4e-05,20000000,7.0478460970024e-06,1,2.6827195654084e-23,-2.6827196232645e-23,2.6827195818753e-23,2.682719649632e-23,3.7369091271703e-47,-3.7369093071724e-47,-3.7369093936047e-47,3.7369092077614e-47,-4.7370952619503e-17,4.7370952076821e-17,-4.737095151048e-17,4.7370952127208e-17,-2.6827195633116e-23,3.7369090416454e-47,3.7369091301861e-47,-3.7369093001302e-47,-3.7369092057482e-47,1.8909186356087e-35,-1.8909187035515e-35,-1.8909187261584e-35,1.8909186552598e-35,-7.6877412894332e-18,7.6877411700027e-18,-2.6827196253612e-23,-7.6877411067262e-18,7.6877412381736e-18,1.4916717520651e-65,-1.4916718604259e-65,-1.4916719282629e-65,1.4916718175705e-65,-7.6877412662494e-18,7.6877412095383e-18,-7.6877410889938e-18,7.6877411577218e-18,0,1.4916716941087e-65,1.4916717659606e-65,-1.4916718671332e-65,-1.4916717929496e-65,1.8909186074281e-35,1.8909186290904e-35,-1.8909186939551e-35,-1.890918669337e-35,0,0,0,2.6827195839721e-23,-2.6827196475353e-23,254.08025451769,254.08025451769,254.08025451769,254.08025451769,254.08025451769,254.08025451769,254.08025451769,254.08025451769,254.08025451769,254.08025451769,254.08025451769,254.08025451769,254.08025451769,254.08025451769,254.08025451769,254.08025451769,254.08025451769,254.08025451769,254.08025451769,254.08025451769,254.08025451769,254.08025451769,254.08025451769,254.08025451769,254.08025451769,254.08025451769,254.08025451769,254.08025451769,254.08025451769,254.08025451769,254.08025451769,254.08025451769,254.08025451769,254.08025451769,254.08025451769,254.08025451769,254.08025451769,254.08025451769,254.08025451769,254.08025451769,254.08025451769,254.08025451769,254.08025451769,254.08025451769,254.08025451769,254.08025451769,254.08025451769,254.08025451769,335.2421810168,335.24218101716,0
2.45e-05,20000000,7.1946762240212e-06,1,2.1141897522241e-22,-2.1141897968369e-22,2.1141897649546e-22,2.1141898171898e-22,2.9449723650681e-46,-2.944972503829e-46,-2.9449725704804e-46,2.9449724272117e-46,-3.7331961125118e-16,3.7331960706796e-16,-3.7331960270057e-16,3.7331960745522e-16,-2.114189750606e-22,2.9449722989972e-46,2.9449723672508e-46,-2.9449724982996e-46,-2.9449724255383e-46,1.4901896021506e-34,-1.4901896545265e-34,-1.4901896719599e-34,1.4901896173031e-34,-6.058532562211e-17,6.058532470147e-17,-2.1141897984549e-22,-6.0585324213498e-17,6.0585325226873e-17,1.1755522919123e-64,-1.1755523754465e-64,-1.1755524277576e-64,1.175552342424e-64,-6.0585325443151e-17,6.0585325006015e-17,-6.0585324076437e-17,6.0585324606309e-17,0,1.1755522471432e-64,1.1755523025328e-64,-1.1755523805496e-64,-1.1755523233606e-64,1.4901895803775e-34,1.4901895970758e-34,-1.4901896470951e-34,-1.4901896281158e-34,0,0,0,2.1141897665727e-22,-2.1141898155718e-22,254.08025451769,254.08025451769,254.08025451769,254.08025451769,254.08025451769,254.08025451769,254.08025451769,254.08025451769,254.08025451769,254.08025451769,254.08025451769,254.08025451769,254.08025451769,254.08025451769,254.08025451769,254.08025451769,254.08025451769,254.08025451769,254.08025451769,254.08025451769,254.08025451769,254.08025451769,254.08025451769,254.08025451769,254.08025451769,254.08025451769,254.08025451769,254.08025451769,254.08025451769,254.08025451769,254.08025451769,254.08025451769,254.08025451769,254.08025451769,254.08025451769,254.08025451769,254.08025451769,254.08025451769,254.08025451769,254.08025451769,254.08025451769,254.08025451769,254.08025451769,254.08025451769,254.08025451769,254.08025451769,254.08025451769,254.08025451769,342.26445655041,342.26445655078,0
2.5e-05,20000000,7.34150635104e-06,1,1.5981619575329e-21,-1.5981619905438e-21,1.5981619669768e-21,1.5981620056191e-21,2.2261685810631e-45,-2.22616868371e-45,-2.2261687330308e-45,2.2261686270457e-45,-2.8220040313583e-15,2.8220040004151e-15,-2.8220039680964e-15,2.8220040032713e-15,-1.5981619563347e-21,2.226168532085e-45,2.2261685825739e-45,-2.2261686795464e-45,-2.2261686257193e-45,1.1264666897831e-33,-1.1264667285274e-33,-1.1264667414281e-33,1.1264667009947e-33,-4.579776362904e-16,4.5797762948031e-16,-1.598161991742e-21,-4.5797762586924e-16,4.5797763336606e-16,8.886255129477e-64,-8.886255747416e-64,-8.8862561345036e-64,8.8862555032397e-64,-4.5797763496483e-16,4.5797763173147e-16,-4.5797762485269e-16,4.5797762877278e-16,0,8.8862547976356e-64,8.8862552073741e-64,-8.8862557846742e-64,-8.8862553616109e-64,1.1264666736408e-33,1.1264666859925e-33,-1.1264667230055e-33,-1.1264667089647e-33,0,0,0,1.598161968175e-21,-1.5981620044209e-21,254.08025451769,254.08025451769,254.08025451769,254.08025451769,254.08025451769,254.08025451769,254.08025451769,254.08025451769,254.08025451769,254.08025451769,254.08025451769,254.08025451769,254.08025451769,254.08025451769,254.08025451769,254.08025451769,254.08025451769,254.08025451769,254.08025451769,254.08025451769,254.08025451769,254.08025451769,254.08025451769,254.08025451769,254.08025451769,254.08025451769,254.08025451769,254.08025451769,254.08025451769,254.08025451769,254.08025451769,254.08025451769,254.08025451769,254.08025451769,254.08025451769,254.08025451769,254.08025451769,254.08025451769,254.08025451769,254.08025451769,254.08025451769,254.08025451769,254.08025451769,254.08025451769,254.08025451769,254.08025451769,254.08025451769,254.08025451769,349.28829002221,349.28829002259,0
2.55e-05,20000000,7.4883364780587e-06,1,1.1607062743006e-20,-1.1607062977782e-20,1.1607062810344e-20,1.1607063085109e-20,1.6168122561192e-44,-1.6168123291024e-44,-1.6168123641815e-44,1.6168122888223e-44,-2.0495530932744e-14,2.0495530712746e-14,-2.0495530482876e-14,2.0495530732993e-14,-1.1607062734478e-20,1.6168122212213e-44,1.6168122571189e-44,-1.6168123260891e-44,-1.6168122878155e-44,8.1812543998328e-33,-8.1812546753076e-33,-8.1812547670654e-33,8.1812544795679e-33,-3.3261805109148e-15,3.326180462496e-15,-1.160706298631e-20,-3.3261804368112e-15,3.326180490118e-15,6.4538716120451e-63,-6.4538720514098e-63,-6.45387232672e-63,6.4538718778711e-63,-3.3261805014773e-15,3.3261804784899e-15,-3.3261804295644e-15,3.3261804574397e-15,0,6.453871375623e-63,6.4538716669521e-63,-6.4538720775464e-63,-6.4538717767331e-63,8.1812542848019e-33,8.1812543726193e-33,-8.18125463587e-33,-8.1812545360299e-33,0,0,0,1.1607062818872e-20,-1.1607063076581e-20,254.08025451769,254.08025451769,254.08025451769,254.08025451769,254.08025451769,254.08025451769,254.08025451769,254.08025451769,254.08025451769,254.08025451769,254.08025451769,254.08025451769,254.08025451769,254.08025451769,254.08025451769,254.08025451769,254.08025451769,254.08025451769,254.08025451769,254.08025451769,254.08025451769,254.08025451769,254.08025451769,254.08025451769,254.08025451769,254.08025451769,254.08025451769,254.08025451769,254.08025451769,254.08025451769,254.08025451769,254.08025451769,254.08025451769,254.08025451769,254.08025451769,254.08025451769,254.08025451769,254.08025451769,254.08025451769,254.08025451769,254.08025451769,254.08025451769,254.08025451769,254.08025451769,254.08025451769,254.08025451769,254.08025451769,254.08025451769,356.31368169263,356.31368169302,0
2.6e-05,20000000,7.6351666050775e-06,1,8.1119156479884e-20,-8.1119158087246e-20,8.1119156942095e-20,8.1119158822831e-20,1.1299537990932e-43,-1.1299538490469e-43,-1.1299538730647e-43,1.1299538214831e-43,-1.4323866570391e-13,1.432386641982e-13,-1.432386626243e-13,1.4323866433637e-13,-8.1119156421448e-20,1.1299537751561e-43,1.129953799726e-43,-1.1299538469476e-43,-1.1299538207498e-43,5.7176950842779e-32,-5.7176952728266e-32,-5.7176953356525e-32,5.717695138866e-32,-2.3245929067373e-14,2.324592873598e-14,-8.1119158145682e-20,-2.3245928560115e-14,2.3245928924999e-14,4.5104660244504e-62,-4.5104663251771e-62,-4.5104665136729e-62,4.5104662064478e-62,-2.3245929002691e-14,2.3245928845367e-14,-2.3245928510382e-14,2.3245928701197e-14,0,4.5104658622991e-62,4.5104660617004e-62,-4.5104663428196e-62,-4.5104661369198e-62,5.7176950053667e-32,5.7176950654703e-32,-5.7176952457102e-32,-5.7176951773688e-32,0,0,0,8.1119157000531e-20,-8.1119158764395e-20,254.08025451769,254.08025451769,254.08025451769,254.08025451769,254.08025451769,254.08025451769,254.08025451769,254.08025451769,254.08025451769,254.08025451769,254.08025451769,254.08025451769,254.08025451769,254.08025451769,254.08025451769,254.08025451769,254.08025451769,254.08025451769,254.08025451769,254.08025451769,254.08025451769,254.08025451769,254.08025451769,254.08025451769,254.08025451769,254.08025451769,254.08025451769,254.08025451769,254.08025451769,254.08025451769,254.08025451769,254.08025451769,254.08025451769,254.08025451769,254.08025451769,254.08025451769,254.08025451769,254.08025451769,254.08025451769,254.08025451769,254.08025451769,254.08025451769,254.08025451769,254.08025451769,254.08025451769,254.08025451769,254.08025451769,254.08025451769,363.34063182215,363.34063182255,0
2.65e-05,20000000,7.7819967320962e-06,1,5.4633665050253e-19,-5.4633666111143e-19,5.46336653561e-19,5.4633666597151e-19,7.6102267420071e-43,-7.6102270716227e-43,-7.6102272301535e-43,7.6102268897844e-43,-9.6471087967119e-13,9.6471086973644e-13,-9.6471085934757e-13,9.6471087064548e-13,-5.4633665011654e-19,7.6102265837255e-43,7.6102267458449e-43,-7.6102270575297e-43,-7.6102268846568e-43,3.8508615185395e-31,-3.8508616429513e-31,-3.8508616844208e-31,3.8508615545677e-31,-1.5656108333992e-13,1.5656108115333e-13,-5.4633666149743e-19,-1.5656107999246e-13,1.5656108240028e-13,3.0377940404219e-61,-3.0377942388553e-61,-3.0377943632713e-61,3.0377941605454e-61,-1.5656108291255e-13,1.5656108187456e-13,-1.5656107966344e-13,1.5656108092265e-13,0,3.0377939332107e-61,3.0377940647842e-61,-3.0377942503352e-61,-3.0377941144692e-61,3.8508614663542e-31,3.850861506011e-31,-3.8508616249782e-31,-3.85086157988e-31,0,0,0,5.46336653947e-19,-5.4633666558552e-19,254.08025451769,254.08025451769,254.08025451769,254.08025451769,254.08025451769,254.08025451769,254.08025451769,254.08025451769,254.08025451769,254.08025451769,254.08025451769,254.08025451769,254.08025451769,254.08025451769,254.08025451769,254.08025451769,254.08025451769,254.08025451769,254.08025451769,254.08025451769,254.08025451769,254.08025451769,254.08025451769,254.08025451769,254.08025451769,254.08025451769,254.08025451769,254.08025451769,254.08025451769,254.08025451769,254.08025451769,254.08025451769,254.08025451769,254.08025451769,254.08025451769,254.08025451769,254.08025451769,254.08025451769,254.08025451769,254.08025451769,254.08025451769,254.08025451769,254.08025451769,254.08025451769,254.08025451769,254.08025451769,254.08025451769,254.08025451769,370.3691406713,370.36914067171,0
2.7e-05,20000000,7.928826859115e-06,1,3.5508607715592e-18,-3.5508608391547e-18,3.5508607910959e-18,3.5508608701534e-18,4.9461912505355e-42,-4.946191460497e-42,-4.9461915615117e-42,4.9461913446931e-42,-6.2700424981567e-12,6.270042434877e-12,-6.2700423686782e-12,6.2700424406504e-12,-3.5508607690979e-18,4.9461911494996e-42,4.946191252766e-42,-4.9461914513669e-42,-4.9461913412433e-42,2.5028291788163e-30,-2.5028292580647e-30,-2.5028292844895e-30,2.5028292017712e-30,-1.0175532035135e-12,1.0175531895857e-12,-3.5508608416161e-18,-1.0175531821884e-12,1.0175531975269e-12,1.9743840515314e-60,-1.974384177932e-60,-1.974384257208e-60,1.9743841280702e-60,-1.0175532007876e-12,1.0175531941764e-12,-1.0175531800871e-12,1.017553188109e-12,0,1.9743839831014e-60,1.9743840669123e-60,-1.974384185142e-60,-1.974384098594e-60,2.5028291455009e-30,2.5028291707605e-30,-2.5028292465649e-30,-2.5028292178356e-30,0,0,0,3.5508607935573e-18,-3.5508608676921e-18,254.08025451769,254.08025451769,254.08025451769,254.08025451769,254.08025451769,254.08025451769,254.08025451769,254.08025451769,254.08025451769,254.08025451769,254.08025451769,254.08025451769,254.08025451769,254.08025451769,254.08025451769,254.08025451769,254.08025451769,254.08025451769,254.08025451769,254.08025451769,254.08025451769,254.08025451769,254.08025451769,254.08025451769,254.08025451769,254.08025451769,254.08025451769,254.08025451769,254.08025451769,254.08025451769,254.08025451769,254.08025451769,254.08025451769,254.08025451769,254.08025451769,254.08025451769,254.08025451769,254.08025451769,254.08025451769,254.08025451769,254.08025451769,254.08025451769,254.08025451769,254.08025451769,254.08025451769,254.08025451769,254.08025451769,254.08025451769,377.39920850068,377.3992085011,0
2.75e-05,20000000,8.0756569861337e-06,1,2.2300308454455e-17,-2.2300308870765e-17,2.2300308575081e-17,2.230030906188e-17,3.1063338631534e-41,-3.1063339924312e-41,-3.106334054648e-41,3.1063339211436e-41,-3.9377461034133e-11,3.9377460644527e-11,-3.9377460236787e-11,3.9377460679971e-11,-2.2300308439284e-17,3.1063338008133e-41,3.1063338643955e-41,-3.1063339867157e-41,-3.1063339189069e-41,1.5718403589699e-29,-1.5718404077646e-29,-1.5718404240405e-29,1.5718403731071e-29,-6.390492828766e-12,6.3904927430124e-12,-2.2300308885937e-17,-6.3904926974489e-12,6.3904927918977e-12,1.2399633837786e-59,-1.2399634616066e-59,-1.2399635104335e-59,1.2399634309183e-59,-6.3904928119596e-12,6.3904927712566e-12,-6.3904926844773e-12,6.3904927338755e-12,0,1.2399633415604e-59,1.2399633931645e-59,-1.2399634659831e-59,-1.2399634126918e-59,1.5718403384116e-29,1.5718403539636e-29,-1.5718404006525e-29,-1.5718403829618e-29,0,0,0,2.2300308590253e-17,-2.2300309046708e-17,254.08025451769,254.08025451769,254.08025451769,254.08025451769,254.08025451769,254.08025451769,254.08025451769,254.08025451769,254.08025451769,254.08025451769,254.08025451769,254.08025451769,254.08025451769,254.08025451769,254.08025451769,254.08025451769,254.08025451769,254.08025451769,254.08025451769,254.08025451769,254.08025451769,254.08025451769,254.08025451769,254.08025451769,254.08025451769,254.08025451769,254.08025451769,254.08025451769,254.08025451769,254.08025451769,254.08025451769,254.08025451769,254.08025451769,254.08025451769,254.08025451769,254.08025451769,254.08025451769,254.08025451769,254.08025451769,254.08025451769,254.08025451769,254.08025451769,254.08025451769,254.08025451769,254.08025451769,254.08025451769,254.08025451769,254.08025451769,384.43083557093,384.43083557136,0
2.8e-05,20000000,8.2224871131525e-06,1,1.3549674216505e-16,-1.3549674464648e-16,1.3549674288588e-16,1.3549674578682e-16,1.8874094027122e-40,-1.8874094797481e-40,-1.8874095168345e-40,1.8874094372773e-40,-2.3925757320721e-10,2.392575708857e-10,-2.3925756845517e-10,2.3925757109629e-10,-1.3549674207455e-16,1.8874093654856e-40,1.8874094033732e-40,-1.8874094762853e-40,-1.8874094358764e-40,9.5505068140897e-29,-9.5505071048526e-29,-9.5505072018728e-29,9.5505068983518e-29,-3.8828653895366e-11,3.8828653384384e-11,-1.3549674473698e-16,-3.8828653112775e-11,3.8828653675626e-11,7.5340213038404e-59,-7.5340217676156e-59,-7.5340220586608e-59,7.5340215848213e-59,-3.8828653795083e-11,3.8828653552559e-11,-3.8828653035276e-11,3.8828653329669e-11,0,7.5340210517554e-59,7.5340213592615e-59,-7.5340217933131e-59,-7.5340214757428e-59,9.5505066913111e-29,9.5505067839794e-29,-9.5505070622818e-29,-9.5505069568555e-29,0,0,0,1.3549674297638e-16,-1.3549674569632e-16,254.08025451769,254.08025451769,254.08025451769,254.08025451769,254.08025451769,254.08025451769,254.08025451769,254.08025451769,254.08025451769,254.08025451769,254.08025451769,254.08025451769,254.08025451769,254.08025451769,254.08025451769,254.08025451769,254.08025451769,254.08025451769,254.08025451769,254.08025451769,254.08025451769,254.08025451769,254.08025451769,254.08025451769,254.08025451769,254.08025451769,254.08025451769,254.08025451769,254.08025451769,254.08025451769,254.08025451769,254.08025451769,254.08025451769,254.08025451769,254.08025451769,254.08025451769,254.08025451769,254.08025451769,254.08025451769,254.08025451769,254.08025451769,254.08025451769,254.08025451769,254.08025451769,254.08025451769,254.08025451769,254.08025451769,254.08025451769,391.46402214275,391.46402214319,0
2.85e-05,20000000,8.3693172401713e-06,1,7.974361596272e-16,-7.9743617395802e-16,7.9743616380041e-16,7.9743618055066e-16,1.1107931319458e-39,-1.1107931764247e-39,-1.1107931978441e-39,1.110793151908e-39,-1.408097620748e-09,1.4080976073448e-09,-1.4080975933068e-09,1.4080976085573e-09,-7.9743615910412e-16,1.1107931104078e-39,1.1107931322829e-39,-1.1107931743931e-39,-1.1107931510608e-39,5.620739919538e-28,-5.6207400874172e-28,-5.6207401434531e-28,5.6207399682e-28,-2.2851746940655e-10,2.2851746645635e-10,-7.974361744811e-16,-2.2851746488759e-10,2.2851746813758e-10,4.4339818962195e-58,-4.4339821639947e-58,-4.4339823320874e-58,4.4339820584953e-58,-2.2851746882678e-10,2.2851746742663e-10,-2.2851746443899e-10,2.2851746613893e-10,0,4.4339817503841e-58,4.4339819279314e-58,-4.4339821786162e-58,-4.433981995252e-58,5.6207398484945e-28,5.6207399019963e-28,-5.6207400627301e-28,-5.6207400018545e-28,0,0,0,7.9743616432349e-16,-7.9743618002758e-16,254.08025451769,254.08025451769,254.08025451769,254.08025451769,254.08025451769,254.08025451769,254.08025451769,254.08025451769,254.08025451769,254.08025451769,254.08025451769,254.08025451769,254.08025451769,254.08025451769,254.08025451769,254.08025451769,254.08025451769,254.08025451769,254.08025451769,254.08025451769,254.08025451769,254.08025451769,254.08025451769,254.08025451769,254.08025451769,254.08025451769,254.08025451769,254.08025451769,254.08025451769,254.08025451769,254.08025451769,254.08025451769,254.08025451769,254.08025451769,254.08025451769,254.08025451769,254.08025451769,254.08025451769,254.08025451769,254.08025451769,254.08025451769,254.08025451769,254.08025451769,254.08025451769,254.08025451769,254.08025451769,254.08025451769,254.08025451769,398.49876847676,398.49876847721,0
2.9e-05,20000000,8.51614736719e-06,1,4.5508643614577e-15,-4.5508644417378e-15,4.5508643848923e-15,4.5508644787069e-15,6.3391518140471e-39,-6.3391520631526e-39,-6.3391521831483e-39,6.3391519258737e-39,-8.035829827645e-09,8.0358297525836e-09,-8.0358296739385e-09,8.0358297593554e-09,-4.5508643585255e-15,6.3391516931798e-39,6.3391518156903e-39,-6.3391520515971e-39,-6.3391519209176e-39,3.2076831075124e-27,-3.2076832015334e-27,-3.2076832329264e-27,3.2076831347718e-27,-1.3041194514477e-09,1.3041194349255e-09,-4.5508644446701e-15,-1.3041194261366e-09,1.3041194443394e-09,2.5304157524422e-57,-2.5304159024115e-57,-2.5304159965791e-57,2.5304158433488e-57,-1.3041194481964e-09,1.3041194403555e-09,-1.304119423618e-09,1.3041194331395e-09,0,2.5304156706091e-57,2.5304157700452e-57,-2.5304159104813e-57,-2.5304158077843e-57,3.20768306764e-27,3.2076830976024e-27,-3.2076831876478e-27,-3.2076831535517e-27,0,0,0,4.5508643878245e-15,-4.5508644757746e-15,254.08025451768,254.08025451768,254.08025451768,254.08025451768,254.08025451768,254.08025451768,254.08025451768,254.08025451768,254.08025451768,254.08025451768,254.08025451768,254.08025451768,254.08025451768,254.08025451768,254.08025451768,254.08025451768,254.08025451768,254.08025451768,254.08025451768,254.08025451768,254.08025451768,254.08025451768,254.08025451768,254.08025451768,254.08025451768,254.08025451768,254.08025451769,254.08025451769,254.08025451769,254.08025451769,254.08025451768,254.08025451768,254.08025451768,254.08025451768,254.08025451769,254.08025451769,254.08025451769,254.08025451769,254.08025451769,254.08025451768,254.08025451768,254.08025451768,254.08025451768,254.08025451769,254.08025451769,254.08025451769,254.08025451768,254.08025451768,405.53507483327,405.53507483373,0
2.95e-05,20000000,8.6629774942088e-06,1.0000000000001,2.5210406575062e-14,-2.521040701424e-14,2.5210406703898e-14,2.5210407208433e-14,3.5116976006569e-38,-3.5116977347678e-38,-3.5116978002422e-38,3.5116976618324e-38,-4.4516056939628e-08,4.4516056535049e-08,-4.4516056106432e-08,4.4516056565505e-08,-2.5210406559632e-14,3.5116975355649e-38,3.5116976015456e-38,-3.511697730345e-38,-3.5116976600654e-38,1.7769590320182e-26,-1.7769590826425e-26,-1.7769590997517e-26,1.7769590469522e-26,-7.2244257280358e-09,7.2244256390174e-09,-2.5210407029671e-14,-7.2244255911704e-09,7.2244256890327e-09,1.4017734846529e-56,-1.401773565382e-56,-1.4017736167952e-56,1.4017735343501e-56,-7.2244257109601e-09,7.2244256686618e-09,-7.2244255773899e-09,7.224425628532e-09,0,1.4017734407086e-56,1.401773494242e-56,-1.4017735709328e-56,-1.4017735156834e-56,1.7769590104653e-26,1.7769590266149e-26,-1.7769590757673e-26,-1.7769590574424e-26,0,0,0,2.5210406719328e-14,-2.5210407193003e-14,254.08025451762,254.08025451762,254.08025451762,254.08025451762,254.08025451765,254.08025451765,254.08025451765,254.08025451765,254.08025451761,254.08025451761,254.08025451761,254.08025451761,254.08025451762,254.08025451765,254.08025451765,254.08025451765,254.08025451765,254.08025451764,254.08025451764,254.08025451764,254.08025451764,254.08025451761,254.08025451761,254.08025451762,254.08025451761,254.08025451761,254.08025451766,254.08025451766,254.08025451766,254.08025451766,254.08025451761,254.08025451761,254.08025451761,254.08025451761,254.08025451766,254.08025451766,254.08025451766,254.08025451766,254.08025451766,254.08025451764,254.08025451764,254.08025451764,254.08025451764,254.08025451766,254.08025451766,254.08025451766,254.08025451762,254.08025451762,412.57294146992,412.57294147072,0
3e-05,20000000,8.8098076212272e-06,1.0000000000004,1.3570249892076e-13,-1.3570250123518e-13,1.3570249953148e-13,1.3570250212879e-13,1.8902755018944e-37,-1.890275571202e-37,-1.890275605475e-37,1.8902755341333e-37,-2.396208940735e-07,2.3962089197375e-07,-2.3962088973698e-07,2.3962089209459e-07,-1.3570249884775e-13,1.890275471416e-37,1.8902755055613e-37,-1.8902755730901e-37,-1.8902755369108e-37,9.5650096007334e-26,-9.565009862475e-26,-9.5650099517608e-26,9.5650096797263e-26,-3.8887616532727e-08,3.88876160714e-08,-1.357025013082e-13,-3.8887615822425e-08,3.8887616325599e-08,7.5454619899332e-56,-7.5454624069484e-56,-7.5454626765051e-56,7.5454622513702e-56,-3.8887616454343e-08,3.8887616234141e-08,-3.8887615757114e-08,3.8887616019163e-08,0,7.5454617846275e-56,7.5454620612844e-56,-7.5454624635895e-56,-7.545462178813e-56,9.5650094995251e-26,9.5650095833413e-26,-9.5650098409057e-26,-9.5650097467966e-26,0,0,0,1.3570249960449e-13,-1.3570250205577e-13,254.0802545173,254.0802545173,254.0802545173,254.0802545173,254.08025451746,254.08025451746,254.08025451746,254.08025451746,254.08025451723,254.08025451723,254.08025451723,254.08025451723,254.0802545173,254.08025451746,254.08025451746,254.08025451746,254.08025451746,254.0802545174,254.0802545174,254.0802545174,254.0802545174,254.08025451724,254.08025451724,254.0802545173,254.08025451724,254.08025451724,254.0802545175,254.0802545175,254.0802545175,254.0802545175,254.08025451724,254.08025451724,254.08025451724,254.08025451724,254.08025451753,254.0802545175,254.0802545175,254.0802545175,254.0802545175,254.0802545174,254.0802545174,254.0802545174,254.0802545174,254.08025451753,254.08025451753,254.08025451753,254.0802545173,254.0802545173,419.61236863093,419.61236863206,0
3.05e-05,20000000,8.9566377482238e-06,1.0000000000019,7.1044488773187e-13,-7.1044489488224e-13,7.104448861239e-13,7.10444898193e-13,9.8961814828835e-37,-9.8961818226034e-37,-9.8961819198813e-37,9.8961815824851e-37,-1.2544900738619e-06,1.2544900629853e-06,-1.2544900568932e-06,1.2544900674753e-06,-7.1044488781527e-13,9.8961814827243e-37,9.8961816531651e-37,-9.8961818488829e-37,-9.8961816807656e-37,5.0075806828395e-25,-5.0075808119131e-25,-5.007580836231e-25,5.0075807083332e-25,-2.0358879435196e-07,2.035887920064e-07,-7.1044489479884e-13,-2.0358879135525e-07,2.0358879365301e-07,3.9502845572312e-55,-3.9502847604097e-55,-3.9502848385348e-55,3.9502846362839e-55,-2.0358879402774e-07,2.0358879284301e-07,-2.0358879151681e-07,2.0358879265374e-07,0,3.9502845476996e-55,3.9502846833065e-55,-3.9502848007261e-55,-3.9502846660467e-55,5.0075806887601e-25,5.0075807321765e-25,-5.0075808063061e-25,-5.0075807640654e-25,0,0,0,7.104448860405e-13,-7.1044489827641e-13,254.0802545156,254.0802545156,254.0802545156,254.0802545156,254.08025451642,254.08025451642,254.08025451642,254.08025451642,254.08025451519,254.08025451519,254.08025451519,254.08025451519,254.0802545156,254.08025451642,254.08025451642,254.08025451642,254.08025451642,254.08025451613,254.08025451613,254.08025451613,254.08025451613,254.08025451524,254.08025451524,254.0802545156,254.08025451524,254.08025451524,254.08025451666,254.08025451666,254.08025451666,254.08025451666,254.08025451524,254.08025451524,254.08025451524,254.08025451524,254.08025451684,254.08025451666,254.08025451666,254.08025451666,254.08025451666,254.08025451613,254.08025451613,254.08025451613,254.08025451613,254.08025451684,254.08025451684,254.08025451684,254.0802545156,254.0802545156,426.65335648975,426.65335648904,0
3.1e-05,20000000,9.1034678752685e-06,1.0000000000099,3.6207608593204e-12,-3.620760930559e-12,3.6207608908548e-12,3.6207608753016e-12,5.0435589935259e-36,-5.0435589406533e-36,-5.0435590462473e-36,5.0435590927581e-36,-6.3934706739299e-06,6.3934706937101e-06,-6.3934706247658e-06,6.3934706130501e-06,-3.6207608570369e-12,5.0435589794642e-36,5.0435589514375e-36,-5.0435591594445e-36,-5.0435591811095e-36,2.5520983641633e-24,-2.5520983436953e-24,-2.5520983712159e-24,2.5520983884648e-24,-1.0375841219008e-06,1.0375841259628e-06,-3.6207609328426e-12,-1.0375841182854e-06,1.0375841155322e-06,2.0132505922312e-54,-2.0132505612081e-54,-2.0132506442388e-54,2.0132506727225e-54,-1.0375841273972e-06,1.0375841297554e-06,-1.0375841150551e-06,1.0375841140057e-06,0,2.0132505998089e-54,2.0132505787036e-54,-2.0132507026148e-54,-2.0132507211806e-54,2.5520983486873e-24,2.5520983407916e-24,-2.5520984201344e-24,-2.552098424811e-24,0,0,0,3.6207608931384e-12,-3.620760873018e-12,254.08025450666,254.08025450666,254.08025450666,254.08025450666,254.08025451101,254.08025451101,254.08025451101,254.08025451101,254.08025450448,254.08025450448,254.08025450448,254.08025450448,254.08025450666,254.08025451101,254.08025451101,254.08025451101,254.08025451101,254.08025450946,254.08025450946,254.08025450946,254.08025450946,254.08025450479,254.08025450479,254.08025450666,254.08025450479,254.08025450479,254.08025451225,254.08025451225,254.08025451225,254.08025451225,254.08025450479,254.08025450479,254.08025450479,254.08025450479,254.08025451319,254.08025451225,254.08025451225,254.08025451225,254.08025451225,254.08025450946,254.08025450946,254.08025450946,254.08025450946,254.08025451319,254.08025451319,254.08025451319,254.08025450666,254.08025450666,433.69590485119,433.69590486763,0
3.15e-05,20000000,9.2502980024134e-06,1.0000000000493,1.7979165736846e-11,-1.7979166951161e-11,1.7979166402459e-11,1.7979164340734e-11,2.504417901324e-35,-2.5044173712292e-35,-2.5044175108556e-35,2.5044180704727e-35,-3.1747268553637e-05,3.1747270093235e-05,-3.1747269301807e-05,3.174726738797e-05,-1.7979165842815e-11,2.504418094272e-35,2.5044178366051e-35,-2.5044181306191e-35,-2.5044184178082e-35,1.2672640298266e-23,-1.2672638305184e-23,-1.2672638621101e-23,1.2672640763568e-23,-5.1522033593618e-06,5.1522037026288e-06,-1.7979166845191e-11,-5.152203627125e-06,5.1522032231235e-06,9.9969500285842e-54,-9.9969468251335e-54,-9.9969479987566e-54,9.9969513200525e-54,-5.1522035985918e-06,5.1522037550417e-06,-5.1522035736668e-06,5.1522033564825e-06,0,9.9969518801539e-54,9.9969497641601e-54,-9.9969515540562e-54,-9.996953787895e-54,1.2672640589203e-23,1.2672639974637e-23,-1.2672641071772e-23,-1.2672641835724e-23,0,0,0,1.7979166296489e-11,-1.7979164446704e-11,254.0802544611,254.0802544611,254.0802544611,254.0802544611,254.08025448342,254.08025448342,254.08025448342,254.08025448342,254.08025444994,254.08025444994,254.08025444994,254.08025444994,254.0802544611,254.08025448342,254.08025448342,254.08025448342,254.08025448342,254.08025447545,254.08025447545,254.08025447545,254.08025447545,254.08025445154,254.08025445154,254.0802544611,254.08025445154,254.08025445154,254.0802544898,254.0802544898,254.0802544898,254.0802544898,254.08025445154,254.08025445154,254.08025445154,254.08025445154,254.08025449458,254.0802544898,254.0802544898,254.0802544898,254.0802544898,254.08025447545,254.08025447545,254.08025447545,254.08025447545,254.08025449458,254.08025449458,254.08025449458,254.0802544611,254.0802544611,440.74001168165,440.74001193223,0
3.2e-05,20000000,9.3971281253985e-06,1.0000000002405,8.7054874868551e-11,-8.7054894168734e-11,8.7054886312414e-11,8.7054845216568e-11,1.2126357304519e-34,-1.2126346951291e-34,-1.212634890925e-34,1.2126359992951e-34,-0.00015371983465232,0.00015371986399061,-0.0001537198538955,0.00015371981529742,-8.7054877490559e-11,1.2126361300418e-34,1.2126356306416e-34,-1.2126360587571e-34,-1.2126366312043e-34,6.1360753388814e-23,-6.1360714559453e-23,-6.1360718589135e-23,6.1360761114765e-23,-2.4946895664299e-05,2.4946902263097e-05,-8.7054891546723e-11,-2.4946901421346e-05,2.4946893319793e-05,4.8405092637547e-53,-4.8405029917743e-53,-4.840504700693e-53,4.840511264261e-53,-2.4946900089836e-05,2.4946903013547e-05,-2.4946900578667e-05,2.4946896152202e-05,0,4.8405129443847e-53,4.8405088116542e-53,-4.8405114479289e-53,-4.8405158722444e-53,6.1360760389618e-23,6.1360748678571e-23,-6.1360764463893e-23,-6.1360779871196e-23,0,0,0,8.7054883690401e-11,-8.7054847838583e-11,254.08025423489,254.08025423489,254.08025423489,254.08025423489,254.08025434642,254.08025434642,254.08025434642,254.08025434642,254.08025417913,254.08025417913,254.08025417913,254.08025417913,254.08025423489,254.08025434642,254.08025434642,254.08025434642,254.08025434642,254.08025430659,254.08025430659,254.08025430659,254.08025430659,254.08025418709,254.08025418709,254.08025423489,254.08025418709,254.08025418709,254.08025437829,254.08025437829,254.08025437829,254.08025437829,254.08025418709,254.08025418709,254.08025418709,254.08025418709,254.08025440219,254.08025437829,254.08025437829,254.08025437829,254.08025437829,254.08025430659,254.08025430659,254.08025430659,254.08025430659,254.08025440219,254.08025440219,254.08025440219,254.08025423489,254.08025423489,447.78565337009,447.78565598028,0
3.25e-05,20000000,9.5439582562312e-06,1.0000000011435,4.1134231130624e-10,-4.1134231121937e-10,4.1134231127593e-10,4.1134231125307e-10,5.7298153822333e-34,-5.7298153816491e-34,-5.729815380404e-34,5.7298153810233e-34,-0.00072634043850657,0.00072634043852342,-0.00072634043860345,0.00072634043858215,-4.1134231130749e-10,5.7298153826258e-34,5.7298153823425e-34,-5.7298153798698e-34,-5.7298153801882e-34,2.8993519514876e-22,-2.8993519512681e-22,-2.8993519509486e-22,2.8993519511859e-22,-0.00011787639987515,0.00011787639987892,-4.1134231121811e-10,-0.0001178763998877,0.00011787639988321,2.2871853409354e-52,-2.2871853405821e-52,-2.287185339595e-52,2.2871853399623e-52,-0.00011787639987181,0.00011787639987352,-0.00011787639989071,0.00011787639988829,0,2.2871853410732e-52,2.28718534084e-52,-2.287185339363e-52,-2.2871853396102e-52,2.8993519516981e-22,2.8993519516309e-22,-2.8993519506903e-22,-2.8993519507753e-22,0,0,0,4.1134231127467e-10,-4.1134231125433e-10,254.08025313958,254.08025313958,254.08025313958,254.08025313958,254.08025368308,254.08025368308,254.08025368308,254.08025368308,254.08025286784,254.08025286784,254.08025286784,254.08025286784,254.08025313958,254.08025368308,254.08025368308,254.08025368308,254.08025368308,254.08025348898,254.08025348897,254.08025348897,254.08025348898,254.08025290666,254.08025290666,254.08025313958,254.08025290666,254.08025290666,254.08025383837,254.08025383837,254.08025383837,254.08025383837,254.08025290666,254.08025290666,254.08025290666,254.08025290666,254.08025395483,254.08025383837,254.08025383837,254.08025383837,254.08025383837,254.08025348898,254.08025348897,254.08025348897,254.08025348898,254.08025395483,254.08025395483,254.08025395483,254.08025313958,254.08025313958,454.83276018679,454.83276018682,0
3.3e-05,20000000,9.6907883832528e-06,1.0000000053104,1.8979752503264e-09,-1.8979752490877e-09,1.8979752499532e-09,1.8979752495136e-09,2.6437946300828e-33,-2.6437946289434e-33,-2.643794627161e-33,2.6437946283573e-33,-0.003351408922416,0.0033514089227502,-0.0033514089238978,0.0033514089234914,-1.897975250347e-09,2.6437946305577e-33,2.6437946300024e-33,-2.6437946264662e-33,-2.6437946270784e-33,1.3377903253281e-21,-1.3377903248993e-21,-1.3377903244411e-21,1.3377903248987e-21,-0.00054389373433292,0.00054389373440717,-1.8979752490674e-09,-0.00054389373453328,0.00054389373444732,1.0553303426354e-51,-1.0553303419475e-51,-1.0553303405359e-51,1.0553303412466e-51,-0.00054389373429028,0.0005438937343245,-0.0005438937345709,0.00054389373452496,0,1.0553303427958e-51,1.055330342341e-51,-1.0553303402293e-51,-1.0553303407068e-51,1.337790325587e-21,1.3377903254537e-21,-1.3377903241081e-21,-1.3377903242701e-21,0,0,0,1.8979752499329e-09,-1.8979752495341e-09,254.08024796415,254.08024796415,254.08024796415,254.08024796415,254.08025054873,254.08025054873,254.08025054873,254.08025054873,254.08024667186,254.08024667186,254.08024667186,254.08024667186,254.08024796415,254.08025054873,254.08025054873,254.08025054873,254.08025054873,254.08024962567,254.08024962567,254.08024962567,254.08024962567,254.08024685647,254.08024685647,254.08024796415,254.08024685647,254.08024685647,254.08025128718,254.08025128718,254.08025128718,254.08025128718,254.08024685647,254.08024685647,254.08024685647,254.08024685647,254.08025184102,254.08025128718,254.08025128718,254.08025128718,254.08025128718,254.08024962567,254.08024962567,254.08024962567,254.08024962567,254.08025184102,254.08025184102,254.08025184102,254.08024796415,254.08024796415,461.88096665364,461.88096665385,0
3.35e-05,20000000,9.8376185102694e-06,1.0000000240921,8.5549684297625e-09,-8.554968429197e-09,8.5549684325226e-09,8.5549684301273e-09,1.1916678803813e-32,-1.1916678798196e-32,-1.1916678796704e-32,1.1916678803025e-32,-0.015106208077847,0.015106208079293,-0.015106208080461,0.015106208078123,-8.5549684300159e-09,1.191667879518e-32,1.1916678792548e-32,-1.1916678789916e-32,-1.1916678793252e-32,6.0299775204554e-21,-6.0299775183683e-21,-6.0299775179017e-21,6.0299775203449e-21,-0.0024515574320215,0.0024515574323585,-8.5549684289449e-09,-0.002451557432509,0.0024515574320272,4.7568104173826e-51,-4.7568104139492e-51,-4.7568104128987e-51,4.7568104166131e-51,-0.0024515574319085,0.0024515574320409,-0.0024515574322696,0.0024515574319923,0,4.7568104118849e-51,4.7568104096429e-51,-4.7568104081374e-51,-4.7568104106604e-51,6.0299775173875e-21,6.0299775168109e-21,-6.0299775157676e-21,-6.0299775167004e-21,0,0,0,8.5549684322702e-09,-8.5549684303803e-09,254.08022408416,254.08022408416,254.08022408416,254.08022408416,254.08023608652,254.08023608652,254.08023608652,254.08023608652,254.08021808299,254.08021808299,254.08021808299,254.08021808299,254.08022408416,254.08023608652,254.08023608652,254.08023608652,254.08023608652,254.08023179996,254.08023179996,254.08023179996,254.08023179996,254.0802189403,254.0802189403,254.08022408416,254.0802189403,254.0802189403,254.08023951576,254.08023951576,254.08023951576,254.08023951576,254.0802189403,254.0802189403,254.0802189403,254.0802189403,254.08024208769,254.08023951576,254.08023951576,254.08023951576,254.08023951576,254.08023179996,254.08023179996,254.08023179996,254.08023179996,254.08024208769,254.08024208769,254.08024208769,254.08022408416,254.08022408416,468.92866724258,468.92866724247,0
3.4e-05,20000000,9.9844486373375e-06,1.0000001067297,3.7640989006363e-08,-3.7640989107185e-08,3.7640989079434e-08,3.7640989056154e-08,5.2431977631378e-32,-5.2431977607038e-32,-5.2431977720469e-32,5.2431977771817e-32,-0.066465898954293,0.066465898949171,-0.066465898885833,0.066465898856716,-3.7640989016061e-08,5.2431977512402e-32,5.2431977506987e-32,-5.2431977747353e-32,-5.2431977779778e-32,2.6531223203039e-20,-2.6531223195511e-20,-2.6531223220792e-20,2.6531223241988e-20,-0.010786619947449,0.010786619947266,-3.7640989097493e-08,-0.010786619941339,0.010786619935965,2.0929381171898e-50,-2.0929381154628e-50,-2.0929381250576e-50,2.0929381278626e-50,-0.010786619951397,0.010786619949917,-0.010786619935286,0.010786619931209,0,2.0929381112153e-50,2.0929381102437e-50,-2.0929381249054e-50,-2.0929381269551e-50,2.6531223150602e-20,2.653122315265e-20,-2.6531223242163e-20,-2.6531223253782e-20,0,0,0,3.764098906974e-08,-3.764098906585e-08,254.08011644704,254.08011644704,254.08011644704,254.08011644704,254.08017089925,254.08017089925,254.08017089925,254.08017089925,254.08008922092,254.08008922092,254.08008922092,254.08008922092,254.08011644704,254.08017089925,254.08017089925,254.08017089925,254.08017089925,254.08015145204,254.08015145204,254.08015145204,254.08015145204,254.08009311036,254.08009311036,254.08011644704,254.08009311036,254.08009311036,254.08018645703,254.08018645703,254.08018645703,254.08018645703,254.08009311036,254.08009311036,254.08009311036,254.08009311036,254.08019812535,254.08018645703,254.08018645703,254.08018645703,254.08018645703,254.08015145204,254.08015145204,254.08015145204,254.08015145204,254.08019812535,254.08019812535,254.08019812535,254.08011644704,254.08011644704,475.96889126654,475.96889126888,0
3.45e-05,20000000,1.0131278765722e-05,1.000000459794,1.6081741313307e-07,-1.608174159965e-07,1.6081741578181e-07,1.60817413374e-07,2.2400671249024e-31,-2.2400670988049e-31,-2.2400671113699e-31,2.2400671647878e-31,-0.28397137317488,0.28397137270322,-0.28397137277263,0.28397136978091,-1.6081741411377e-07,2.2400671013025e-31,2.2400670950839e-31,-2.2400671338741e-31,-2.240067167413e-31,1.1335081796712e-19,-1.1335081714949e-19,-1.1335081712178e-19,1.1335081932186e-19,-0.046085100277135,0.04608510026875,-1.6081741501583e-07,-0.046085100369937,0.046085099816256,8.9416796773457e-50,-8.9416794938217e-50,-8.9416796486605e-50,8.9416799412394e-50,-0.046085100433965,0.046085100289259,-0.046085100210602,0.046085099793243,0,8.941679581684e-50,8.9416794775106e-50,-8.9416797370327e-50,-8.9416799502609e-50,1.1335081678216e-19,1.1335081697045e-19,-1.1335081826977e-19,-1.1335081946394e-19,0,0,0,1.6081741480113e-07,-1.6081741435468e-07,254.07964285367,254.07964285367,254.07964285367,254.07964285367,254.07988408161,254.07988408161,254.07988408161,254.07988408161,254.07952223953,254.07952223953,254.07952223953,254.07952223953,254.07964285367,254.07988408161,254.07988408161,254.07988408161,254.07988408161,254.07979792882,254.07979792882,254.07979792882,254.07979792882,254.07953947013,254.07953947013,254.07964285367,254.07953947013,254.07953947013,254.07995300379,254.07995300379,254.07995300379,254.07995300379,254.07953947013,254.07953947013,254.07953947013,254.07953947013,254.08000469541,254.07995300379,254.07995300379,254.07995300379,254.07995300379,254.07979792882,254.07979792882,254.07979792882,254.07979792882,254.08000469541,254.08000469541,254.08000469541,254.07964285367,254.07964285367,482.97238759321,482.97238771148,0
3.5e-05,20000000,1.0278108923585e-05,1.0000018924346,6.5252816672393e-07,-6.5252823434712e-07,6.5252823086517e-07,6.5252816210949e-07,9.0885644770316e-31,-9.0885652030005e-31,-9.0885643840294e-31,9.0885654188977e-31,-1.1522766246637,1.1522765179367,-1.1522766256635,1.1522765091456,-6.5252822993522e-07,9.0885645768412e-31,9.0885653800371e-31,-9.0885646225192e-31,-9.0885655801641e-31,4.5990731935471e-19,-4.5990735804475e-19,-4.5990731504768e-19,4.5990736546111e-19,-0.18699950047244,0.18699948341686,-6.5252817113597e-07,-0.18699950111024,0.18699948193608,3.6278075874669e-49,-3.62780784642e-49,-3.6278075440465e-49,3.6278079879508e-49,-0.18699950133468,0.18699948374946,-0.18699950102141,0.18699948237687,0,3.6278076723182e-49,3.6278079620975e-49,-3.6278076842556e-49,-3.627808097336e-49,4.5990732155224e-19,4.5990736415017e-19,-4.5990732426276e-19,-4.5990737076842e-19,0,0,0,6.5252816765415e-07,-6.5252822532084e-07,254.0776194545,254.0776194545,254.0776194545,254.0776194545,254.07865867513,254.07865867513,254.07865867513,254.07865867514,254.07709984105,254.07709984104,254.07709984105,254.07709984106,254.07761945449,254.07865867513,254.07865867513,254.07865867513,254.07865867514,254.07828752586,254.07828752586,254.07828752586,254.07828752587,254.07717407167,254.07717407166,254.07761945449,254.07717407167,254.07717407168,254.07895559378,254.07895559378,254.07895559378,254.07895559379,254.07717407167,254.07717407167,254.07717407167,254.07717407168,254.07917828232,254.07895559378,254.07895559378,254.07895559378,254.07895559379,254.07828752586,254.07828752586,254.07828752586,254.07828752587,254.07917828232,254.07917828233,254.07917828233,254.07761945449,254.07761945449,489.82454084742,489.82454366617,0
3.55e-05,20001330.295103,1.0424939020337e-05,1.0000070297221,2.3395326367635e-06,-2.3395326386531e-06,2.3395326391146e-06,2.3395326360962e-06,3.2575323584789e-30,-3.2575323651682e-30,-3.2575323577313e-30,3.2575323610976e-30,-4.1319471350412,4.131947128138,-4.1319471360353,4.1319471301681,-2.339532640384e-06,3.2575323605154e-30,3.2575323663785e-30,-3.2575323565451e-30,-3.2575323607375e-30,1.6485893135444e-18,-1.6485893167204e-18,-1.6485893135623e-18,1.6485893154767e-18,-0.67054620517758,0.67054620402845,-2.3395326350459e-06,-0.67054620522714,0.67054620430395,1.3001657513523e-48,-1.3001657543524e-48,-1.3001657504276e-48,1.30016575144e-48,-0.67054620507553,0.67054620398411,-0.67054620534863,0.67054620436773,0,1.300165752279e-48,1.3001657549488e-48,-1.3001657500665e-48,-1.3001657514092e-48,1.648589314502e-18,1.6485893172611e-18,-1.6485893128915e-18,-1.6485893152229e-18,0,0,0,2.3395326355096e-06,-2.339532639719e-06,254.0705305543,254.0705305543,254.0705305543,254.0705305543,254.07480788744,254.07480788764,254.07480788745,254.07480788767,254.06839183463,254.06839183472,254.06839183463,254.06839183476,254.07053055426,254.07480788745,254.07480788763,254.07480788744,254.07480788767,254.07328028466,254.07328028478,254.07328028468,254.07328028482,254.06869736817,254.06869736824,254.07053055426,254.06869736818,254.06869736828,254.07602995669,254.07602995695,254.0760299567,254.07602995697,254.06869736818,254.06869736824,254.06869736816,254.06869736828,254.07694650107,254.0760299567,254.07602995695,254.07602995669,254.07602995697,254.07328028468,254.07328028478,254.07328028466,254.07328028482,254.07694650107,254.07694650138,254.07694650138,254.07053055426,254.07053055426,496.15340901654,496.15340907698,0
3.6e-05,20009721.007134,1.0571769154884e-05,1.0000211532199,6.4278235984163e-06,-6.4278236437037e-06,6.4278236458623e-06,6.4278235974979e-06,8.9386117580233e-30,-8.9386119021188e-30,-8.9386117795555e-30,8.938611820193e-30,-11.359687038771,11.359686903667,-11.359687041499,11.359686939035,-6.4278236654524e-06,8.9386117833941e-30,8.9386119016857e-30,-8.9386117490359e-30,-8.9386118154775e-30,4.5257597177064e-18,-4.5257597842513e-18,-4.5257597296783e-18,4.5257597569321e-18,-1.8433201946484,1.8433201718418,-6.4278235768411e-06,-1.8433201931572,1.8433201774356,3.5663332276268e-48,-3.5663332953435e-48,-3.5663332345184e-48,3.5663332403391e-48,-1.8433201926557,1.8433201716364,-1.8433201950321,1.8433201775233,0,3.5663332370723e-48,3.5663332944847e-48,-3.5663332216477e-48,-3.5663332377728e-48,4.5257597309732e-18,4.5257597844677e-18,-4.5257597146745e-18,-4.5257597549788e-18,0,0,0,6.4278235789919e-06,-6.4278236645261e-06,254.04816214658,254.04816214658,254.04816214657,254.04816214657,254.06405192056,254.06405192077,254.06405192057,254.0640519208,254.04021652837,254.04021652846,254.04021652836,254.04021652849,254.04816214654,254.06405192057,254.06405192077,254.06405192056,254.0640519208,254.05837722504,254.05837722517,254.05837722505,254.0583772252,254.04135164652,254.0413516466,254.04816214654,254.04135164653,254.04135164664,254.068591498,254.06859149827,254.068591498,254.06859149829,254.04135164653,254.0413516466,254.04135164652,254.04135164664,254.07199607667,254.068591498,254.06859149827,254.06859149799,254.06859149829,254.05837722506,254.05837722517,254.05837722504,254.05837722521,254.07199607667,254.071996077,254.071996077,254.04816214655,254.04816214655,501.21037669854,501.2103770863,0
3.65e-05,20035242.592367,1.0718599286364e-05,1.0000481854731,1.2275344514634e-05,-1.2275344548058e-05,1.2275344561384e-05,1.2275344497352e-05,1.6992398546325e-29,-1.6992398790986e-29,-1.69923985564e-29,1.6992398591016e-29,-21.743469533152,21.743469318246,-21.743469560309,21.743469412192,-1.2275344616727e-05,1.6992398628219e-29,1.6992398820475e-29,-1.6992398491096e-29,-1.6992398578118e-29,8.6175740614612e-18,-8.6175741724949e-18,-8.6175740772947e-18,8.6175741084285e-18,-3.5271297142772,3.527129677612,-1.227534444627e-05,-3.5271297135694,3.5271296913903,6.7707914575651e-48,-6.7707915757902e-48,-6.770791444707e-48,6.7707914374265e-48,-3.527129709356,3.5271296763404,-3.5271297188737,3.527129693045,0,6.7707914924111e-48,6.7707915897397e-48,-6.7707914208755e-48,-6.7707914344916e-48,8.6175741015702e-18,8.6175741860521e-18,-8.6175740427965e-18,-8.6175741004821e-18,0,0,0,1.2275344459554e-05,-1.2275344599403e-05,253.98873636836,253.98873636836,253.98873636834,253.98873636834,254.03655534304,254.0365553435,254.03655534301,254.03655534343,253.96482025479,253.96482025505,253.96482025478,253.96482025496,253.98873636841,254.03655534302,254.0365553435,254.03655534303,254.03655534343,254.01947916535,254.01947916565,254.0194791653,254.01947916557,253.96823711306,253.96823711327,253.98873636841,253.96823711301,253.96823711318,254.05021466394,254.05021466452,254.05021466392,254.05021466447,253.96823711303,253.96823711327,253.96823711304,253.96823711318,254.06045820918,254.05021466393,254.05021466452,254.05021466393,254.05021466447,254.01947916531,254.01947916565,254.01947916534,254.01947916557,254.06045820918,254.06045820984,254.06045820984,253.98873636843,253.98873636843,504.43899261623,504.43899303396,0
3.7e-05,20085400.511187,1.0865429412861e-05,1.0000865251929,1.7304014410305e-05,-1.730401437983e-05,1.7304014403243e-05,1.7304014382898e-05,2.365420469203e-29,-2.3654204819795e-29,-2.3654204657629e-29,2.3654204646794e-29,-30.844184983757,30.844184876399,-30.844185029241,30.844184968134,-1.7304014455665e-05,2.3654204770234e-29,2.3654204863077e-29,-2.3654204596448e-29,-2.3654204620535e-29,1.2050027842756e-17,-1.205002789975e-17,-1.2050027843014e-17,1.2050027847074e-17,-4.9989137268205,4.9989137082866,-1.7304014333671e-05,-4.9989137293563,4.9989137207106,9.3914788821843e-48,-9.3914789462509e-48,-9.3914788408816e-48,9.3914788223129e-48,-4.998913722186,4.9989137060499,-4.9989137343912,4.9989137233477,0,9.3914789154345e-48,9.391478965678e-48,-9.3914788188928e-48,-9.3914788141471e-48,1.2050027881231e-17,1.2050027920369e-17,-1.2050027810323e-17,-1.2050027832239e-17,0,0,0,1.7304014356923e-05,-1.7304014428097e-05,253.87615339808,253.87615339808,253.87615339799,253.87615339799,253.98508152427,253.98508152512,253.98508152407,253.98508152476,253.82165490328,253.82165490383,253.82165490316,253.82165490339,253.87615339832,253.98508152416,253.98508152509,253.98508152418,253.98508152479,253.94618915232,253.94618915289,253.94618915204,253.94618915246,253.8294418097,253.82944181013,253.87615339832,253.82944180944,253.82944180967,254.01618700681,254.01618700788,254.01618700671,254.01618700763,253.82944180955,253.82944181009,253.82944180958,253.82944180971,254.03951121349,254.01618700677,254.01618700786,254.01618700675,254.01618700764,253.94618915214,253.94618915284,253.94618915222,253.94618915251,254.03951121349,254.03951121465,254.03951121465,253.87615339841,253.87615339841,506.06559640753,506.06559667983,0
3.75e-05,20157210.842934,1.1012259539985e-05,1.000132124007,2.034126685609e-05,-2.034126680222e-05,2.0341266829945e-05,2.0341266827784e-05,2.7144723003951e-29,-2.7144723049599e-29,-2.7144722948574e-29,2.7144722926769e-29,-36.69768254327,36.697682496362,-36.697682595486,36.697682576646,-2.0341266869266e-05,2.7144723063737e-29,2.7144723091225e-29,-2.7144722896652e-29,-2.7144722893006e-29,1.3947504626109e-17,-1.3947504646698e-17,-1.3947504617365e-17,1.3947504612055e-17,-5.937354006454,5.9373539984989,-2.0341266785152e-05,-5.9373540112362,5.9373540088125,1.0703546085775e-47,-1.0703546109714e-47,-1.0703546034086e-47,1.070354601769e-47,-5.9373540028939,5.9373539959562,-5.9373540149886,5.9373540115474,0,1.0703546110115e-47,1.0703546127089e-47,-1.0703546014908e-47,-1.0703546005477e-47,1.3947504656588e-17,1.3947504667529e-17,-1.3947504589583e-17,-1.3947504593922e-17,0,0,0,2.0341266811486e-05,-2.0341266839569e-05,253.71726767787,253.71726767787,253.71726767766,253.71726767766,253.91281838194,253.91281838299,253.91281838153,253.91281838234,253.61938113239,253.61938113311,253.61938113211,253.61938113233,253.71726767824,253.91281838174,253.91281838292,253.91281838172,253.91281838241,253.84301282492,253.84301282562,253.84301282434,253.84301282484,253.63336947312,253.63336947368,253.71726767824,253.6333694726,253.63336947284,253.96863569643,253.96863569773,253.96863569619,253.96863569728,253.63336947287,253.63336947359,253.63336947285,253.63336947293,254.01048287625,253.96863569634,253.96863569769,253.96863569628,253.96863569731,253.84301282459,253.8430128255,253.84301282468,253.84301282496,254.01048287625,254.01048287764,254.01048287764,253.71726767846,253.71726767846,506.66365422951,506.6636544299,0
3.8e-05,20243029.68625,1.1159089667878e-05,1.0001817486554,2.1773159884967e-05,-2.1773159825678e-05,2.1773159856334e-05,2.1773159857003e-05,2.808010278209e-29,-2.8080102784304e-29,-2.8080102715875e-29,2.8080102701219e-29,-39.959221658212,39.959221637764,-39.959221716463,39.959221710776,-2.1773159884918e-05,2.8080102828746e-29,2.8080102824698e-29,-2.8080102672845e-29,-2.8080102664451e-29,1.4604955343269e-17,-1.460495534515e-17,-1.4604955329463e-17,1.4604955324916e-17,-6.4492376734551,6.4492376703609,-2.1773159819369e-05,-6.449237680197,6.4492376794111,1.0965121310843e-47,-1.0965121312556e-47,-1.0965121254724e-47,1.096512124587e-47,-6.4492376708685,6.4492376677454,-6.4492376828778,6.4492376821208,0,1.0965121329051e-47,1.0965121328623e-47,-1.0965121238868e-47,-1.0965121232155e-47,1.4604955368023e-17,1.4604955366139e-17,-1.4604955305973e-17,-1.4604955305191e-17,0,0,0,2.1773159846384e-05,-2.1773159853313e-05,253.52908686699,253.52908686699,253.52908686664,253.52908686664,253.82754855059,253.82754855173,253.82754854997,253.82754855081,253.37959637516,253.37959637596,253.37959637469,253.37959637488,253.52908686744,253.82754855033,253.82754855161,253.82754855024,253.82754855093,253.72103436697,253.72103436773,253.7210343661,253.72103436661,253.40096279306,253.40096279368,253.52908686744,253.40096279226,253.40096279249,253.91269666616,253.91269666755,253.91269666579,253.91269666693,253.40096279272,253.40096279353,253.40096279261,253.40096279265,253.97652094072,253.91269666604,253.9126966675,253.9126966659,253.91269666698,253.72103436651,253.72103436752,253.72103436656,253.72103436681,253.97652094072,253.9765209422,253.9765209422,253.5290868678,253.5290868678,506.69130151032,506.69130168038,0
3.85e-05,20336740.254041,1.1305919796076e-05,1.0002334637672,2.2246776630054e-05,-2.2246776569567e-05,2.2246776602283e-05,2.2246776603133e-05,2.7549139702914e-29,-2.7549139686413e-29,-2.754913963478e-29,2.7549139625659e-29,-41.669582378153,41.669582369023,-41.669582441817,41.669582440958,-2.2246776624436e-05,2.7549139742515e-29,2.7549139725433e-29,-2.75491395968e-29,-2.7549139588259e-29,1.4537728620696e-17,-1.4537728614399e-17,-1.4537728605618e-17,1.4537728602427e-17,-6.7056938781787,6.7056938772219,-2.2246776567321e-05,-6.7056938863793,6.705693886104,1.0634143758974e-47,-1.0634143751117e-47,-1.06341437031e-47,1.0634143698712e-47,-6.7056938762023,6.7056938746528,-6.7056938884015,6.7056938887189,0,1.0634143773823e-47,1.06341437661e-47,-1.0634143689284e-47,-1.0634143684763e-47,1.4537728642552e-17,1.4537728635337e-17,-1.4537728584339e-17,-1.4537728582066e-17,0,0,0,2.2246776593792e-05,-2.224677659127e-05,253.32516199016,253.32516199016,253.32516198965,253.32516198965,253.73545748144,253.73545748262,253.73545748059,253.73545748144,253.11952226328,253.11952226411,253.11952226259,253.11952226277,253.32516199065,253.73545748111,253.73545748244,253.73545748093,253.73545748161,253.5890734357,253.58907343649,253.58907343454,253.58907343505,253.14891954014,253.14891954078,253.32516199065,253.14891953904,253.14891953927,253.85244516205,253.85244516349,253.85244516154,253.8524451627,253.14891953971,253.14891954056,253.14891953947,253.14891953949,253.94011637097,253.85244516191,253.85244516342,253.85244516168,253.85244516277,253.58907343512,253.58907343619,253.58907343511,253.58907343534,253.94011637097,253.94011637249,253.94011637249,253.32516199117,253.32516199117,506.42279590798,506.4227960646,0
3.9e-05,20434674.651221,1.1452749924475e-05,1.0002862283539,2.221504336861e-05,-2.2215043308383e-05,2.2215043342782e-05,2.2215043343069e-05,2.6320932538947e-29,-2.6320932514099e-29,-2.6320932472622e-29,2.6320932467577e-29,-42.545407255192,42.545407251659,-42.545407324169,42.545407324986,-2.2215043360564e-05,2.6320932574126e-29,2.6320932551698e-29,-2.6320932438069e-29,-2.6320932430603e-29,1.4109900370139e-17,-1.4109900360052e-17,-1.4109900355367e-17,1.4109900353437e-17,-6.8248911162606,6.8248911163826,-2.2215043307844e-05,-6.8248911257079,6.8248911255427,1.0033280891668e-47,-1.0033280879586e-47,-1.0033280837975e-47,1.0033280836389e-47,-6.8248911147199,6.8248911139206,-6.8248911272688,6.8248911280249,0,1.0033280904396e-47,1.0033280893606e-47,-1.0033280825635e-47,-1.0033280822757e-47,1.4109900390278e-17,1.4109900380839e-17,-1.4109900335458e-17,-1.410990033288e-17,0,0,0,2.2215043333194e-05,-2.2215043325974e-05,253.11358200701,253.11358200701,253.11358200632,253.11358200632,253.64022853057,253.64022853176,253.64022852948,253.64022853033,252.84944594179,252.84944594264,252.84944594086,252.84944594104,253.11358200752,253.64022853017,253.64022853153,253.64022852988,253.64022853056,253.45238813861,253.45238813941,253.45238813714,253.45238813765,252.8872130368,252.88721303746,253.11358200752,252.88721303539,252.88721303561,253.79030376244,253.7903037639,253.79030376178,253.79030376295,252.88721303628,252.88721303716,252.88721303591,252.88721303591,253.90274562314,253.79030376227,253.7903037638,253.79030376195,253.79030376304,253.45238813792,253.45238813902,253.45238813782,253.45238813804,253.90274562314,253.90274562467,253.90274562467,253.11358200821,253.11358200821,506.00565495299,506.00565510347,0
3.95e-05,20534855.863549,1.1599580053169e-05,1.0003395081276,2.1933776250436e-05,-2.1933776190994e-05,2.1933776226883e-05,2.1933776226451e-05,2.4818874461841e-29,-2.481887443337e-29,-2.4818874398966e-29,2.4818874396892e-29,-42.992687836533,42.9926878361,-42.992687910902,42.992687912139,-2.1933776241325e-05,2.4818874493946e-29,2.4818874469574e-29,-2.4818874367034e-29,-2.4818874360861e-29,1.3524374750416e-17,-1.3524374738538e-17,-1.3524374736677e-17,1.3524374735785e-17,-6.8737675637458,6.8737675644759,-2.1933776191211e-05,-6.8737675743552,6.8737675741539,9.3379994686002e-48,-9.337999454743e-48,-9.3379994178844e-48,9.3379994181172e-48,-6.8737675625593,6.8737675621583,-6.8737675755492,6.873767576479,0,9.3379994798542e-48,9.3379994678987e-48,-9.3379994067298e-48,-9.3379994050607e-48,1.3524374769429e-17,1.3524374759132e-17,-1.3524374717733e-17,-1.352437471526e-17,0,0,0,2.193377621513e-05,-2.1933776205371e-05,252.89868110298,252.89868110298,252.89868110211,252.89868110211,253.54382924578,253.54382924698,253.54382924444,253.54382924529,252.57488387486,252.57488387572,252.57488387368,252.57488387385,252.89868110351,253.54382924531,253.54382924668,253.5438292449,253.54382924558,253.31379147792,253.31379147873,253.31379147612,253.31379147663,252.62119090827,252.62119090894,252.89868110351,252.62119090653,252.62119090675,253.72756355034,253.72756355181,253.72756354952,253.72756355068,252.62119090766,252.62119090856,252.62119090714,252.62119090713,253.86519240288,253.72756355014,253.72756355168,253.72756354972,253.72756355081,253.31379147712,253.31379147823,253.31379147692,253.31379147713,253.86519240288,253.86519240441,253.86519240441,252.89868110439,252.89868110439,505.51558914228,505.51558928996,0
4e-05,20636266.772772,1.1746410182087e-05,1.00039303488,2.1535495785356e-05,-2.1535495726898e-05,2.1535495764218e-05,2.1535495763017e-05,2.3251130262246e-29,-2.3251130232279e-29,-2.325113020338e-29,2.3251130203639e-29,-43.224696280574,43.224696282154,-43.224696360565,43.224696361623,-2.1535495775817e-05,2.3251130291945e-29,2.3251130267134e-29,-2.3251130173631e-29,-2.3251130168734e-29,1.2883247742883e-17,-1.2883247730124e-17,-1.2883247730462e-17,1.2883247730459e-17,-6.8874264476079,6.8874264487377,-2.1535495727475e-05,-6.8874264593708,6.8874264590646,8.6326554536322e-48,-8.6326554390964e-48,-8.6326554060969e-48,8.6326554076292e-48,-6.8874264467414,6.887426446588,-6.8874264602377,6.8874264612149,0,8.6326554637393e-48,8.6326554514585e-48,-8.6326553959506e-48,-8.6326553952278e-48,1.288324776105e-17,1.2883247750511e-17,-1.2883247712283e-17,-1.2883247710061e-17,0,0,0,2.1535495749814e-05,-2.1535495738499e-05,252.68267309988,252.68267309988,252.6826730988,252.6826730988,253.44726076785,253.44726076905,253.44726076624,253.44726076709,252.29865642319,252.29865642406,252.29865642174,252.2986564219,252.68267310042,253.44726076731,253.44726076869,253.44726076677,253.44726076744,253.17471754371,253.17471754452,253.17471754156,253.17471754207,252.35358687417,252.35358687484,252.68267310042,252.35358687208,252.35358687229,253.66487950601,253.66487950747,253.66487950501,253.66487950617,252.35358687347,252.35358687437,252.35358687277,252.35358687275,253.82785221547,253.66487950578,253.66487950732,253.66487950524,253.66487950633,253.17471754279,253.17471754391,253.17471754248,253.17471754268,253.82785221547,253.827852217,253.827852217,252.6826731015,252.6826731015,504.99060218815,504.99060233462,0
4.05e-05,20738395.447078,1.1893240311147e-05,1.000446675462,2.108614924e-05,-2.1086149182629e-05,2.1086149221357e-05,2.1086149219371e-05,2.1713039494868e-29,-2.1713039464409e-29,-2.1713039440144e-29,2.1713039442334e-29,-43.349749216716,43.349749219826,-43.34974930261,43.349749303157,-2.1086149230353e-05,2.1713039522541e-29,2.1713039497978e-29,-2.1713039412342e-29,-2.1713039408635e-29,1.2235104650069e-17,-1.2235104636867e-17,-1.2235104639074e-17,1.2235104639857e-17,-6.8836503438295,6.8836503452641,-2.1086149183397e-05,-6.8836503567712,6.8836503563219,7.9543977875354e-48,-7.9543977728355e-48,-7.9543977431628e-48,7.954397745691e-48,-6.8836503432742,6.8836503433024,-6.8836503573242,6.8836503582812,0,7.9543977966916e-48,7.9543977844693e-48,-7.9543977339204e-48,-7.954397733971e-48,1.2235104667537e-17,1.2235104657045e-17,-1.2235104621563e-17,-1.2235104619636e-17,0,0,0,2.1086149204054e-05,-2.1086149191653e-05,252.46666270084,252.46666270084,252.46666269954,252.46666269954,253.35102020928,253.35102021047,253.35102020738,253.35102020822,252.02217251975,252.02217252063,252.02217251801,252.02217251817,252.46666270137,253.35102020867,253.35102021004,253.35102020798,253.35102020865,253.03588022279,253.0358802236,253.03588022027,253.03588022078,252.08576640365,252.08576640432,252.46666270137,252.08576640118,252.08576640139,253.60257557691,253.60257557838,253.60257557573,253.60257557689,252.08576640286,252.08576640376,252.08576640197,252.08576640195,253.79091931161,253.60257557665,253.60257557819,253.60257557599,253.60257557708,253.03588022175,253.03588022286,253.03588022131,253.03588022152,253.79091931161,253.79091931313,253.79091931313,252.46666270267,252.46666270267,504.44955912282,504.44955926885,0
4.1e-05,20840986.985545,1.2040070440349e-05,1.0005003641684,2.0617874851521e-05,-2.0617874795271e-05,2.061787483544e-05,2.0617874832646e-05,2.0245072683763e-29,-2.0245072653269e-29,-2.0245072633069e-29,2.0245072636941e-29,-43.421972825988,43.421972830453,-43.421972918149,43.42197291796,-2.0617874841938e-05,2.0245072709621e-29,2.0245072685608e-29,-2.0245072607032e-29,-2.0245072604423e-29,1.1602046039724e-17,-1.1602046026282e-17,-1.1602046030158e-17,1.1602046031664e-17,-6.871298688613,6.8712986903148,-2.0617874796166e-05,-6.8712987027843,6.8712987021632,7.3177881538706e-48,-7.3177881392388e-48,-7.3177881125131e-48,7.3177881158576e-48,-6.871298688371,6.8712986885571,-6.8712987030218,6.8712987039164,0,7.3177881621881e-48,7.3177881501905e-48,-7.3177881040805e-48,-7.3177881047908e-48,1.1602046056566e-17,1.1602046046256e-17,-1.1602046013254e-17,-1.1602046011628e-17,0,0,0,2.0617874815089e-05,-2.0617874801816e-05,252.25119403775,252.25119403775,252.25119403622,252.25119403622,253.25535073645,253.25535073764,253.25535073425,253.25535073509,251.74612711985,251.74612712072,251.7461271178,251.74612711796,252.25119403828,253.25535073577,253.25535073713,253.25535073493,253.2553507356,252.89762997588,252.89762997669,252.89762997296,252.89762997347,251.81840290728,251.81840290794,252.25119403828,251.81840290441,251.81840290463,253.54080932433,253.54080932579,253.54080932296,253.54080932411,251.81840290639,251.81840290728,251.8184029053,251.81840290529,253.75448721108,253.54080932404,253.54080932557,253.54080932325,253.54080932433,252.89762997471,252.89762997581,252.89762997413,252.89762997434,253.75448721108,253.7544872126,253.7544872126,252.25119403981,252.25119403981,503.90176836511,503.90176851107,0
4.15e-05,20943915.15012,1.2186900569695e-05,1.0005540686956,2.0146123494908e-05,-2.0146123439799e-05,2.0146123481451e-05,2.0146123477821e-05,1.8862047703012e-29,-1.8862047672671e-29,-1.8862047656146e-29,1.8862047661535e-29,-43.468192441746,43.468192447565,-43.46819254058,43.468192539475,-2.0146123485486e-05,1.8862047727202e-29,1.8862047703849e-29,-1.8862047631759e-29,-1.886204763016e-29,1.0993505168161e-17,-1.0993505154565e-17,-1.0993505159983e-17,1.0993505162173e-17,-6.8547482224659,6.85474822443,-2.0146123440813e-05,-6.854748237932,6.8547482371144,6.7270604102636e-48,-6.7270603957938e-48,-6.727060371733e-48,6.7270603757805e-48,-6.8547482225478,6.8547482228922,-6.8547482378443,6.8547482386465,0,6.7270604178268e-48,6.7270604061144e-48,-6.7270603640462e-48,-6.7270603653362e-48,1.0993505184417e-17,1.0993505174348e-17,-1.0993505143657e-17,-1.0993505142319e-17,0,0,0,2.0146123457957e-05,-2.0146123443891e-05,252.03653256928,252.03653256928,252.03653256749,252.03653256749,253.16036968701,253.1603696882,253.16036968448,253.16036968533,251.4708599286,251.47085992946,251.47085992621,251.47085992638,252.03653256979,253.16036968625,253.1603696876,253.16036968524,253.16036968592,252.76013689476,252.76013689556,252.76013689143,252.76013689194,251.55182549143,251.55182549209,252.03653256979,251.55182548814,251.55182548836,253.47965607472,253.47965607617,253.47965607314,253.47965607429,251.55182549044,251.55182549132,251.55182548913,251.55182548912,253.71859987168,253.4796560744,253.47965607592,253.47965607346,253.47965607455,252.76013689345,252.76013689455,252.76013689273,252.76013689295,253.71859987168,253.7185998732,253.7185998732,252.03653257158,252.03653257158,503.35180576789,503.35180591396,0
4.2e-05,21047117.578984,1.2333730699191e-05,1.0006077732086,1.9678224906667e-05,-1.9678224852699e-05,1.9678224895889e-05,1.9678224891402e-05,1.7567124353021e-29,-1.7567124322925e-29,-1.7567124309758e-29,1.7567124316521e-29,-43.50164400672,43.501644013964,-43.50164411267,43.501644110496,-1.967822489747e-05,1.7567124375657e-29,1.7567124353004e-29,-1.7567124286915e-29,-1.7567124286235e-29,1.0412976928121e-17,-1.0412976914414e-17,-1.0412976921278e-17,1.0412976924113e-17,-6.8361513633421,6.8361513655764,-1.967822485385e-05,-6.8361513801764,6.8361513791409,6.1819090553466e-48,-6.181909041085e-48,-6.1819090194499e-48,6.1819090241074e-48,-6.8361513637615,6.8361513642747,-6.8361513797504,6.836151380436,0,6.1819090622216e-48,6.1819090508177e-48,-6.1819090124478e-48,-6.1819090142477e-48,1.0412976943819e-17,1.0412976934018e-17,-1.0412976905503e-17,-1.0412976904433e-17,0,0,0,1.9678224869178e-05,-1.9678224854344e-05,251.82280638026,251.82280638026,251.82280637821,251.82280637821,253.06613258019,253.06613258136,253.06613257731,253.06613257816,251.19653536923,251.19653537007,251.19653536648,251.19653536666,251.82280638076,253.06613257934,253.06613258068,253.06613257815,253.06613257884,252.62348230817,252.62348230896,252.62348230439,252.6234823049,251.28619340152,251.28619340218,251.82280638076,251.28619339777,251.286193398,253.41915086008,253.41915086151,253.41915085827,253.41915085943,251.28619340042,251.28619340129,251.28619339887,251.28619339888,253.68327708085,253.41915085972,253.41915086122,253.41915085863,253.41915085971,252.62348230672,252.6234823078,252.62348230584,252.62348230607,253.68327708085,253.68327708236,253.68327708236,251.82280638281,251.82280638281,502.80191399096,502.80191413724,0
4.25e-05,21150563.481972,1.2480560828846e-05,1.0006614699708,1.9217586069578e-05,-1.9217586016754e-05,1.9217586061543e-05,1.9217586056168e-05,1.6358340233411e-29,-1.6358340203598e-29,-1.6358340193514e-29,1.635834020154e-29,-43.528841245716,43.528841254497,-43.528841359264,43.528841355853,-1.9217586060663e-05,1.635834025459e-29,1.6358340232643e-29,-1.6358340172129e-29,-1.635834017229e-29,9.8612191608075e-18,-9.8612191470103e-18,-9.861219155239e-18,9.8612191586927e-18,-6.8165638546187,6.8165638571383,-1.9217586018066e-05,-6.8165638729025,6.8165638716245,5.6801479605872e-48,-5.6801479465522e-48,-5.6801479271322e-48,5.6801479323288e-48,-6.8165638553914,6.8165638560892,-6.8165638721225,6.8165638726663,0,5.6801479668317e-48,5.6801479557397e-48,-5.6801479207635e-48,-5.680147923017e-48,9.8612191759698e-18,9.8612191664508e-18,-9.861219139999e-18,-9.8612191391744e-18,0,0,0,1.9217586031543e-05,-1.9217586015941e-05,251.61007614564,251.61007614564,251.6100761433,251.6100761433,252.97266470639,252.97266470755,252.97266470315,252.972664704,250.92323177381,250.92323177464,250.92323177067,250.92323177087,251.61007614611,252.97266470546,252.97266470678,252.97266470408,252.97266470477,252.48770406424,252.48770406502,252.48770405999,252.48770406051,251.02158246444,251.02158246508,251.61007614611,251.02158246021,251.02158246044,253.35930906306,253.35930906448,253.35930906101,253.35930906217,251.02158246323,251.02158246407,251.02158246142,251.02158246145,253.64852689824,253.35930906266,253.35930906415,253.35930906141,253.3593090625,252.48770406264,252.4877040637,252.48770406158,252.48770406183,253.64852689824,253.64852689975,253.64852689975,251.61007614845,251.61007614845,502.25318841965,502.25318856618,0
4.3e-05,21254237.633184,1.2627390958666e-05,1.000715155221,1.8765727776859e-05,-1.8765727725174e-05,1.8765727771631e-05,1.876572776534e-05,1.5231618309629e-29,-1.5231618280111e-29,-1.5231618272871e-29,1.5231618282057e-29,-43.552984150854,43.552984161327,-43.552984272517,43.552984267707,-1.8765727768271e-05,1.5231618329429e-29,1.5231618308173e-29,-1.5231618252858e-29,-1.5231618253781e-29,9.3377571439603e-18,-9.3377571300798e-18,-9.3377571396034e-18,9.3377571436484e-18,-6.7965026547319,6.7965026575586,-1.8765727726686e-05,-6.7965026745522,6.7965026730083,5.218909058386e-48,-5.2189090445832e-48,-5.218909027192e-48,5.2189090328646e-48,-6.796502655875,6.7965026567796,-6.7965026734007,6.796502673779,0,5.2189090640461e-48,5.2189090532598e-48,-5.2189090214052e-48,-5.218909024061e-48,9.3377571586006e-18,9.3377571493679e-18,-9.3377571248803e-18,-9.3377571242776e-18,0,0,0,1.876572773828e-05,-1.8765727721889e-05,251.39836955372,251.39836955372,251.39836955108,251.39836955108,252.87997661748,252.87997661863,252.87997661386,252.87997661471,250.65098530628,250.65098530709,250.65098530273,250.65098530295,251.39836955417,252.87997661647,252.87997661776,252.87997661487,252.87997661558,252.35281877241,252.35281877318,252.35281876766,252.35281876818,250.75802765311,250.75802765374,251.39836955417,250.75802764837,250.75802764861,253.30013651413,253.30013651554,253.30013651184,253.300136513,250.75802765178,250.7580276526,250.75802764969,250.75802764975,253.61435171282,253.3001365137,253.30013651517,253.30013651227,253.30013651337,252.35281877066,252.35281877168,252.35281876941,252.35281876968,253.61435171282,253.61435171432,253.61435171432,251.39836955681,251.39836955681,501.70616127622,501.70616142301,0
4.35e-05,21358132.466708,1.2774221088663e-05,1.0007688271474,1.832326715422e-05,-1.832326710367e-05,1.8323267151861e-05,1.8323267144625e-05,1.4182133996617e-29,-1.4182133967392e-29,-1.4182133962779e-29,1.4182133973032e-29,-43.575642675313,43.575642687657,-43.575642805644,43.57564279926,-1.8323267146003e-05,1.4182134015119e-29,1.4182133994534e-29,-1.4182133944071e-29,-1.4182133945683e-29,8.8415852358379e-18,-8.8415852218758e-18,-8.841585232631e-18,8.8415852372427e-18,-6.776220596739,6.7762205998984,-1.8323267105424e-05,-6.776220618189,6.7762206163538,4.795172144663e-48,-4.7951721310921e-48,-4.7951721155608e-48,4.7951721216538e-48,-6.7762205982716,6.7762205994082,-6.7762206166477,6.7762206168353,0,4.7951721497871e-48,4.7951721392968e-48,-4.7951721103156e-48,-4.795172113328e-48,8.841585249973e-18,8.8415852410276e-18,-8.8415852184143e-18,-8.8415852180093e-18,0,0,0,1.8323267115097e-05,-1.8323267097888e-05,251.18769818342,251.18769818342,251.18769818045,251.18769818045,252.78807169554,252.78807169667,252.78807169149,252.78807169236,250.37981151692,250.3798115177,250.37981151294,250.37981151318,251.18769818383,252.78807169442,252.78807169569,252.7880716926,252.78807169334,252.21883268954,252.2188326903,252.21883268427,252.2188326848,250.49554397186,250.49554397247,251.18769818383,250.49554396657,250.49554396683,253.24163441208,253.24163441347,253.24163440952,253.24163441069,250.49554397041,250.49554397119,250.49554396802,250.49554396811,253.58075118042,253.24163441161,253.24163441306,253.24163440999,253.2416344111,252.21883268763,252.21883268862,252.21883268618,252.21883268648,253.58075118042,253.58075118191,253.58075118191,251.1876981868,251.1876981868,501.16108870315,501.16108885022,0
4.4e-05,21462244.181913,1.2921051218848e-05,1.0008224848925,1.7890390181604e-05,-1.7890390132187e-05,1.7890390182185e-05,1.789039017397e-05,1.3204926569789e-29,-1.3204926540854e-29,-1.3204926538666e-29,1.3204926549901e-29,-43.597586129472,43.597586143881,-43.59758626906,43.597586260906,-1.7890390173805e-05,1.3204926587061e-29,1.3204926567127e-29,-1.3204926521193e-29,-1.3204926523428e-29,8.371491868755e-18,-8.3714918547121e-18,-8.3714918666385e-18,8.3714918717948e-18,-6.7558412268844,6.7558412304038,-1.7890390134228e-05,-6.7558412500628,6.7558412479084,4.4059914869027e-48,-4.4059914735623e-48,-4.4059914597354e-48,4.4059914661995e-48,-6.755841228826,6.7558412302222,-6.755841248112,6.7558412480808,0,4.4059914915313e-48,4.405991481327e-48,-4.4059914549912e-48,-4.4059914583191e-48,8.3714918823972e-18,8.37149187374e-18,-8.3714918529157e-18,-8.3714918526862e-18,0,0,0,1.7890390141941e-05,-1.7890390123885e-05,250.97806576091,250.97806576091,250.97806575759,250.97806575759,252.69694984289,252.696949844,252.69694983841,252.69694983929,250.10971589707,250.10971589782,250.10971589262,250.10971589289,250.97806576127,252.69694984168,252.69694984291,252.69694983962,252.69694984038,252.08574703647,252.08574703722,252.08574703064,252.08574703118,250.23413668224,250.23413668283,250.97806576127,250.23413667636,250.23413667665,253.18380171643,253.1838017178,253.18380171358,253.18380171476,250.23413668065,250.2341366814,250.23413667795,250.23413667808,253.54772364504,253.18380171591,253.18380171733,253.1838017141,253.18380171522,252.08574703439,252.08574703534,252.08574703271,252.08574703305,253.54772364504,253.54772364652,253.54772364652,250.97806576458,250.97806576458,500.61809165269,500.61809180004,0
4.45e-05,21566570.827233,1.3067881349231e-05,1.0008761280661,1.7467078477117e-05,-1.7467078428835e-05,1.7467078480714e-05,1.7467078471484e-05,1.2295164611315e-29,-1.2295164582671e-29,-1.2295164582717e-29,1.2295164594859e-29,-43.619191016625,43.619191033303,-43.619191166098,43.619191155953,-1.7467078469786e-05,1.2295164627423e-29,1.2295164608121e-29,-1.2295164566413e-29,-1.2295164569213e-29,7.9262086876994e-18,-7.9262086735776e-18,-7.9262086866163e-18,7.9262086922978e-18,-6.7354248807202,6.735424884628,-1.7467078431207e-05,-6.7354249057314,6.7354249032262,4.0485861824893e-48,-4.048586169378e-48,-4.0485861571123e-48,4.0485861639033e-48,-6.7354248830914,6.7354248847759,-6.7354249033505,6.7354249030686,0,4.0485861866594e-48,4.048586176732e-48,-4.048586152831e-48,-4.0485861564381e-48,7.9262087008598e-18,7.9262086924931e-18,-7.9262086733757e-18,-7.9262086733019e-18,0,0,0,1.746707843692e-05,-1.7467078417988e-05,250.769472193,250.769472193,250.76947218931,250.76947218931,252.6066092785,252.60660927958,252.60660927355,252.60660927444,249.84069903982,249.84069904053,249.84069903487,249.84069903517,250.7694721933,252.60660927719,252.60660927837,252.60660927486,252.60660927565,251.95356059058,251.9535605913,251.95356058414,251.9535605847,249.97380630229,249.97380630286,250.7694721933,249.9738062958,249.97380629611,253.12663630889,253.12663631024,253.12663630575,253.12663630693,249.97380630057,249.97380630126,249.97380629752,249.9738062977,253.51526682535,253.12663630833,253.12663630972,253.1266363063,253.12663630744,251.95356058832,251.95356058921,251.9535605864,251.95356058678,253.51526682535,253.51526682683,253.51526682683,250.76947219699,250.76947219699,500.07722495027,500.0772250979,0
4.5e-05,21671111.358474,1.3214711479827e-05,1.0009297565058,1.7053217968901e-05,-1.7053217921753e-05,1.7053217975593e-05,1.7053217965313e-05,1.1448253989669e-29,-1.1448253961307e-29,-1.1448253963412e-29,1.1448253976388e-29,-43.640641314801,43.640641333987,-43.640641474831,43.640641462466,-1.705321796209e-05,1.144825400467e-29,1.1448253985977e-29,-1.1448253948214e-29,-1.1448253951522e-29,7.5044778542773e-18,-7.5044778400745e-18,-7.5044778541717e-18,7.5044778603582e-18,-6.715001020124,6.7150010244535,-1.7053217924508e-05,-6.7150010470791,6.715001044191,3.7203699594624e-48,-3.7203699465761e-48,-3.7203699357403e-48,3.7203699428175e-48,-6.7150010229461,6.7150010249529,-6.7150010442464,6.715001043681,0,3.720369963207e-48,3.7203699535456e-48,-3.7203699318858e-48,-3.7203699357381e-48,7.5044778669653e-18,7.5044778588885e-18,-7.5044778414016e-18,-7.504477841462e-18,0,0,0,1.7053217928182e-05,-1.7053217908336e-05,250.56191553506,250.56191553506,250.56191553098,250.56191553098,252.51704741125,252.51704741231,252.51704740582,252.51704740672,249.57275916039,249.57275916104,249.5727591549,249.57275915524,250.56191553529,252.51704740984,252.51704741097,252.51704740723,252.51704740806,251.82227094848,251.82227094918,251.82227094142,251.82227094199,249.71455104782,249.71455104835,250.56191553529,249.71455104067,249.714551041,253.07013555649,253.07013555782,253.07013555303,253.07013555422,249.71455104596,249.71455104659,249.71455104253,249.71455104277,253.48337814589,253.07013555589,253.07013555724,253.07013555363,253.07013555479,251.82227094604,251.82227094687,251.82227094386,251.8222709443,253.48337814589,253.48337814735,253.48337814735,250.56191553938,250.56191553938,499.53851111531,499.53851126323,0
4.55e-05,21775865.176497,1.3361541610649e-05,1.0009833701606,1.6648650891872e-05,-1.6648650845857e-05,1.6648650901734e-05,1.6648650890368e-05,1.0659874762085e-29,-1.0659874734001e-29,-1.0659874738004e-29,1.0659874751744e-29,-43.662026726915,43.662026748866,-43.662026898213,43.662026883379,-1.6648650885632e-05,1.0659874776043e-29,1.0659874757938e-29,-1.0659874723861e-29,-1.0659874727621e-29,7.1050813863419e-18,-7.1050813720573e-18,-7.105081387162e-18,7.1050813938334e-18,-6.6945840416102,6.6945840463967,-1.6648650849049e-05,-6.6945840706256,6.6945840673202,3.4189545776864e-48,-3.4189545650221e-48,-3.4189545554968e-48,3.4189545628218e-48,-6.694584044906,6.6945840472716,-6.6945840673192,6.6945840664346,0,3.4189545810408e-48,3.4189545716358e-48,-3.4189545520405e-48,-3.4189545561062e-48,7.10508139857e-18,7.1050813907827e-18,-7.1050813748553e-18,-7.1050813750293e-18,0,0,0,1.6648650850638e-05,-1.664865082984e-05,250.35539295022,250.35539295022,250.35539294571,250.35539294571,252.42826126421,252.42826126523,252.42826125824,252.42826125917,249.30589332571,249.30589332631,249.30589331965,249.30589332005,250.35539295037,252.42826126268,252.42826126375,252.42826125977,252.42826126065,251.69187514047,251.69187514114,251.69187513273,251.69187513333,249.45636802322,249.45636802371,250.35539295037,249.45636801537,249.45636801574,253.01429658428,253.01429658557,253.01429658047,253.01429658168,249.45636802121,249.45636802177,249.45636801738,249.45636801768,253.45205489648,253.01429658363,253.01429658494,253.01429658112,253.01429658231,251.69187513783,251.69187513859,251.69187513537,251.69187513587,253.45205489648,253.45205489794,253.45205489794,250.35539295488,250.35539295488,499.00195690841,499.00195705661,0
4.6e-05,21880831.900451,1.3508371741711e-05,1.0010369690339,1.6253200623791e-05,-1.6253200578911e-05,1.6253200636908e-05,1.6253200624418e-05,9.9259864769608e-30,-9.9259864491491e-30,-9.9259864548988e-30,9.9259864693388e-30,-43.683390832163,43.683390857158,-43.683391015487,43.68339099791,-1.6253200618179e-05,9.9259864899278e-30,9.9259864723923e-30,-9.9259864417567e-30,-9.9259864459205e-30,6.7268529575975e-18,-6.7268529432302e-18,-6.726852959293e-18,6.7268529664308e-18,-6.6741809969254,6.6741810022069,-1.6253200582598e-05,-6.6741810281248,6.6741810243644,3.1421421741706e-48,-3.142142161725e-48,-3.1421421533995e-48,3.1421421609381e-48,-6.6741810007182,6.6741810034824,-6.674181024321,6.674181023078,0,3.1421421771637e-48,3.1421421680059e-48,-3.142142150311e-48,-3.1421421545618e-48,6.7268529693744e-18,6.7268529618767e-18,-6.7268529474402e-18,-6.7268529477084e-18,0,0,0,1.6253200582055e-05,-1.6253200560266e-05,250.14990117642,250.14990117642,250.14990117146,250.14990117146,252.34024768033,252.34024768132,252.34024767382,252.34024767477,249.0400980538,249.04009805433,249.04009804713,249.04009804759,250.14990117647,252.34024767869,252.3402476797,252.34024767546,252.3402476764,251.56236992904,251.56236992969,251.5623699206,251.56236992122,249.19925380185,249.1992538023,250.14990117647,249.19925379326,249.19925379366,252.95911640723,252.95911640849,252.95911640307,252.9591164043,249.19925379968,249.19925380016,249.19925379542,249.1992537958,253.42129430906,252.95911640653,252.9591164078,252.95911640377,252.95911640499,251.56236992621,251.56236992688,251.56236992344,251.56236992402,253.42129430906,253.4212943105,253.4212943105,250.14990118143,250.14990118143,498.46756141987,498.46756156835,0
4.65e-05,21986011.256649,1.3655201873029e-05,1.0010905531552,1.5866683519225e-05,-1.5866683475483e-05,1.5866683535688e-05,1.5866683522035e-05,9.2428198592472e-30,-9.2428198317048e-30,-9.2428198390585e-30,9.2428198541374e-30,-43.704754663425,43.704754691767,-43.704754859584,43.704754838966,-1.58666835143e-05,9.2428198712682e-30,9.242819854284e-30,-9.2428198268595e-30,-9.2428198313801e-30,6.3686816494003e-18,-6.3686816349501e-18,-6.3686816519235e-18,6.3686816595095e-18,-6.6537953602935,6.6537953661104,-1.5866683479724e-05,-6.6537953938072,6.6537953895518,2.8879133993729e-48,-2.8879133871437e-48,-2.8879133799155e-48,2.8879133876355e-48,-6.6537953646071,6.6537953678127,-6.6537953894816,6.6537953878374,0,2.887913402029e-48,2.8879133931102e-48,-2.887913377164e-48,-2.8879133815735e-48,6.3686816607321e-18,6.3686816535245e-18,-6.3686816405129e-18,-6.3686816408563e-18,0,0,0,1.5866683477005e-05,-1.5866683454186e-05,249.94543675359,249.94543675359,249.94543674815,249.94543674815,252.2530034223,252.25300342325,252.2530034152,252.25300341618,248.77536960553,248.77536960599,248.77536959821,248.77536959874,249.94543675354,252.25300342054,252.25300342147,252.25300341696,252.25300341796,251.43375195398,251.43375195459,251.43375194479,251.43375194543,248.94320470859,248.94320470899,249.94543675354,248.94320469921,248.94320469965,252.90459199403,252.90459199525,252.90459198948,252.90459199073,248.94320470626,248.94320470664,248.94320470153,248.94320470201,253.39109359446,252.90459199328,252.90459199449,252.90459199023,252.90459199149,251.43375195094,251.43375195151,251.43375194783,251.4337519485,253.39109359446,253.3910935959,253.3910935959,249.94543675898,249.94543675898,497.93532002021,497.93532016897,0
4.7e-05,22091403.024152,1.380203200462e-05,1.0011441225668,1.5488914525498e-05,-1.5488914482897e-05,1.5488914545394e-05,1.5488914530536e-05,8.6068630332762e-30,-8.6068630059966e-30,-8.6068630148228e-30,8.6068630304863e-30,-43.72612824203,43.72612827405,-43.726128451884,43.7261284279,-1.5488914521322e-05,8.6068630444039e-30,8.6068630279525e-30,-8.6068630035261e-30,-8.6068630083615e-30,6.029512058823e-18,-6.0295120442883e-18,-6.0295120621273e-18,6.0295120701454e-18,-6.6334288650321,6.6334288714288,-1.5488914487756e-05,-6.6334289009982,6.6334288962037,2.6544143635338e-48,-2.6544143515168e-48,-2.6544143452924e-48,2.654414353166e-48,-6.6334288698923,6.6334288735865,-6.6334288961257,6.6334288940337,0,2.654414365881e-48,2.6544143571925e-48,-2.6544143428559e-48,-2.6544143474009e-48,6.0295120697201e-18,6.0295120628026e-18,-6.0295120511542e-18,-6.0295120515551e-18,0,0,0,1.5488914482808e-05,-1.5488914458915e-05,249.74199613409,249.74199613409,249.74199612814,249.74199612814,252.16652522073,252.16652522163,252.166525213,252.16652521402,248.51170412661,248.51170412699,248.51170411859,248.51170411921,249.74199613391,252.16652521884,252.16652521968,252.16652521489,252.16652521596,251.3060178026,251.30601780317,251.30601779262,251.30601779329,248.68821695724,248.68821695759,249.74199613391,248.68821694703,248.68821694753,252.85072029778,252.85072029896,252.85072029283,252.8507202941,248.68821695475,248.68821695502,248.68821694952,248.6882169501,253.36144996017,252.85072029697,252.85072029813,252.85072029363,252.85072029493,251.30601779934,251.30601779981,251.30601779587,251.30601779665,253.36144996017,253.36144996159,253.36144996159,249.74199613987,249.74199613987,497.40522628781,497.40522643686,0
4.75e-05,22197007.008149,1.3948862136502e-05,1.0011976773171,1.5119709827898e-05,-1.5119709786442e-05,1.5119709851325e-05,1.5119709835218e-05,8.0148459505749e-30,-8.014845923554e-30,-8.0148459337288e-30,8.0148459499247e-30,-43.747516215904,43.747516251961,-43.74751644037,43.747516412665,-1.5119709824537e-05,8.0148459608518e-30,8.0148459449161e-30,-8.014845923287e-30,-8.0148459283976e-30,5.7083428019567e-18,-5.7083427873368e-18,-5.7083428059978e-18,5.708342814432e-18,-6.6130823981465,6.6130824051702,-1.5119709791986e-05,-6.6130824367106,6.6130824313303,2.4399436924608e-48,-2.4399436806528e-48,-2.4399436753457e-48,2.4399436833465e-48,-6.6130824035794,6.6130824078131,-6.6130824312647,6.6130824286744,0,2.4399436945212e-48,2.4399436860551e-48,-2.4399436731993e-48,-2.4399436778583e-48,5.7083428124254e-18,5.7083428057984e-18,-5.7083427954535e-18,-5.7083427958947e-18,0,0,0,1.5119709784759e-05,-1.5119709759748e-05,249.53957573621,249.53957573621,249.53957572971,249.53957572971,252.08080979751,252.08080979836,252.08080978912,252.08080979018,248.24909771651,248.24909771678,248.24909770774,248.24909770845,249.53957573589,252.0808097955,252.08080979624,252.08080979114,252.08080979231,251.17916404382,251.17916404435,251.17916403301,251.17916403371,248.4342867173,248.43428671758,249.53957573589,248.43428670619,248.43428670675,252.79749827085,252.79749827198,252.79749826546,252.79749826677,248.43428671463,248.43428671477,248.43428670887,248.43428670957,253.33236061869,252.79749826999,252.79749827107,252.79749826632,252.79749826768,251.17916404034,251.17916404068,251.17916403649,251.17916403738,253.33236061869,253.33236062011,253.33236062011,249.53957574239,249.53957574239,496.87727294872,496.87727309806,0
4.8e-05,22302823.026946,1.4095692268693e-05,1.0012512174572,1.4758888077265e-05,-1.475888803696e-05,1.4758888104319e-05,1.4758888086921e-05,7.4637246460035e-30,-7.4637246192379e-30,-7.4637246306456e-30,7.463724647324e-30,-43.768920613369,43.768920653852,-43.76892085342,43.768920821615,-1.4758888074789e-05,7.4637246554745e-30,7.4637246400387e-30,-7.4637246210182e-30,-7.4637246263668e-30,5.4042243534919e-18,-5.4042243387864e-18,-5.4042243582278e-18,5.4042243670619e-18,-6.5927564357325,6.592756443434,-1.4758888043259e-05,-6.5927564770484,6.5927564710322,2.2429402229963e-48,-2.2429402113947e-48,-2.2429402069249e-48,2.2429402150286e-48,-6.5927564417655,6.5927564465941,-6.5927564710021,6.5927564678589,0,2.242940224793e-48,2.2429402165422e-48,-2.2429402050478e-48,-2.2429402098008e-48,5.4042243635406e-18,5.4042243572045e-18,-5.4042243481062e-18,-5.4042243485708e-18,0,0,0,1.4758888033697e-05,-1.4758888007523e-05,249.33817197015,249.33817197015,249.33817196307,249.33817196307,251.9958538771,251.99585387789,251.99585386801,251.99585386911,247.98754646188,247.98754646204,247.98754645233,247.98754645315,249.33817196966,251.99585387494,251.99585387557,251.99585387016,251.99585387142,251.05318724465,251.05318724512,251.05318723294,251.05318723369,248.18141014627,248.18141014648,249.33817196966,248.18141013422,248.18141013485,252.74492287195,252.74492287303,252.74492286611,252.74492286746,248.18141014341,248.18141014341,248.18141013707,248.18141013791,253.30382279163,252.74492287103,252.74492287204,252.74492286703,252.74492286844,251.05318724093,251.05318724113,251.05318723666,251.05318723768,253.30382279163,253.30382279304,253.30382279304,249.33817197675,249.33817197675,496.35145233441,496.35145248402,0
4.85e-05,22408850.90561,1.4242522401212e-05,1.0013047430396,1.4406270941735e-05,-1.440627090259e-05,1.4406270972523e-05,1.4406270953783e-05,6.9506660166398e-30,-6.9506659901264e-30,-6.9506660026581e-30,6.9506660197759e-30,-43.790342186773,43.790342232095,-43.790342443446,43.790342407112,-1.4406270940219e-05,6.9506660253424e-30,6.9506660103922e-30,-6.950665993804e-30,-6.9506659993586e-30,5.1162566543914e-18,-5.1162566396003e-18,-5.1162566597812e-18,5.1162566690022e-18,-6.5724512546705,6.5724512631032,-1.4406270909716e-05,-6.5724512989006,6.5724512921927,2.0619715269506e-48,-2.0619715155524e-48,-2.0619715118463e-48,2.0619715200321e-48,-6.572451261332,6.572451266814,-6.5724512922253,6.5724512884681,0,2.0619715285027e-48,2.0619715204601e-48,-2.0619715102175e-48,-2.0619715150475e-48,5.1162566640254e-18,5.1162566579818e-18,-5.1162566500753e-18,-5.1162566505488e-18,0,0,0,1.4406270897763e-05,-1.4406270870381e-05,249.13778125052,249.13778125052,249.13778124282,249.13778124282,251.91165419183,251.91165419256,251.911654182,251.91165418316,247.72704645278,247.72704645282,247.72704644239,247.72704644332,249.13778124986,251.91165418954,251.91165419004,251.9116541843,251.91165418567,250.92808397803,250.92808397845,250.92808396538,250.92808396618,247.92958340534,247.92958340546,249.13778124986,247.92958339228,247.92958339299,252.69299106956,252.69299107057,252.69299106323,252.69299106461,247.92958340229,247.92958340213,247.92958339533,247.92958339632,253.27583371154,252.69299106858,252.6929910695,252.6929910642,252.69299106568,250.92808397406,250.92808397411,250.92808396934,250.92808397052,253.27583371154,253.27583371294,253.27583371294,249.13778125756,249.13778125756,495.82775660437,495.82775675427,0
4.9e-05,22515090.472864,1.4389352534082e-05,1.001358254117,1.4061683337025e-05,-1.4061683299045e-05,1.4061683371652e-05,1.4061683351525e-05,6.4730333978108e-30,-6.4730333715455e-30,-6.4730333851019e-30,6.4730334026145e-30,-43.811781067747,43.811781118374,-43.811781342145,43.811781300838,-1.4061683336544e-05,6.4730334057834e-30,6.473033391303e-30,-6.4730333769838e-30,-6.4730333827115e-30,4.8435866837566e-18,-4.8435866688789e-18,-4.8435866897619e-18,4.8435866993543e-18,-6.5521670354951,6.5521670447187,-1.4061683307079e-05,-6.5521670828107,6.5521670753542,1.8957233029655e-48,-1.8957232917675e-48,-1.8957232887582e-48,1.8957232970053e-48,-6.5521670428146,6.5521670490161,-6.552167075477,6.5521670710425,0,1.8957233042918e-48,1.8957232964508e-48,-1.8957232873591e-48,-1.8957232922493e-48,4.8435866929823e-18,4.8435866872311e-18,-4.8435866804659e-18,-4.8435866809318e-18,0,0,0,1.4061683292675e-05,-1.4061683264033e-05,248.93840000238,248.93840000238,248.93839999401,248.93839999401,251.82820748459,251.82820748524,251.82820747397,251.82820747519,247.46759379041,247.4675937903,247.46759377911,247.46759378018,248.9384000015,251.82820748215,251.82820748251,251.82820747641,251.82820747792,250.80385082669,250.80385082705,250.80385081305,250.8038508139,247.67880266689,247.67880266692,248.9384000015,247.67880265277,247.67880265356,252.64169984347,252.64169984442,252.64169983663,252.64169983806,247.67880266364,247.6788026633,247.67880265601,247.67880265719,253.24839062284,252.64169984243,252.64169984326,252.64169983767,252.64169983922,250.80385082247,250.80385082234,250.80385081727,250.80385081861,253.24839062284,253.24839062423,253.24839062423,248.93840000987,248.93840000987,495.30617785438,495.30617800455,0
4.95e-05,22621541.559577,1.4536182667325e-05,1.0014117507427,1.3724953504003e-05,-1.3724953467196e-05,1.3724953542578e-05,1.3724953521017e-05,6.0283730222118e-30,-6.0283729961911e-30,-6.0283730106795e-30,6.0283730285455e-30,-43.833237086313,43.833237142745,-43.833237379606,43.833237332844,-1.3724953504636e-05,6.0283730294889e-30,6.0283730154638e-30,-6.0283730032609e-30,-6.0283730091313e-30,4.585406081899e-18,-4.585406066934e-18,-4.5854060884831e-18,4.5854060984323e-18,-6.5319039123115,6.5319039223894,-1.372495347622e-05,-6.5319039628929,6.5319039546264,1.7429896125074e-48,-1.7429896015067e-48,-1.7429895991323e-48,1.7429896074221e-48,-6.5319039203192,6.5319039273113,-6.5319039548703,6.5319039496896,0,1.7429896136247e-48,1.7429896059787e-48,-1.7429895979452e-48,-1.7429896028803e-48,4.5854060907216e-18,4.5854060852629e-18,-4.5854060795909e-18,-4.5854060800338e-18,0,0,0,1.3724953459304e-05,-1.3724953429351e-05,248.74002466403,248.74002466403,248.74002465496,248.74002465496,251.74551050994,251.74551051051,251.74551049849,251.74551049978,247.20918459081,247.20918459054,247.20918457855,247.20918457978,248.74002466293,251.74551050735,251.74551050755,251.74551050108,251.74551050273,250.68048438493,250.68048438522,250.68048437023,250.68048437115,247.42906411811,247.42906411804,248.74002466293,247.42906410286,247.42906410375,252.59104618561,252.59104618648,252.59104617822,252.59104617971,247.42906411465,247.42906411411,247.42906410631,247.42906410768,253.22149078216,252.5910461845,252.59104618523,252.59104617932,252.59104618097,250.68048438044,250.68048438011,250.68048437472,250.68048437625,253.22149078216,253.22149078354,253.22149078354,248.740024672,248.740024672,494.78670816888,494.78670831933,0
5e-05,22728203.998025,1.4683012800964e-05,1.0014652329695,1.3395913014179e-05,-1.3395912978556e-05,1.3395913056818e-05,1.3395913033771e-05,5.6144013651438e-30,-5.6144013393668e-30,-5.6144013546986e-30,5.6144013728803e-30,-43.854709926305,43.854709989073,-43.854710239739,43.854710186987,-1.3395913016012e-05,5.6144013717616e-30,5.6144013581798e-30,-5.6144013479479e-30,-5.6144013539344e-30,4.3409488614565e-18,-4.3409488464052e-18,-4.3409488685844e-18,4.3409488788774e-18,-6.5116619970161,6.5116620080147,-1.3395912988656e-05,-6.5116620510539,6.51166204191,1.6026639112954e-48,-1.6026639004899e-48,-1.602663898693e-48,1.6026639070087e-48,-6.511662005744,6.5116620136017,-6.511662042311,6.511662036308,0,1.6026639122211e-48,1.6026639047646e-48,-1.6026638977027e-48,-1.6026639026694e-48,4.3409488698827e-18,4.3409488647182e-18,-4.3409488600918e-18,-4.3409488604979e-18,0,0,0,1.3395912969161e-05,-1.3395912937847e-05,248.54265168843,248.54265168843,248.5426516786,248.5426516786,251.66356003471,251.66356003518,251.66356002238,251.66356002374,246.95181498666,246.95181498621,246.95181497339,246.95181497479,248.54265168706,251.66356003196,251.66356003199,251.66356002513,251.66356002693,250.55798125939,250.5579812596,250.55798124358,250.55798124456,247.18036396264,247.18036396246,248.54265168706,247.1803639462,247.1803639472,252.54102710029,252.54102710108,252.54102709232,252.54102709387,247.18036395898,247.1803639582,247.18036394987,247.18036395146,253.19513145853,252.54102709911,252.54102709972,252.54102709349,252.54102709523,250.55798125463,250.55798125407,250.55798124834,250.55798125009,253.19513145853,253.19513145989,253.19513145989,248.54265169689,248.54265169689,494.26933964637,494.26933979711,0
5.05e-05,22835077.621533,1.4829842935025e-05,1.0015187008502,1.3074396741346e-05,-1.3074396706919e-05,1.307439678817e-05,1.3074396763583e-05,5.2289933436063e-30,-5.2289933180698e-30,-5.2289933341632e-30,5.2289933526264e-30,-43.876199200923,43.876199270607,-43.876199535825,43.876199476507,-1.3074396744468e-05,5.228993349593e-30,5.2289933364416e-30,-5.2289933280456e-30,-5.2289933341237e-30,4.1094892202755e-18,-4.1094892051375e-18,-4.1094892279129e-18,4.1094892385374e-18,-6.4914413910255,6.4914414030173,-1.3074396718184e-05,-6.4914414487211,6.4914414386275,1.4737308194815e-48,-1.4737308088681e-48,-1.473730807596e-48,1.473730815923e-48,-6.4914414005061,6.4914414093114,-6.4914414392246,6.4914414323174,0,1.4737308202287e-48,1.4737308129559e-48,-1.473730806786e-48,-1.4737308117724e-48,4.1094892283084e-18,4.1094892234389e-18,-4.1094892198134e-18,-4.1094892201693e-18,0,0,0,1.3074396696047e-05,-1.3074396663317e-05,248.34627754369,248.34627754369,248.34627753307,248.34627753307,251.58235283821,251.58235283858,251.58235282495,251.5823528264,246.69548112802,246.69548112737,246.69548111365,246.69548111525,248.34627754203,251.5823528353,251.58235283513,251.58235282786,251.58235282984,250.43633806947,250.43633806959,250.43633805249,250.43633805354,246.93269842138,246.93269842107,248.34627754203,246.93269840367,246.93269840479,252.49163960436,252.49163960507,252.49163959579,252.49163959741,246.93269841749,246.93269841646,246.93269840756,246.9326984094,253.1693099334,252.49163960312,252.4916396036,252.49163959702,252.49163959887,250.43633806443,250.43633806362,250.43633805752,250.43633805951,253.1693099334,253.16930993475,253.16930993475,248.34627755266,248.34627755266,493.75406441157,493.75406456258,0
5.1e-05,22942162.264296,1.4976673069667e-05,1.0015721544377,1.2760242817609e-05,-1.276024278439e-05,1.2760242868743e-05,1.2760242842558e-05,4.8701713232874e-30,-4.8701712979893e-30,-4.8701713147668e-30,4.8701713334798e-30,-43.897704489436,43.897704566657,-43.897704847216,43.897704780703,-1.2760242822116e-05,4.8701713286757e-30,4.8701713159428e-30,-4.8701713092544e-30,-4.8701713154021e-30,3.8903394592906e-18,-3.8903394440662e-18,-3.8903394674043e-18,3.8903394783492e-18,-6.4712421909474,6.471242204009,-1.2760242796913e-05,-6.4712422525133,6.4712422413919,1.3552585732275e-48,-1.3552585628035e-48,-1.3552585620073e-48,1.3552585703322e-48,-6.4712422012148,6.4712422110557,-6.4712422422298,6.471242234329,0,1.3552585738112e-48,1.3552585667167e-48,-1.3552585613649e-48,-1.3552585663602e-48,3.8903394669361e-18,3.8903394623632e-18,-3.8903394596946e-18,-3.890339459988e-18,0,0,0,1.2760242772064e-05,-1.2760242737863e-05,248.15089871337,248.15089871337,248.15089870189,248.15089870189,251.50188571233,251.50188571259,251.50188569808,251.50188569962,246.44017918264,246.44017918178,246.44017916712,246.44017916893,248.15089871139,251.50188570924,251.50188570886,251.50188570116,251.50188570334,250.31555144742,250.31555144745,250.3155514292,250.31555143034,246.68606373273,246.68606373228,248.15089871139,246.68606371368,246.68606371494,252.44288072728,252.44288072789,252.44288071805,252.44288071975,246.68606372861,246.6860637273,246.6860637178,246.68606371992,253.14402350066,252.44288072597,252.4428807263,252.44288071936,252.44288072133,250.31555144208,250.315551441,250.31555143453,250.31555143678,253.14402350066,253.144023502,253.144023502,248.15089872287,248.15089872287,493.24087462117,493.24087477246,0
5.15e-05,23049457.761301,1.5123503204894e-05,1.0016255937841,1.2453292582464e-05,-1.2453292550466e-05,1.2453292638036e-05,1.2453292610199e-05,4.536094883534e-30,-4.5360948584725e-30,-4.536094875864e-30,4.5360948947945e-30,-43.919225354987,43.91922544043,-43.919225737141,43.919225662768,-1.2453292588453e-05,4.5360948883507e-30,4.5360948760246e-30,-4.5360948709269e-30,-4.536094877122e-30,3.6828480039946e-18,-3.682847988684e-18,-3.6828480125543e-18,3.6828480238067e-18,-6.4510644913198,6.4510645055347,-1.2453292564349e-05,-6.4510645569791,6.4510645447486,1.2463921027492e-48,-1.2463920925121e-48,-1.2463920921477e-48,1.2463921004575e-48,-6.4510645024088,6.4510645133817,-6.4510645458731,6.4510645368847,0,1.2463921031814e-48,1.2463920962602e-48,-1.2463920916593e-48,-1.2463920966532e-48,3.6828480112562e-18,3.6828480069805e-18,-3.6828480052293e-18,-3.6828480054468e-18,0,0,0,1.2453292536716e-05,-1.2453292500985e-05,247.95651169649,247.95651169649,247.95651168411,247.95651168411,251.42215546151,251.42215546165,251.42215544622,251.42215544787,246.18590533611,246.185905335,246.18590531936,246.1859053214,247.95651169416,251.42215545825,251.42215545763,251.42215544947,251.42215545188,250.19561803838,250.1956180383,250.19561801885,250.19561802008,246.44045615274,246.44045615213,247.95651169416,246.44045613226,246.44045613367,252.39474751103,252.39474751153,252.39474750112,252.3947475029,246.44045614838,246.44045614675,246.44045613662,246.44045613905,253.11926946658,252.39474750965,252.39474750982,252.3947475025,252.39474750461,250.19561803274,250.19561803135,250.19561802448,250.19561802703,253.11926946658,253.1192694679,253.1192694679,247.95651170654,247.95651170654,492.72976246655,492.72976261812,0
5.2e-05,23156963.948278,1.5270333340649e-05,1.001679018942,1.2153390529067e-05,-1.2153390498305e-05,1.215339058921e-05,1.2153390559662e-05,4.2250512904652e-30,-4.2250512656387e-30,-4.2250512835779e-30,4.2250513026967e-30,-43.940761353323,43.940761447719,-43.940761761441,43.940761678483,-1.2153390536641e-05,4.2250512947387e-30,4.2250512828083e-30,-4.2250512791902e-30,-4.2250512854129e-30,3.4863975260194e-18,-3.4863975106231e-18,-3.4863975349954e-18,3.4863975465439e-18,-6.4309083859406,6.4309084013976,-1.2153390513652e-05,-6.4309084559293,6.4309084425012,1.1463466853733e-48,-1.1463466753206e-48,-1.1463466753469e-48,1.1463466836302e-48,-6.4309083978878,6.4309084100958,-6.4309084439648,6.4309084337858,0,1.1463466856665e-48,1.1463466789136e-48,-1.1463466750011e-48,-1.1463466799845e-48,3.4863975329019e-18,3.4863975289245e-18,-3.4863975280517e-18,-3.4863975281813e-18,0,0,0,1.2153390483158e-05,-1.2153390445838e-05,247.76311300754,247.76311300754,247.7631129942,247.7631129942,251.34315890275,251.34315890276,251.34315888636,251.34315888813,245.9326557918,245.93265579041,245.93265577372,245.93265577604,247.76311300481,251.34315889932,251.34315889843,251.34315888979,251.34315889245,250.07653450035,250.07653450016,250.07653447943,250.07653448077,246.19587195507,246.19587195428,247.76311300481,246.19587193308,246.19587193466,252.34723701014,252.34723701052,252.34723699949,252.34723700138,246.19587195046,246.19587194848,246.19587193768,246.19587194045,253.09504514978,252.34723700868,252.34723700868,252.34723700095,252.34723700321,250.0765344944,250.07653449267,250.07653448538,250.07653448826,253.09504514978,253.09504515109,253.09504515109,247.76311301816,247.76311301816,492.22072017494,492.22072032678,0
5.25e-05,23264680.661686,1.5417163476967e-05,1.0017324299631,1.1860384249558e-05,-1.1860384220048e-05,1.1860384314409e-05,1.1860384283091e-05,3.9354466303993e-30,-3.935446605806e-30,-3.9354466242313e-30,3.9354466435111e-30,-43.96231203693,43.962312141072,-43.962312472701,43.962312380375,-1.1860384258824e-05,3.9354466341538e-30,3.9354466226084e-30,-3.9354466203663e-30,-3.9354466265983e-30,3.3004031605833e-18,-3.3004031451015e-18,-3.3004031699471e-18,3.3004031817806e-18,-6.410773968494,6.4107739852884,-1.1860384236968e-05,-6.4107740430604,6.4107740283407,1.0544021260024e-48,-1.0544021161315e-48,-1.054402116511e-48,1.0544021247573e-48,-6.4107739813367,6.4107739948915,-6.4107740301998,6.4107740187197,0,1.054402126167e-48,1.0544021195778e-48,-1.0544021162961e-48,-1.0544021212608e-48,3.3004031670897e-18,3.3004031634116e-18,-3.3004031633804e-18,-3.3004031634102e-18,0,0,0,1.1860384203538e-05,-1.1860384164566e-05,247.57069917639,247.57069917639,247.57069916202,247.57069916202,251.26489286555,251.2648928654,251.26489284799,251.26489284989,245.6804267708,245.68042676911,245.68042675133,245.68042675394,247.57069917322,251.26489286193,251.26489286075,251.26489285161,251.26489285454,249.95829750414,249.95829750382,249.95829748175,249.95829748321,245.95230743093,245.95230742994,247.57069917322,245.95230740733,245.9523074091,252.30034629159,252.30034629184,252.30034628017,252.30034628216,245.95230742606,245.9523074237,245.9523074122,245.95230741535,253.07134788118,252.30034629005,252.30034628986,252.30034628171,252.30034628414,249.95829749786,249.95829749576,249.95829748803,249.95829749127,253.07134788118,253.07134788247,253.07134788247,247.57069918759,247.57069918759,491.71374000987,491.71374016199,0
5.3e-05,23372607.738698,1.5563993613883e-05,1.0017858268995,1.1574124380426e-05,-1.1574124352185e-05,1.1574124450128e-05,1.1574124416976e-05,3.6657975583841e-30,-3.665797534023e-30,-3.6657975528761e-30,3.6657975722919e-30,-43.983876957072,43.983877071811,-43.983877422293,43.98387731975,-1.1574124391498e-05,3.6657975616456e-30,3.6657975504752e-30,-3.6657975495109e-30,-3.6657975557359e-30,3.1243108153259e-18,-3.1243107997594e-18,-3.12431082505e-18,3.1243108371582e-18,-6.3906613328509,6.390661351084,-1.1574124370792e-05,-6.3906614122571,6.390661396144,9.6989742114191e-49,-9.6989741145058e-49,-9.6989741214828e-49,9.6989742034853e-49,-6.3906613466279,6.390661361649,-6.390661398462,6.390661385561,0,9.6989742118902e-49,9.6989741475909e-49,-9.6989741205458e-49,-9.6989741699341e-49,3.1243108214607e-18,3.1243108180833e-18,-3.1243108188577e-18,-3.1243108187768e-18,0,0,0,1.1574124334343e-05,-1.1574124293657e-05,247.3792667482,247.3792667482,247.37926673274,247.37926673274,251.18735419184,251.18735419152,251.18735417303,251.18735417508,245.42921451189,245.42921450987,245.42921449093,245.42921449387,247.37926674454,251.18735418802,251.18735418653,251.18735417685,251.18735418008,249.84090373328,249.84090373282,249.84090370935,249.84090371094,245.709758889,245.7097588878,247.37926674454,245.70975886371,245.70975886569,252.25407243481,252.25407243491,252.25407242258,252.25407242469,245.70975888387,245.70975888108,245.70975886884,245.70975887241,253.04817500394,252.25407243319,252.25407243279,252.2540724242,252.25407242681,249.84090372666,249.84090372415,249.84090371596,249.84090371959,253.04817500394,253.04817500522,253.04817500522,247.37926676001,247.37926676001,491.20881427128,491.20881442367,0
5.35e-05,23480745.017203,1.5710823751434e-05,1.0018392098027,1.1294464548317e-05,-1.1294464521363e-05,1.1294464623019e-05,1.1294464587968e-05,3.4147236194614e-30,-3.4147235953313e-30,-3.4147236145584e-30,3.4147236340865e-30,-44.005455664803,44.005455791057,-44.005456161382,44.005456047705,-1.1294464561314e-05,3.4147236222521e-30,3.4147236114471e-30,-3.4147236116691e-30,-3.4147236178721e-30,2.957595566081e-18,-2.9575955504307e-18,-2.9575955761394e-18,2.957595588512e-18,-6.3705705732136,6.3705705929939,-1.1294464541778e-05,-6.3705706577358,6.3705706401208,8.9222586622802e-49,-8.9222585671376e-49,-8.9222585769778e-49,8.9222586584357e-49,-6.3705705879648,6.3705706045809,-6.3705706429661,6.3705706285154,0,8.9222586616672e-49,8.9222585989185e-49,-8.9222585771536e-49,-8.9222586262174e-49,2.9575955718471e-18,2.9575955687717e-18,-2.9575955703176e-18,-2.9575955701154e-18,0,0,0,1.1294464502228e-05,-1.1294464459761e-05,247.18881228335,247.18881228335,247.18881226673,247.18881226673,251.11053973593,251.11053973543,251.11053971582,251.11053971803,245.17901527138,245.17901526899,245.17901524884,245.17901525214,247.18881227916,251.11053973191,251.11053973007,251.11053971983,251.11053972339,249.72434988398,249.72434988337,249.72434985842,249.72434986015,245.46822265534,245.46822265391,247.18881227916,245.46822262825,245.46822263046,252.2084125316,252.20841253154,252.2084125185,252.20841252074,245.46822264994,245.46822264668,245.46822263366,245.46822263769,253.02552387342,252.20841252989,252.20841252926,252.2084125202,252.20841252302,249.72434987702,249.72434987406,249.72434986537,249.72434986945,253.02552387342,253.02552387469,253.02552387469,247.18881229579,247.18881229579,490.70593529545,490.70593544812,0
5.4e-05,23589092.3358,1.585765388966e-05,1.0018925787242,1.1021261316482e-05,-1.1021261290835e-05,1.1021261396336e-05,1.1021261359321e-05,3.1809401030461e-30,-3.1809400791456e-30,-3.1809400986971e-30,3.1809401183149e-30,-44.027047711427,44.027047850195,-44.02704824139,44.027048115598,-1.1021261331527e-05,3.1809401053868e-30,3.1809400949375e-30,-3.1809400962609e-30,-3.1809401024275e-30,2.7997601352397e-18,-2.7997601195062e-18,-2.7997601456074e-18,2.7997601582344e-18,-6.3505017841766,6.3505018056212,-1.1021261313182e-05,-6.3505018741055,6.3505018548735,8.2083056930338e-49,-8.2083055996371e-49,-8.2083056120489e-49,8.2083056928856e-49,-6.350501799943,6.3505018182938,-6.35050185832,6.3505018421818,0,8.2083056914209e-49,8.208305630181e-49,-8.2083056132442e-49,-8.208305661924e-49,2.7997601406397e-18,2.7997601378672e-18,-2.7997601401527e-18,-2.7997601398186e-18,0,0,0,1.1021261270446e-05,-1.1021261226129e-05,246.99933235735,246.99933235735,246.99933233949,246.99933233949,251.03444636447,251.03444636378,251.03444634298,251.03444634537,244.92982532305,244.92982532026,244.92982529883,244.92982530252,246.99933235256,251.03444636025,251.03444635802,251.0344463472,251.03444635113,249.60863266506,249.60863266428,249.60863263778,249.60863263967,245.22769507329,245.2276950716,246.99933235256,245.2276950443,245.22769504676,252.16336368607,252.16336368584,252.16336367205,252.16336367444,245.22769506761,245.22769506383,245.22769504999,245.22769505453,253.00339185711,252.16336368428,252.16336368339,252.16336367384,252.16336367689,249.60863265775,249.60863265429,249.60863264509,249.60863264965,253.00339185711,253.00339185836,253.00339185836,246.99933237042,246.99933237042,490.20509545485,490.20509560779,0
5.45e-05,23697649.533799,1.6004484028603e-05,1.0019459337152,1.0754374131956e-05,-1.0754374107636e-05,1.0754374217119e-05,1.0754374178072e-05,2.9632513935191e-30,-2.9632513698479e-30,-2.9632513896768e-30,2.9632514093632e-30,-44.048652648753,44.0486528011,-44.04865321425,44.04865307528,-1.0754374149178e-05,2.9632513954312e-30,2.9632513853289e-30,-2.9632513876729e-30,-2.9632513937904e-30,2.650333448556e-18,-2.6503334327405e-18,-2.6503334592092e-18,2.6503334720807e-18,-6.3304550607546,6.3304550839872,-1.0754374132046e-05,-6.3304551563965,6.3304551354236,7.5520033717864e-49,-7.5520032801141e-49,-7.5520032948268e-49,7.5520033749731e-49,-6.3304550775785,6.330455097813,-6.3304551395528,6.3304551215781,0,7.5520033692573e-49,7.5520033094886e-49,-7.5520032969594e-49,-7.5520033452019e-49,2.650333453593e-18,2.650333451125e-18,-2.6503334541186e-18,-2.6503334536427e-18,0,0,0,1.0754374086034e-05,-1.0754374039799e-05,246.81082356068,246.81082356068,246.81082354151,246.81082354151,250.95907095639,250.95907095548,250.95907093344,250.95907093602,244.68164095803,244.68164095478,244.681640932,244.68164093613,246.81082355525,250.95907095196,250.9590709493,250.95907093786,250.9590709422,249.49374879785,249.49374879688,249.49374876875,249.49374877081,244.98817250335,244.98817250137,246.81082355525,244.98817247235,244.98817247509,252.1189230146,252.11892301419,252.11892299961,252.11892300217,244.98817249737,244.98817249303,244.98817247833,244.98817248343,252.98177633459,252.11892301272,252.11892301156,252.11892300149,252.11892300479,249.49374879017,249.49374878617,249.49374877643,249.49374878152,252.98177633459,252.98177633583,252.98177633583,246.81082357442,246.81082357442,489.70628715796,489.70628731117,0
5.5e-05,23806416.451221,1.6151314168309e-05,1.0019992748266,1.0493665273501e-05,-1.049366525053e-05,1.0493665364136e-05,1.0493665322983e-05,2.7605447826368e-30,-2.7605447591937e-30,-2.7605447792562e-30,2.7605447989924e-30,-44.070270029183,44.07027019626,-44.0702706325,44.070270479203,-1.0493665293037e-05,2.7605447841415e-30,2.7605447743775e-30,-2.7605447776664e-30,-2.7605447837234e-30,2.5088692664216e-18,-2.5088692505252e-18,-2.5088692773369e-18,2.5088692904443e-18,-6.310430498387,6.3104305235402,-1.0493665277139e-05,-6.3104306000649,6.3104305772182,6.9486590303149e-49,-6.9486589403426e-49,-6.948658957107e-49,6.9486590365042e-49,-6.3104305163123,6.3104305385908,-6.31043058212,6.310430562148,0,6.9486590269525e-49,6.948658968617e-49,-6.9486589601065e-49,-6.9486590078666e-49,2.5088692710994e-18,2.5088692689371e-18,-2.5088692726087e-18,-2.5088692719819e-18,0,0,0,1.0493665227758e-05,-1.0493665179532e-05,246.62328249877,246.62328249877,246.62328247821,246.62328247821,250.8844104028,250.88441040165,250.88441037831,250.88441038111,244.43445848467,244.43445848094,244.43445845674,244.43445846135,246.62328249264,250.88441039816,250.88441039504,250.88441038295,250.88441038773,249.37969501614,249.37969501497,249.37969498512,249.37969498737,244.74965132309,244.7496513208,246.62328249264,244.74965128996,244.749651293,252.0750876458,252.07508764518,252.07508762979,252.07508763252,244.74965131681,244.74965131184,244.74965129624,244.74965130195,252.96067469746,252.07508764383,252.07508764237,252.07508763176,252.07508763533,249.37969500808,249.37969500348,249.37969499317,249.37969499885,252.96067469746,252.96067469869,252.96067469869,246.6232825132,246.6232825132,489.20950284903,489.20950300252,0
5.55e-05,23915392.928804,1.6298144308824e-05,1.0020526021095,1.023899980034e-05,-1.0238999778742e-05,1.0238999896618e-05,1.0238999853287e-05,2.5717847117304e-30,-2.5717846885153e-30,-2.5717847087709e-30,2.5717847285381e-30,-44.091899405793,44.091899588839,-44.091900049354,44.091899880499,-1.0238999822331e-05,2.5717847128443e-30,2.5717847034105e-30,-2.5717847075737e-30,-2.5717847135595e-30,2.3749448858304e-18,-2.3749448698544e-18,-2.3749448969862e-18,2.37494491032e-18,-6.2904281929412,6.2904282201565,-1.0238999807693e-05,-6.2904283009947,6.2904282761333,6.3939646699091e-49,-6.3939645816153e-49,-6.3939646002042e-49,6.3939646787961e-49,-6.2904282120121,6.290428236507,-6.2904282819032,6.2904282597622,0,6.3939646657743e-49,6.393964608837e-49,-6.3939646039882e-49,-6.3939646512233e-49,2.3749448901502e-18,2.374944888295e-18,-2.3749448926161e-18,-2.3749448918291e-18,0,0,0,1.023899975485e-05,-1.0238999704559e-05,246.43670579187,246.43670579187,246.43670576983,246.43670576983,250.81046160699,250.81046160559,250.81046158087,250.81046158391,244.1882742285,244.18827422423,244.18827419854,244.18827420367,246.43670578496,250.81046160213,250.8104615985,250.81046158573,250.810461591,249.2664680661,249.2664680647,249.26646803305,249.26646803551,244.51212792705,244.51212792441,246.43670578496,244.51212789166,244.51212789504,252.03185472042,252.03185471958,252.03185470332,252.03185470625,244.51212792046,244.51212791481,244.51212789825,244.51212790464,252.94008434932,252.03185471836,252.03185471657,252.03185470539,252.03185470926,249.26646805765,249.2664680524,249.26646804149,249.26646804781,252.94008434932,252.94008435053,252.94008435053,246.436705807,246.436705807,488.71473500795,488.71473516171,0
5.6e-05,24024578.807997,1.64449744502e-05,1.0021059156143,9.9902455016693e-06,-9.9902454814684e-06,9.9902456037599e-06,9.9902455581764e-06,2.3960074138703e-30,-2.3960073908822e-30,-2.3960074112936e-30,2.3960074310749e-30,-44.113540332345,44.113540532696,-44.113541018722,44.113540832982,-9.9902455262626e-06,2.3960074146137e-30,2.3960074055019e-30,-2.3960074104738e-30,-2.3960074163787e-30,2.2481599094269e-18,-2.2481598933725e-18,-2.248159920802e-18,2.2481599343538e-18,-6.2704482407032,6.2704482701323,-9.9902455129109e-06,-6.27044835549,6.270448328463,5.8839652362716e-49,-5.8839651496328e-49,-5.8839651698384e-49,5.8839652475772e-49,-6.2704482609665,6.2704482878633,-6.2704483352064,6.2704483107118,0,5.8839652314408e-49,5.8839651758665e-49,-5.8839651743514e-49,-5.8839652210254e-49,2.2481599133927e-18,2.2481599118458e-18,-2.2481599167894e-18,-2.2481599158337e-18,0,0,0,9.9902454565034e-06,-9.990245404071e-06,246.25109007492,246.25109007492,246.25109005131,246.25109005131,250.73722148434,250.73722148266,250.7372214565,250.7372214598,243.94308453207,243.94308452722,243.94308449996,243.94308450567,246.25109006716,250.73722147925,250.73722147507,250.73722146159,250.73722146738,249.1540647062,249.15406470456,249.15406467102,249.15406467371,244.27559872663,244.27559872362,246.25109006716,244.27559868885,244.2755986926,251.98922139133,251.98922139025,251.98922137309,251.98922137623,244.27559871972,244.27559871333,244.27559869576,244.27559870289,252.92000270568,251.98922138917,251.98922138703,251.98922137525,251.98922137945,249.15406469736,249.15406469139,249.15406467986,249.15406468688,252.92000270568,252.92000270687,252.92000270687,246.25109009078,246.25109009078,488.22197614994,488.22197630397,0
5.65e-05,24133973.930968,1.6591804592539e-05,1.0021592153917,9.7472728469431e-06,-9.7472728281652e-06,9.7472729550294e-06,9.7472729071157e-06,2.2323159282641e-30,-2.232315905503e-30,-2.2323159260348e-30,2.2323159458139e-30,-44.135192363325,44.135192582415,-44.135193095252,44.135192891197,-9.7472728742934e-06,2.2323159286516e-30,2.2323159198542e-30,-2.2323159255721e-30,-2.2323159313874e-30,2.1281350782393e-18,-2.1281350621081e-18,-2.1281350898137e-18,2.1281351035748e-18,-6.2504907383764,6.2504907701803,-9.7472728622542e-06,-6.2504908602732,6.2504908309196,5.4150295246142e-49,-5.4150294396092e-49,-5.4150294612383e-49,5.4150295380799e-49,-6.2504907598784,6.2504907893756,-6.2504908387498,6.250490811703,0,5.4150295191379e-49,5.4150294648942e-49,-5.4150294664063e-49,-5.4150295124865e-49,2.128135081852e-18,2.1281350806146e-18,-2.1281350861543e-18,-2.1281350850214e-18,0,0,0,9.7472728021844e-06,-9.7472727475324e-06,246.06643199752,246.06643199752,246.06643197224,246.06643197224,250.66468696227,250.66468696028,250.66468693261,250.66468693619,243.69888575488,243.69888574939,243.69888572048,243.69888572681,246.06643198883,250.66468695694,250.66468695216,250.66468693793,250.6646869443,249.04248170717,249.04248170526,249.04248166973,249.04248167267,244.04006015,244.04006014657,246.06643198883,244.04006010969,244.04006011384,251.94718482346,251.94718482211,251.947184804,251.94718480738,244.04006014276,244.04006013554,244.04006011692,244.04006012486,252.90042719392,251.9471848212,251.94718481867,251.94718480626,251.94718481082,249.04248169791,249.04248169117,249.04248167898,249.04248168676,252.90042719392,252.9004271951,252.9004271951,246.06643201411,246.06643201411,487.73121882542,487.73121897972,0
5.7e-05,24243578.140605,1.6738634735938e-05,1.0022125014918,9.5099549369408e-06,-9.5099549196131e-06,9.509955051205e-06,9.5099550008816e-06,2.0798754610188e-30,-2.0798754384838e-30,-2.0798754591038e-30,2.0798754788657e-30,-44.156855053926,44.156855293302,-44.156855834299,44.156855610397,-9.5099549672083e-06,2.0798754610684e-30,2.0798754525776e-30,-2.0798754589839e-30,-2.0798754647015e-30,2.014511164823e-18,-2.0145111486161e-18,-2.0145111765772e-18,2.0145111905393e-18,-6.2305557830664,6.2305558174182,-9.5099549565116e-06,-6.2305559124698,6.2305558806181,4.9838234958024e-49,-4.9838234124079e-49,-4.9838234352858e-49,4.9838235111927e-49,-6.2305558058563,6.2305558381677,-6.2305558896585,6.2305558598472,0,4.9838234897447e-49,4.9838234367985e-49,-4.9838234410586e-49,-4.9838234865169e-49,2.0145111680858e-18,2.014511167159e-18,-2.0145111732699e-18,-2.0145111719518e-18,0,0,0,9.5099548926716e-06,-9.5099548357176e-06,245.88272822376,245.88272822376,245.8827281967,245.8827281967,250.59285498016,250.59285497784,250.59285494858,250.59285495248,243.45567427325,243.45567426706,243.45567423641,243.45567424343,245.88272821406,250.5928549746,250.59285496916,250.59285495414,250.59285496115,248.93171585188,248.93171584969,248.93171581207,248.93171581529,243.80550864196,243.80550863809,245.88272821406,243.80550859898,243.80550860357,251.90574219373,251.90574219209,251.90574217298,251.90574217662,243.80550863439,243.80550862628,243.80550860655,243.80550861537,252.88135525326,251.90574219137,251.90574218841,251.90574217534,251.90574218029,248.93171584221,248.93171583462,248.93171582174,248.93171583036,252.88135525326,252.88135525441,252.88135525441,245.88272824111,245.88272824111,487.24245561972,487.24245577429,0
5.75e-05,24353391.280519,1.688546488038e-05,1.0022657739648,9.2781674555894e-06,-9.2781674397404e-06,9.278167576223e-06,9.2781675234082e-06,1.9379090682611e-30,-1.9379090459524e-30,-1.9379090666302e-30,1.9379090863607e-30,-44.178527960102,44.178528221418,-44.178528791995,44.178528546594,-9.2781674889422e-06,1.9379090679877e-30,1.9379090597966e-30,-1.9379090668362e-30,-1.9379090724491e-30,1.9069479237577e-18,-1.9069479074772e-18,-1.9069479356735e-18,1.9069479498284e-18,-6.2106434722828,6.2106435093654,-9.2781674796167e-06,-6.2106436096097,6.2106435750766,4.587285803021e-49,-4.5872857212169e-49,-4.5872857451811e-49,4.5872858201187e-49,-6.2106434964097,6.2106435317633,-6.2106435854607,6.2106435526568,0,4.5872857964316e-49,4.5872857447535e-49,-4.5872857515009e-49,-4.5872857963123e-49,1.9069479266723e-18,1.9069479260577e-18,-1.9069479327155e-18,-1.9069479312045e-18,0,0,0,9.2781674118992e-06,-9.2781673525613e-06,245.69997543218,245.69997543218,245.69997540324,245.69997540324,250.52172248935,250.52172248666,250.52172245574,250.52172245998,243.21344648024,243.21344647329,243.21344644082,243.21344644859,245.69997542137,250.52172248354,250.5217224774,250.52172246155,250.52172246924,248.82176393533,248.82176393283,248.82176389302,248.82176389653,243.57194066392,243.57194065955,245.69997542137,243.57194061811,243.57194062318,251.86489069101,251.86489068906,251.86489066891,251.86489067283,243.57194065601,243.57194064692,243.57194062602,243.57194063581,252.86278433466,251.86489068855,251.86489068513,251.86489067137,251.86489067675,248.82176392524,248.82176391672,248.82176390311,248.82176391264,252.86278433466,252.8627843358,252.8627843358,245.69997545032,245.69997545032,486.75567915295,486.75567930779,0
5.8e-05,24463413.195046,1.7032295025929e-05,1.0023190328606,9.0517886225395e-06,-9.0517886082007e-06,9.051788749741e-06,9.0517886943478e-06,1.8056936392006e-30,-1.8056936171181e-30,-1.8056936378251e-30,1.8056936575117e-30,-44.200210638521,44.200210923554,-44.2002115252,44.200211256514,-9.0517886591541e-06,1.805693638619e-30,1.8056936307208e-30,-1.8056936383422e-30,-1.8056936438443e-30,1.8051230965424e-18,-1.8051230801902e-18,-1.8051231086018e-18,1.8051231229424e-18,-6.1907539039207,6.1907539439292,-9.0517886512293e-06,-6.1907540496105,6.1907540121993,4.2226053448786e-49,-4.2226052646428e-49,-4.2226052895445e-49,4.2226053634857e-49,-6.1907539294353,6.1907539680754,-6.1907540240732,6.1907539880306,0,4.2226053378069e-49,4.2226052873668e-49,-4.2226052963612e-49,-4.2226053405064e-49,1.805123099111e-18,1.8051230988099e-18,-1.805123105991e-18,-1.8051231042804e-18,0,0,0,9.0517885795227e-06,-9.0517885177159e-06,245.51817031566,245.51817031566,245.51817028472,245.51817028472,250.45128645303,250.45128644995,250.45128641728,250.45128642189,242.97219878555,242.97219877777,242.97219874338,242.97219875197,245.51817030365,250.45128644698,250.45128644005,250.45128642334,250.45128643179,248.71262276454,248.71262276169,248.71262271958,248.71262272342,243.33935269371,243.33935268881,245.51817030365,243.33935264491,243.3393526505,251.8246275161,251.82462751381,251.82462749256,251.82462749679,243.33935268544,243.3393526753,243.33935265317,243.33935266401,252.84471190083,251.82462751353,251.82462750962,251.82462749512,251.82462750098,248.71262275401,248.71262274448,248.71262273011,248.71262274063,252.84471190083,252.84471190196,252.84471190196,245.51817033459,245.51817033459,486.27088207971,486.27088223482,0
5.85e-05,24573643.729251,1.7179125172652e-05,1.002372278229,8.8306991464974e-06,-8.8306991336992e-06,8.8306992804677e-06,8.8306992224103e-06,1.6825561583301e-30,-1.6825561364735e-30,-1.682556157184e-30,1.682556176814e-30,-44.221902646603,44.221902957267,-44.221903591526,44.221903297653,-8.8306991865554e-06,1.6825561574549e-30,1.6825561498428e-30,-1.682556157998e-30,-1.6825561633834e-30,1.7087314681226e-18,-1.7087314517003e-18,-1.7087314803088e-18,1.7087314948272e-18,-6.1708871762575,6.1708872194007,-8.8306991800641e-06,-6.1708873307719,6.170887290275,3.8872006764783e-49,-3.8872005977898e-49,-3.8872006234937e-49,3.8872006964122e-49,-6.1708872032118,6.1708872454009,-6.1708873037946,6.170887264252,0,3.8872006689715e-49,3.8872006197409e-49,-3.8872006307617e-49,-3.8872006742219e-49,1.7087314703474e-18,1.7087314703609e-18,-1.7087314780433e-18,-1.7087314761258e-18,0,0,0,8.8306991042522e-06,-8.8306990398884e-06,245.33730958131,245.33730958131,245.33730954824,245.33730954824,250.38154384621,250.38154384271,250.3815438082,250.38154381321,242.7319276154,242.73192760672,242.73192757031,242.7319275798,245.33730956798,250.3815438399,250.38154383214,250.38154381451,250.38154382378,248.60428915847,248.60428915526,248.60428911073,248.60428911493,243.10774122554,243.10774122006,245.33730956798,243.10774117357,243.10774117974,251.78494988162,251.78494987897,251.78494985656,251.78494986113,243.10774121691,243.10774120561,243.1077411822,243.10774119418,252.82713542614,251.78494987895,251.78494987449,251.78494985923,251.7849498656,248.6042891475,248.60428913687,248.60428912171,248.60428913331,252.82713542614,252.82713542724,252.82713542724,245.33730960105,245.33730960105,485.78805708893,485.7880572443,0
5.9e-05,24684082.728933,1.7325955320621e-05,1.0024255101196,8.6147821792876e-06,-8.6147821680504e-06,8.6147823202495e-06,8.614782259398e-06,1.5678702273778e-30,-1.5678702057228e-30,-1.5678702264166e-30,1.5678702459965e-30,-44.243603542406,44.243603880993,-44.243604549378,44.243604228212,-8.6147822229614e-06,1.5678702262168e-30,1.5678702188704e-30,-1.5678702275194e-30,-1.5678702327905e-30,1.6174839724062e-18,-1.6174839558963e-18,-1.6174839846872e-18,1.6174839993889e-18,-6.1510433879243,6.1510434344645,-8.6147822179598e-06,-6.1510435517755,6.1510435079558,3.5787011239531e-49,-3.5787010467111e-49,-3.5787010731046e-49,3.5787011450436e-49,-6.1510434163786,6.1510434624239,-6.1510435232978,6.1510434799731,0,3.5787011160402e-49,3.5787010679358e-49,-3.5787010807929e-49,-3.578701123594e-49,1.6174839742833e-18,1.6174839746038e-18,-1.6174839827707e-18,-1.617483980642e-18,0,0,0,8.6147821379502e-06,-8.6147820708636e-06,245.15738995038,245.15738995038,245.15738991507,245.15738991507,250.31249165567,250.3124916517,250.31249161527,250.31249162072,242.49262941247,242.4926294028,242.49262936428,242.49262937474,245.15738993563,250.3124916491,250.31249164042,250.31249162184,250.312491632,248.496759948,248.49675994439,248.49675989734,248.49675990192,242.87710276987,242.87710276376,245.15738993563,242.87710271457,242.87710272135,251.74585501201,251.74585500896,251.74585498535,251.74585499028,242.87710276088,242.87710274832,242.87710272355,242.87710273679,252.81005239655,251.74585500923,251.74585500418,251.74585498813,251.74585499505,248.49675993658,248.49675992477,248.49675990876,248.49675992154,252.81005239655,252.81005239764,252.81005239764,245.15738997095,245.15738997095,485.30719690364,485.30719705929,0
5.95e-05,24794730.04063,1.7472785469913e-05,1.0024787285819,8.4039232706235e-06,-8.4039232609946e-06,8.403923418777e-06,8.4039233550809e-06,1.4610528289011e-30,-1.4610528074731e-30,-1.4610528281237e-30,1.4610528476238e-30,-44.265312885084,44.265313253562,-44.265313957858,44.265313607261,-8.403923318128e-06,1.4610528274734e-30,1.4610528204009e-30,-1.4610528294964e-30,-1.4610528346408e-30,1.5311068442044e-18,-1.5311068276293e-18,-1.5311068565812e-18,1.5311068714455e-18,-6.1312226379744,6.1312226881085,-8.4039233146296e-06,-6.1312228116469,6.1312227642831,3.2949294606394e-49,-3.2949293849077e-49,-3.2949294118658e-49,3.2949294827374e-49,-6.1312226679754,6.1312227181515,-6.1312227816223,6.1312227342166,0,3.2949294523749e-49,3.2949294054288e-49,-3.294929419921e-49,-3.2949294620067e-49,1.5311068457419e-18,1.5311068463796e-18,-1.531106855006e-18,-1.5311068526574e-18,0,0,0,8.4039232302717e-06,-8.4039231604457e-06,244.9784081582,244.9784081582,244.97840812049,244.97840812049,250.24412687987,250.2441268754,250.24412683696,250.24412684289,242.25430063574,242.254300625,242.25430058425,242.25430059577,244.9784081419,250.24412687304,250.24412686337,250.24412684379,250.24412685491,248.39003197584,248.39003197179,248.39003192208,248.39003192708,242.64743385334,242.64743384655,244.9784081419,242.64743379451,242.64743380197,251.70734014345,251.70734013996,251.70734011509,251.70734012041,242.64743384398,242.64743383005,242.64743380387,242.64743381846,252.79346030962,251.70734014055,251.70734013487,251.70734011798,251.70734012551,248.39003196395,248.39003195085,248.39003193397,248.39003194802,252.79346030962,252.79346031068,252.79346031068,244.97840817961,244.97840817961,484.82829428079,484.8282944367,0
6e-05,24905585.511622,1.7619615620606e-05,1.0025319336652,8.1980103236524e-06,-8.1980103156667e-06,8.1980104792191e-06,8.1980104125846e-06,1.361561314911e-30,-1.3615612937098e-30,-1.3615613142967e-30,1.3615613337068e-30,-44.287030234202,44.28703063495,-44.287031376911,44.287030994521,-8.1980103751946e-06,1.3615613132289e-30,1.3615613064242e-30,-1.3615613159266e-30,-1.3615613209403e-30,1.449340815358e-18,-1.4493407987196e-18,-1.4493408278157e-18,1.4493408428355e-18,-6.1114250257573,6.1114250797389,-8.1980103732369e-06,-6.1114252097892,6.1114251586292,3.0338860156958e-49,-3.0338859414529e-49,-3.0338859688721e-49,3.0338860386615e-49,-6.1114250573595,6.1114251119904,-6.111425178163,6.111425126354,0,3.0338860071159e-49,3.0338859613016e-49,-3.0338859772561e-49,-3.0338860186164e-49,1.4493408165576e-18,1.4493408175136e-18,-1.4493408265799e-18,-1.4493408240051e-18,0,0,0,8.1980102844035e-06,-8.1980102117416e-06,244.80036095403,244.80036095403,244.80036091379,244.80036091379,250.17644652896,250.17644652394,250.1764464834,250.17644648984,242.01693776045,242.01693774855,242.01693770547,242.01693771814,244.80036093605,250.17644652187,250.17644651112,250.17644649049,250.17644650266,248.28410209644,248.28410209192,248.28410203943,248.28410204488,242.41873101867,242.41873101112,244.80036093605,242.4187309561,242.4187309643,251.66940252382,251.66940251987,251.66940249367,251.66940249942,242.41873100893,242.41873099351,242.41873096584,242.4187309819,252.7773566744,251.66940252081,251.66940251444,251.66940249667,251.66940250485,248.28410208409,248.28410206959,248.28410205178,248.28410206721,252.7773566744,252.77735667545,252.77735667545,244.8003609763,244.8003609763,484.35134201101,484.35134216718,0
6.05e-05,25016648.989937,1.7766445772784e-05,1.0025851254186,7.9969335507038e-06,-7.9969335453221e-06,7.9969337141043e-06,7.9969336449572e-06,1.2688906044287e-30,-1.2688905838379e-30,-1.2688906043434e-30,1.2688906234158e-30,-44.308755153525,44.308755583826,-44.308756366532,44.308755950002,-7.9969336069547e-06,1.2688906025484e-30,1.2688905962334e-30,-1.268890606181e-30,-1.2688906109776e-30,1.371940352405e-18,-1.3719403360363e-18,-1.3719403652217e-18,1.3719403802162e-18,-6.091650651476,6.0916507087271,-7.9969336065845e-06,-6.0916508458158,6.0916507907414,2.7937340946544e-49,-2.7937340230663e-49,-2.793734051018e-49,2.7937341188453e-49,-6.0916506846718,6.091650743504,-6.0916508125994,6.0916507559439,0,2.7937340858955e-49,2.7937340420322e-49,-2.7937340596182e-49,-2.7937340997202e-49,1.371940353315e-18,1.371940354753e-18,-1.3719403642816e-18,-1.3719403614693e-18,0,0,0,7.996933512415e-06,-7.9969334382571e-06,244.62324510103,244.62324510103,244.6232450581,244.6232450581,250.10944762467,250.10944761906,250.1094475763,250.10944758331,241.78053727799,241.78053726482,241.7805372193,241.78053723321,244.62324508122,250.10944761731,250.10944760539,250.10944758366,250.10944759698,248.17896717596,248.17896717092,248.17896711552,248.17896712147,242.19099082452,242.19099081616,244.62324508122,242.190990758,242.190990767,251.63203941265,251.6320394082,251.63203938061,251.63203938684,242.19099081439,242.19099079737,242.19099076813,242.19099078579,252.76173901143,251.63203940953,251.63203940241,251.63203938373,251.63203939262,248.17896716314,248.17896714712,248.17896712834,248.17896714528,252.76173901143,252.76173901245,252.76173901245,244.62324512416,244.62324512416,483.87633291842,483.87633307483,0
6.1e-05,25127920.32435,1.791327592654e-05,1.0026383038911,7.8005854320323e-06,-7.8005854283539e-06,7.8005856032979e-06,7.8005855310185e-06,1.182570577006e-30,-1.1825705566212e-30,-1.1825705770266e-30,1.1825705960025e-30,-44.330487197698,44.33048766546,-44.33048848958,44.330488036056,-7.8005854927472e-06,1.1825705748927e-30,1.1825705688208e-30,-1.1825705790996e-30,-1.1825705837625e-30,1.2986729349095e-18,-1.2986729184689e-18,-1.2986729477686e-18,1.2986729629102e-18,-6.0718996142166,6.0718996758611,-7.8005854939986e-06,-6.071899820066,6.0718997606495,2.5727866080857e-49,-2.5727865378679e-49,-2.5727865660896e-49,2.5727866328649e-49,-6.0718996491247,6.0718997131195,-6.0718997851369,6.0718997233704,0,2.5727865990718e-49,2.5727865562349e-49,-2.5727865749553e-49,-2.5727866143493e-49,1.2986729354839e-18,1.2986729372352e-18,-1.2986729471653e-18,-1.2986729441149e-18,0,0,0,7.8005853950954e-06,-7.800585317887e-06,244.44705737612,244.44705737612,244.44705733034,244.44705733034,250.04312720027,250.04312719403,250.04312714896,250.04312715658,241.54509569576,241.54509568124,241.54509563315,241.54509564841,244.44705735434,250.04312719263,250.04312717947,250.04312715659,250.04312717113,248.07462409218,248.0746240866,248.07462402815,248.07462403463,241.96420984544,241.96420983622,244.44705735434,241.96420977478,241.96420978463,251.59524808108,251.5952480761,251.59524804705,251.59524805379,241.96420983493,241.96420981617,241.96420978529,241.96420980468,252.74660485263,251.59524807785,251.59524806994,251.59524805028,251.59524805995,248.07462407888,248.07462406123,248.07462404145,248.07462406,252.74660485263,252.74660485364,252.74660485364,244.44705740013,244.44705740013,483.40325986044,483.40326001711,0
6.15e-05,25239399.36441,1.8060106081968e-05,1.0026914691315,7.6088606707257e-06,-7.6088606687927e-06,7.6088608500698e-06,7.6088607745552e-06,1.1021636450983e-30,-1.1021636249175e-30,-1.1021636452065e-30,1.1021636640772e-30,-44.352225932164,44.352226440094,-44.352227307596,44.352226814286,-7.6088607360983e-06,1.1021636427635e-30,1.1021636369247e-30,-1.1021636475031e-30,-1.1021636520316e-30,1.2293183695356e-18,-1.2293183530234e-18,-1.2293183824204e-18,1.2293183977031e-18,-6.0521720148657,6.0521720811879,-7.6088607390113e-06,-6.0521722328217,6.0521721687686,2.3694937965351e-49,-2.3694937276655e-49,-2.3694937560811e-49,2.3694938217925e-49,-6.0521720515471,6.0521721210645,-6.0521721961189,6.0521721288709,0,2.3694937872964e-49,2.3694937454571e-49,-2.3694937651809e-49,-2.3694938038614e-49,1.229318369777e-18,1.2293183718368e-18,-1.2293183821512e-18,-1.2293183788616e-18,0,0,0,7.6088606352642e-06,-7.6088605549046e-06,244.27179456992,244.27179456992,244.27179452111,244.27179452111,249.97748230055,249.97748229363,249.97748224613,249.97748225441,241.31060953716,241.31060952116,241.31060947038,241.3106094871,244.271794546,249.97748229264,249.97748227813,249.97748225404,249.97748226991,247.97106973447,247.9710697283,247.97106966665,247.97106967371,241.7383846718,241.73838466163,244.271794546,241.73838459674,241.73838460753,251.55902581181,251.55902580625,251.55902577567,251.55902578296,241.73838466089,241.73838464025,241.73838460765,241.73838462892,252.73195174133,251.55902580846,251.55902579969,251.55902577902,251.55902578952,247.97106972069,247.97106970127,247.97106968043,247.97106970073,252.73195174133,252.73195174233,252.73195174233,244.27179459481,244.27179459481,482.93211572758,482.93211588451,0
6.2e-05,25351085.960426,1.8206936239167e-05,1.0027446211887,7.4216561527697e-06,-7.421656152622e-06,7.421656340438e-06,7.4216562615861e-06,1.0272624974117e-30,-1.027262477436e-30,-1.027262497594e-30,1.0272625163512e-30,-44.37397091955,44.373971470777,-44.373972383727,44.373971847537,-7.4216562230388e-06,1.027262494866e-30,1.0272624892558e-30,-1.0272625001036e-30,-1.0272625044951e-30,1.1636681417065e-18,-1.1636681251254e-18,-1.1636681546056e-18,1.1636681700222e-18,-6.03246795411,6.0324680254342,-7.4216562276588e-06,-6.0324681848277,6.0324681158177,2.1824319758462e-49,-2.1824319083091e-49,-2.1824319368485e-49,2.1824320014871e-49,-6.032467992623,6.0324680680842,-6.0324681462932,6.0324680731466,0,2.1824319664108e-49,2.1824319255497e-49,-2.1824319461543e-49,-2.1824319841165e-49,1.1636681416168e-18,1.1636681439863e-18,-1.1636681546686e-18,-1.1636681511344e-18,0,0,0,7.4216561189238e-06,-7.4216560353051e-06,244.09745348663,244.09745348663,244.09745343463,244.09745343463,249.91250998173,249.91250997408,249.91250992404,249.91250993303,241.07707534141,241.07707532382,241.0770752702,241.07707528852,244.09745346041,249.91250997354,249.91250995757,249.91250993222,249.91250994953,247.86830100368,247.86830099687,247.86830093187,247.86830093956,241.51351190961,241.51351189843,244.09745346041,241.51351182992,241.51351184172,251.52336989903,251.52336989284,251.52336986067,251.52336986856,241.51351189831,241.51351187563,241.51351184122,241.51351186452,252.71777723215,251.52336989557,251.52336988586,251.52336986413,251.52336987554,247.86830098941,247.86830096809,247.86830094613,247.86830096833,252.71777723215,252.71777723313,252.71777723313,244.09745351242,244.09745351242,482.46289344324,482.46289360044,0
6.25e-05,25462979.96348,1.8353766398468e-05,1.0027977601112,7.2388709058839e-06,-7.2388709070149e-06,7.2388711017384e-06,7.23887101974e-06,9.5748799794879e-31,-9.5748797830978e-31,-9.5748799821585e-31,9.5748801675604e-31,-44.395721723423,44.395722319161,-44.395723282607,44.395722700734,-7.2388709814274e-06,9.5748799526264e-31,9.5748798995034e-31,-9.5748800084186e-31,-9.5748800505515e-31,1.1015248001576e-18,-1.1015247836283e-18,-1.1015248131056e-18,1.1015248285718e-18,-6.0127875330471,6.0127876093702,-7.2388709869886e-06,-6.0127877771647,6.0127877029853,2.0102932070427e-49,-2.0102931412155e-49,-2.0102931694e-49,2.0102932326397e-49,-6.0127875732881,6.0127876549126,-6.0127877368838,6.0127876574034,0,2.0102931975447e-49,2.0102931579168e-49,-2.0102931786859e-49,-2.0102932157258e-49,1.1015247998129e-18,1.1015248025457e-18,-1.1015248134047e-18,-1.1015248096086e-18,0,0,0,7.2388708732785e-06,-7.2388707868509e-06,243.924030944,243.924030944,243.92403088861,243.92403088861,249.84820731142,249.84820730298,249.84820725028,249.84820726005,240.8444896635,240.84448964418,240.8444895876,240.84448960763,243.92403091529,249.84820730297,249.84820728542,249.84820725874,249.84820727761,247.76631481211,247.7663148046,247.7663147361,247.76631474447,241.28958818052,241.28958816822,243.92403091529,241.28958809592,241.28958810882,251.48827764839,251.48827764152,251.48827760768,251.48827761622,241.28958816881,241.28958814393,241.28958810763,241.28958813312,252.70407889098,251.48827764481,251.4882776341,251.48827761126,251.48827762364,247.76631479736,247.76631477397,247.76631475085,247.7663147751,252.70407889098,252.70407889195,252.70407889195,243.92403097068,243.92403097068,481.99558596352,481.99558612102,0
6.3e-05,25575081.225422,1.8500596560223e-05,1.0028508859475,7.0604060581344e-06,-7.060406061158e-06,7.0604062628423e-06,7.0604061772755e-06,8.9248723134808e-31,-8.9248721190654e-31,-8.9248723166271e-31,8.9248725008296e-31,-44.417477908245,44.41747855417,-44.417479567485,44.417478935834,-7.0604061390782e-06,8.9248722846632e-31,8.9248722336827e-31,-8.9248723448793e-31,-8.9248723856449e-31,1.042701373932e-18,-1.0427013573329e-18,-1.0427013868688e-18,1.0427014024617e-18,-5.9931308528483,5.9931309348814,-7.0604061464587e-06,-5.993131111138,5.9931310312925,1.8518758184696e-49,-1.8518757539096e-49,-1.8518757821285e-49,1.8518758443154e-49,-5.993130895041,5.9931309835321,-5.9931310689052,5.9931309826021,0,1.8518758088151e-49,1.8518757701043e-49,-1.8518757915859e-49,-1.8518758279231e-49,1.0427013732551e-18,1.0427013762972e-18,-1.0427013875021e-18,-1.0427013834538e-18,0,0,0,7.060406027461e-06,-7.0604059375386e-06,243.75152377317,243.75152377317,243.75152371418,243.75152371418,249.7845713686,249.7845713593,249.78457130382,249.78457131441,240.61284907409,240.61284905291,240.61284899322,240.6128490151,243.75152374176,249.78457135986,249.78457134062,249.78457131255,249.78457133309,247.66510808344,247.66510807518,247.665108003,247.6651080121,241.06661012165,241.06661010816,243.75152374176,241.06661003188,241.06661004596,251.45374637695,251.45374636936,251.45374633377,251.453746343,241.06661010954,241.06661008227,241.06661004398,241.06661007185,252.69085429494,251.45374637326,251.45374636147,251.45374633746,251.4537463509,247.66510806819,247.66510804258,247.66510801824,247.6651080447,252.69085429494,252.6908542959,252.6908542959,243.75152380075,243.75152380075,481.53018627702,481.53018643478,0
6.35e-05,25687389.598922,1.8647426724153e-05,1.002903998746,6.8861647997708e-06,-6.8861648047324e-06,6.8861650136035e-06,6.8861649243562e-06,8.319316839118e-31,-8.3193166466831e-31,-8.319316842649e-31,8.3193170255841e-31,-44.439239039099,44.439239738941,-44.439240804601,44.439240119433,-6.8861648863646e-06,8.3193168084489e-31,8.319316759554e-31,-8.3193168727853e-31,-8.3193169121782e-31,9.8702081953678e-19,-9.8702080287052e-19,-9.8702083245473e-19,9.8702084816834e-19,-5.9734980151967,5.9734981033192,-6.8861648956116e-06,-5.973498288431,5.9734982025388,1.7060757090333e-49,-1.7060756457251e-49,-1.706075673926e-49,1.7060757350559e-49,-5.9734980594093,5.9734981552616,-5.9734982441781,5.9734981505565,0,1.706075699246e-49,1.7060756614331e-49,-1.7060756835297e-49,-1.7060757191638e-49,9.8702081853149e-19,9.870208218817e-19,-9.8702083341836e-19,-9.8702082911527e-19,0,0,0,6.8861647711676e-06,-6.8861646776362e-06,243.57992881862,243.57992881862,243.57992875582,243.57992875582,249.7215992435,249.72159923329,249.72159917488,249.72159918638,240.38215015942,240.38215013623,240.38215007327,240.38215009716,243.5799287843,249.72159923449,249.72159921341,249.72159918389,249.72159920625,247.56467775265,247.56467774359,247.56467766755,247.56467767745,240.84457438555,240.84457437077,243.5799287843,240.84457429032,240.84457430568,251.41977341315,251.41977340478,251.41977336735,251.41977337734,240.84457437304,240.8445743432,240.84457430282,240.84457433325,252.67810103232,251.41977340934,251.41977339638,251.41977337116,251.41977338574,247.56467773692,247.56467770891,247.56467768328,247.56467771213,252.67810103232,252.67810103326,252.67810103326,243.57992884711,243.57992884711,481.06668740464,481.06668756266,0
6.4e-05,25799904.937434,1.8794256890387e-05,1.0029570985548,6.7160523431398e-06,-6.7160523500879e-06,6.716052566371e-06,6.7160524733277e-06,7.7551555118942e-31,-7.7551553214579e-31,-7.7551555157139e-31,7.755155697316e-31,-44.461004681996,44.461005439828,-44.461006560281,44.461005817523,-6.7160524356621e-06,7.7551554794679e-31,7.7551554326225e-31,-7.7551555476421e-31,-7.7551555856511e-31,9.3431549729553e-19,-9.343154805658e-19,-9.3431551018476e-19,9.3431552601263e-19,-5.9538891220053,5.953889216627,-6.716052446824e-06,-5.95388941098,5.9538893186307,1.5718783675788e-49,-1.5718783055096e-49,-1.5718783336413e-49,1.5718783937115e-49,-5.9538891682979,5.9538892720528,-5.953889364647,5.953889263165,0,1.5718783576808e-49,1.5718783207504e-49,-1.5718783433697e-49,-1.5718783783006e-49,9.3431549596387e-19,9.3431549962368e-19,-9.3431551147688e-19,-9.3431550691497e-19,0,0,0,6.7160523167742e-06,-6.7160522195184e-06,243.40924293809,243.40924293809,243.40924287125,243.40924287125,249.65928803763,249.65928802642,249.65928796497,249.65928797744,240.1523895212,240.15238949584,240.15238942946,240.15238945551,243.40924290063,249.65928802835,249.6592880053,249.65928797426,249.65928799856,247.46502076599,247.46502075606,247.465020676,247.46502068675,240.62347764009,240.62347762392,243.40924290063,240.62347753909,240.62347755584,251.38635609672,251.38635608751,251.38635604817,251.38635605897,240.62347762718,240.62347759456,240.623477552,240.6234775852,252.66581670253,251.3863560928,251.38635607859,251.38635605209,251.3863560679,247.46502074977,247.46502071917,247.46502069221,247.46502072363,252.66581670253,252.66581670345,252.66581670345,243.40924296748,243.40924296748,480.60508239939,480.60508255767,0
6.45e-05,25912627.095221,1.8941087059062e-05,1.0030101854223,6.5499758845665e-06,-6.5499758935503e-06,6.5499761174771e-06,6.5499760205197e-06,7.2295416308523e-31,-7.2295414424293e-31,-7.2295416348729e-31,7.2295418150817e-31,-44.482774403742,44.48277522392,-44.48277640172,44.482775597021,-6.5499759833043e-06,7.2295415967592e-31,7.2295415519253e-31,-7.2295416685033e-31,-7.2295417051207e-31,8.8442667493129e-19,-8.8442665814169e-19,-8.8442668778245e-19,8.8442670371839e-19,-5.9343042754586,5.9343043770149,-6.5499759964312e-06,-5.9343045810103,5.9343044817688,1.448351549282e-49,-1.4483514884381e-49,-1.4483515164545e-49,1.4483515754642e-49,-5.9343043238919,5.9343044361266,-5.9343045325369,5.9343044226177,0,1.4483515392938e-49,1.44835150323e-49,-1.4483515262871e-49,-1.4483515605161e-49,8.8442667327538e-19,8.8442667724591e-19,-8.8442668940108e-19,-8.8442668457663e-19,0,0,0,6.5499758606121e-06,-6.549975759513e-06,243.23946300248,243.23946300248,243.23946293136,243.23946293136,249.59763486368,249.5976348514,249.59763478675,249.59763480027,239.92356377656,239.92356374884,239.92356367888,239.92356370727,243.23946296163,249.59763485412,249.59763482894,249.59763479631,249.59763482273,247.36613408089,247.36613407003,247.36613398575,247.36613399742,240.40331656837,240.40331655071,243.23946296163,240.40331646129,240.40331647954,251.35349177868,251.35349176857,251.35349172721,251.35349173889,240.40331655507,240.40331651945,240.4033164746,240.40331651079,252.65399891605,251.35349177464,251.35349175908,251.35349173125,251.35349174838,247.3661340642,247.36613403081,247.36613400245,247.36613403665,252.65399891605,252.65399891695,252.65399891695,243.23946303275,243.23946303275,480.14536434621,480.14536450475,0
6.5e-05,26025555.927365,1.9087917230321e-05,1.0030632593964,6.387844566571e-06,-6.3878445776413e-06,6.3878448094505e-06,6.3878447084583e-06,6.7398251841374e-31,-6.7398249977418e-31,-6.7398251882797e-31,6.7398253670386e-31,-44.504547771946,44.504548659128,-44.504549896931,44.504549025641,-6.3878446718217e-06,6.7398251484596e-31,6.7398251055998e-31,-6.7398252235209e-31,-6.7398252587416e-31,8.3720405716228e-19,-8.3720404031645e-19,-8.3720406996647e-19,8.3720408600437e-19,-5.9147435780094,5.9147436869626,-6.3878446869653e-06,-5.9147439010163,5.9147437944208,1.3346385545977e-49,-1.3346384949651e-49,-1.3346385228247e-49,1.3346385807743e-49,-5.9147436286436,5.914743749973,-5.9147438503417,5.9147437313707,0,1.3346385445364e-49,1.3346385093235e-49,-1.3346385327407e-49,-1.3346385662702e-49,8.3720405518382e-19,8.3720405946612e-19,-8.3720407190921e-19,-8.3720406681871e-19,0,0,0,6.3878445452102e-06,-6.3878444401463e-06,243.07058589575,243.07058589575,243.0705858201,243.0705858201,249.53663684547,249.53663683204,249.53663676406,249.53663677871,239.69566955789,239.69566952764,239.69566945393,239.69566948484,243.07058585124,249.53663683565,249.53663680818,249.53663677388,249.53663680257,247.26801466594,247.26801465407,247.26801456539,247.26801457805,240.18408786865,240.18408784936,243.07058585124,240.18408775515,240.184087775,251.32117782126,251.32117781017,251.32117776672,251.32117777935,240.18408785495,240.18408781609,240.18408776884,240.18408780827,252.6426452944,251.32117781711,251.32117780009,251.32117777087,251.32117778942,247.26801464878,247.26801461238,247.26801458255,247.26801461974,252.6426452944,252.64264529529,252.64264529529,243.0705859269,243.0705859269,479.68752636175,479.68752652056,0
6.55e-05,26138691.289778,1.9234747404316e-05,1.0031163205251,6.2295694407347e-06,-6.2295694539439e-06,6.2295696938785e-06,6.2295695887278e-06,6.2835392127648e-31,-6.2835390284095e-31,-6.2835392169568e-31,6.2835393942135e-31,-44.526324355055,44.526325314216,-44.526326614788,44.526325671936,-6.2295695528065e-06,6.2835391755866e-31,6.2835391346638e-31,-6.2835392537259e-31,-6.2835392875476e-31,7.9250533992944e-19,-7.9250532303105e-19,-7.925053526782e-19,7.9250536881206e-19,-5.8952071323729,5.8952072492133,-6.2295695700199e-06,-5.895207473757,5.8952073593173,1.2299520609228e-49,-1.2299520024874e-49,-1.2299520301527e-49,1.2299520870443e-49,-5.8952071852684,5.8952073163476,-5.8952074208211,5.8952072921435,0,1.2299520508063e-49,1.2299520164288e-49,-1.2299520401347e-49,-1.2299520729678e-49,7.9250533763065e-19,7.9250534222562e-19,-7.9250535494302e-19,-7.9250534958324e-19,0,0,0,6.2295694221562e-06,-6.229569313003e-06,242.90260851488,242.90260851488,242.90260843442,242.90260843442,249.47629111795,249.47629110328,249.47629103181,249.47629104767,239.46870351283,239.46870347984,239.4687034022,239.46870343584,242.90260846643,249.47629110786,249.47629107793,249.47629104189,249.47629107302,247.17065950077,247.17065948782,247.17065939452,247.17065940826,239.96578825421,239.96578823317,242.90260846643,239.96578813393,239.96578815553,251.28941159786,251.28941158573,251.28941154009,251.28941155373,239.96578824013,239.96578819777,239.96578814801,239.96578819092,252.63175347007,251.2894115936,251.28941157502,251.28941154434,251.28941156444,247.17065948315,247.17065944351,247.17065941215,247.17065945257,252.63175347007,252.63175347095,252.63175347095,242.90260854689,242.90260854689,479.23156159424,479.2315617533,0
6.6e-05,26252033.039214,1.9381577581207e-05,1.0031693688562,6.0750634311713e-06,-6.0750634465737e-06,6.075063694883e-06,6.0750635854472e-06,5.858387121803e-31,-5.8583869395e-31,-5.8583871259798e-31,5.8583873016861e-31,-44.548103722339,44.548104758792,-44.548106125011,44.548105105285,-6.0750635503835e-06,5.8583870832037e-31,5.8583870441814e-31,-5.8583871641954e-31,-5.8583871966184e-31,7.5019578798115e-19,-7.5019577103394e-19,-7.5019580066645e-19,7.5019581689042e-19,-5.8756950415171,5.8756951667645,-6.0750635697209e-06,-5.8756954022458,5.8756952794416,1.1335684612663e-49,-1.1335684040136e-49,-1.133568431451e-49,1.1335684872879e-49,-5.8756950967336,5.8756952382596,-5.8756953469888,5.8756952079069,0,1.1335684511105e-49,1.1335684175531e-49,-1.1335684414822e-49,-1.1335684736231e-49,7.5019578536411e-19,7.5019579027259e-19,-7.5019580325116e-19,-7.5019579761912e-19,0,0,0,6.0750634155717e-06,-6.0750633022028e-06,242.73552776973,242.73552776973,242.73552768418,242.73552768418,249.41659482708,249.41659481108,249.41659473597,249.41659475314,239.24266230412,239.24266226819,239.24266218643,239.242662223,242.73552771703,249.41659481675,249.41659478416,249.4165947463,249.41659478007,247.07406557605,247.07406556193,247.07406546382,247.0740654787,239.74841445331,239.74841443039,242.73552771703,239.74841432589,239.74841434936,251.25819049304,251.25819047978,251.25819043185,251.25819044659,239.74841443886,239.74841439274,239.74841434035,239.74841438702,252.62132108651,251.25819048867,251.25819046841,251.25819043621,251.25819045796,247.07406555797,247.07406551485,247.07406548189,247.07406552578,252.62132108651,252.62132108737,252.62132108737,242.73552780257,242.73552780257,478.77746322323,478.77746338255,0
6.65e-05,26365581.033281,1.9528407761162e-05,1.0032224044376,5.9242412986164e-06,-5.9242413162664e-06,5.9242415732056e-06,5.9242414593558e-06,5.4622308730762e-31,-5.4622306928339e-31,-5.4622308771782e-31,5.4622310512894e-31,-44.569885443902,44.569886563334,-44.569887998184,44.569886895917,-5.9242414252979e-06,5.4622308331334e-31,5.4622307959733e-31,-5.4622309167632e-31,-5.4622309477895e-31,7.1014783460389e-19,-7.101478176113e-19,-7.1014784721796e-19,7.1014786352622e-19,-5.8562074086533,5.8562075428606,-5.9242414468164e-06,-5.8562077897422,5.8562076580227,1.0448226680041e-49,-1.0448226119189e-49,-1.0448226390985e-49,1.0448226938852e-49,-5.8562074662502,5.8562076189668,-5.8562077321051,5.8562075818773,0,1.0448226578241e-49,1.0448226250711e-49,-1.0448226491636e-49,-1.0448226806173e-49,7.1014783167079e-19,7.101478368933e-19,-7.1014785012045e-19,-7.1014784421329e-19,0,0,0,5.9242412862003e-06,-5.9242411684841e-06,242.56934058299,242.56934058299,242.56934049206,242.56934049206,249.35754512986,249.35754511243,249.3575450335,249.35754505208,239.01754260955,239.01754257044,239.01754248438,239.01754252411,242.56934052572,249.35754511928,249.35754508383,249.35754504408,249.35754508068,246.97822989339,246.97822987802,246.97822977487,246.97822979099,239.53196320911,239.53196318415,242.56934052572,239.53196307415,239.53196309964,251.22751190242,251.22751188794,251.22751183762,251.22751185355,239.53196319428,239.53196314411,239.53196308897,239.53196313969,252.61134579803,251.22751189795,251.22751187588,251.22751184209,251.22751186561,246.97822987488,246.97822982801,246.97822979338,246.978229841,252.61134579803,252.61134579887,252.61134579887,242.56934061665,242.56934061665,478.32522445946,478.32522461903,0
6.7e-05,26479335.130452,1.967523794436e-05,1.0032754273171,5.7770196051104e-06,-5.7770196250661e-06,5.7770198908962e-06,5.7770197724999e-06,5.0930799980908e-31,-5.0930798199186e-31,-5.0930800020659e-31,5.0930801745412e-31,-44.591669090702,44.591670299173,-44.591671805762,44.591670614895,-5.777019739603e-06,5.0930799568783e-31,5.0930799215442e-31,-5.0930800429455e-31,-5.0930800725798e-31,6.7224070235014e-19,-6.7224068531591e-19,-6.7224071488577e-19,6.7224073127267e-19,-5.8367443372308,5.8367444809827,-5.7770197633609e-06,-5.8367447397448,5.836744598525,9.6310334329321e-50,-9.6310328836043e-50,-9.6310331525583e-50,9.6310336899777e-50,-5.8367443972664,5.8367445619635,-5.8367446796693,5.8367445175053,0,9.6310333310269e-50,9.6310330113909e-50,-9.6310332534054e-50,-9.6310335611267e-50,6.7224069910316e-19,6.7224070464027e-19,-6.7224071810385e-19,-6.7224071191907e-19,0,0,0,5.7770195960911e-06,-5.7770194738949e-06,242.40404389011,242.40404389011,242.40404379348,242.40404379348,249.29913919421,249.29913917524,249.29913909234,249.29913911243,238.79334112184,238.79334107932,238.79334098875,238.79334103189,242.40404382792,249.29913918339,249.29913914489,249.29913910315,249.29913914279,246.88314946531,246.88314944859,246.88314934017,246.88314935763,239.31643127952,239.31643125238,242.40404382792,239.31643113661,239.31643116428,251.19737323266,251.19737321689,251.19737316407,251.19737318127,239.31643126434,239.3164312098,239.31643115179,239.31643120685,252.60182526979,251.1973732281,251.19737320408,251.19737316863,251.19737319407,246.88314944639,246.88314939549,246.8831493591,246.88314941074,252.60182526979,252.60182527061,252.60182527061,242.40404392454,242.40404392454,477.87483854464,477.87483870447,0
6.75e-05,26593295.190081,1.9822068130987e-05,1.0033284375422,5.6333166792848e-06,-5.633316701604e-06,5.6333169765926e-06,5.6333168535156e-06,4.7490813741524e-31,-4.7490811980571e-31,-4.7490813779533e-31,4.7490815487543e-31,-44.613454234541,44.61345553853,-44.61345712008,44.613455834156,-5.6333168219404e-06,4.7490813317409e-31,4.7490812981953e-31,-4.7490814200545e-31,-4.7490814483027e-31,6.3636004367512e-19,-6.3636002660277e-19,-6.3636005612537e-19,6.3636007258525e-19,-5.8173059309255,5.8173060848432,-5.6333168479983e-06,-5.8173063559821,5.8173062046431,8.8784852090573e-50,-8.8784846710996e-50,-8.8784849369757e-50,8.8784854640118e-50,-5.817305993457,5.8173061709765,-5.817306293411,5.8173061184714,0,8.8784851071732e-50,8.8784847952782e-50,-8.8784850378846e-50,-8.8784853388516e-50,6.3636004011643e-19,6.3636004596843e-19,-6.3636005965674e-19,-6.3636005319191e-19,0,0,0,5.6333166738837e-06,-5.6333165470706e-06,242.23963463917,242.23963463917,242.23963453651,242.23963453651,249.24137419898,249.24137417836,249.2413740913,249.24137411303,238.57005454859,238.57005450239,238.5700544071,238.5700544539,242.23963457169,249.24137418794,249.24137414614,249.24137410234,249.24137414524,246.78882131517,246.788821297,246.78882118309,246.78882120198,239.10181543717,239.10181540768,242.23963457169,239.10181528589,239.1018153159,251.16777190144,251.16777188427,251.16777182884,251.1677718474,239.10181542166,239.10181536242,239.1018153014,239.10181536115,252.59275717775,251.16777189678,251.16777187068,251.1677718335,251.16777186099,246.78882129585,246.78882124062,246.7888212024,246.78882125836,252.59275717775,252.59275717855,252.59275717855,242.23963467434,242.23963467434,477.42629875129,477.42629891138,0
6.8e-05,26707461.072419,1.996889832124e-05,1.0033814351606,5.4930525822203e-06,-5.4930526069652e-06,5.4930528913863e-06,5.4930527634889e-06,4.4285097105804e-31,-4.4285095365693e-31,-4.4285097141649e-31,4.4285098832586e-31,-44.635240448076,44.635241854479,-44.635243514354,44.635242126462,-5.4930527334052e-06,4.4285096670373e-31,4.428509635245e-31,-4.4285097574171e-31,-4.4285097842889e-31,6.0239760044559e-19,-6.023975833389e-19,-6.0239761280387e-19,6.0239762933146e-19,-5.7978922936324,5.797892458372,-5.4930527618233e-06,-5.7978927424037,5.7978925802871,8.1854158716413e-50,-8.1854153448999e-50,-8.1854156074876e-50,8.1854161242177e-50,-5.7978923587156,5.7978925499502,-5.797892677281,5.7978924886705,0,8.1854157698924e-50,8.1854154655905e-50,-8.1854157083322e-50,-8.1854160026162e-50,6.0239759657733e-19,6.0239760274463e-19,-6.0239761664615e-19,-6.0239760989935e-19,0,0,0,5.4930525806683e-06,-5.4930524491005e-06,242.07610979084,242.07610979084,242.0761096818,242.0761096818,249.18424733387,249.18424731147,249.18424722008,249.18424724355,238.34767961214,238.34767956198,238.34767946176,238.34767951251,242.07610971767,249.18424732263,249.18424727729,249.18424723132,249.18424727774,246.69524247711,246.69524245738,246.69524233773,246.69524235816,238.88811246932,238.8881124373,242.07610971767,238.88811230921,238.88811234173,251.13870533736,251.1387053187,251.13870526055,251.13870528058,238.8881124535,238.8881123892,238.88811232503,238.88811238983,252.58413920861,251.13870533262,251.13870530429,251.13870526529,251.13870529499,246.69524245742,246.69524239754,246.69524235741,246.69524241801,252.58413920861,252.5841392094,252.5841392094,242.07610982672,242.07610982672,476.97959838256,476.9795985429,0
6.85e-05,26821832.638624,2.0115728515328e-05,1.0034344202199,5.3561490739013e-06,-5.3561491011333e-06,5.3561493952669e-06,5.3561492624086e-06,4.1297586956618e-31,-4.1297585237405e-31,-4.1297586989928e-31,4.1297588663471e-31,-44.657027304829,44.657028821015,-44.657030562697,44.657029065481,-5.356149233992e-06,4.1297586510536e-31,4.1297586209785e-31,-4.1297587433286e-31,-4.1297587688336e-31,5.7025088134316e-19,-5.7025086420576e-19,-5.7025089360328e-19,5.7025091019311e-19,-5.7785035294579,5.7785037057158,-5.3561492648333e-06,-5.7785040031729,5.7785038295833,7.547075913501e-50,-7.5470753978203e-50,-7.5470756569356e-50,7.5470761634401e-50,-5.7785035971468,5.7785038030474,-5.7785039354446,5.7785037322136,0,7.5470758119972e-50,7.5470755151409e-50,-7.5470757576021e-50,-7.5470760452755e-50,5.7025087716767e-19,5.702508836504e-19,-5.7025089775408e-19,-5.7025089072337e-19,0,0,0,5.3561490764368e-06,-5.3561489399721e-06,241.9134663183,241.9134663183,241.9134662025,241.9134662025,249.1277557994,249.1277557751,249.12775567917,249.12775570453,238.12621304956,238.12621299515,238.12621288976,238.12621294476,241.91346623901,249.12775578797,249.12775573883,249.12775569061,249.12775574079,246.602409996,246.60240997461,246.60240984895,246.60240987104,238.67531917775,238.67531914301,241.91346623901,238.67531900832,238.67531904356,251.11017097996,251.11017095969,251.1101708987,251.1101709203,238.67531916164,238.67531909191,238.67531902444,238.67531909466,252.57596905979,251.11017097514,251.1101709444,251.11017090352,251.11017093559,246.60240997597,246.60240991109,246.60240986898,246.60240993455,252.57596905979,252.57596906056,252.57596906056,241.91346635481,241.91346635481,476.53473077202,476.53473093262,0
6.9e-05,26936409.750784,2.0262558713469e-05,1.0034873927677,5.222529580219e-06,-5.2225296100025e-06,5.2225299141351e-06,5.2225297761714e-06,3.8513327583699e-31,-3.8513325885426e-31,-3.8513327614146e-31,3.8513329270013e-31,-44.67881437919,44.678816013014,-44.678817840119,44.678816225727,-5.2225297496051e-06,3.8513327127598e-31,3.8513326843659e-31,-3.8513328067688e-31,-3.8513328309188e-31,5.3982285622786e-19,-5.398228390634e-19,-5.3982286838393e-19,5.3982288503077e-19,-5.7591397427103,5.7591399312238,-5.2225297829344e-06,-5.7591402426578,5.7591400568576,6.9590985840801e-50,-6.9590980793018e-50,-6.9590983347853e-50,6.9590988311548e-50,-5.759139813057,5.7591400346337,-5.7591401722717,5.7591399534099,0,6.9590984829202e-50,6.9590981933627e-50,-6.9590984351675e-50,-6.9590987163092e-50,5.3982285174744e-19,5.3982285854563e-19,-5.3982287284084e-19,-5.398228655246e-19,0,0,0,5.2225295870903e-06,-5.2225294455841e-06,241.75170120711,241.75170120711,241.75170108416,241.75170108416,249.07189680686,249.07189678051,249.07189667986,249.07189670723,237.90565161248,237.90565155349,237.90565144272,237.90565150227,241.75170112126,249.07189679525,249.07189674205,249.07189669147,249.07189674569,246.51032092739,246.5103209042,246.51032077229,246.51032079615,238.46343237869,238.46343234103,241.75170112126,238.46343219945,238.4634322376,251.08216627961,251.08216625763,251.08216619367,251.08216621696,238.46343236231,238.46343228674,238.46343221583,238.46343229188,252.56824443936,251.08216627472,251.08216624141,251.08216619856,251.08216623317,246.51032090706,246.51032083682,246.51032079262,246.51032086354,252.56824443936,252.5682444401,252.5682444401,241.7517012442,241.7517012442,476.09168928352,476.09168944438,0
6.95e-05,27051192.271928,2.0409388915894e-05,1.0035403528518,5.0921191605533e-06,-5.0921191929528e-06,5.0921195073766e-06,5.0921193641615e-06,3.5918394021101e-31,-3.5918392343803e-31,-3.5918394048399e-31,3.5918395686322e-31,-44.700601246416,44.700603006254,-44.700604922533,44.700603182605,-5.0921193396364e-06,3.5918393555615e-31,3.5918393288131e-31,-3.5918394511513e-31,-3.5918394739587e-31,5.1102166658149e-19,-5.1102164939362e-19,-5.1102167862798e-19,5.1102169532652e-19,-5.739801037891,5.7398012394411,-5.09211937552e-06,-5.7398015654217,5.7398013666315,6.41746879023e-50,-6.4174682961964e-50,-6.4174685479088e-50,6.4174690342367e-50,-5.7398011109452,5.7398013492718,-5.7398014923286,5.7398012567637,0,6.4174686895119e-50,6.4174684071089e-50,-6.4174686479135e-50,-6.4174689226036e-50,5.1102166179873e-19,5.1102166891226e-19,-5.1102168338863e-19,-5.1102167578533e-19,0,0,0,5.0921191720163e-06,-5.0921190253206e-06,241.59081145518,241.59081145518,241.59081132468,241.59081132468,249.01666757825,249.01666754972,249.01666744413,249.01666747367,237.68599206707,237.68599200317,237.68599188675,237.68599195121,241.59081136229,249.01666756649,249.01666750893,249.01666745589,249.01666751445,246.41897233745,246.41897231234,246.41897217388,246.41897219965,238.25244890273,238.25244886193,241.59081136229,238.25244871315,238.25244875442,251.05468869754,251.0546886737,251.05468860665,251.05468863175,238.25244888611,238.25244880427,238.25244872976,238.25244881208,252.56096306598,251.05468869258,251.05468865652,251.05468861161,251.05468864894,246.41897231685,246.41897224085,246.41897219448,246.41897227113,252.56096306598,252.56096306671,252.56096306671,241.59081149279,241.59081149279,475.65046731099,475.6504674721,0
7e-05,27166180.066872,2.0556219122844e-05,1.0035933005198,4.9648444758978e-06,-4.9648445109803e-06,4.9648448359958e-06,4.9648446873788e-06,3.3499820707121e-31,-3.349981905082e-31,-3.3499820731018e-31,3.3499822350766e-31,-44.722387482647,44.722389377426,-44.722391386777,44.722389512389,-4.964844665093e-06,3.3499820232827e-31,3.3499819981445e-31,-3.349982120308e-31,-3.3499821417874e-31,4.8376035119248e-19,-4.8376033398482e-19,-4.8376036312409e-19,4.8376037986927e-19,-5.7204875196877,5.7204877351009,-4.9648447035984e-06,-5.7204880762181,5.7204878636113,5.9184945421886e-50,-5.9184940587398e-50,-5.9184943065612e-50,5.9184947829504e-50,-5.7204875954962,5.7204878517123,-5.7204880003708,5.720487746963,0,5.9184944419926e-50,5.9184941666008e-50,-5.9184944060933e-50,-5.9184946744183e-50,4.8376034610968e-19,4.8376035353832e-19,-4.837603681858e-19,-4.8376036029421e-19,0,0,0,4.9648444922196e-06,-4.9648443401836e-06,241.4307940727,241.4307940727,241.43079393419,241.43079393419,248.96206534627,248.96206531539,248.96206520466,248.96206523652,237.46723119393,237.46723112476,237.46723100244,237.46723107216,241.43079397224,248.96206533439,248.96206527215,248.96206521654,248.96206527976,246.32836130289,246.32836127572,246.32836113045,246.32836115826,238.04236559475,238.04236555057,241.43079397224,238.04236539426,238.0423654389,251.0277357057,251.0277356799,251.02773560962,251.02773563666,238.04236557793,238.04236548935,238.04236541108,238.04236550012,252.55412266892,251.0277357007,251.02773566168,251.02773561462,251.02773565488,246.32836128206,246.32836119991,246.32836115127,246.32836123407,252.55412266892,252.55412266963,252.55412266963,241.43079411074,241.43079411074,475.21105827825,475.21105843962,0
7.05e-05,27281373.00084,2.0703049334575e-05,1.0036462358188,4.8406337575417e-06,-4.8406337953757e-06,4.8406341312888e-06,4.8406339771171e-06,3.1245535096444e-31,-3.1245533461151e-31,-3.1245535116725e-31,3.1245536718088e-31,-44.744172664925,44.744174704157,-44.744176810614,44.744174792266,-4.8406339572769e-06,3.1245534613918e-31,3.1245534378284e-31,-3.1245535597158e-31,-3.1245535798825e-31,4.5795658628701e-19,-4.5795656906316e-19,-4.579565980988e-19,4.5795661488557e-19,-5.7011992929663,5.7011995231177,-4.8406339984739e-06,-5.7011998799806,5.7011996526832,5.4587807350912e-50,-5.4587802620665e-50,-5.4587805058965e-50,5.4587809724542e-50,-5.701199371573,5.7011996468892,-5.7011998013353,5.701199528875,0,5.4587806354969e-50,5.4587803669741e-50,-5.4587806048748e-50,-5.4587808669231e-50,4.5795658090673e-19,4.5795658865009e-19,-4.5795660345904e-19,-4.5795659527809e-19,0,0,0,4.8406337789981e-06,-4.8406336214677e-06,241.27164608198,241.27164608198,241.27164593503,241.27164593503,248.90808735424,248.90808732086,248.90808720476,248.9080872391,237.249365788,237.24936571316,237.24936558469,237.24936566005,241.27164597342,248.90808734227,248.90808727502,248.90808721674,248.90808728493,246.23848491096,246.23848488158,246.2384847292,246.2384847592,237.83317931381,237.83317926602,241.27164597342,237.83317910185,237.83317915009,251.00130478684,251.00130475892,251.00130468528,251.0013047144,237.83317929683,237.83317920102,237.83317911882,237.83317921508,252.54772098795,251.00130478179,251.00130473961,251.00130469032,251.0013047337,246.23848488996,246.2384848012,246.23848475019,246.23848483958,252.54772098795,252.54772098864,252.54772098864,241.27164612038,241.27164612038,474.77345563888,474.77345580049,0
7.1e-05,27396770.938962,2.0849879551355e-05,1.0036991587964,4.7194167762793e-06,-4.7194168169353e-06,4.7194171640585e-06,4.7194170041758e-06,2.9144295880274e-31,-2.9144294266e-31,-2.9144295896758e-31,2.9144297479548e-31,-44.765956371166,44.765958564976,-44.765960772736,44.7659586003,-4.7194169869967e-06,2.914429539008e-31,2.9144295169851e-31,-2.9144296385003e-31,-2.914429657371e-31,4.3353243935384e-19,-4.3353242211752e-19,-4.3353245104116e-19,4.3353246786457e-19,-5.68193646276,5.6819367085739,-4.7194170309554e-06,-5.6819370818134,5.6819368388999,5.0352050737978e-50,-5.0352046110384e-50,-5.0352048507904e-50,5.0352053076278e-50,-5.681936544205,5.6819368399053,-5.6819370003303,5.6819367075326,0,5.0352049748803e-50,5.035204713088e-50,-5.0352049491405e-50,-5.0352052050031e-50,4.3353243367877e-19,4.3353244173645e-19,-4.3353245669732e-19,-4.335324482262e-19,0,0,0,4.7194168031551e-06,-4.7194166399743e-06,241.11336451749,241.11336451749,241.11336436159,241.11336436159,248.85473085609,248.85473082001,248.85473069833,248.85473073533,237.03239265849,237.03239257758,237.03239244267,237.03239252409,241.11336440022,248.85473084405,248.85473077144,248.85473071037,248.8547307839,246.14934025935,246.14934022761,246.14934006781,246.14934010016,237.6248869331,237.62488688143,241.11336440022,237.62488670905,237.62488676116,250.97539343434,250.97539340416,250.97539332701,250.97539335836,237.62488691601,237.62488681245,237.62488672614,237.62488683014,252.54175577331,250.97539342927,250.97539338371,250.97539333208,250.97539337881,246.14934023823,246.14934014239,246.14934008892,246.14934018537,252.54175577331,252.54175577398,252.54175577398,241.11336455613,241.11336455613,474.33765287599,474.33765303785,0
7.15e-05,27512373.748255,2.0996709773466e-05,1.0037520695001,4.6011248121609e-06,-4.6011248557098e-06,4.6011252143627e-06,4.6011250486111e-06,2.718563549399e-31,-2.7185633900725e-31,-2.7185635506527e-31,2.7185637070573e-31,-44.787738180189,44.787740539374,-44.787742852766,44.787740515471,-4.6011250343149e-06,2.7185634996663e-31,2.7185634791488e-31,-2.7185636002042e-31,-2.7185636177959e-31,4.1041413594808e-19,-4.104141187028e-19,-4.1041414750656e-19,4.1041416436165e-19,-5.6626991342621,5.6626993967184,-4.601125081109e-06,-5.6626997869842,5.6626995274774,4.6448959646602e-50,-4.6448955120041e-50,-4.6448957476099e-50,4.6448961948422e-50,-5.6626992185817,5.6626995360302,-5.662699702627,5.6626993881305,0,4.6448958664856e-50,4.6448956112847e-50,-4.6448958452621e-50,-4.6448960950315e-50,4.1041412998087e-19,4.1041413835217e-19,-4.1041415345595e-19,-4.1041414469391e-19,0,0,0,4.6011248447516e-06,-4.6011246757597e-06,240.95594642567,240.95594642567,240.95594626031,240.95594626031,248.80199311627,248.80199307732,248.8019929498,248.80199298965,236.81630862879,236.81630854137,236.81630839974,236.81630848766,240.95594629909,248.80199310421,248.80199302585,248.80199296187,248.80199304112,246.06092445617,246.06092442189,246.06092425435,246.06092428921,237.41748533985,237.41748528402,240.95594629909,237.41748510306,237.41748515931,250.94999915227,250.94999911967,250.94999903887,250.94999907261,237.41748532269,237.41748521081,237.41748512023,237.41748523252,252.5362247857,250.94999914719,250.949999098,250.94999904395,250.94999909427,246.06092443499,246.06092433157,246.06092427553,246.06092437953,252.5362247857,252.53622478635,252.53622478635,240.95594646444,240.95594646444,473.90364350209,473.90364366421,0
7.2e-05,27628181.296778,2.1143540001205e-05,1.0038049679773,4.485690624761e-06,-4.4856906712776e-06,4.4856910417869e-06,4.4856908700029e-06,2.5359806614143e-31,-2.5359805041875e-31,-2.5359806622606e-31,2.5359808167773e-31,-44.809517671732,44.809520207769,-44.809522631301,44.809520117658,-4.4856908588219e-06,2.5359806110195e-31,2.5359805919736e-31,-2.5359807124866e-31,-2.5359807288185e-31,3.8853183879486e-19,-3.8853182154429e-19,-3.8853185022037e-19,3.8853186710246e-19,-5.6434874128204,5.643487692953,-4.4856909085249e-06,-5.6434881009183,5.643487823782,4.2852122124669e-50,-4.2852117697537e-50,-4.2852120011567e-50,4.2852124389055e-50,-5.6434875000462,5.6434878406877,-5.6434880136554,5.6434876760132,0,4.2852121150955e-50,4.2852118663501e-50,-4.2852120980468e-50,-4.2852123418199e-50,3.885318325382e-19,3.8853184122246e-19,-3.8853185646023e-19,-3.8853184740691e-19,0,0,0,4.4856906633724e-06,-4.4856904884074e-06,240.79938886493,240.79938886493,240.79938868958,240.79938868958,248.74987140976,248.74987136773,248.74987123414,248.74987127704,236.6011105364,236.601110442,236.60111029336,236.60111038824,240.79938872836,248.7498713977,248.74987131321,248.7498712462,248.74987133156,245.97323461985,245.97323458286,245.97323440726,245.97323444481,237.21097143523,237.21097137494,240.79938872836,237.21097118502,237.21097124572,250.9251194553,250.9251194201,250.9251193355,250.92511937178,237.21097141805,237.21097129726,237.2109712022,237.2109713234,252.53112579619,250.92511945022,250.92511939716,250.92511934057,250.92511939473,245.97323459868,245.97323448715,245.97323442842,245.97323454052,252.53112579619,252.53112579682,252.53112579682,240.79938890371,240.79938890371,473.47142105892,473.47142122129,0
7.25e-05,27744193.453659,2.1290370234884e-05,1.0038578542757,4.3730484239688e-06,-4.3730484735278e-06,4.3730488562276e-06,4.3730486782463e-06,2.3657732367499e-31,-2.3657730816206e-31,-2.3657732371788e-31,2.365773389795e-31,-44.831294426432,44.831297151545,-44.831299689876,44.831296987669,-4.3730486704201e-06,2.3657731857425e-31,2.3657731681341e-31,-2.3657732880281e-31,-2.3657733031192e-31,3.6781943855147e-19,-3.6781942129919e-19,-3.6781944984015e-19,3.6781946674452e-19,-5.6243014039243,5.6243017028274,-4.3730487231076e-06,-5.6243021291861,5.6243018333268,3.9537243742057e-50,-3.9537239412744e-50,-3.9537241684311e-50,3.9537245968192e-50,-5.6243014940827,5.6243018594505,-5.624302038991,5.6243016766701,0,3.9537242776916e-50,3.9537240352669e-50,-3.9537242644988e-50,-3.9537245023723e-50,3.6781943200808e-19,3.6781944100445e-19,-3.678194563676e-19,-3.6781944702269e-19,0,0,0,4.3730484689169e-06,-4.3730482878129e-06,240.64368890553,240.64368890553,240.64368871962,240.64368871962,248.69836302199,248.69836297667,248.69836283674,248.6983628829,236.38679523284,236.38679513096,236.38679497499,236.38679507734,240.64368875827,248.69836300998,248.69836291892,248.69836284875,248.69836294065,245.88626787915,245.88626783926,245.88626765525,245.88626769569,237.00534213428,237.00534206921,240.64368875827,237.00534186995,237.00534193541,250.90075186863,250.90075183067,250.9007517421,250.90075178111,237.00534211714,237.00534198681,237.00534188708,237.00534201781,252.5264565862,250.90075186358,250.90075180637,250.90075174715,250.90075180541,245.88626785806,245.88626773786,245.88626767633,245.88626779709,252.5264565862,252.5264565868,252.5264565868,240.64368894419,240.64368894419,473.04097911723,473.04097927985,0
7.3e-05,27860410.08912,2.143720047483e-05,1.0039107284429,4.2631338412832e-06,-4.2631338939605e-06,4.263134289191e-06,4.2631341048454e-06,2.2070959993987e-31,-2.2070958463639e-31,-2.2070959994031e-31,2.2070961501073e-31,-44.853068025843,44.853070953041,-44.853073610991,44.85307070723,-4.2631341006223e-06,2.2070959478273e-31,2.2070959316226e-31,-2.2070960508267e-31,-2.2070960646966e-31,3.4821435561702e-19,-3.4821433836661e-19,-3.4821436676534e-19,3.4821438368722e-19,-5.6051412131988,5.6051415320291,-4.2631341563722e-06,-5.6051419774967,5.6051416617594,3.6481976335126e-50,-3.6481972102034e-50,-3.6481974330821e-50,3.6481978522338e-50,-5.6051413063105,5.6051416980307,-5.6051418843488,5.6051414957251,0,3.6481975379074e-50,3.6481973016709e-50,-3.6481975282744e-50,-3.6481977603453e-50,3.482143487898e-19,3.4821435809728e-19,-3.4821437357748e-19,-3.4821436394082e-19,0,0,0,4.2631338928937e-06,-4.2631337054818e-06,240.48884362953,240.48884362953,240.48884343246,240.48884343246,248.64746524881,248.64746519997,248.64746505344,248.64746510309,236.17335958356,236.17335947367,236.17335931005,236.1733594204,240.48884347083,248.6474652369,248.64746513882,248.64746506535,248.64746516424,245.80002137306,245.80002133008,245.8000211373,245.80002118082,236.80059436584,236.80059429565,240.48884347083,236.80059408664,236.8005941572,250.87689392802,250.87689388711,250.8768937944,250.87689383634,236.80059434882,236.80059420826,236.80059410365,236.8005942446,252.52221494745,250.87689392301,250.87689386138,250.87689379941,250.87689386206,245.80002135214,245.80002122266,245.80002115822,245.80002128824,252.52221494745,252.52221494804,252.52221494804,240.48884366791,240.48884366791,472.61231127667,472.61231143954,0
7.35e-05,27976831.074501,2.1584030721389e-05,1.0039635905266,4.1558839016118e-06,-4.1558839574853e-06,4.1558843655947e-06,4.155884174714e-06,2.0591617723499e-31,-2.0591616214047e-31,-2.059161771924e-31,2.0591619207075e-31,-44.874838052449,44.874841195581,-44.87484397813,44.874840858994,-4.1558841743508e-06,2.0591617202604e-31,2.0591617054252e-31,-2.0591618238747e-31,-2.0591618365437e-31,3.2965735241261e-19,-3.2965733516747e-19,-3.2965736341716e-19,3.2965738035198e-19,-5.5860069463964,5.5860072863776,-4.1558842332434e-06,-5.5860077516916,5.5860074148555,3.3665760709648e-50,-3.3665756571151e-50,-3.3665758756961e-50,3.3665762857406e-50,-5.5860070424762,5.5860074622729,-5.586007655576,5.5860072389281,0,3.3665759763131e-50,3.3665757461318e-50,-3.3665759699635e-50,-3.3665761963312e-50,3.2965734530438e-19,3.2965735492176e-19,-3.2965737051104e-19,-3.2965736058266e-19,0,0,0,4.1558839602225e-06,-4.1558837663294e-06,240.33485013071,240.33485013071,240.33484992184,240.33484992184,248.59717539644,248.59717534384,248.59717519045,248.59717524382,235.96080046788,235.96080034941,235.96080017782,235.96080029673,240.33484995977,248.59717538468,248.59717527909,248.5971752022,248.59717530857,245.71449225078,245.71449220449,245.71449200258,245.71449204939,236.59672507246,236.5967249968,240.33484995977,236.5967247776,236.59672485364,250.8535431797,250.85354313563,250.85354303863,250.85354308368,236.59672505563,236.59672490412,236.59672479443,236.59672494631,252.51839868194,250.85354317476,250.8535431084,250.85354304357,250.85354311091,245.71449223012,245.71449209071,245.71449202324,245.71449216316,252.51839868194,252.5183986825,252.5183986825,240.33485016864,240.33485016864,472.1854111656,472.18541132872,0
7.4e-05,28093456.282289,2.1730860974921e-05,1.0040164405745,4.0512369955661e-06,-4.0512370547155e-06,4.0512374760575e-06,4.0512372784678e-06,1.9212374643022e-31,-1.9212373154426e-31,-1.9212374634429e-31,1.9212376102981e-31,-44.896604089666,44.896607463439,-44.89661037576,44.896607026543,-4.051237282233e-06,1.9212374117412e-31,1.921237398243e-31,-1.9212375158765e-31,-1.9212375273657e-31,3.1209235558216e-19,-3.1209233834593e-19,-3.120923664399e-19,3.120923833831e-19,-5.566898709389,5.5668990718108,-4.0512373443483e-06,-5.5668995577339,5.5668991985087,3.1069682156351e-50,-3.1069678110868e-50,-3.1069680253577e-50,3.1069684264245e-50,-5.5668988084447,5.5668992581427,-5.5668994586437,5.5668990121467,0,3.1069681219834e-50,3.1069678977294e-50,-3.1069681186601e-50,-3.1069683394241e-50,3.1209234819611e-19,3.1209235812222e-19,-3.1209237381263e-19,-3.1209236359279e-19,0,0,0,4.0512370615231e-06,-4.0512368609748e-06,240.18170551446,240.18170551446,240.18170529313,240.18170529313,248.54749078144,248.54749072483,248.54749056428,248.54749062164,235.7491147789,235.74911465124,235.74911447133,235.74911459941,240.18170533043,248.54749076989,248.54749065629,248.54749057583,248.54749069018,245.62967767165,245.62967762181,245.6296774104,245.62967746073,236.39373121033,236.39373112881,240.18170533043,236.393730899,236.39373098087,250.83069718034,250.8306971329,250.83069703141,250.8306970798,236.39373119377,236.39373103055,236.39373091555,236.39373107913,252.51500560186,250.83069717549,250.83069710408,250.83069703627,250.83069710862,245.62967765135,245.62967750134,245.6296774307,245.62967758121,252.51500560186,252.5150056024,252.5150056024,240.18170555176,240.18170555176,471.76027244091,471.76027260428,0
7.45e-05,28210285.586142,2.1877691235806e-05,1.0040692786345,3.9491328522416e-06,-3.9491329147485e-06,3.9491333496864e-06,3.9491331452103e-06,1.7926403346414e-31,-1.7926401878618e-31,-1.7926403333468e-31,1.7926404782685e-31,-44.91836572185,44.918369341908,-44.918372389345,44.91836879441,-3.9491331533797e-06,1.792640281651e-31,1.792640269457e-31,-1.792640386218e-31,-1.7926403965494e-31,2.9546628759645e-19,-2.9546627037263e-19,-2.9546629830447e-19,2.9546631525167e-19,-5.5478166081596,5.5478169943853,-3.9491332187997e-06,-5.5478175017033,5.5478171187258,2.8676337728607e-50,-2.8676333774541e-50,-2.8676335874116e-50,2.8676339796339e-50,-5.5478167101907,5.5478171917232,-5.5478173996382,5.5478169213587,0,2.867633680243e-50,2.8676334617886e-50,-2.8676336797054e-50,-2.8676338949669e-50,2.9546627993546e-19,2.9546629016897e-19,-2.9546630595285e-19,-2.9546629544198e-19,0,0,0,3.9491329259047e-06,-3.9491327185233e-06,240.02940689778,240.02940689778,240.02940666329,240.02940666329,248.49840873067,248.49840866977,248.49840850178,248.4984085634,235.53829942341,235.53829928593,235.53829909734,235.53829923522,240.02940669975,248.4984087194,248.49840859724,248.49840851306,248.49840863594,245.5455748051,245.54557475148,245.54557453017,245.54557458426,236.19160974918,236.19160966139,240.02940669975,236.19160942052,236.19160950865,250.808353497,250.80835344595,250.80835333981,250.80835339176,236.19160973299,236.19160955724,236.19160943671,236.19160961281,252.51203352959,250.80835349226,250.80835341546,250.80835334455,250.80835342225,245.54557478527,245.54557462393,245.54557455,245.54557471181,252.51203352959,252.51203353011,252.51203353011,240.02940693424,240.02940693424,471.33688878787,471.33688895148,0
7.5e-05,28327318.860922,2.2024521504444e-05,1.0041221047544,3.849512512482e-06,-3.8495125784298e-06,3.8495130273331e-06,3.8495128157903e-06,1.6727345173182e-31,-1.672734372613e-31,-1.6727345155887e-31,1.6727346585726e-31,-44.940122534291,44.940126417254,-44.940129605339,44.940125748064,-3.8495128286505e-06,1.6727344639404e-31,1.6727344530184e-31,-1.6727345688549e-31,-1.6727345780506e-31,2.7972890726411e-19,-2.7972889005629e-19,-2.7972891781981e-19,2.7972893476663e-19,-5.528760748792,5.5287611602599,-3.8495128974583e-06,-5.5287616897832,5.5287612816144,2.6469714317413e-50,-2.6469710453189e-50,-2.6469712509679e-50,2.6469716344791e-50,-5.5287608537902,5.5287613692035,-5.5287615847518,5.5287610726428,0,2.6469713401918e-50,2.6469711274121e-50,-2.6469713422169e-50,-2.6469715520766e-50,2.7972889933131e-19,2.797289098708e-19,-2.7972892574068e-19,-2.797289149394e-19,0,0,0,3.8495125942208e-06,-3.8495123798265e-06,239.87795140912,239.87795140912,239.87795116073,239.87795116073,248.44992658125,248.44992651577,248.44992634003,248.44992640619,235.32835132183,235.32835117385,235.32835097621,235.32835112458,239.87795119613,248.44992657031,248.44992643901,248.44992635097,248.44992648295,245.46218083062,245.46218077296,245.46218054134,245.46218059946,235.99035767225,235.99035757776,239.87795119613,235.99035732534,235.99035742016,250.7865097071,250.78650965221,250.78650954122,250.78650959697,235.99035765652,235.99035746736,235.99035734107,235.99035753055,252.50948029763,250.7865097025,250.78650961996,250.78650954582,250.78650962923,245.46218081138,245.46218063794,245.46218056059,245.46218073447,252.50948029763,252.50948029812,252.50948029812,239.87795144453,239.87795144453,470.91525391997,470.91525408383,0
7.55e-05,28444555.982725,2.2171351781253e-05,1.0041749189823,3.7523183026158e-06,-3.7523183720896e-06,3.7523188353349e-06,3.7523186165418e-06,1.5609277856577e-31,-1.5609276430199e-31,-1.5609277834947e-31,1.5609279245384e-31,-44.961874113241,44.961878276774,-44.96188161122,44.961877473939,-3.7523186343895e-06,1.5609277319332e-31,1.5609277222513e-31,-1.5609278371153e-31,-1.5609278451981e-31,2.6483265868557e-19,-2.648326414972e-19,-2.6483266908649e-19,2.6483268602868e-19,-5.5097312374654,5.5097316756943,-3.7523187066703e-06,-5.5097322282578,5.509731793378,2.4435076639653e-50,-2.4435072863693e-50,-2.4435074877217e-50,2.4435078626577e-50,-5.5097313454132,5.509731896874,-5.5097321202779,5.5097315721719,0,2.4435075735153e-50,2.4435073662866e-50,-2.4435075778948e-50,-2.4435077824544e-50,2.6483265048414e-19,2.6483266132806e-19,-2.648326772767e-19,-2.648326661858e-19,0,0,0,3.7523183928116e-06,-3.7523181712207e-06,239.72733618838,239.72733618838,239.7273359253,239.7273359253,248.40204168047,248.40204161012,248.40204142632,248.40204149733,235.11926740815,235.11926724893,235.11926704186,235.11926720145,239.7273359594,248.40204166995,248.40204152891,248.40204143684,248.40204157854,245.37949293769,245.37949287572,245.37949263337,245.37949269578,235.78997197615,235.78997187449,239.7273359594,235.78997161004,235.78997171202,250.76516339838,250.7651633394,250.76516322337,250.76516328317,235.78997196099,235.78997175751,235.78997162521,235.789971829,252.50734374857,250.76516339396,250.76516330528,250.76516322779,250.76516331729,245.37949291917,245.37949273282,245.3794926519,245.37949283867,252.50734374857,252.50734374904,252.50734374904,239.72733622248,239.72733622248,470.49536157874,470.49536174284,0
7.6e-05,28561996.828911,2.2318182066672e-05,1.0042277213665,3.6574938086577e-06,-3.6574938817433e-06,3.6574943597156e-06,3.6574941334862e-06,1.4566685413405e-31,-1.4566684007624e-31,-1.4566685387469e-31,1.4566686778491e-31,-44.983620045888,44.983624508763,-44.98362799547,44.983623559424,-3.6574941566269e-06,1.456668487308e-31,1.4566684788342e-31,-1.4566685926819e-31,-1.4566685996745e-31,2.5073252820431e-19,-2.5073251103884e-19,-2.5073253844823e-19,2.5073255538155e-19,-5.4907281804433,5.4907286470368,-3.6574942324676e-06,-5.4907292234996,5.490728760306,2.2558864327425e-50,-2.2558860638158e-50,-2.2558862608906e-50,2.2558866273873e-50,-5.4907282913127,5.4907288811148,-5.4907291125987,5.4907285262028,0,2.2558863434179e-50,2.2558861416182e-50,-2.2558863499574e-50,-2.255886549318e-50,2.5073251973745e-19,2.5073253088407e-19,-2.5073254690445e-19,-2.5073253552483e-19,0,0,0,3.6574939077036e-06,-3.6574936787292e-06,239.57755838677,239.57755838677,239.5775581082,239.5775581082,248.35475138585,248.35475131028,248.3547511181,248.35475119428,234.91104462978,234.91104445856,234.91104424166,234.91104441323,239.57755814073,248.35475137582,248.35475122438,248.35475112813,248.35475128019,245.29750832575,245.29750825918,245.29750800567,245.29750807265,235.59044967084,235.59044956151,239.57755814073,235.59044928453,235.59044939415,250.74431216886,250.74431210552,250.74431198424,250.74431204837,235.59044965636,235.59044943757,235.590449299,235.59044951809,252.50562173506,250.74431216465,250.74431206943,250.74431198845,250.74431208445,245.29750830809,245.29750810796,245.29750802332,245.29750822386,252.50562173506,252.50562173551,252.50562173551,239.5775584193,239.5775584193,470.0772055336,470.07720569795,0
7.65e-05,28679641.278142,2.2465012361162e-05,1.0042805119551,3.5649838509731e-06,-3.5649839277586e-06,3.5649844208482e-06,3.564984186995e-06,1.3594430119854e-31,-1.3594428734593e-31,-1.3594430089664e-31,1.359443146126e-31,-45.005359920396,45.005364702548,-45.0053683476,45.005363592873,-3.5649842157442e-06,1.3594429576834e-31,1.3594429503865e-31,-1.3594430631782e-31,-1.3594430691033e-31,2.3738590893645e-19,-2.3738589179737e-19,-2.3738591902146e-19,2.3738593594163e-19,-5.4717516840677,5.471752180717,-3.5649842952343e-06,-5.4717527819628,5.4717522887658,2.0828597373723e-50,-2.0828593769604e-50,-2.0828595697834e-50,2.0828599279757e-50,-5.4717517978203,5.4717524283904,-5.4717526681801,5.4717520410693,0,2.0828596491991e-50,2.0828594527091e-50,-2.0828596577202e-50,-2.0828598519814e-50,2.3738590020754e-19,2.3738591165506e-19,-2.3738592774045e-19,-2.3738591607312e-19,0,0,0,3.5649839592728e-06,-3.5649837227258e-06,239.42861516681,239.42861516681,239.42861487187,239.42861487187,248.30805306499,248.30805298387,248.30805278296,248.30805286467,234.70367994757,234.70367976352,234.70367953637,234.70367972076,239.42861490255,248.30805305554,248.30805289301,248.30805279241,248.30805295553,245.21622420412,245.21622413264,245.21622386752,245.21622393938,235.39178777949,235.39178766199,239.42861490255,235.39178737194,235.39178748973,250.7239536268,250.7239535588,250.72395343206,250.7239535008,235.39178776584,235.39178753069,235.3917873856,235.39178762103,252.50431211973,250.72395362283,250.72395352064,250.72395343603,250.72395353896,245.21622418748,245.21622397266,245.21622388415,245.21622409936,252.50431211973,252.50431212015,252.50431212015,239.42861519748,239.42861519748,469.6607795817,469.6607797463,0
7.7e-05,28797489.210412,2.2611842665206e-05,1.0043332907967,3.4747344593946e-06,-3.4747345399686e-06,3.4747350485757e-06,3.4747348069066e-06,1.2687726428458e-31,-1.2687725063622e-31,-1.2687726394062e-31,1.2687727746247e-31,-45.027093325897,45.0270984485,-45.027102258185,45.027097163619,-3.4747348415906e-06,1.2687725883103e-31,1.2687725821589e-31,-1.2687726938578e-31,-1.2687726987387e-31,2.2475247248068e-19,-2.2475245537131e-19,-2.2475248240492e-19,2.2475249930785e-19,-5.4528018547503,5.4528023832406,-3.47473492482e-06,-5.4528030101797,5.4528024851954,1.9232789251122e-50,-1.9232785730593e-50,-1.9232787616602e-50,1.9232791116861e-50,-5.4528019713356,5.452802645241,-5.4528028935656,5.452802223174,0,1.9232788381107e-50,1.9232786468114e-50,-1.9232788484437e-50,-1.9232790377066e-50,2.2475246349304e-19,2.2475247523949e-19,-2.2475249138326e-19,-2.2475247942943e-19,0,0,0,3.4747345773649e-06,-3.474734333052e-06,239.2805037022,239.2805037022,239.28050338999,239.28050338999,248.26194409561,248.26194400858,248.2619437986,248.26194388618,234.49717033566,234.49717013791,234.49716990009,234.49717009815,239.28050341849,248.26194408684,248.2619439125,248.26194380737,248.26194398227,245.135637792,245.13563771529,245.13563743809,245.13563751516,235.1939833385,235.19398321226,239.28050341849,235.19398290861,235.19398303512,250.70408539063,250.70408531768,250.70408518527,250.70408525893,235.19398332581,235.1939830732,235.1939829213,235.19398317418,252.50341277518,250.70408538695,250.70408527734,250.70408518896,250.70408529927,245.13563777655,245.13563754605,245.13563745353,245.13563768439,252.50341277518,252.50341277558,252.50341277558,239.2805037307,239.2805037307,469.24607754778,469.24607771262,0
7.75e-05,28915540.507087,2.2758672979313e-05,1.0043860579399,3.3866928487834e-06,-3.3866929332366e-06,3.3866934577682e-06,3.3866932080888e-06,1.1842116691221e-31,-1.1842115346716e-31,-1.1842116652683e-31,1.184211798548e-31,-45.048819852496,45.048825338025,-45.048829318829,45.048823861967,-3.3866932490442e-06,1.1842116143881e-31,1.1842116093514e-31,-1.1842117199241e-31,-1.1842117237842e-31,2.127940474295e-19,-2.1279403035321e-19,-2.1279405719134e-19,2.1279407407297e-19,-5.4338787989645,5.4338793611777,-3.3866933361047e-06,-5.433880014746,5.4338794560938,1.7760867075868e-50,-1.7760863637393e-50,-1.7760865481533e-50,1.77608689015e-50,-5.4338789183188,5.4338796382738,-5.4338798953642,5.4338791789788,0,1.776086621775e-50,1.7760864355501e-50,-1.7760866337633e-50,-1.7760868181277e-50,2.1279403818653e-19,2.1279405022986e-19,-2.1279406642556e-19,-2.1279405418659e-19,0,0,0,3.3866929768528e-06,-3.3866927245785e-06,239.13322117777,239.13322117777,239.13322084733,239.13322084733,248.21642186547,248.21642177213,248.21642155273,248.21642164659,234.29151278143,234.29151256906,234.29151232013,234.29151253279,239.13322087331,248.21642185749,248.21642167055,248.21642156071,248.21642174817,245.05574631838,245.05574623609,245.05574594633,245.05574602896,234.99703339732,234.99703326176,239.13322087331,234.99703294394,234.99703307976,250.68470508898,250.68470501074,250.68470487245,250.68470495135,234.99703338575,234.99703311449,234.99703295552,234.99703322702,252.50292158395,250.68470508563,250.68470496811,250.6847048758,250.68470499398,245.05574630431,245.0557460571,245.0557459604,245.05574620795,252.50292158395,252.50292158432,252.50292158432,239.13322120375,239.13322120375,468.83309328395,468.83309344904,0
7.8e-05,29033795.050941,2.2905503304012e-05,1.0044388134335,3.3008073950327e-06,-3.3008074834573e-06,3.3008080243278e-06,3.3008077664407e-06,1.1053448563589e-31,-1.1053447239313e-31,-1.1053448520983e-31,1.1053449834424e-31,-45.070539091275,45.070544963579,-45.070549122195,45.070543279201,-3.3008078140152e-06,1.1053448014605e-31,1.1053447975083e-31,-1.1053449069242e-31,-1.1053449097871e-31,2.0147450432549e-19,-2.0147448728562e-19,-2.0147451392352e-19,2.0147453077987e-19,-5.4149826232353,5.4149832211551,-3.3008079050001e-06,-5.4149839023158,5.4149833080127,1.6403098242112e-50,-1.6403094884169e-50,-1.6403096686832e-50,1.6403100027881e-50,-5.4149827452811,5.414983514155,-5.4149837802441,5.4149830149966,0,1.6403097396056e-50,1.6403095583409e-50,-1.6403097531032e-50,-1.6403099326688e-50,2.014744948307e-19,2.0147450716877e-19,-2.0147452341014e-19,-2.0147451088754e-19,0,0,0,3.3008075336415e-06,-3.3008072732075e-06,238.98676478942,238.98676478942,238.98676443974,238.98676443974,248.17148377235,248.1714836723,248.1714834431,248.17148354364,234.08670428545,234.08670405747,234.08670379696,234.08670402521,238.98676446283,248.17148376526,248.17148356491,248.17148345019,248.17148365102,244.97654702202,244.97654693379,244.97654663097,244.97654671952,234.80093501846,234.80093487294,238.98676446283,234.80093454037,234.80093468612,250.66581036057,250.66581027671,250.66581013229,250.66581021677,234.80093500816,234.80093471701,234.80093455067,234.80093484206,252.50283643842,250.6658103576,250.66581023164,250.66581013527,250.66581026183,244.97654700952,244.97654674452,244.97654664347,244.9765469088,252.50283643842,252.50283643877,252.50283643877,238.98676481251,238.98676481251,468.4218206696,468.42182083494,0
7.85e-05,29152252.726197,2.3052333639862e-05,1.0044915573265,3.2170276115035e-06,-3.2170277039934e-06,3.2170282616258e-06,3.2170279953301e-06,1.0317853972463e-31,-1.0317852668309e-31,-1.0317853925869e-31,1.031785522e-31,-45.092250634306,45.092256918688,-45.092261262022,45.092255007599,-3.2170280498823e-06,1.0317853422158e-31,1.031785339318e-31,-1.0317854475495e-31,-1.0317854494392e-31,1.9075964672264e-19,-1.9075962972251e-19,-1.9075965615558e-19,1.9075967298277e-19,-5.3961134341339,5.3961140698515,-3.2170281448857e-06,-5.3961147795949,5.3961141475499,1.515052299781e-50,-1.5150519718886e-50,-1.5150521480499e-50,1.5150524744012e-50,-5.3961135587783,5.3961143796032,-5.396114654926,5.3961138377842,0,1.5150522163941e-50,1.5150520399767e-50,-1.5150522312644e-50,-1.5150524061307e-50,1.9075963697954e-19,1.9075964961007e-19,-1.90759665891e-19,-1.9075965308645e-19,0,0,0,3.2170277611051e-06,-3.2170274923104e-06,238.84113174403,238.84113174403,238.84113137405,238.84113137405,248.127127224,248.12712711679,248.12712687741,248.12712698507,233.88274186135,233.88274161671,233.88274134415,233.88274158904,238.84113139384,248.12712721793,248.12712700329,248.12712688349,248.12712709857,244.8980371514,244.89803705684,244.89803674045,244.89803683531,234.60568527735,234.60568512122,238.84113139384,234.60568477329,234.60568492965,250.6473988542,250.64739876435,250.64739861357,250.64739870399,234.60568526852,234.60568495614,234.60568478213,234.60568509472,252.50315524084,250.64739885165,250.64739871673,250.64739861612,250.64739875161,244.89803714069,244.89803685672,244.89803675116,244.89803703543,252.50315524084,252.50315524116,252.50315524116,238.84113176382,238.84113176382,468.01225361122,468.0122537768,0
7.9e-05,29270913.418568,2.3199163987445e-05,1.0045442896681,3.1353041258877e-06,-3.1353042225384e-06,3.1353047973623e-06,3.1353045224545e-06,9.6317295396351e-32,-9.631728255491e-32,-9.6317294891404e-32,9.6317307640181e-32,-45.113954074651,45.113960797953,-45.113965333119,45.113958640435,-3.1353045843546e-06,9.6317289883297e-32,9.6317289695992e-32,-9.6317300398212e-32,-9.6317300492238e-32,1.806171080307e-19,-1.8061709107357e-19,-1.8061711729745e-19,1.8061713409166e-19,-5.3772713382675,5.3772720139863,-3.1353046834726e-06,-5.3772727533299,5.3772720813397,1.3994892477387e-50,-1.3994889275984e-50,-1.3994890997012e-50,1.3994894184361e-50,-5.3772714654015,5.3772723413813,-5.3772726261736,5.3772717539341,0,1.3994891655829e-50,1.3994889939023e-50,-1.3994891816993e-50,-1.3994893519645e-50,1.8061709804294e-19,1.8061711096358e-19,-1.8061712727811e-19,-1.8061711419343e-19,0,0,0,3.1353042869472e-06,-3.1353040095878e-06,238.6963192594,238.6963192594,238.69631886801,238.69631886801,248.0833496381,248.08334952328,248.08334927333,248.08334938856,233.67962253579,233.67962227339,233.67962198829,233.67962225092,238.69631888407,248.08334963318,248.08334940333,248.08334927825,248.08334950851,244.82021396465,244.82021386335,244.82021353286,244.82021363443,234.41128126232,234.41128109487,238.69631888407,234.41128073096,234.41128089862,250.62946822872,250.62946813249,250.62946797511,250.62946807186,234.41128125515,234.41128092014,234.41128073814,234.41128107335,252.50387590324,250.62946822665,250.62946808218,250.62946797718,250.62946812217,244.82021395597,244.8202136518,244.82021354154,244.82021384599,252.50387590324,252.50387590353,252.50387590353,238.69631927547,238.69631927547,467.60438604224,467.60438620805,0
7.95e-05,29389777.015301,2.3345994347373e-05,1.0045970105079,3.0555886574902e-06,-3.0555887583981e-06,3.0555893508518e-06,3.0555890671266e-06,8.9917183596579e-32,-8.9917170954043e-32,-8.9917183053593e-32,8.9917195610448e-32,-45.135649006372,45.135656197069,-45.135660931385,45.135653771994,-3.0555891367542e-06,8.9917178076518e-32,8.9917177988753e-32,-8.9917188567842e-32,-8.9917188569294e-32,1.7101625383869e-19,-1.7101623692777e-19,-1.7101626293835e-19,1.7101627969575e-19,-5.3584564422724,5.3584571603152,-3.055589240085e-06,-5.3584579303027,5.3584572160475,1.2928611746287e-50,-1.2928608620921e-50,-1.2928610301863e-50,1.2928613414414e-50,-5.3584565717689,5.3584575062889,-5.3584578007859,5.3584568700661,0,1.2928610937123e-50,1.2928609266593e-50,-1.2928611109569e-50,-1.2928612767183e-50,1.7101624360987e-19,1.7101625681812e-19,-1.7101627316053e-19,-1.7101625979761e-19,0,0,0,3.0555888304862e-06,-3.0555885443549e-06,238.5523245642,238.5523245642,238.55232415022,238.55232415022,248.04014844223,248.04014831931,248.04014805838,248.04014818168,233.47734334838,233.47734306704,233.47734276889,233.47734305044,238.55232416208,248.0401484386,248.04014819257,248.04014806201,248.04014830842,244.74307472954,244.74307462107,244.74307427592,244.74307438465,234.2177200745,234.21771989497,238.55232416208,234.21771951445,234.21771969416,250.61201615296,250.61201604996,250.61201588573,250.6120159892,234.2177200692,234.21771971005,234.21771951974,234.21771987908,252.5049963474,250.61201615144,250.61201599682,250.61201588725,250.61201604235,244.74307472314,244.74307439746,244.74307428233,244.74307460826,252.5049963474,252.50499634767,252.50499634767,238.55232457606,238.55232457606,467.19821192286,467.19821208891,0
8e-05,29508843.40522,2.3492824720288e-05,1.0046497198955,2.9778339949255e-06,-2.9778341001877e-06,2.9778347107172e-06,2.9778344179666e-06,8.3946930380495e-32,-8.3946917935674e-32,-8.3946929800488e-32,8.3946942166107e-32,-45.157335024527,45.157342712801,-45.157347653817,45.157339997556,-2.9778344957139e-06,8.3946924856367e-32,8.3946924865275e-32,-8.3946935319188e-32,-8.3946935230429e-32,1.6192808942759e-19,-1.6192807256614e-19,-1.6192809835942e-19,1.6192811507625e-19,-5.3396688528049,5.3396696156164,-2.9778346033556e-06,-5.3396704173212,5.3396696583572,1.1944687448737e-50,-1.1944684397947e-50,-1.1944686039316e-50,1.1944689078425e-50,-5.3396689845171,5.3396699811512,-5.3396702855906,5.3396692928181,0,1.1944686652037e-50,1.194468502672e-50,-1.1944686834662e-50,-1.1944688448195e-50,1.6192807896145e-19,1.6192809245473e-19,-1.6192810881934e-19,-1.6192809518023e-19,0,0,0,2.9778341803483e-06,-2.9778338852363e-06,238.40914489785,238.40914489785,238.40914446005,238.40914446005,247.99752107384,247.9975209423,247.99752066997,247.99752080185,233.2759013516,233.27590105008,233.27590073835,233.27590104007,238.40914446719,247.99752107166,247.9975208084,247.99752067215,247.99752093574,244.66661672342,244.66661660731,244.66661624695,244.66661636329,234.02499882774,234.02499863535,238.40914446719,234.02499823753,234.02499843009,250.59504030575,250.59504019554,250.59504002419,250.59504013483,234.02499882455,234.02499843967,234.02499824072,234.02499862577,252.50651450482,250.59504030484,250.59504013941,250.5950400251,250.59504019096,244.66661671956,244.666616371,244.6666162508,244.66661659959,252.50651450482,252.50651450507,252.50651450507,238.409144905,238.409144905,466.79372523994,466.79372540623,0
8.05e-05,29628112.478775,2.3639655106858e-05,1.004702417881,2.9019939742218e-06,-2.9019940839386e-06,2.9019947129974e-06,2.9019944110087e-06,7.8377399024261e-32,-7.8377386775852e-32,-7.8377398408259e-32,7.8377410583506e-32,-45.1790117252,45.179019943044,-45.17902509853,45.179016913407,-2.9019944972806e-06,7.8377393498915e-32,7.8377393601641e-32,-7.837740392862e-32,-7.8377403752065e-32,1.5332517219942e-19,-1.5332515539058e-19,-1.5332518096278e-19,1.5332519763546e-19,-5.3209086765341,5.3209094866897,-2.9019946093333e-06,-5.3209103212136,5.3209095149647,1.1036679683895e-50,-1.1036676706221e-50,-1.1036678308563e-50,1.1036681275598e-50,-5.3209088102959,5.320909872817,-5.3209101874362,5.3209091288373,0,1.1036678899722e-50,1.1036677318563e-50,-1.1036679091499e-50,-1.1036680661916e-50,1.5332516149976e-19,1.5332517527541e-19,-1.5332519165673e-19,-1.5332517774367e-19,0,0,0,2.9019941725751e-06,-2.90199386827e-06,238.26677751051,238.26677751051,238.26677704759,238.26677704759,247.95546498018,247.95546483947,247.95546455531,247.95546469632,233.07529361073,233.07529328769,233.07529296184,233.07529328506,238.26677704947,247.95546497961,247.95546469804,247.95546455588,247.95546483775,244.59083723316,244.59083710892,244.59083673276,244.5908368572,233.83311464857,233.83311444246,238.26677704947,233.83311402667,233.83311423292,250.57853837582,250.57853825794,250.5785380792,250.57853819746,233.83311464773,233.83311423544,233.83311402751,233.83311443994,252.50842831668,250.57853837558,250.57853819866,250.57853807944,250.57853825673,244.59083723214,244.59083685923,244.59083673377,244.59083710689,252.50842831668,252.5084283169,252.5084283169,238.26677751239,238.26677751239,466.39092000681,466.39092017335,0
8.1e-05,29747584.128089,2.3786485507787e-05,1.0047551045147,2.8280234573271e-06,-2.8280235715986e-06,2.8280242196489e-06,2.8280239082087e-06,7.3181443051254e-32,-7.3181430997935e-32,-7.3181442400364e-32,7.3181454386106e-32,-45.200678705471,45.200687486799,-45.20069286474,45.200684116871,-2.8280240034197e-06,7.3181437527375e-32,7.3181437721108e-32,-7.3181447919602e-32,-7.3181447657607e-32,1.4518152876249e-19,-1.451815120094e-19,-1.4518153735696e-19,1.4518155398186e-19,-5.3021760201329,5.3021768803445,-2.8280241199852e-06,-5.3021777488164,5.3021768925734,1.0198657766118e-50,-1.0198654860125e-50,-1.0198656424003e-50,1.0198659320309e-50,-5.3021761557548,5.3021772881464,-5.3021776131814,5.3021764847754,0,1.01986569945e-50,1.0198655456465e-50,-1.0198657194475e-50,-1.0198658722717e-50,1.451815178331e-19,1.4518153188832e-19,-1.4518154828104e-19,-1.4518153409632e-19,0,0,0,2.8280236691282e-06,-2.828023355415e-06,238.12521966298,238.12521966298,238.12521917357,238.12521917357,247.9139776183,247.91397746784,247.9139771714,247.91397732212,232.87551720377,232.87551685781,232.87551651728,232.87551686339,238.12521916959,247.91397761951,247.91397731847,247.91397717019,247.91397747149,244.51573355513,244.51573342225,244.51573302969,244.51573316275,233.64206467609,233.64206445538,238.12521916959,233.64206402089,233.64206424173,250.56250806177,250.56250793575,250.56250774935,250.56250787571,233.64206467787,233.64206423638,233.64206401911,233.64206446072,252.51073573379,250.56250806228,250.56250787316,250.56250774884,250.56250793829,244.51573355727,244.51573315845,244.51573302754,244.51573342654,252.51073573379,252.51073573398,252.51073573398,238.125219659,238.125219659,465.98979026316,465.98979042994,0
8.15e-05,29867258.247007,2.3933315923809e-05,1.0048077798472,2.7558783110091e-06,-2.7558784299376e-06,2.755879097449e-06,2.7558787763404e-06,6.8333769415888e-32,-6.8333757556295e-32,-6.8333768731247e-32,6.8333780528452e-32,-45.222335563455,45.222344944191,-45.222350552806,45.22234120628,-2.7558788809183e-06,6.8333763896099e-32,6.8333764178076e-32,-6.8333774246729e-32,-6.8333773901664e-32,1.3747257642703e-19,-1.3747255973277e-19,-1.3747258485228e-19,1.3747260142589e-19,-5.2834709902708,5.2834719033922,-2.7558790020992e-06,-5.2834728069709,5.2834718978804,9.4251595533115e-51,-9.4251567175775e-51,-9.4251582435732e-51,9.4251610704919e-51,-5.28347112754,5.2834723340046,-5.2834726696913,5.2834714672763,0,9.42515879427e-51,9.4251572983463e-51,-9.4251590015556e-51,-9.425160488557e-51,1.3747256527178e-19,1.3747257960369e-19,-1.3747259600261e-19,-1.3747258154869e-19,0,0,0,2.7558785367879e-06,-2.7558782134495e-06,237.98446862664,237.98446862664,237.9844681093,237.9844681093,247.87305645499,247.87305629417,247.87305598499,247.87305614603,232.67656922137,232.676568851,232.67656849521,232.67656886571,237.98446809882,247.87305645818,247.87305613644,247.8730559818,247.87305630376,244.44130299515,244.44130285307,244.4413024435,244.44130258572,233.45184606193,233.45184582567,237.98446809882,233.45184537175,233.45184560812,250.54694707209,250.54694693741,250.54694674306,250.54694687803,233.45184606662,233.45184559404,233.45184536706,233.45184583974,252.51343471653,250.54694707343,250.54694687134,250.54694674173,250.5469469441,244.44130300079,244.44130257443,244.44130243785,244.44130286436,252.51343471653,252.51343471669,252.51343471669,237.98446861616,237.98446861616,465.59033007484,465.59033024186,0
8.2e-05,29987134.731154,2.4080146355692e-05,1.0048604439294,2.685515386146e-06,-2.6855155098349e-06,2.6855161972846e-06,2.6855158662889e-06,6.3810811140662e-32,-6.3810799473402e-32,-6.3810810423459e-32,6.3810822033143e-32,-45.243981898292,45.243991916493,-45.243997764222,45.243987781006,-2.6855159806728e-06,6.3810805627493e-32,6.3810805994992e-32,-6.3810815932654e-32,-6.3810815506859e-32,1.3017504887833e-19,-1.3017503224599e-19,-1.3017505713425e-19,1.3017507365308e-19,-5.2647936936059,5.2647946626401,-2.6855161065735e-06,-5.2647956025127,5.2647946375733,8.7111540533443e-51,-8.7111512864687e-51,-8.7111527751801e-51,8.7111555340376e-51,-5.264793832284,5.2647951172553,-5.2647954638275,5.2647941829717,0,8.7111533068873e-51,8.711151852081e-51,-8.7111535206624e-51,-8.7111549673421e-51,1.3017503750119e-19,1.3017505210681e-19,-1.301750685069e-19,-1.3017505378632e-19,0,0,0,2.6855156264457e-06,-2.6855152932624e-06,237.84452168337,237.84452168337,237.84452113659,237.84452113659,247.83269896674,247.83269879492,247.83269847253,247.83269864454,232.47844676679,232.47844637043,232.47844599879,232.47844639525,237.84452111893,247.83269897212,247.83269862839,247.83269846715,247.83269881107,244.36754286843,244.36754271659,244.36754228936,244.36754244132,233.26245597017,233.26245571735,237.84452111893,233.26245524324,233.26245549615,250.53185312505,250.53185298117,250.53185277859,250.5318529227,233.26245597808,233.2624554724,233.26245523533,233.26245574109,252.51652323487,250.53185312731,250.53185291143,250.53185277633,250.53185299244,244.36754287794,244.3675424223,244.36754227985,244.36754273561,252.51652323487,252.516523235,252.516523235,237.8445216657,237.8445216657,465.19253353375,465.19253370101,0
8.25e-05,30107213.477981,2.4226976804241e-05,1.0049130968127,2.6168924973973e-06,-2.6168926259511e-06,2.6168933338248e-06,2.61689299272e-06,5.9590608750492e-32,-5.9590597274089e-32,-5.9590608001898e-32,5.9590619425181e-32,-45.26561731014,45.265628006115,-45.265634101631,45.265623441441,-2.6168931173618e-06,5.9590603246383e-32,5.9590603696702e-32,-5.9590613502393e-32,-5.9590612998215e-32,1.2326692580645e-19,-1.2326690923899e-19,-1.2326693389297e-19,1.2326695035364e-19,-5.2461442367741,5.2461452648822,-2.6168932480879e-06,-5.2461462422649,5.2461452183175,8.052007042116e-51,-8.0520043427058e-51,-8.0520057947423e-51,8.0520084868628e-51,-5.2461443765955,5.2461457447505,-5.2461461024403,5.2461447384688,0,8.0520063082397e-51,8.0520048935695e-51,-8.0520065277332e-51,-8.0520079350037e-51,1.2326691421139e-19,1.2326692908765e-19,-1.2326694548399e-19,-1.2326693049944e-19,0,0,0,2.6168927527745e-06,-2.6168924095233e-06,237.70537612552,237.70537612552,237.70537554772,237.70537554772,247.79290263975,247.79290245624,247.79290212014,247.7929023038,232.28114695578,232.28114653177,232.28114614364,232.28114656774,237.70537552212,247.79290264753,247.79290228044,247.79290211236,247.79290247959,244.29445049957,244.29445033735,244.2944498918,244.29445005411,233.07389157725,233.07389130682,237.70537552212,233.07389081174,233.07389108224,250.51722394871,250.51722379506,250.51722358393,250.51722373776,233.07389158872,233.07389104782,233.07389080026,233.07389134123,252.51999926826,250.51722395197,250.51722372145,250.51722358067,250.51722381136,244.29445051334,244.29445002658,244.29444987803,244.29445036488,252.51999926826,252.51999926836,252.51999926836,237.70537609993,237.70537609993,464.79639475767,464.79639492516,0
8.3e-05,30227494.386832,2.4373807270297e-05,1.0049657385487,2.5499684032553e-06,-2.5499685367787e-06,2.5499692655707e-06,2.5499689141336e-06,5.5652699894429e-32,-5.565268860739e-32,-5.565269911567e-32,5.5652710353685e-32,-45.287241400207,45.287252816643,-45.287259168839,45.287247789041,-2.5499690494958e-06,5.5652694401672e-32,5.5652694932153e-32,-5.5652704605073e-32,-5.565270402481e-32,1.1672736628303e-19,-1.167273497834e-19,-1.1672737420028e-19,1.1672739059939e-19,-5.2275227263858,5.2275238168931,-2.5499691851547e-06,-5.2275248330301,5.2275237467544,7.4434494487433e-51,-7.4434468154282e-51,-7.4434482314111e-51,7.4434508580979e-51,-5.2275228670549,5.2275243233259,-5.2275246923614,5.2275232403471,0,7.4434487274177e-51,7.4434473519232e-51,-7.4434489519162e-51,-7.4434503206711e-51,1.1672735447403e-19,1.1672736961774e-19,-1.1672738600557e-19,-1.1672737075979e-19,0,0,0,2.5499686742807e-06,-2.5499683207362e-06,237.5670292558,237.5670292558,237.56702864531,237.56702864531,247.75366496981,247.75366477388,247.75366442358,247.75366461961,232.08466691656,232.08466646311,232.08466605786,232.08466651137,237.567028611,247.75366498023,247.75366458833,247.75366441316,247.75366480516,244.22202322246,244.22202304922,244.22202258467,244.22202275798,232.88615007195,232.88614978277,237.567028611,232.88614926591,232.88614955513,250.50305728084,250.50305711683,250.50305689684,250.50305706098,232.88615008734,232.88614950896,232.88614925052,232.88614982894,252.52386080564,250.50305728521,250.50305703916,250.50305689248,250.50305713866,244.2220232409,244.2220227211,244.22202256622,244.2220230861,252.52386080564,252.52386080571,252.52386080571,237.56702922149,237.56702922149,464.40190789013,464.40190805786,0
8.35e-05,30347977.358993,2.4520637754739e-05,1.0050183691896,2.4847027864629e-06,-2.4847029250642e-06,2.4847036752764e-06,2.4847033132786e-06,5.1978016586971e-32,-5.1978005487765e-32,-5.1978015779238e-32,5.1978026833274e-32,-45.308853770749,45.308865952804,-45.308872570843,45.308860426259,-2.4847034598395e-06,5.1978011107809e-32,5.1978011715859e-32,-5.1978021255316e-32,-5.1978020601319e-32,1.1053664568694e-19,-1.1053662925808e-19,-1.105366534351e-19,1.105366697695e-19,-5.208929269015,5.2089304254157,-2.4847036005375e-06,-5.2089314815849,5.2089303294831,6.8815482833026e-51,-6.8815457147265e-51,-6.8815470952789e-51,6.8815496578389e-51,-5.2089294102055,5.2089309597884,-5.2089313403991,5.2089297951427,0,6.8815475744966e-51,6.8815462372354e-51,-6.8815478033305e-51,-6.8815491344628e-51,1.1053663366807e-19,1.1053664907602e-19,-1.1053666545061e-19,-1.1053664994659e-19,0,0,0,2.4847030737206e-06,-2.4847027096561e-06,237.42947838726,237.42947838726,237.42947774232,237.42947774232,247.71498346233,247.71498325322,247.71498288821,247.71498309738,231.88900378969,231.88900330493,231.88900288191,231.8890033667,237.42947769843,247.71498347566,247.71498305741,247.71498287489,247.7149832932,244.15025838028,244.15025819533,244.15025771108,244.15025789608,232.69922865526,232.69922834615,237.42947769843,232.69922780666,232.6992281158,250.48935086895,250.48935069393,250.48935046477,250.48935063986,232.69922867496,232.69922805672,232.69922778697,232.69922840523,252.52810584537,250.48935087452,250.48935061198,250.48935045919,250.48935072181,244.15025840385,244.15025784894,244.15025768751,244.15025824246,252.52810584537,252.52810584541,252.52810584541,237.42947834338,237.42947834338,464.00906710026,464.00906726823,0
8.4e-05,30468662.297758,2.4667468258485e-05,1.0050709887878,2.4210562348034e-06,-2.4210563785906e-06,2.4210571507329e-06,2.4210567779458e-06,4.8548789541124e-32,-4.8548778628159e-32,-4.8548788705662e-32,4.8548799576998e-32,-45.330454025053,45.330467020554,-45.330473913788,45.330460956649,-2.4210569361933e-06,4.854878407769e-32,4.854878476072e-32,-4.854879416626e-32,-4.8548793440803e-32,1.0467609599135e-19,-1.0467607963607e-19,-1.0467610357075e-19,1.0467611983722e-19,-5.1903639711903,5.1903651971622,-2.421057082041e-06,-5.1903662946661,5.1903650730657,6.3626799009872e-51,-6.3626773958095e-51,-6.3626787415724e-51,6.3626812412895e-51,-5.1903641125422,5.1903657609174,-5.1903661533234,5.1903645093499,0,6.3626792046539e-51,6.3626779046979e-51,-6.3626794372111e-51,-6.3626807315924e-51,1.0467608376668e-19,1.0467609943549e-19,-1.046761157924e-19,-1.046761000331e-19,0,0,0,2.4210565388917e-06,-2.4210561640764e-06,237.29272084318,237.29272084318,237.29272016195,237.29272016195,247.67685563231,247.67685540921,247.67685502894,247.67685525206,231.69415472807,231.69415421001,231.69415376853,231.6941542866,237.29272010757,247.6768556488,247.67685520259,247.67685501245,247.67685545868,244.07915332545,244.07915312806,244.0791526234,244.0791528208,232.51312454037,232.51312421006,237.29272010757,232.51312364708,232.5131239774,250.47610247017,250.47610228348,250.47610204481,250.47610223153,232.51312456478,232.51312390416,232.51312362267,232.5131242833,252.53273239522,250.47610247707,250.47610219703,250.47610203791,250.47610231798,244.07915335463,244.07915276244,244.07915259422,244.07915318642,252.53273239522,252.53273239523,252.53273239523,237.29272078881,237.29272078881,463.61786658265,463.61786675085,0
8.45e-05,30589549.108493,2.4814298782497e-05,1.0051235973963,2.3589902222431e-06,-2.358990371325e-06,2.3589911659151e-06,2.3589907821079e-06,4.5348459101344e-32,-4.5348448373033e-32,-4.5348458239407e-32,4.5348468929365e-32,-45.35204176747,45.352055627005,-45.352062805043,45.352048984797,-2.358990952544e-06,4.5348453655722e-32,4.534845441121e-32,-4.5348463682457e-32,-4.5348462887798e-32,9.9128049233215e-20,-9.9128032954363e-20,-9.9128056644349e-20,9.9128072839726e-20,-5.1718269393898,5.1718282387967,-2.3589911036513e-06,-5.1718293789692,5.1718280840092,5.8835054132704e-51,-5.8835029701749e-51,-5.8835042817864e-51,5.8835067199282e-51,-5.171827080507,5.1718288334471,-5.1718292378666,5.1718274894066,0,5.8835047293588e-51,5.8835034658025e-51,-5.8835049650652e-51,-5.8835062235524e-51,9.9128036806935e-20,9.9128052733191e-20,-9.9128069067986e-20,-9.9128053056504e-20,0,0,0,2.3589905437731e-06,-2.3589901579751e-06,237.15675395704,237.15675395704,237.15675323758,237.15675323758,247.63927900424,247.63927876629,247.63927837022,247.63927860814,231.50011689682,231.50011634337,231.50011588272,231.50011643617,237.15675317174,247.63927902418,247.6392785483,247.63927835028,247.63927882613,244.00870541957,244.00870520898,244.00870468316,244.00870489374,232.32783495254,232.32783459969,237.15675317174,232.32783401235,232.32783436518,250.46330985129,250.46330965221,250.4633094037,250.46330960275,232.32783498212,232.32783427644,232.32783398277,232.32783468844,252.5377384723,250.46330985963,250.46330956103,250.46330939536,250.46330969393,244.00870545488,244.00870482312,244.00870464785,244.0087052796,252.5377384723,252.53773847228,252.53773847228,237.15675389121,237.15675389121,463.22830055718,463.22830072562,0
8.5e-05,30710637.698696,2.4961129327778e-05,1.0051761950686,2.2984670904297e-06,-2.2984672449173e-06,2.2984680624816e-06,2.2984676674202e-06,4.2361592319431e-32,-4.2361581774136e-32,-4.2361591432261e-32,4.236160194225e-32,-45.373616603412,45.373631380496,-45.373638853182,45.373624116337,-2.2984678505595e-06,4.2361586893572e-32,4.2361587719033e-32,-4.2361596855764e-32,-4.2361595994159e-32,9.3875783997563e-20,-9.3875767797901e-20,-9.3875791240987e-20,9.3875807362232e-20,-5.1533182800315,5.1533196569346,-2.2984680070377e-06,-5.1533208411396,5.1533194687601,5.4409480722376e-51,-5.4409456899216e-51,-5.4409469680257e-51,5.4409493458527e-51,-5.1533184204798,5.1533202840655,-5.1533207007113,5.1533188416856,0,5.4409474006783e-51,5.440946172631e-51,-5.4409476390028e-51,-5.4409488624442e-51,9.3875771373809e-20,9.3875787554009e-20,-9.3875803862409e-20,-9.3875787601972e-20,0,0,0,2.2984674300276e-06,-2.2984670330126e-06,237.02157507244,237.02157507244,237.02157431272,237.02157431272,247.60225111212,247.60225085842,247.602250446,247.60225069962,231.30688747325,231.30688688216,231.30688640164,231.30688699268,237.02157423436,247.60225113583,247.60225062848,247.60225042228,247.60225092957,243.93891203341,243.93891180881,243.93891126108,243.93891148563,232.14335712909,232.1433567523,237.02157423436,232.14335613967,232.14335651642,250.45097078867,250.45097057646,250.45097031776,250.45097052988,232.14335716432,232.14335641075,232.14335610444,232.14335685797,252.54312210305,250.45097079859,250.45097048029,250.45097030784,250.45097062604,243.9389120754,243.93891140165,243.93891121909,243.93891189279,252.54312210305,252.54312210299,252.54312210299,237.02157499409,237.02157499409,462.84036326892,462.84036343759,0
8.55e-05,30831927.978071,2.5107959895375e-05,1.0052287818587,2.2394500305415e-06,-2.2394501905469e-06,2.2394510316191e-06,2.2394506250676e-06,3.9573805747537e-32,-3.9573795383603e-32,-3.9573804836394e-32,3.9573815167856e-32,-45.395178139348,45.395193890574,-45.395201667988,45.395185957976,-2.239450821438e-06,3.9573800343345e-32,3.9573801236343e-32,-3.9573810238464e-32,-3.9573809312136e-32,8.890347475579e-20,-8.890345863806e-20,-8.89034818322e-20,8.8903497876317e-20,-5.1348380994651,5.1348395581307,-2.2394509833997e-06,-5.1348407877614,5.1348393336973,5.032172468347e-51,-5.0321701455289e-51,-5.0321713907722e-51,5.0321737095271e-51,-5.1348382387696,5.1348402194046,-5.1348406484833,5.1348386724898,0,5.032171809069e-51,5.0321706156593e-51,-5.0321720495215e-51,-5.0321732387497e-51,8.8903461938794e-20,8.8903478369368e-20,-8.8903494647216e-20,-8.8903478141135e-20,0,0,0,2.2394503888469e-06,-2.2394499803788e-06,236.88718154305,236.88718154305,236.88718074092,236.88718074092,247.56576949942,247.56576922902,247.56576879966,247.56576906994,231.11446364675,231.11446301568,231.11446251453,231.11446314553,236.88718064893,247.56576952723,247.5657689865,247.56576877184,247.56576931246,243.86977054684,243.86977030738,243.86976973695,243.86976997633,231.95968831932,231.95968791708,236.88718064893,231.95968727821,231.95968768039,250.43908306823,250.43908284209,250.43908257284,250.43908279883,231.9596883607,231.95968755625,231.95968723683,231.95968804122,252.54888132316,250.43908307985,250.43908274068,250.43908256121,250.43908290023,243.8697705961,243.8697698778,243.86976968769,243.86977040591,252.54888132316,252.54888132308,252.54888132308,236.88718145106,236.88718145106,462.45404898797,462.45404915687,0
8.6e-05,30953419.858596,2.5254790486383e-05,1.0052813578209,2.1819030654765e-06,-2.1819032311113e-06,2.1819040962346e-06,2.1819036779551e-06,3.697169355272e-32,-3.6971683368426e-32,-3.6971692618825e-32,3.6971702773254e-32,-45.416725982801,45.416742768038,-45.416750860482,45.416734117496,-2.181903888097e-06,3.6971688171983e-32,3.6971689130095e-32,-3.697169799762e-32,-3.6971697008764e-32,8.4196143907431e-20,-8.4196127874252e-20,-8.4196150817573e-20,8.4196166781636e-20,-5.1163865039633,5.1163880488765,-2.1819040556558e-06,-5.1163893253539,5.1163877851256,4.6545653950121e-51,-4.6545631304224e-51,-4.6545643434509e-51,4.654566604364e-51,-5.1163866416053,5.1163887460344,-5.1163891877447,5.1163870880444,0,4.6545647479283e-51,4.6545635882972e-51,-4.6545649900469e-51,-4.6545661458819e-51,8.4196130901403e-20,8.4196147578657e-20,-8.4196163821902e-20,-8.419614707356e-20,0,0,0,2.1819034431437e-06,-2.1819030229829e-06,236.75357073252,236.75357073252,236.75356988575,236.75356988575,247.52983171903,247.52983143092,247.52983098402,247.52983127196,230.92284261875,230.92284194521,230.92284142267,230.92284209611,236.75356977892,247.52983175129,247.52983117517,247.52983095176,247.52983152772,243.80127834882,243.8012780936,243.80127749966,243.80127775478,231.7768257844,231.77682535513,236.75356977892,231.77682468906,231.77682511825,250.42764448539,250.42764424449,250.42764396433,250.42764420502,231.77682583248,231.77682497399,231.77682464098,231.77682549939,252.5550141776,250.42764449888,250.42764413758,250.42764395084,250.42764431193,243.80127840599,243.80127764044,243.80127744249,243.80127820794,252.5550141776,252.55501417748,252.55501417748,236.7535706257,236.7535706257,462.06935200929,462.06935217843,0
8.65e-05,31075113.254594,2.5401621101945e-05,1.0053339230104,2.1257910323779e-06,-2.1257912037558e-06,2.1257920934801e-06,2.1257916632328e-06,3.4542760584115e-32,-3.4542750577749e-32,-3.4542759628717e-32,3.4542769607634e-32,-45.438259742395,45.438277624913,-45.43828604293,45.438268203743,-2.1257918877004e-06,3.4542755228583e-32,3.4542756249452e-32,-3.4542764982506e-32,-3.454276393329e-32,7.9739616381036e-20,-7.973960043504e-20,-7.9739623125802e-20,7.9739639006936e-20,-5.0979635997176,5.0979652355864,-2.1257920609706e-06,-5.0979665603618,5.0979649292641,4.3057182451944e-51,-4.3057160375879e-51,-4.3057172190477e-51,4.3057194233309e-51,-5.0979637351322,5.0979659704538,-5.0979664249874,5.0979641944851,0,4.3057176102183e-51,4.3057164835278e-51,-4.3057178535803e-51,-4.3057189768264e-51,7.9739603190276e-20,7.9739620110482e-20,-7.9739636315181e-20,-7.9739619328062e-20,0,0,0,2.1257914300746e-06,-2.1257909979807e-06,236.62074001446,236.62074001446,236.62073912069,236.62073912069,247.49443533322,247.49443502634,247.4944345613,247.49443486796,230.73202160268,230.73202088403,230.7320203393,230.73202105782,236.62073899774,247.49443537031,247.49443475667,247.4944345242,247.49443513763,243.73343283733,243.73343256539,243.73343194713,243.73343221892,231.59476679736,231.59476633939,236.62073899774,231.59476564512,231.59476610298,250.41665284509,250.41665258854,250.41665229708,250.41665255336,231.59476685273,231.59476593685,231.59476558974,231.59476650552,252.5615187205,250.41665286059,250.41665247584,250.41665228158,250.41665266606,243.73343290308,243.73343208742,243.73343188138,243.7334326969,252.5615187205,252.56151872035,252.56151872035,236.62073989151,236.62073989151,461.68626665262,461.68626682199,0
8.7e-05,31197008.082807,2.5548451743252e-05,1.0053864774827,2.0710795654924e-06,-2.0710797427276e-06,2.0710806576119e-06,2.0710802151548e-06,3.2275360050461e-32,-3.2275350220277e-32,-3.2275359074789e-32,3.2275368879765e-32,-45.459779027806,45.459798074483,-45.459806828848,45.459787826627,-2.0710804545154e-06,3.227535472178e-32,3.2275355803085e-32,-3.2275364401896e-32,-3.2275363294462e-32,7.5520476659221e-20,-7.5520460802972e-20,-7.5520483239583e-20,7.5520499034992e-20,-5.0795694928256,5.0795712245945,-2.0710806336123e-06,-5.0795725991481,5.0795708722398,3.9834108163764e-51,-3.9834086645245e-51,-3.9834098150598e-51,3.983411963911e-51,-5.0795696253986,5.0795719990833,-5.0795724666231,5.0795700978519,0,3.9834101934085e-51,3.9834090988366e-51,-3.9834104376211e-51,-3.9834115290699e-51,7.5520463288017e-20,7.5520480447367e-20,-7.5520496609685e-20,-7.5520479387362e-20,0,0,0,2.0710799839012e-06,-2.0710795396315e-06,236.48868677234,236.48868677234,236.48868582909,236.48868582909,247.45957791363,247.45957758686,247.45957710305,247.45957742955,230.54199782383,230.54199705728,230.54199648955,230.54199725595,236.48868568864,247.45957795595,247.45957730256,247.45957706072,247.45957771385,243.66623141935,243.6662311297,243.66623048626,243.66623077573,231.413508643,231.41350815456,236.48868568864,231.41350743105,231.41350791935,250.40610596166,250.40610568855,250.40610538541,250.4061056582,231.41350870629,231.41350772948,231.41350736776,231.41350834443,252.56839301517,250.40610597935,250.40610556976,250.40610536772,250.40610577698,243.6662314944,243.66623062563,243.66623041121,243.6662312798,252.56839301517,252.56839301498,252.56839301498,236.4886866319,236.4886866319,461.3047872623,461.30478743189,0
8.75e-05,31319104.262481,2.569528241155e-05,1.0054390212941,2.0177350793559e-06,-2.0177352625634e-06,2.0177362031739e-06,2.0177357482635e-06,3.015863548845e-32,-3.0158625832667e-32,-3.0158634493722e-32,3.0158644126357e-32,-45.481283449797,45.481303731316,-45.481312833022,45.481292597156,-2.0177360030978e-06,3.0158630188213e-32,3.0158631327665e-32,-3.0158639792569e-32,-3.0158638629026e-32,7.1526028098381e-20,-7.1526012334368e-20,-7.1526034515398e-20,7.1526050222339e-20,-5.0612042892857,5.061206122147,-2.0177361881381e-06,-5.0612075479861,5.0612057200811,3.6855964101427e-51,-3.6855943128343e-51,-3.685595433088e-51,3.6855975276887e-51,-5.0612044183507,5.0612069382605,-5.061207418978,5.0612049040827,0,3.6855957990818e-51,3.6855947358217e-51,-3.6855960437817e-51,-3.6855971042101e-51,7.1526014551079e-20,7.1526031945679e-20,-7.152604806191e-20,-7.1526030608021e-20,0,0,0,2.0177355191733e-06,-2.0177350624827e-06,236.35740839943,236.35740839943,236.35740740411,236.35740740411,247.42525704121,247.42525669338,247.42525619015,247.42525653767,230.35276851937,230.35276770197,230.35276711041,230.35276792762,236.35740724471,247.4252570892,247.42525639369,247.42525614215,247.42525683735,243.59967151082,243.5996712024,243.59967053291,243.59967084112,231.23304861782,231.23304809704,236.35740724471,231.23304734323,231.23304786385,250.3960016589,250.39600136824,250.39600105301,250.39600134329,231.23304868969,231.23304764822,231.23304727135,231.23304831267,252.57563513403,250.39600167894,250.39600124305,250.39600103296,250.39600146847,243.59967159594,243.59967067088,243.59967044779,243.59967137264,252.57563513403,252.57563513381,252.57563513381,236.35740824004,236.35740824004,460.92490820712,460.92490837695,0
8.8e-05,31441401.715437,2.5842113108137e-05,1.0054915545014,1.9657247522963e-06,-1.9657249415924e-06,1.9657259085042e-06,1.9657254408946e-06,2.8182466725336e-32,-2.8182457242165e-32,-2.8182465712758e-32,2.81824751747e-32,-45.502772620223,45.502794211246,-45.502803671525,45.502782127398,-1.965725711797e-06,2.8182461455033e-32,2.81824626504e-32,-2.8182470981811e-32,-2.8182469764249e-32,6.7744254421541e-20,-6.7744238752229e-20,-6.774426067636e-20,6.7744276292186e-20,-5.0428680949901,5.0428700343919,-1.9657259028974e-06,-5.042871513054,5.0428695787069,3.4103881220156e-51,-3.4103860780595e-51,-3.4103871686701e-51,3.4103892101868e-51,-5.0428682198245,5.0428708942277,-5.0428713882856,5.0428687190009,0,3.4103875227482e-51,3.4103864900111e-51,-3.4103877675997e-51,-3.4103887977722e-51,6.7744240702463e-20,6.7744258328382e-20,-6.7744274394897e-20,-6.7744256713189e-20,0,0,0,1.9657252142336e-06,-1.965724744876e-06,236.2269022988,236.2269022988,236.22690124867,236.22690124867,247.39147030621,247.39146993606,247.39146941276,247.39146978255,230.1643309382,230.16433006686,230.16432945059,230.16433032172,236.22690106875,247.39147036032,247.39146962021,247.39146935864,247.3914700984,243.5337505366,243.53375020829,243.53374951185,243.53374983992,231.05338402996,231.05338347487,236.22690106875,231.05338268967,231.05338324458,250.38633776993,250.38633746068,250.38633713297,250.38633744177,231.05338411113,231.05338300105,231.05338260849,231.0533837184,252.5832431586,250.38633779252,250.38633732877,250.38633711037,250.38633757368,243.5337506326,243.53374964791,243.53374941584,243.5337504003,252.5832431586,252.58324315835,252.58324315835,236.22690211888,236.22690211888,460.54662388024,460.5466240503,0
8.85e-05,31563900.366162,2.5988943834365e-05,1.0055440771622,1.9150165102565e-06,-1.9150167057582e-06,1.9150176995539e-06,1.9150172189977e-06,2.6337419559388e-32,-2.6337410247016e-32,-2.6337418530155e-32,2.6337427823074e-32,-45.524246152021,45.524269131418,-45.524278961717,45.524256030523,-1.9150175065763e-06,2.6337414320464e-32,2.633741556955e-32,-2.6337423767974e-32,-2.6337422498447e-32,6.4163783268667e-20,-6.4163767696457e-20,-6.4163789362524e-20,6.4163804884633e-20,-5.0245610157143,5.0245630673748,-1.9150177038549e-06,-5.0245646004241,5.0245625539217,3.1560462255699e-51,-3.1560442337935e-51,-3.1560452953962e-51,3.1560472849779e-51,-5.0245611355369,5.0245639731301,-5.0245644806777,5.0245616483126,0,3.1560456379823e-51,3.1560446349952e-51,-3.1560458826762e-51,-3.156046883342e-51,6.4163769382198e-20,6.4163787235426e-20,-6.4163803248719e-20,-6.4163785342996e-20,0,0,0,1.9150169950392e-06,-1.9150165127665e-06,236.09716588315,236.09716588315,236.09716477536,236.09716477536,247.35821530814,247.35821491436,247.3582143703,247.35821476367,229.97668234097,229.97668141238,229.97668077054,229.97668169888,236.09716457326,247.35821536886,247.35821458151,247.35821430958,247.35821509652,243.46846593042,243.46846558104,243.46846485674,243.46846520585,230.87451219914,230.87451160765,236.09716457326,230.87451078995,230.87451138123,250.37711213723,250.37711180832,250.37711146771,250.37711179611,230.87451229038,230.87451110751,230.87451069871,230.87451188138,252.59121517945,250.37711216259,250.37711166934,250.37711144235,250.37711193508,243.46846603818,243.46846499032,243.46846474898,243.46846579657,252.59121517945,252.59121517916,252.59121517916,236.09716568106,236.09716568106,460.16992869901,460.16992886929,0
8.9e-05,31686600.141889,2.6135774591647e-05,1.0055965893347,1.8655790109244e-06,-1.8655792127496e-06,1.8655802340196e-06,1.865579740268e-06,2.4614698901217e-32,-2.4614689757811e-32,-2.461469785651e-32,2.4614706982108e-32,-45.545703659226,45.545728110292,-45.545738322269,45.545713920787,-1.8655800451444e-06,2.4614693695041e-32,2.461469499569e-32,-2.4614703061723e-32,-2.4614701742253e-32,6.0773851695124e-20,-6.0773836222358e-20,-6.0773857629335e-20,6.0773873055197e-20,-5.0062831571115,5.0062853270305,-1.8655802487201e-06,-5.0062869160582,5.0062847514062,2.9209665627235e-51,-2.9209646219725e-51,-2.9209656551985e-51,2.920967593978e-51,-5.0062832710783,5.006286281006,-5.0062868021789,5.0062837975949,0,2.9209659866956e-51,2.9209650127013e-51,-2.9209662309476e-51,-2.9209672028423e-51,6.0773837645654e-20,6.077385572212e-20,-6.07738716788e-20,-6.0773853552943e-20,0,0,0,1.8655795192925e-06,-1.8655790238549e-06,235.96819657487,235.96819657487,235.96819540641,235.96819540641,247.32548965571,247.32548923692,247.32548867142,247.32548908975,229.78981999996,229.78981901065,229.78981834231,229.78981933134,235.96819518035,247.32548972355,247.3254888862,247.32548860357,247.32548944046,243.40381513487,243.40381476318,243.40381401007,243.40381438146,230.69643045661,230.69642982651,235.96819518035,230.69642897515,230.69642960502,250.3683226126,250.36832226287,250.36832190893,250.36832225808,230.69643055873,230.69642929865,230.69642887303,230.69643013287,252.59954929613,250.36832264093,250.36832211647,250.3683218806,250.36832240448,243.40381525532,243.40381414055,243.40381388962,243.40381500408,252.59954929613,252.5995492958,252.5995492958,235.96819634882,235.96819634882,459.79481710483,459.79481727534,0
8.95e-05,31809500.972687,2.6282605381454e-05,1.0056490910779,1.8173816281692e-06,-1.8173818364356e-06,1.8173828857794e-06,1.817382378581e-06,2.300610513665e-32,-2.3006096160348e-32,-2.3006104077607e-32,2.3006113037625e-32,-45.567144756953,45.567170767635,-45.567181373177,45.567155413528,-1.8173827013914e-06,2.3006099964522e-32,2.3006101314616e-32,-2.3006109248898e-32,-2.3006107881484e-32,5.7564273514528e-20,-5.7564258143477e-20,-5.7564279290446e-20,5.7564294617626e-20,-4.9880346247022,4.9880369191736,-1.8173829113829e-06,-4.9880385657991,4.9880362767086,2.7036698591978e-51,-2.7036679683347e-51,-2.7036689738063e-51,2.7036708629017e-51,-4.9880347319022,4.9880379237772,-4.9880384586987,4.9880352722886,0,2.7036692946041e-51,2.7036683488601e-51,-2.7036695381463e-51,-2.7036704819932e-51,5.7564259306465e-20,5.756427760204e-20,-5.7564293498757e-20,-5.7564275156727e-20,0,0,0,1.817382160877e-06,-1.8173816520228e-06,235.83999180587,235.83999180587,235.8399905736,235.8399905736,247.29329096683,247.29329052157,247.29328993392,247.29329037867,229.60374119901,229.60374014532,229.60373944955,229.60374050294,235.8399903217,247.29329104236,247.29329015209,247.29328985839,247.29329074815,243.33979560132,243.33979520601,243.33979442314,243.33979481811,230.51913614504,230.51913547401,235.8399903217,230.51913458781,230.51913525858,250.35996705709,250.35996668533,250.35996631762,250.35996668873,230.51913625891,230.51913491698,230.51913447395,230.51913581561,252.6082436172,250.35996708861,250.35996653113,250.3599662861,250.35996684293,243.33979573545,243.33979454985,243.33979428901,243.33979547426,252.6082436172,252.60824361683,252.60824361683,235.83999155398,235.83999155398,459.42128356305,459.42128373378,0
9e-05,31932602.791556,2.642943620532e-05,1.0057015824516,1.7703944367782e-06,-1.770394651605e-06,1.7703957296288e-06,1.770395208732e-06,2.1503993488521e-32,-2.150398467746e-32,-2.1503992416289e-32,2.1504001212476e-32,-45.588569061443,45.588596724579,-45.588607735762,45.588580125196,-1.7703955501256e-06,2.150398835168e-32,2.1503989749149e-32,-2.1503997552419e-32,-2.1503996139018e-32,5.4525408387869e-20,-5.452539312077e-20,-5.4525414006964e-20,5.4525429233056e-20,-4.9698155238708,4.9698179494951,-1.7703957666531e-06,-4.9698196553623,4.9698172352394,2.50279189074e-51,-2.5027900486486e-51,-2.5027910269854e-51,2.5027928674949e-51,-4.9698156233229,4.9698190072482,-4.9698195560232,4.9698161776914,0,2.5027913374523e-51,2.5027904192333e-51,-2.5027915800443e-51,-2.5027924965504e-51,5.4525394025639e-20,5.4525412536141e-20,-5.45254283697e-20,-5.4525409815508e-20,0,0,0,1.7703949945945e-06,-1.7703944720712e-06,235.71254901763,235.71254901763,235.71254771823,235.71254771823,247.26161686859,247.26161639532,247.26161578479,247.26161625749,229.41844323352,229.41844211156,229.4184413874,229.41844250902,235.71254743848,247.26161695238,247.26161600612,247.261615701,247.26161664669,243.27640478994,243.27640436962,243.27640355599,243.27640397593,230.34262661851,230.3426259041,235.71254743848,230.34262498184,230.34262569597,250.35204334099,250.35204294593,250.35204256399,250.35204295834,230.34262674505,230.34262531636,230.3426248553,230.3426262837,252.61729626012,250.35204337595,250.35204278354,250.35204252903,250.35204312073,243.27640493879,243.27640367822,243.27640340714,243.27640466732,252.61729626012,252.61729625971,252.61729625971,235.71254873788,235.71254873788,459.04932256281,459.04932273376,0
9.05e-05,32055905.534517,2.6576267064842e-05,1.0057540635162,1.7245881974886e-06,-1.7245884189953e-06,1.7245895263137e-06,1.7245889914649e-06,2.0101236170292e-32,-2.0101227522586e-32,-2.0101235085986e-32,2.0101243720123e-32,-45.609976190021,45.610005603601,-45.610017032699,45.609987673323,-1.7245893521052e-06,2.0101231069915e-32,2.0101232512724e-32,-2.0101240185781e-32,-2.0101238728319e-32,5.1648132566016e-20,-5.164811740503e-20,-5.1648138029806e-20,5.1648153152489e-20,-4.9516259598531,4.9516285235521,-1.7245895752894e-06,-4.9516302903301,4.9516277322605,2.3170744317581e-51,-2.317072637339e-51,-2.3170735891537e-51,2.3170753821599e-51,-4.9516260505013,4.9516296370933,-4.9516301998098,4.9516266189481,0,2.3170738896443e-51,2.3170729982393e-51,-2.3170741310633e-51,-2.317075020923e-51,5.1648118054059e-20,5.1648136775246e-20,-5.1648152542539e-20,-5.1648133780263e-20,0,0,0,1.724588781197e-06,-1.7245882447499e-06,235.58586566104,235.58586566104,235.58586429105,235.58586429105,247.23046499717,247.23046449427,247.23046386011,247.23046436239,229.23392341031,229.233922216,229.23392146246,229.2339226564,235.5858639813,247.23046508985,247.23046408436,247.23046376743,247.2304647723,243.2136401696,243.21363972283,243.21363887743,243.21363932379,230.16689924242,230.16689848202,235.5858639813,230.16689752246,230.16689828254,250.34454934377,250.34454892407,250.34454852746,250.34454894638,230.16689938261,230.16689786197,230.16689738227,230.16689890259,252.62670535127,250.34454938243,250.34454875308,250.3445484888,250.34454911737,243.21364033429,243.2136389944,243.21363871274,243.21364005222,252.62670535127,252.62670535082,252.62670535082,235.58586535129,235.58586535129,458.67892861692,458.6789287881,0
9.1e-05,32179409.14071,2.6723097961685e-05,1.0058065343333,1.6799343423093e-06,-1.6799345706159e-06,1.6799357078515e-06,1.679935158796e-06,1.8791187138554e-32,-1.8791178652307e-32,-1.8791186043272e-32,1.8791194517157e-32,-45.631365761122,45.631397028542,-45.631408888021,45.631377676543,-1.6799355393602e-06,1.8791182075744e-32,1.8791183561903e-32,-1.8791191105605e-32,-1.8791189605976e-32,4.8923811197402e-20,-4.8923796144644e-20,-4.8923816507479e-20,4.8923831524491e-20,-4.933466037731,4.9334687467606,-1.6799357693223e-06,-4.9334705761433,4.9334678728789,2.1453569235015e-51,-2.1453551756748e-51,-2.1453561015726e-51,2.1453578481402e-51,-4.9334661184397,4.9334699188509,-4.9334704955781,4.9334667010427,0,2.1453563924238e-51,2.1453555271378e-51,-2.1453566324659e-51,-2.1453574963591e-51,4.892379654015e-20,4.8923815467735e-20,-4.8923831165746e-20,-4.8923812199523e-20,0,0,0,1.6799349527077e-06,-1.6799344020816e-06,235.45993919641,235.45993919641,235.45993775218,235.45993775218,247.19983299786,247.19983246362,247.19983180508,247.19983233863,229.05017904761,229.05017777663,229.0501769927,229.05017826328,235.45993741016,247.19983310008,247.19983203195,247.19983170285,247.1998327703,243.1514992179,243.15149874314,243.15149786493,243.15149833924,229.99195139343,229.9919505843,235.45993741016,229.99194958616,229.99195039493,250.33748295411,250.33748250835,250.33748209659,250.33748254149,229.99195154832,229.99194993025,229.99194943126,229.99195104899,252.63646902588,250.33748299674,250.33748232832,250.33748205396,250.33748272152,243.15149939962,243.15149797579,243.15149768321,243.15149910658,252.63646902588,252.63646902539,252.63646902539,235.45993885439,235.45993885439,458.31009626174,458.31009643313,0
9.15e-05,32303113.552496,2.6869928897582e-05,1.0058589949649,1.6364049601293e-06,-1.6364051953561e-06,1.636406363139e-06,1.6364057996208e-06,1.7567649265034e-32,-1.756764093833e-32,-1.7567648159842e-32,1.7567656475298e-32,-45.652737394287,45.652770624636,-45.65278292714,45.65274975459,-1.6364062008006e-06,1.7567644240849e-32,1.7567645768404e-32,-1.7567653183669e-32,-1.7567651643733e-32,4.6344272117584e-20,-4.634425717509e-20,-4.6344277275583e-20,4.6344292184743e-20,-4.9153358624234,4.9153387243901,-1.6364064376623e-06,-4.9153406180943,4.9153377620379,1.9865688040604e-51,-1.9865671017634e-51,-1.9865680023423e-51,1.9865697035201e-51,-4.9153359319739,4.9153399579185,-4.915340548705,4.9153365287918,0,1.9865682838814e-51,1.9865674440331e-51,-1.9865685223587e-51,-1.9865693609526e-51,4.6344257319501e-20,4.6344276449141e-20,-4.6344292074949e-20,-4.6344272908973e-20,0,0,0,1.6364055980301e-06,-1.6364050329677e-06,235.33476709337,235.33476709337,235.33476557111,235.33476557111,247.169718525,247.16971795763,247.16971727392,247.16971784055,228.86720747497,228.86720612276,228.86720530741,228.86720665917,235.33476519439,247.16971863748,247.16971750311,247.16971716144,247.16971829507,243.08997942107,243.0899789167,243.08997800463,243.0899785085,229.81778045939,229.81777959866,235.33476519439,229.81777856062,229.81777942097,250.33084206976,250.33084159647,250.33084116908,250.33084164145,229.8177806301,229.81777890883,229.8177783899,229.8177801108,252.646585428,250.33084211666,250.33084140695,250.33084112218,250.33084183097,243.08997962107,243.08997810848,243.08997780462,243.08997931672,252.646585428,252.64658542748,252.64658542748,235.33476671666,235.33476671666,457.94282005701,457.94282022862,0
9.2e-05,32427018.715558,2.7016759874336e-05,1.0059114454744,1.5939727826048e-06,-1.5939730248726e-06,1.5939742238408e-06,1.5939736456035e-06,1.6424843761117e-32,-1.6424835592043e-32,-1.6424842647073e-32,1.6424850805928e-32,-45.674090710183,45.674126018523,-45.67413877686,45.674103528313,-1.5939740681038e-06,1.6424838776544e-32,1.6424840343588e-32,-1.6424847631387e-32,-1.6424846052965e-32,4.3901781041692e-20,-4.3901766211467e-20,-4.3901786049335e-20,4.3901800848501e-20,-4.8972355386816,4.8972385615554,-1.5939743119874e-06,-4.89724052132,4.8972375045121,1.8397224471143e-51,-1.8397207893048e-51,-1.8397216651554e-51,1.8397233219727e-51,-4.8972355957657,4.8972398595442,-4.8972404644158,4.8972362068358,0,1.8397219376911e-51,1.8397211226157e-51,-1.8397221744338e-51,-1.8397229883804e-51,4.3901766107227e-20,4.3901785434543e-20,-4.3901800985324e-20,-4.3901781623834e-20,0,0,0,1.5939734488349e-06,-1.5939728690787e-06,235.21034683087,235.21034683087,235.21034522657,235.21034522657,247.14011924196,247.14011863957,247.1401179299,247.14011853149,228.68500603322,228.68500459498,228.68500374714,228.6850051849,235.21034481258,247.14011936544,247.14011816106,247.14011780643,247.14011901,243.02907827397,243.0290777383,243.02907679128,243.02907732642,229.64438383931,229.64438292392,235.21034481258,229.64438184465,229.64438275962,250.32462459763,250.32462409523,250.32462365173,250.32462415312,229.64438402703,229.64438219646,229.64438165692,229.64438348708,252.65705271048,250.3246246491,250.32462389576,250.32462360026,250.3246243526,243.02907849361,243.02907688714,243.02907657165,243.02907817758,252.65705271048,252.65705270991,252.65705270991,235.21034641689,235.21034641689,457.57709458577,457.5770947576,0
9.25e-05,32551124.579011,2.7163590893827e-05,1.0059638859259,1.5526111703234e-06,-1.5526114197536e-06,1.552612650553e-06,1.5526120573378e-06,1.5357381699404e-32,-1.5357373686024e-32,-1.5357380577523e-32,1.535738858164e-32,-45.695425330562,45.695462838235,-45.695476065385,45.695438619624,-1.5526125018788e-06,1.5357376755376e-32,1.5357378360038e-32,-1.5357385521386e-32,-1.5357383906276e-32,4.15890180849e-20,-4.1589003368864e-20,-4.1589022943928e-20,4.158903763107e-20,-4.8791651710755,4.8791683632072,-1.5526127529065e-06,-4.8791703907935,4.8791672048926,1.7039066606404e-51,-1.7039050462921e-51,-1.7039058979961e-51,1.7039075114682e-51,-4.8791652142919,4.8791697288176,-4.8791703477775,4.8791658396278,0,1.7039061618285e-51,1.7039053708741e-51,-1.7039063966797e-51,-1.7039071866198e-51,4.1589003018506e-20,4.1589022539075e-20,-4.1589038012083e-20,-4.1589018459388e-20,0,0,0,1.5526118657244e-06,-1.5526112710152e-06,235.08667589706,235.08667589706,235.08667420652,235.08667420652,247.11103282112,247.11103218172,247.11103144528,247.11103208381,228.5035720744,228.50357054505,228.50356966363,228.50357119245,235.08667375253,247.11103295639,247.11103167802,247.11103131001,247.11103258751,242.96879328007,242.96879271131,242.96879172823,242.96879229642,229.47175894328,229.47175797002,235.08667375253,229.47175684812,229.47175782094,250.31882845365,250.3188279205,250.31882746038,250.31882799245,229.47175914926,229.47175720297,229.47175664214,229.47175858798,252.66786903491,250.31882851002,250.31882771057,250.318827404,250.31882820237,242.96879352075,242.96879181505,242.96879148755,242.96879319268,252.66786903491,252.66786903429,252.66786903429,235.08667544308,235.08667544308,457.21291445419,457.21291462624,0
9.3e-05,32675431.095507,2.7310421958009e-05,1.0060163163844,1.5122940992407e-06,-1.5122943559545e-06,1.5122956192386e-06,1.5122950107866e-06,1.436023748771e-32,-1.4360229628081e-32,-1.4360236358987e-32,1.4360244210235e-32,-45.716740878323,45.716780713279,-45.716794422354,45.716754651594,-1.512295478102e-06,1.4360232585109e-32,1.4360234225556e-32,-1.4360241261518e-32,-1.4360239611477e-32,3.9399055540203e-20,-3.9399040940212e-20,-3.9399060252414e-20,3.9399074825551e-20,-4.8611248639931,4.8611282341314,-1.5122957363968e-06,-4.8611303313194,4.8611269675895,1.5782807007539e-51,-1.5782791288589e-51,-1.57827995699e-51,1.578281528114e-51,-4.8611248918412,4.8611296706693,-4.8611303036941,4.8611255314333,0,1.5782802124073e-51,1.5782794449366e-51,-1.5782804452243e-51,-1.5782812117847e-51,3.9399040346343e-20,3.9399060055693e-20,-3.939907544828e-20,-3.9399055708723e-20,0,0,0,1.5122948246684e-06,-1.5122942147461e-06,234.96375178924,234.96375178924,234.96375000808,234.96375000808,247.08245694381,247.08245626531,247.08245550125,247.08245617883,228.32290296168,228.32290133588,228.32290041976,228.32290204499,234.9637495112,247.0824570917,247.08245573516,247.08245535336,247.08245670898,242.90912195138,242.90912134764,242.90912032737,242.90912093049,229.29990319238,229.29990215787,234.9637495112,229.29990099194,229.29990202598,250.31345156279,250.31345099716,250.31345051991,250.31345108437,229.29990341797,229.29990134919,229.29990076635,229.29990283465,252.67903257158,250.31345162441,250.31345077626,250.31345045828,250.31345130527,242.90912221461,242.90912040402,242.90912006413,242.90912187411,252.67903257158,252.67903257092,252.67903257092,234.96375129237,234.96375129237,456.85027429149,456.85027446375,0
9.35e-05,32799938.22135,2.7457253068914e-05,1.006068736916,1.4729961473799e-06,-1.4729964114989e-06,1.4729977079289e-06,1.4729970839803e-06,1.3428724160824e-32,-1.3428716452997e-32,-1.3428723026225e-32,1.3428730726488e-32,-45.738036977464,45.738079274578,-45.73809347883,45.738051248364,-1.4729975748182e-06,1.3428719300468e-32,1.3428720974912e-32,-1.3428727886589e-32,-1.3428726203343e-32,3.7325336846256e-20,-3.7325322364117e-20,-3.7325341413498e-20,3.732535587072e-20,-4.8431147216273,4.8431182789344,-1.4729978405029e-06,-4.8431204475232,4.843116896815,1.4620687594612e-51,-1.4620672290305e-51,-1.4620680341533e-51,1.4620695639089e-51,-4.8431147325017,4.8431197898565,-4.8431204368957,4.8431153863135,0,1.4620682814311e-51,1.4620675368211e-51,-1.4620685120843e-51,-1.4620692558782e-51,3.732532152938e-20,3.7325341423012e-20,-3.7325356732606e-20,-3.7325336810578e-20,0,0,0,1.4729969037047e-06,-1.4729962783086e-06,234.84157201387,234.84157201387,234.84157013748,234.84157013748,247.0543893003,247.05438858048,247.05438778798,247.0543885068,228.14299606933,228.14299434144,228.14299338948,228.14299511676,234.84156959462,247.0543894617,247.05438802257,247.05438762657,247.0543890647,242.85006180843,242.85006116772,242.85006010911,242.85006074914,229.12881401868,229.12881291935,234.84156959462,229.12881170795,229.12881280677,250.30849185902,250.30849125909,250.30849076418,250.30849136287,229.12881426531,229.12881206689,229.12881146132,229.12881365922,252.69054149949,250.30849192625,250.30849102667,250.30849069694,250.30849159528,242.85006209581,242.85006017437,242.85005982172,242.85006174249,252.69054149949,252.69054149878,252.69054149878,234.84157147102,234.84157147102,456.48916874976,456.48916892223,0
9.4e-05,32924645.916612,2.7604084228658e-05,1.0061211475881,1.4346924817974e-06,-1.4346927534433e-06,1.4346940836877e-06,1.4346934439818e-06,1.2558470364747e-32,-1.2558462806766e-32,-1.2558469225213e-32,1.2558476776385e-32,-45.759313253104,45.75935815454,-45.759372867328,45.759328035189,-1.4346939591046e-06,1.2558465547414e-32,1.2558467254101e-32,-1.2558474042638e-32,-1.2558472327875e-32,3.5361656681916e-20,-3.5361642319364e-20,-3.5361661106078e-20,3.5361675445544e-20,-4.8251348479704,4.8251386020407,-1.4346942323024e-06,-4.825140843846,4.8251370965799,1.3545548884391e-51,-1.3545533985008e-51,-1.3545541811717e-51,1.3545556705218e-51,-4.8251348401554,4.8251401909615,-4.8251408519342,4.8251355081224,0,1.3545544205766e-51,1.354553698218e-51,-1.3545546489486e-51,-1.3545553705766e-51,3.5361641246482e-20,3.5361661319856e-20,-3.5361676543981e-20,-3.5361656443912e-20,0,0,0,1.4346932699038e-06,-1.4346926287722e-06,234.72013408644,234.72013408644,234.72013211,234.72013211,247.02682758975,247.02682682631,247.02682600448,247.02682676686,227.96384878265,227.96384694674,227.96384595777,227.96384779303,234.72013151789,247.02682776561,247.02682623927,247.02682582862,247.0268273539,242.79161038022,242.79160970047,242.79160860233,242.79160928137,228.95848886514,228.95848769722,234.72013151789,228.95848643886,228.95848760624,250.30394728526,250.30394664911,250.30394613602,250.30394677084,228.95848913431,228.95848679873,228.95848616969,228.95848850472,252.70239400624,250.3039473585,250.30394640462,250.30394606278,250.30394701534,242.79161069344,242.79160865491,242.7916082891,242.79161032692,252.70239400624,252.70239400548,252.70239400548,234.72013349434,234.72013349434,456.12959250385,456.12959267653,0
9.45e-05,33049554.145253,2.7750915439439e-05,1.0061735484688,1.3973588458031e-06,-1.3973591250977e-06,1.3973604898323e-06,1.3973598341082e-06,1.1745398916801e-32,-1.174539150671e-32,-1.1745397773253e-32,1.1745405177234e-32,-45.780569331495,45.780616987051,-45.780632221834,45.780584638431,-1.3973603742923e-06,1.1745394143212e-32,1.1745395880432e-32,-1.1745402547013e-32,-1.1745400802387e-32,3.3502142127244e-20,-3.3502127885965e-20,-3.3502146410268e-20,3.3502160630197e-20,-4.8071853468071,4.8071893076846,-1.3973606551267e-06,-4.8071916245374,4.8071876706852,1.2550783240095e-51,-1.2550768736107e-51,-1.255077634377e-51,1.2550790842667e-51,-4.8071853184705,4.8071909783827,-4.807191653176,4.8071860004971,0,1.2550778661637e-51,1.2550771654614e-51,-1.2550780921498e-51,-1.255078792199e-51,3.35021265777e-20,3.3502146826249e-20,-3.3502161962518e-20,-3.3502141688876e-20,0,0,0,1.3973596665898e-06,-1.3973590094609e-06,234.59943553145,234.59943553145,234.59943344989,234.59943344989,246.99976952021,246.99976871071,246.99976785868,246.99976866704,227.78545849791,227.78545654771,227.78545552053,227.78545747003,234.59943280507,246.99976971152,246.99976809309,246.99976766736,246.99976928466,242.73376520424,242.73376448325,242.73376334437,242.73376406461,228.78892518555,228.78892394507,234.59943280507,228.78892263826,228.78892387815,250.29981579338,250.299815119,250.29981458718,250.29981526015,228.78892547887,228.7889229982,228.78892234494,228.78892482502,252.71458828806,250.29981587304,250.29981486183,250.29981450752,250.29981551732,242.7337655451,242.73376338289,242.73376300351,242.73376516496,252.71458828806,252.71458828725,252.71458828725,234.59943488665,234.59943488665,455.77154025129,455.77154042417,0
9.5e-05,33174662.875241,2.7897746703543e-05,1.0062259396276,1.3609715464352e-06,-1.3609718335003e-06,1.3609732334085e-06,1.3609725614049e-06,1.0985706833023e-32,-1.0985699568861e-32,-1.0985705686353e-32,1.0985712945049e-32,-45.801804839999,45.801855407508,-45.801871177815,45.801820685564,-1.3609731274406e-06,1.0985702103848e-32,1.0985703869931e-32,-1.0985710415769e-32,-1.0985708642897e-32,3.1741234834037e-20,-3.1741220715651e-20,-3.1741238977903e-20,3.1741253076574e-20,-4.7892663217053,4.7892704999039,-1.3609734160351e-06,-4.7892728936479,4.7892687227148,1.1630291812819e-51,-1.1630277694871e-51,-1.1630285088873e-51,1.1630299202444e-51,-4.7892662708914,4.7892722563283,-4.7892729447948,4.7892669668508,0,1.1630287333007e-51,1.1630280536728e-51,-1.1630289568064e-51,-1.1630296358509e-51,3.1741219174818e-20,3.1741239593944e-20,-3.1741254640055e-20,-3.1741234197333e-20,0,0,0,1.3609724008156e-06,-1.3609717274265e-06,234.47947388234,234.47947388234,234.47947169037,234.47947169037,246.97321280855,246.97321195043,246.97321106731,246.97321192422,227.60782262229,227.6078205512,227.60781948458,227.60782155492,234.47947098918,246.97321301638,246.97321130074,246.97321085948,246.97321257391,242.67652382637,242.67652306183,242.67652188099,242.67652264473,228.6201204445,228.62011912728,234.47947098918,228.62011777046,228.62011908705,250.29609534413,250.2960946294,250.29609407831,250.29609479153,228.62012076366,228.62011812955,228.62011745129,228.62012008478,252.72712254975,250.29609543064,250.29609435894,250.29609399179,250.29609506199,242.67652419676,242.67652190395,242.6765215106,242.67652380261,252.72712254975,252.72712254889,252.72712254889,234.47947318116,234.47947318116,455.41500671209,455.41500688518,0
9.55e-05,33299972.078681,2.8044578023346e-05,1.0062783211352,1.3255074421836e-06,-1.3255077371411e-06,1.3255091729133e-06,1.325508484368e-06,1.027584672181e-32,-1.0275839601614e-32,-1.0275845572879e-32,1.027585268821e-32,-45.823019407117,45.823073052819,-45.82308937226,45.823035805155,-1.3255090770608e-06,1.0275842037679e-32,1.0275843830993e-32,-1.0275850257329e-32,-1.0275848457797e-32,3.0073674151926e-20,-3.0073660157995e-20,-3.0073678158637e-20,3.007369213442e-20,-4.7713778760099,4.7713822825314,-1.3255093735384e-06,-4.7713847550239,4.7713803560254,1.0778444880183e-51,-1.0778431139095e-51,-1.0778438324719e-51,1.0778452062082e-51,-4.7713778006338,4.7713841288094,-4.7713848307671,4.7713785103631,0,1.0778440497498e-51,1.0778433906281e-51,-1.0778442706898e-51,-1.0778449292921e-51,3.007365838747e-20,3.0073678972557e-20,-3.0073693926271e-20,-3.0073673319014e-20,0,0,0,1.3255083310845e-06,-1.3255076411728e-06,234.36024668146,234.36024668146,234.36024437353,234.36024437353,246.94715518049,246.94715427105,246.94715335591,246.94715426406,227.4309385738,227.43093637487,227.43093526756,227.4309374657,234.36024361207,246.94715540593,246.94715358771,246.94715313045,246.9471549474,242.61988380089,242.61988299037,242.61988176632,242.61988257598,228.45207211728,228.45207071893,234.36024361207,228.45206931052,228.4520707082,250.29278390712,250.29278314982,250.29278257888,250.29278333458,228.45207246409,228.45206966773,228.4520689637,228.45207175938,252.73999500463,250.29278400095,250.29278286541,250.29278248505,250.29278361899,242.61988420281,242.61988177212,242.61988136439,242.61988379422,252.73999500463,252.73999500372,252.73999500372,234.36024592002,234.36024592002,455.05998662868,455.05998680197,0
9.6e-05,33425481.731942,2.8191409401316e-05,1.0063306930634,1.2909439309567e-06,-1.2909442339281e-06,1.2909457062622e-06,1.2909450009132e-06,9.6125094498035e-33,-9.6125024716069e-33,-9.6125082994465e-33,9.6125152733333e-33,-45.844212662454,45.844269561445,-45.844286443644,45.844229626881,-1.2909456210817e-06,9.6125048112895e-33,9.612506630239e-33,-9.6125129383459e-33,-9.6125111137033e-33,2.8494481159041e-20,-2.8494467291062e-20,-2.8494485030643e-20,2.849449888196e-20,-4.7535201128332,4.7535247591903,-1.290945925566e-06,-4.7535273122961,4.7535226737416,9.9900453114917e-52,-9.9900319382575e-52,-9.9900389207004e-52,9.9900522908017e-52,-4.7535200106729,4.7535266996341,-4.7535274148602,4.7535207339734,0,9.9900410243954e-52,9.9900346326831e-52,-9.9900432073874e-52,-9.9900495944809e-52,2.8494465293757e-20,2.8494486040158e-20,-2.8494500899335e-20,-2.8494480132103e-20,0,0,0,1.2909448553195e-06,-1.2909441486218e-06,234.24175147999,234.24175147999,234.24174905029,234.24174905029,246.92159437048,246.9215934069,246.92159245881,246.92159342103,227.25480378127,227.25480144718,227.25480029791,227.25480263115,234.24174822445,246.92159461473,246.92159268825,246.92159221455,246.92159413966,242.56384269041,242.56384183136,242.56384056283,242.56384142096,228.28477768986,228.28477620574,234.24174822445,228.28477474413,228.28477622754,250.28987946079,250.28987865859,250.28987806724,250.28987886775,228.28477806624,228.28477509837,228.28477436774,228.2847773349,252.75320387453,250.28987956243,250.28987835955,250.2898779656,250.28987916678,242.563843126,242.56384054977,242.56384012723,242.56384270255,252.75320387453,252.75320387356,252.75320387356,234.24175065416,234.24175065416,454.70647476576,454.70647493925,0
9.65e-05,33551191.815789,2.8338240840017e-05,1.0063830554855,1.2572589382893e-06,-1.2572592493963e-06,1.257260758997e-06,1.2572600365821e-06,8.9926079924162e-33,-8.9926011542536e-33,-8.9926068414442e-33,8.9926136758107e-33,-45.865384236744,45.865444573393,-45.865462031986,45.865401781515,-1.2572606850592e-06,8.9926034000473e-33,8.9926052430772e-33,-8.9926114342549e-33,-8.9926095860156e-33,2.6998943548813e-20,-2.699892980822e-20,-2.6998947287381e-20,2.6998961012722e-20,-4.7356931350485,4.7356980332848,-1.2572609976736e-06,-4.7357006688757,4.7356957787457,9.2602949103731e-52,-9.2602818961602e-52,-9.2602886805269e-52,9.2603016921432e-52,-4.735693003738,4.7357000723998,-4.7357008006296,4.735693740371,0,9.2602907173225e-52,9.260284519689e-52,-9.2602928732451e-52,-9.2602990667805e-52,2.6998927587093e-20,2.6998948490141e-20,-2.6998963252726e-20,-2.6998942330105e-20,0,0,0,1.2572598990695e-06,-1.2572591753224e-06,234.1239858379,234.1239858379,234.12398328034,234.12398328034,246.89652812175,246.89652710105,246.89652611907,246.89652713832,227.07941568425,227.07941320729,227.07941201475,227.07941449081,234.12398238576,246.89652838606,246.89652634539,246.89652585475,246.89652789398,242.50839806589,242.50839715563,242.50839584131,242.5083967506,228.11823465881,228.11823308405,234.12398238576,228.1182315676,228.1182331416,250.2873799924,250.28737914284,250.28737853049,250.28737937826,228.11823506679,228.11823191765,228.11823115961,228.11823430799,252.76674738972,250.28738010236,250.28737882846,250.28737842053,250.28737969263,242.50839853739,242.50839580758,242.5083953698,242.50839809864,252.76674738972,252.7667473887,252.7667473887,234.12398494333,234.12398494333,454.35446591018,454.35446608385,0
9.7e-05,33677102.315525,2.8485072342112e-05,1.0064354084758,1.2244309057872e-06,-1.2244312251509e-06,1.2244327727296e-06,1.2244320329868e-06,8.4132623875756e-33,-8.413255687482e-33,-8.4132612367697e-33,8.4132679335424e-33,-45.886533761857,45.886597730267,-45.886615778877,45.886551900948,-1.22443271062e-06,8.4132578418485e-33,8.4132597074405e-33,-8.4132657830084e-33,-8.4132639126512e-33,2.5582601327199e-20,-2.5582587715364e-20,-2.5582604934833e-20,2.5582618532754e-20,-4.7178970452835,4.7179022079959,-1.2244330314876e-06,-4.7179049279486,4.7178997736729,8.5847634059781e-52,-8.5847507421249e-52,-8.5847573334218e-52,8.5847699951636e-52,-4.7178968823057,4.7179043504887,-4.7179050914136,4.7178976319917,0,8.5847593054488e-52,8.5847532965937e-52,-8.5847614337164e-52,-8.584767438943e-52,2.5582585273444e-20,2.5582606328453e-20,-2.5582620992462e-20,-2.5582599919061e-20,0,0,0,1.2244319039535e-06,-1.2244311628937e-06,234.0069473239,234.0069473239,234.00694463212,234.00694463212,246.87195418625,246.87195310531,246.87195208847,246.87195316788,226.90477173297,226.90476910502,226.90476786789,226.90477049488,234.00694366417,246.87195447193,246.87195231082,246.87195180278,246.87195396236,242.45354750655,242.45354654226,242.45354518084,242.45354614411,227.95244053126,227.95243886072,234.00694366417,227.95243728775,227.95243895749,250.28528349794,250.28528259844,250.2852819645,250.28528286211,227.95244097298,227.95243763231,227.95243684602,227.95244018589,252.78062378892,250.28528361677,250.28528226799,250.28528184568,250.28528319256,242.45354801635,242.4535451245,242.45354467104,242.45354756186,252.78062378892,252.78062378784,252.78062378784,234.00694635598,234.00694635598,454.0039548708,454.00395504467,0
9.75e-05,33803213.22112,2.8631903910366e-05,1.0064877521103,1.1924387798006e-06,-1.1924391075418e-06,1.1924406938174e-06,1.1924399364845e-06,7.8717857167979e-33,-7.8717791528095e-33,-7.8717845669118e-33,7.87179112802e-33,-45.907660870768,45.907728675247,-45.907747327451,45.907679618142,-1.1924406441348e-06,7.8717812181522e-33,7.8717831048258e-33,-7.8717890661251e-33,-7.8717871750955e-33,2.4241233276957e-20,-2.4241219795192e-20,-2.4241236755784e-20,2.4241250224911e-20,-4.7001319459102,4.7001373862716,-1.1924409733784e-06,-4.7001401924649,4.7001347608994,7.9593598821557e-52,-7.9593475601696e-52,-7.9593539633093e-52,7.9593662836244e-52,-4.7001317485875,4.7001396370575,-4.7001403903216,4.7001325110019,0,7.9593558725991e-52,7.9593500473456e-52,-7.9593579727038e-52,-7.9593637947531e-52,2.4241217135522e-20,2.4241238337791e-20,-2.424125290132e-20,-2.4241231681772e-20,0,0,0,1.192439816336e-06,-1.1924390577002e-06,233.89063351538,233.89063351538,233.8906306827,233.8906306827,246.84787032462,246.84786918016,246.84786812747,246.84786927032,226.73086938829,226.73086660081,226.73086531772,226.73086810418,233.89062963651,246.84787063306,246.84786834495,246.84786781902,246.84787010551,242.3992885999,242.39928757861,242.39928616875,242.39928718895,227.78739282484,227.78739105311,233.89062963651,227.78738942191,227.78739119278,250.28358798216,250.28358703001,250.28358637388,250.28358732403,227.78739330257,227.78738975955,227.78738894416,227.78739248633,252.79483131924,250.28358811042,250.2835866827,250.28358624562,250.28358767134,242.3992891505,242.39928608773,242.39928561814,242.39928867982,252.79483131924,252.79483131809,252.79483131809,233.89063246922,233.89063246922,453.65493647842,453.65493665247,0
9.8e-05,33929524.527367,2.8778735547647e-05,1.0065400864663,1.1612620003294e-06,-1.1612623365687e-06,1.1612639622662e-06,1.1612631870815e-06,7.365671042974e-33,-7.365664613131e-33,-7.3656698947352e-33,7.3656763221076e-33,-45.928765197605,45.928837053164,-45.928856322465,45.928784567188,-1.1612639256241e-06,7.3656665918154e-33,7.3656684981282e-33,-7.3656743465178e-33,-7.3656724362267e-33,2.2970844147924e-20,-2.297083079748e-20,-2.2970847500091e-20,2.2970860839116e-20,-4.6823979390416,4.6824036708245,-1.1612642633663e-06,-4.6824065651362,4.6824008425399,7.3803064508732e-52,-7.3802944624311e-52,-7.380300682231e-52,7.380312669402e-52,-4.6823977045288,4.6824060350367,-4.682406800234,4.6823984792998,0,7.3803025307542e-52,7.3802968840489e-52,-7.3803046022596e-52,-7.3803102461446e-52,2.2970827923156e-20,2.2970849267975e-20,-2.2970863729195e-20,-2.2970842368149e-20,0,0,0,1.1612630762302e-06,-1.1612622997553e-06,233.77504199836,233.77504199836,233.77503901779,233.77503901779,246.82427430614,246.82427309472,246.8242720052,246.82427321492,226.55770612162,226.55770316562,226.55770183519,226.55770479011,233.7750378882,246.82427463883,246.82427221683,246.8242716725,246.82427409279,242.34561894163,242.34561786024,242.34561640058,242.34561748082,227.62308906758,227.62308718898,233.7750378882,227.62308549781,227.62308737551,250.28229145849,250.28229045084,250.28228977192,250.28229077745,227.62308958374,227.62308582699,227.62308498163,227.62308873748,252.80936823612,250.2822915968,250.28229008587,250.28228963361,250.28229114242,242.34561953569,242.34561629268,242.34561580651,242.34561904837,252.80936823612,252.80936823491,252.80936823491,233.77504086879,233.77504086879,453.30740558562,453.30740575985,0
9.85e-05,34056036.234017,2.8925567256934e-05,1.0065924116224,1.1308804901483e-06,-1.1308808350057e-06,1.1308825008568e-06,1.1308817075586e-06,6.8925792391687e-33,-6.8925729415131e-33,-6.8925780932757e-33,6.8925843888418e-33,-45.94984637759,45.949922510469,-45.94994241026,45.949866383245,-1.1308824778832e-06,6.8925748358663e-33,6.8925767604115e-33,-6.8925824972665e-33,-6.8925805690915e-33,2.1767652534458e-20,-2.1767639316521e-20,-2.176765576213e-20,2.1767668969813e-20,-4.6646951265182,4.6647011641202,-1.1308828242459e-06,-4.6647041484245,4.6646981204345,6.844113991816e-52,-6.8441023287578e-52,-6.8441083699401e-52,6.8441200320903e-52,-4.6646948517938,4.6647036471188,-4.6647044237899,4.6646956384997,0,6.8441101596077e-52,6.844104686515e-52,-6.8441122021412e-52,-6.8441176727605e-52,2.1767636230688e-20,2.1767657713334e-20,-2.1767672070492e-20,-2.1767650572612e-20,0,0,0,1.1308816064242e-06,-1.1308808118474e-06,233.66017036744,233.66017036744,233.66016723167,233.66016723167,246.80116390876,246.80116262675,246.80116149939,246.8011627796,226.38527941489,226.38527628091,226.38527490173,226.38527803458,233.66016601321,246.80116426724,246.80116170413,246.8011611409,246.80116370221,242.29253613567,242.29253499091,242.29253348005,242.2925346236,227.45952679793,227.45952480647,233.66016601321,227.45952305356,227.45952504406,250.28139194903,250.28139088291,250.28139018058,250.28139124446,227.45952735507,227.45952337263,227.45952249641,227.45952647789,252.82423280334,250.28139209803,250.28139049942,250.28139003157,250.28139162795,242.29253677599,242.29253334293,242.29253283972,242.29253627156,252.82423280334,252.82423280207,252.82423280207,233.660169149,233.660169149,452.96135706663,452.96135724104,0
9.9e-05,34182748.345939,2.9072399041316e-05,1.006644727659,1.1012746441535e-06,-1.1012749977486e-06,1.1012767044919e-06,1.1012758928191e-06,6.4503276472318e-33,-6.4503214798124e-33,-6.450326504358e-33,6.4503326700438e-33,-45.970904047076,45.970984695275,-45.97100523881,45.970924702564,-1.1012766958285e-06,6.4503232921049e-33,6.4503252335137e-33,-6.450330860223e-33,-6.4503289155071e-33,2.0628079403291e-20,-2.0628066318991e-20,-2.0628082508654e-20,2.0628095583818e-20,-4.6470236099054,4.6470299683735,-1.1012770509334e-06,-4.6470330445375,4.6470266961443,6.3475597942545e-52,-6.3475484485881e-52,-6.3475543157792e-52,6.3475656608686e-52,-4.6470232917611,4.6470325757535,-4.6470333633827,4.6470240899269,0,6.3475560484158e-52,6.3475507441204e-52,-6.347558061668e-52,-6.3475633638046e-52,2.0628063024805e-20,2.0628084640549e-20,-2.0628098891964e-20,-2.0628077261926e-20,0,0,0,1.1012758018279e-06,-1.1012749888872e-06,233.54601622573,233.54601622573,233.54601292712,233.54601292712,246.778536919,246.77853556261,246.77853439639,246.77853575088,226.21358676047,226.21358343856,226.21358200921,226.21358532992,233.54601161403,246.77853730492,246.7785345931,246.77853401046,246.77853672039,242.24003779407,242.2400365825,242.24003501906,242.24003622934,227.29670356466,227.29670145404,233.54601161403,227.29669963758,227.29670174718,250.28088748453,250.2808863568,250.28088563043,250.28088675579,227.29670416546,227.29669994474,227.29669903677,227.29670325647,252.83942329298,250.2808876449,250.28088595391,250.28088547005,250.28088715868,242.24003848362,242.24003485021,242.2400343295,242.24003796161,252.83942329298,252.83942329164,252.83942329164,233.54601491267,233.54601491267,452.61678581726,452.61678599184,0
9.95e-05,34309660.873265,2.9219230903997e-05,1.0066970346579,1.0724253189263e-06,-1.0724256813778e-06,1.0724274297579e-06,1.0724265994504e-06,6.0368795092343e-33,-6.0368734701029e-33,-6.0368783700257e-33,6.036884407753e-33,-45.99193784353,45.992023257399,-45.992044457733,45.991959162496,-1.0724274360613e-06,6.0368752025729e-33,6.0368771595105e-33,-6.036882677477e-33,-6.036880717528e-33,1.95487372369e-20,-1.9548724287301e-20,-1.9548740222154e-20,1.9548753163685e-20,-4.6293834904829,4.6293901855422,-1.0724278000297e-06,-4.6293933554212,4.6293866709437,5.8876669504027e-52,-5.8876559142954e-52,-5.8876616120293e-52,5.887672647858e-52,-4.6293831255156,4.6293929231443,-4.6293937211546,4.6293839346117,0,5.8876632894121e-52,5.8876581492115e-52,-5.8876652731297e-52,-5.8876704114532e-52,1.9548720787974e-20,1.9548742532078e-20,-1.9548756676147e-20,-1.9548734918633e-20,0,0,0,1.0724265190355e-06,-1.0724256874689e-06,233.43257718485,233.43257718485,233.4325737154,233.4325737154,246.75639113198,246.75638969722,246.75638849111,246.75638992385,226.04262566115,226.04262214083,226.04262065985,226.04262417889,233.43257230157,246.75639154707,246.75638867856,246.75638807601,246.7563909425,242.18812153703,242.18812025506,242.18811863761,242.18811991823,227.13461692679,227.1346146904,233.43257230157,227.13461280856,227.13461504387,250.28077610432,250.28077491171,250.28077416066,250.28077535079,227.1346175741,227.13461310187,227.13461216122,227.13461663238,252.85493798535,250.28077627678,250.28077448848,250.2807739882,250.280775774,242.18812227893,242.18811843439,242.18811789569,242.18812173888,252.85493798535,252.85493798393,252.85493798393,233.43257577106,233.43257577106,452.27368675475,452.27368692949,0
0.0001,34436773.831558,2.9366062848299e-05,1.0067493327025,1.044313822506e-06,-1.0443141939319e-06,1.0443159846998e-06,1.044315135498e-06,5.6503341187399e-33,-5.6503282059553e-33,-5.6503329838161e-33,5.6503388955041e-33,-46.012947405546,46.013037848356,-46.013059718324,46.012969401459,-1.0443160066409e-06,5.6503298607944e-33,5.6503318319623e-33,-5.650337242599e-33,-5.6503352686927e-33,1.8526419759516e-20,-1.8526406945624e-20,-1.8526422626873e-20,1.8526435433725e-20,-4.6117748692398,4.6117819173188,-1.0443163795931e-06,-4.6117851827545,4.6117781458106,5.4616853616553e-52,-5.4616746274353e-52,-5.4616801601508e-52,5.4616908943633e-52,-4.611774453841,4.6117847912385,-4.6117855989899,4.6117752732775,0,5.4616817839919e-52,5.4616768032982e-52,-5.461683737975e-52,-5.4616887170459e-52,1.852640324439e-20,1.8526425112115e-20,-1.8526439147305e-20,-1.8526417267006e-20,0,0,0,1.0443150660993e-06,-1.0443142156459e-06,233.31985086483,233.31985086483,233.31984721615,233.31984721615,246.73472435134,246.73472283403,246.73472158698,246.73472310216,225.87239363005,225.8723899003,225.87238836621,225.8723920946,233.31984569516,246.73472479742,246.73472176388,246.73472114088,246.7347241723,242.13678499286,242.13678363671,242.1367819638,242.13678331853,226.97326445356,226.97326208444,233.31984569516,226.97326013537,226.97326250334,250.28105585633,250.28105459538,250.28105381902,250.28105507734,226.97326515041,226.97326041275,226.9732594385,226.97326417502,252.87077516897,250.28105604163,250.28105415085,250.28105363372,250.28105552186,242.13678579041,242.13678172339,242.13678116623,242.13678523183,252.87077516897,252.87077516748,252.87077516748,233.31984934387,233.31984934387,451.93205481763,451.93205499253,0
0.0001005,34564087.241961,2.9512894877667e-05,1.0068016218781,1.0169219043733e-06,-1.0169222848903e-06,1.0169241188029e-06,1.0169232504486e-06,5.288917642505e-33,-5.2889118541291e-33,-5.2889165124579e-33,5.2889223000182e-33,-46.033932372813,46.034028121412,-46.034050673553,46.033955058968,-1.0169241570671e-06,5.2889134334941e-33,5.2889154176257e-33,-5.2889207223563e-33,-5.2889187357322e-33,1.7558092214501e-20,-1.7558079537246e-20,-1.755809496618e-20,1.7558107637361e-20,-4.5941978468634,4.5942052651263,-1.0169245391237e-06,-4.5942086279397,4.594201221422,5.0670742300328e-52,-5.0670637901827e-52,-5.0670691622269e-52,5.0670796023098e-52,-4.5941973772093,4.5942082817247,-4.5942090985071,4.5941982063372,0,5.0670707341896e-52,5.0670659085224e-52,-5.0670726582852e-52,-5.0670774825528e-52,1.7558075637393e-20,1.7558097623989e-20,-1.7558111548844e-20,-1.7558089550445e-20,0,0,0,1.0169231925128e-06,-1.0169223229116e-06,233.20783489407,233.20783489407,233.20783105741,233.20783105741,246.71353438926,246.71353278502,246.71353149596,246.71353309795,225.70288819055,225.70288423982,225.70288265111,225.70288660041,233.20782942245,246.71353486826,246.71353166091,246.71353101694,246.71353422205,242.08602579793,242.08602436362,242.08602263381,242.08602406661,226.8126437244,226.81264121523,233.20782942245,226.81263919702,226.81264170498,250.28172479701,250.2817234641,250.28172266179,250.28172399192,226.81264447396,226.81263945624,226.81263844744,226.81264346395,252.88693314058,250.28172499594,250.28172299727,250.28172246286,250.28172445875,242.08602665461,242.0860223532,242.0860217771,242.086026077,252.88693314058,252.886933139,252.886933139,233.20783325914,233.20783325914,451.59188496567,451.59188514072,0
0.000101,34691601.131372,2.9659726995669e-05,1.0068539022715,9.9023174563539e-07,-9.9023213536053e-07,9.9023401318088e-07,9.9023312541558e-07,4.9509745666527e-33,-4.9509689007644e-33,-4.9509734420514e-33,4.9509791073946e-33,-46.054892386174,46.054993731536,-46.055016978129,46.054915775557,-9.902340684681e-07,4.9509704067581e-33,4.9509724026295e-33,-4.9509776028795e-33,-4.9509756047503e-33,1.6640882163552e-20,-1.6640869623835e-20,-1.6640884801788e-20,1.6640897336389e-20,-4.5766525237387,4.5766603301051,-9.9023445974729e-07,-4.5766637921004,4.5766559981392,4.7014859174697e-52,-4.7014757646385e-52,-4.7014809802604e-52,4.7014911335498e-52,-4.5766519957787,4.5766634960189,-4.5766643210565,4.5766528338764,0,4.7014825019433e-52,4.7014778269403e-52,-4.7014843960482e-52,-4.7014890698599e-52,1.6640865528642e-20,1.6640887629386e-20,-1.6640901442501e-20,-1.664087933071e-20,0,0,0,9.9023307939588e-07,-9.9023219038844e-07,233.0965269093,233.0965269093,233.0965228755,233.0965228755,246.69281906639,246.69281737062,246.69281603848,246.69281773189,225.53410687632,225.53410269242,225.53410104758,225.53410522996,233.09652111939,246.69281958034,246.69281618999,246.69281552451,246.6928189125,242.03584159664,242.03584008001,242.03583829182,242.03583980685,226.65275232881,226.6527496719,233.09652111939,226.65274758265,226.65275023827,250.28278099133,250.28277958267,250.28277875374,250.28278015947,226.65275313445,226.65274782129,226.65274677698,226.65275208886,252.90341020502,250.28278120472,250.28277909247,250.28277854034,250.28278064966,242.03584251612,242.03583796785,242.03583737232,242.03584191899,252.90341020502,252.90341020336,252.90341020336,233.09652515323,233.09652515323,451.25317217969,451.2531723549,0
0.0001015,34819315.532607,2.9806559206005e-05,1.0069061739713,9.64225949416e-07,-9.642263484651e-07,9.642282709618e-07,9.6422736352876e-07,4.6349597245447e-33,-4.6349541792247e-33,-4.6349586059309e-33,4.6349641509599e-33,-46.075827087543,46.07593433555,-46.075958288464,46.075851192876,-9.6422834398622e-07,4.634955613916e-33,4.6349576203322e-33,-4.6349627175389e-33,-4.6349607090825e-33,1.5772070779858e-20,-1.5772058378498e-20,-1.5772073306884e-20,1.5772085704056e-20,-4.559138999932,4.5591472131183,-9.6422874460649e-07,-4.5591507760694,4.55914257601,4.3627510649166e-52,-4.3627411918996e-52,-4.3627462552614e-52,4.3627561289421e-52,-4.5591384093785,4.5591505352712,-4.5591513677088,4.5591392556576,0,4.3627477282154e-52,4.362743199615e-52,-4.3627495922688e-52,-4.362754119866e-52,1.5772054091292e-20,1.577207630145e-20,-1.5772090001506e-20,-1.577206778102e-20,0,0,0,9.6422732988487e-07,-9.6422642121292e-07,232.98592455554,232.98592455554,232.98592031501,232.98592031501,246.67257621185,246.67257441972,246.67257304343,246.67257483307,225.36604723116,225.36604280131,225.36604109878,225.36604552702,232.98591843019,246.6725767629,246.67257317989,246.67257249237,246.67257607288,241.98623004142,241.98622843811,241.98622659005,241.98622819167,226.49358786636,226.49358505363,232.98591843019,226.49358289139,226.49358570275,250.28422251271,250.28422102434,250.28422016814,250.28422165342,226.49358873163,226.49358310687,226.49358202609,226.49358764949,252.92020467529,250.28422274146,250.28422050967,250.28421993938,250.28422216808,241.98623102757,241.98622621933,241.98622560387,241.98623041042,252.92020467529,252.92020467353,252.92020467353,232.98592267076,232.98592267076,450.91591146152,450.91591163687,0
0.000102,34947230.484575,2.9953391512505e-05,1.006958437068,9.3888753143856e-07,-9.3888793992599e-07,9.3888990787327e-07,9.3888898051729e-07,4.3394308664647e-33,-4.3394254398056e-33,-4.3394297543564e-33,4.3394351809633e-33,-46.096736119941,46.09684959204,-46.096874262724,46.096760953617,-9.3888999936395e-07,4.3394268052216e-33,4.3394288210229e-33,-4.3394338166253e-33,-4.3394317989853e-33,1.4949084608576e-20,-1.4949072346342e-20,-1.4949087026638e-20,1.4949099285582e-20,-4.5416573751884,4.5416660147343,-9.3889040944259e-07,-4.5416696803836,4.5416610547546,4.0488648718102e-52,-4.0488552715591e-52,-4.0488601867292e-52,4.0488697878311e-52,-4.5416567175041,4.5416695003482,-4.5416703392513,4.5416575711036,0,4.0488616124557e-52,4.0488572261042e-52,-4.048863446435e-52,-4.0488678319528e-52,1.4949067870473e-20,1.494909018532e-20,-1.4949103771058e-20,-1.4949081446565e-20,0,0,0,9.388889597151e-07,-9.3888803112178e-07,232.87602548603,232.87602548603,232.87602102875,232.87602102875,246.6528036632,246.65280176965,246.65280034812,246.65280223903,225.19870680903,225.19870211978,225.19870035801,225.19870504555,232.87601900722,246.65280425359,246.65280046782,246.65279975771,246.65280354085,241.93718879267,241.93718709809,241.93718518866,241.93718688146,226.33514794662,226.33514496959,232.87601900722,226.33514273238,226.33514570797,250.28604744307,250.2860458708,250.28604498666,250.28604655566,226.33514887527,226.33514292194,226.3351418037,226.33514775559,252.93731487243,250.28604768809,250.28604533051,250.28604474163,250.28604709594,241.93718984956,241.93718476762,241.93718413174,241.9371892119,252.93731487243,252.93731487058,252.93731487058,232.87602346455,232.87602346455,450.58009783382,450.58009800929,0
0.0001025,35075346.03245,3.0100223919136e-05,1.007010691654,9.1419991080454e-07,-9.1420032884383e-07,9.1420234302137e-07,9.1420139548858e-07,4.0630417340563e-33,-4.0630364241574e-33,-4.0630406289467e-33,4.0630459390164e-33,-46.117619127504,46.117739161462,-46.11776456086,46.117644701525,-9.1420245372143e-07,4.0630377222854e-33,4.0630397463432e-33,-4.0630446417884e-33,-4.0630426160771e-33,1.4169487769732e-20,-1.4169475647324e-20,-1.4169490081075e-20,1.4169502201061e-20,-4.5242077489244,4.5242168352283,-9.1420287337542e-07,-4.52422060528,4.5242115337597,3.7579744444588e-52,-3.7579651100716e-52,-3.7579698810326e-52,3.7579792164398e-52,-4.5242070193109,4.5242204918349,-4.5242213361824,4.5242078792921,0,3.7579712609809e-52,3.7579670128245e-52,-3.7579730649035e-52,-3.7579773123773e-52,1.4169470986165e-20,1.4169493400981e-20,-1.4169506871222e-20,-1.4169484447406e-20,0,0,0,9.1420138800049e-07,-9.1420043922985e-07,232.76682736219,232.76682736219,232.76682267768,232.76682267768,246.6334992664,246.63349726613,246.63349579825,246.63349779574,225.03208317394,225.03207821118,225.03207638858,225.03208134952,232.76682051103,246.6334998985,246.63349589936,246.63349516612,246.63349916248,241.88871551875,241.8887137281,241.88871175578,241.88871354455,226.1774301891,226.17742703884,232.76682051103,226.17742472468,226.17742787341,250.28825387268,250.28825221217,250.28825129942,250.28825295649,226.17743118509,226.17742488535,226.17742372866,226.17743002687,252.95473912556,250.28825413496,250.28825164505,250.28825103713,250.28825352359,241.88871665068,241.88871128063,241.88871062382,241.88871599199,252.95473912556,252.95473912361,252.95473912361,232.76682519558,232.76682519558,450.24572633998,450.24572651558,0
0.000103,35203662.227853,3.0247056430007e-05,1.0070629378237,8.9014690096191e-07,-8.9014732866495e-07,8.9014938985809e-07,8.90148421896e-07,3.8045356049423e-33,-3.8045304099134e-33,-3.8045345072974e-33,3.8045397027068e-33,-46.138475755449,46.138602706108,-46.138628844629,46.13850208139,-8.9014952052529e-07,3.804531642701e-33,3.8045336739197e-33,-3.8045384706515e-33,-3.8045364379504e-33,1.343097457971e-20,-1.3430962597769e-20,-1.3430976786571e-20,1.3430988766933e-20,-4.5067902202188,4.5067997745701,-8.9014994986997e-07,-4.5068036506875,4.5067941120702,3.4883671291122e-52,-3.4883580538342e-52,-3.4883626844745e-52,3.488371760926e-52,-4.5067894136031,4.5068036100226,-4.5068044587059,4.5067902789475,0,3.4883640200528e-52,3.4883599061389e-52,-3.4883657939626e-52,-3.4883699073294e-52,1.3430957754716e-20,1.3430980264791e-20,-1.3430993618408e-20,-1.3430971099945e-20,0,0,0,8.9014842820066e-07,-8.9014745899818e-07,232.65832785357,232.65832785357,232.65832293089,232.65832293089,246.61466087576,246.61465876321,246.61465724789,246.6146593575,224.86617389994,224.86616864883,224.8661667638,224.86617201298,232.65832061023,246.61466155209,246.61465732847,246.61465657154,246.61466079222,241.84080789594,241.84080600418,241.84080396745,241.84080585722,226.02043222321,226.02042889036,232.65832061023,226.02042649724,226.02042982847,250.29083990025,250.2908381469,250.29083720487,250.29083895458,226.02043329073,226.02042662585,226.02042542969,226.02043209295,252.9724757718,250.29084018081,250.29083755171,250.2908369243,250.29083954976,241.84080910743,241.84080343417,241.84080275593,241.84080842719,252.9724757718,252.97247576973,252.97247576973,232.65832553296,232.65832553296,449.91279204406,449.91279221977,0
0.0001035,35332179.129036,3.0393889049368e-05,1.0071151756733,8.66712700859e-07,-8.667131383368e-07,8.667152473356e-07,8.6671425869352e-07,3.5627392753693e-33,-3.5627341933353e-33,-3.5627381856349e-33,3.5627432682489e-33,-46.159305650095,46.159439890147,-46.159466777592,46.159332739013,-8.667153987424e-07,3.5627353626886e-33,3.5627374000076e-33,-3.5627420994711e-33,-3.5627400608299e-33,1.2731362568917e-20,-1.2731350728036e-20,-1.2731364673544e-20,1.273137651367e-20,-4.4894048878066,4.4894149324186,-8.66715837892e-07,-4.4894189162178,4.4894088883799,3.2384597522133e-52,-3.2384509294411e-52,-3.2384554235617e-52,3.2384642476485e-52,-4.4894039988283,4.4894189549052,-4.4894198067222,4.4894048684302,0,3.2384567161313e-52,3.2384527326097e-52,-3.2384584601086e-52,-3.2384624432058e-52,1.2731345706499e-20,1.2731368307143e-20,-1.2731381543075e-20,-1.2731358934631e-20,0,0,0,8.6671427927531e-07,-8.6671328938858e-07,232.55052463781,232.55052463781,232.55051946551,232.55051946551,246.59628635399,246.59628412334,246.59628255946,246.596284787,224.70097657103,224.700971016,224.70096906691,224.7009746199,232.55051698149,246.59628707716,246.59628261742,246.59628183626,246.59628629289,241.79346360841,241.79346161026,241.79345950759,241.79346150363,225.8641516882,225.86414816293,232.55051698149,225.86414568882,225.86414921237,250.29380363281,250.29380178184,250.29380080985,250.29380265698,225.86415283165,225.86414578196,225.86414454534,225.8641515933,252.99052315623,250.29380393274,250.29380115725,250.2938005099,250.29380328155,241.79346490422,241.79345891192,241.79345821173,241.79346420193,252.99052315623,252.99052315405,252.99052315405,232.55052215385,232.55052215385,449.58129003061,449.58129020642,0
0.000104,35460896.801063,3.0540721781619e-05,1.0071674053014,8.4388188628342e-07,-8.4388233364561e-07,8.4388449124536e-07,8.4388348167422e-07,3.3365574509491e-33,-3.3365524800438e-33,-3.336556369546e-33,3.3365613412206e-33,-46.180108458856,46.180250379717,-46.180278025188,46.180136321258,-8.4388466417831e-07,3.3365535878301e-33,3.3365556302187e-33,-3.3365602338602e-33,-3.3365581902983e-33,1.2068585874433e-20,-1.2068574175141e-20,-1.2068587879064e-20,1.2068599578409e-20,-4.4720518500721,4.4720624081218,-8.4388511324607e-07,-4.4720665011647,4.4720559610291,3.0067886965303e-52,-3.0067801198004e-52,-3.0067844811159e-52,3.0067930592896e-52,-4.4720508730698,4.4720666261781,-4.4720674798263,4.4720517457339,0,3.0067857319942e-52,3.0067818751095e-52,-3.0067874461471e-52,-3.0067913027181e-52,1.2068568978546e-20,1.2068591665081e-20,-1.2068604782332e-20,-1.2068582088561e-20,0,0,0,8.4388351702373e-07,-8.4388250620167e-07,232.44341540061,232.44341540061,232.44340996672,232.44340996672,246.57837357208,246.57837121722,246.57836960367,246.57837195524,224.53648878115,224.53648290584,224.53648089107,224.53648676421,232.44340730947,246.57837434487,246.5783696368,246.57836883085,246.57837353563,241.7466803482,241.74667823814,241.74667606798,241.74667817581,225.70858623312,225.70858250509,232.44340730947,225.70857994793,225.70858367414,250.29714318572,250.2971412321,250.29714022948,250.29714217904,225.70858745713,225.708580002,225.70857872388,225.70858617719,253.00887963192,250.29714350616,250.29714057676,250.29713990902,250.29714283436,241.74668173336,241.74667540542,241.74667468278,241.74668100848,253.00887963192,253.00887962961,253.00887962961,232.44341274342,232.44341274342,449.25121540458,449.25121558048,0
0.0001045,35589815.316008,3.0687554631311e-05,1.0072196268083,8.216394013787e-07,-8.2163985873317e-07,8.2164206573363e-07,8.2164103498641e-07,3.1249675175603e-33,-3.1249626559293e-33,-3.1249664448856e-33,3.1249713074649e-33,-46.200883830193,46.201033842865,-46.201062254695,46.200912475977,-8.2164226099412e-07,3.1249637039824e-33,3.124965750441e-33,-3.124970259704e-33,-3.1249682122103e-33,1.144068898739e-20,-1.1440677430156e-20,-1.1440690894256e-20,1.1440702452333e-20,-4.454731205037,4.4547423007022,-8.2164272009201e-07,-4.4547465044901,4.4547354279901,2.7920007474278e-52,-2.7919924104181e-52,-2.7919966425564e-52,2.7920049811277e-52,-4.4547301340342,4.4547467232252,-4.4547475772973,4.4547310084724,0,2.7919978530282e-52,2.7919941191195e-52,-2.7919995374895e-52,-2.7920032711834e-52,1.1440672061959e-20,1.1440694829723e-20,-1.1440707827359e-20,-1.1440685052896e-20,0,0,0,8.2164108560005e-07,-8.2164005359326e-07,232.33699783562,232.33699783562,232.33699212764,232.33699212764,246.56092040933,246.56091792387,246.56091625953,246.56091874151,224.37270813409,224.37270192131,224.37269983922,224.37270604969,232.33698928677,246.56092123465,246.56091626548,246.56091543418,246.56092039987,241.7004558152,241.70045358742,241.70045134822,241.70045357364,225.55373351673,225.55372957511,232.33698928677,225.55372693285,225.55373087253,250.30085668264,250.30085462111,250.30085358718,250.30085564441,225.55373482622,225.55372694396,225.55372562331,225.55373350363,253.0275435598,250.30085702479,250.30085393358,250.30085324501,250.30085633192,241.70045729497,241.70045061401,241.7004498684,241.700456547,253.0275435598,253.02754355736,253.02754355736,232.33699499482,232.33699499482,448.92256329124,448.92256346721,0
0.000105,35718934.753141,3.083438760315e-05,1.007271840297,7.9997055033767e-07,-7.9997101779158e-07,7.999732749972e-07,7.9997222282889e-07,2.9270146664902e-33,-2.9270099122962e-33,-2.9270136029226e-33,2.9270183582379e-33,-46.221631413691,46.221789949627,-46.221819135315,46.221660852032,-7.9997349340047e-07,2.9270109024019e-33,2.9270129519647e-33,-2.9270173682919e-33,-2.9270153178253e-33,1.0845820836191e-20,-1.0845809421441e-20,-1.0845822647528e-20,1.0845834063906e-20,-4.4374430503618,4.4374547088556,-7.9997396263916e-07,-4.4374590248244,4.4374473868645,2.5928446488887e-52,-2.5928365454212e-52,-2.5928406519269e-52,2.5928487570658e-52,-4.4374418790508,4.4374593451171,-4.437460198096,4.4374427538721,0,2.5928418232229e-52,2.592838208726e-52,-2.5928434781562e-52,-2.5928470925292e-52,1.0845803885083e-20,1.0845826729441e-20,-1.0845839606592e-20,-1.0845816756059e-20,0,0,0,7.9997228920843e-07,-7.9997123577019e-07,232.23126964446,232.23126964446,232.23126364933,232.23126364933,246.54392475331,246.54392213055,246.54392041431,246.54392303338,224.20963224345,224.20962567519,224.20962352411,224.20963008992,232.23126061391,246.54392563422,246.54392039056,246.54391953336,246.54392477333,241.6547877171,241.65478536552,241.65478305574,241.65478540481,225.39959120751,225.39958704092,232.23126061391,225.39958431147,225.399588476,250.30494225548,250.30494008054,250.30493901462,250.30494118501,225.39959260764,225.3995842755,225.39958291129,225.39959124137,253.04651330872,250.3049426206,250.30493935933,250.30493864948,250.3049419062,241.65478929704,241.65478224484,241.65478147575,241.65478852544,253.04651330872,253.04651330614,253.04651330614,232.23126660912,232.23126660912,448.59532883601,448.59532901204,0
0.0001055,35848255.199131,3.0981220702005e-05,1.0073240458722,7.788609892707e-07,-7.7886146692921e-07,7.7886377514901e-07,7.7886270131671e-07,2.741807349597e-33,-2.7418027010138e-33,-2.7418062954909e-33,2.7418109453618e-33,-46.242350859956,46.24251837206,-46.242548338168,46.242381099285,-7.7886401752468e-07,2.7418036349237e-33,2.7418056866537e-33,-2.7418100114827e-33,-2.741807958973e-33,1.028222918745e-20,-1.0282217915545e-20,-1.0282230905478e-20,1.0282242179788e-20,-4.4201874833282,4.4201997309443,-7.7886449701335e-07,-4.4202041604561,4.4201919348731,2.4081633135748e-52,-2.4081554376062e-52,-2.4081594219388e-52,2.408167299681e-52,-4.4201862050555,4.4202045906053,-4.4202054408577,4.4201870787669,0,2.4081605552574e-52,2.4081570566975e-52,-2.4081621808446e-52,-2.4081656793635e-52,1.0282212214489e-20,1.0282235130825e-20,-1.0282247886676e-20,-1.0282224964675e-20,0,0,0,7.7886278396972e-07,-7.7886170885502e-07,232.12622853665,232.12622853665,232.12622224072,232.12622224072,246.52738449983,246.52738173276,246.52737996349,246.52738272665,224.04725873261,224.04725178994,224.04724956822,224.04725650828,232.12621899925,246.52738543955,246.52737990739,246.52737902373,246.52738455199,241.60967376937,241.60967128764,241.60966890572,241.6096713848,225.24615698355,225.24615258005,232.12621899925,225.24614976133,225.24615416263,250.30939804439,250.30939575027,250.30939465168,250.30939694099,225.24615847976,225.24614967388,225.24614826507,225.24615706875,253.06578725536,250.30939843381,250.30939499384,250.30939426225,250.3093976974,241.60967545532,241.6096680128,241.60966721972,241.60967465958,253.06578725536,253.06578725263,253.06578725263,232.12622529526,232.12622529526,448.2695072044,448.26950738049,0
0.000106,35977776.748242,3.1128053932906e-05,1.0073762436414,7.5829671824188e-07,-7.5829720620841e-07,7.5829956625512e-07,7.5829847051855e-07,2.5685130419799e-33,-2.5685084971958e-33,-2.5685119976692e-33,2.568516543901e-33,-46.263041820668,46.263218784264,-46.263249536316,46.263072868586,-7.5829983344743e-07,2.5685093766275e-33,2.5685114296176e-33,-2.5685156643826e-33,-2.5685136107293e-33,9.7482553476176e-21,-9.7482442188676e-21,-9.7482569745513e-21,9.7482681064767e-21,-4.4029646008375,4.4029774649904,-7.5830032329399e-07,-4.4029820093247,4.4029691688493,2.2368866356905e-52,-2.2368789813134e-52,-2.2368828468507e-52,2.2368905030959e-52,-4.402963208588,4.4029825581167,-4.402983403886,4.4029640795881,0,2.2368839433578e-52,2.2368805573498e-52,-2.2368855398028e-52,-2.2368889258447e-52,9.7482383565952e-21,9.7482613403135e-21,-9.7482739741137e-21,-9.7482509852221e-21,0,0,0,7.5829856995786e-07,-7.5829747292394e-07,232.02187222957,232.02187222957,232.02186561859,232.02186561859,246.5112975529,246.51129463419,246.51129281078,246.51129572535,223.88558523466,223.88557789772,223.88557560368,223.88558293783,232.02186215893,246.51129855482,246.51129271949,246.51129180882,246.51129764001,241.56511169526,241.5651090767,241.56510662109,241.56510923683,225.09342853255,225.09342387962,232.02186215893,225.09342096953,225.09342562011,250.31422219773,250.31421977839,250.31421864645,250.31422106069,225.09343013057,225.0934208259,225.09341937144,225.09342867377,253.08536378422,250.31422261283,250.3142189851,250.31421823133,250.31422185395,241.56511349335,241.56510564053,241.56510482294,241.56511267294,253.08536378422,253.08536378132,253.08536378132,232.02186877,232.02186877,447.94509358189,447.94509375801,0
0.0001065,36107499.50254,3.1274887301052e-05,1.0074284337141,7.3826407347195e-07,-7.3826457184849e-07,7.3826698453937e-07,7.3826586666022e-07,2.4063542911944e-33,-2.4063498484121e-33,-2.4063532569914e-33,2.4063577013776e-33,-46.283703948566,46.28389086241,-46.283922404824,46.283735811738,-7.3826727740618e-07,2.4063506750413e-33,2.4063527284144e-33,-2.4063568745434e-33,-2.4063548206192e-33,9.2423291491993e-21,-9.2423181638587e-21,-9.2423306872392e-21,9.2423416765271e-21,-4.3857744994035,4.3857880086699,-7.3826777771672e-07,-4.385792669019,4.3857791852295,2.0780248594744e-52,-2.078017420914e-52,-2.0780211709521e-52,2.0780286114701e-52,-4.3857729857826,4.3857933457462,-4.3857941851483,4.3857738523539,0,2.0780222317726e-52,2.0780189550188e-52,-2.0780237992974e-52,-2.0780270761547e-52,9.2423121438443e-21,9.2423351903804e-21,-9.2423477014316e-21,-9.2423246502081e-21,0,0,0,7.3826598340413e-07,-7.382648642107e-07,231.91819844839,231.91819844839,231.91819150747,231.91819150747,246.49566182475,246.4956587467,246.49565686804,246.49565994168,223.72460939234,223.72460164031,223.72459927228,223.72460702133,231.91818781688,246.49566289242,246.49565673855,246.49565580032,246.49566194979,241.52109922571,241.52109646336,241.52109393251,241.52109669187,224.94140355171,224.94139863622,231.91818781688,224.94139563266,224.94140054565,250.319412872,250.31941032112,250.31940915517,250.31941170063,224.94140525759,224.94139542787,224.94139392672,224.94140375394,253.10524128756,250.31941331425,250.3194094893,250.3194087129,250.31941253243,241.52110114241,241.52109285836,241.52109201575,241.5211002968,253.10524128756,253.10524128449,253.10524128449,231.9181947579,231.9181947579,447.6220831738,447.62208334994,0
0.000107,36237423.572098,3.1421720811816e-05,1.0074806162024,7.1874971970693e-07,-7.1875022859326e-07,7.1875269474905e-07,7.1875155449195e-07,2.2546050334517e-33,-2.2546006908871e-33,-2.254604009648e-33,2.2546083539671e-33,-46.304336897415,46.304534284811,-46.304566620747,46.304369581528,-7.1875301416252e-07,2.2546014663579e-33,2.2546035192644e-33,-2.2546075781807e-33,-2.2546055248287e-33,8.7629642062012e-21,-8.7629533644648e-21,-8.7629656575342e-21,8.7629765039837e-21,-4.3686172751412,4.3686314593087,-7.1875352504201e-07,-4.3686362367649,4.3686220800491,1.9306624598214e-52,-1.930655231432e-52,-1.9306588691885e-52,1.9306660996183e-52,-4.3686156323589,4.3686370512557,-4.3686378822686,4.3686164926666,0,1.9306598954179e-52,1.9306567247049e-52,-1.9306614342617e-52,-1.930664605141e-52,8.7629471902024e-21,8.7629702950127e-21,-8.7629826826798e-21,-8.7629595736527e-21,0,0,0,7.1875168906398e-07,-7.1875054747276e-07,231.81520492607,231.81520492607,231.81519763965,231.81519763965,246.48047523573,246.48047199031,246.48047005528,246.48047329603,223.56432885801,223.56432066905,223.56431822534,223.56432641113,231.81519370471,246.4804763729,246.48046988442,246.48046891807,246.48047540188,241.47763409941,241.47763118595,241.47762857831,241.4776314886,224.79007974776,224.79007455593,231.81519370471,224.79007145679,224.79007664596,250.32496823187,250.32496554285,250.32496434221,250.32496702548,224.79008156785,224.79007118554,224.79006963663,224.79008001628,253.12541816541,250.3249687028,250.32496467072,250.32496387125,250.32496789759,241.47763614149,241.47762740431,241.47762653616,241.47763527016,253.12541816541,253.12541816216,253.12541816216,231.81520099123,231.81520099123,447.30047120519,447.30047138133,0
0.0001075,36367549.07521,3.1568554470745e-05,1.007532791221,6.9974064274436e-07,-6.9974116223852e-07,6.9974368268355e-07,6.9974251981591e-07,2.1125871586334e-33,-2.1125829145198e-33,-2.1125861455023e-33,2.1125903915171e-33,-46.324940322025,46.325148731898,-46.325181863182,46.324973831667,-6.997440295298e-07,2.1125836404376e-33,2.1125856920574e-33,-2.1125896651768e-33,-2.1125876132123e-33,8.3087534244142e-21,-8.3087427264303e-21,-8.3087547912181e-21,8.3087654946813e-21,-4.3514930237639,4.3515079138722,-6.9974455108138e-07,-4.3515128094221,4.3514979489302,1.7939524950509e-52,-1.7939454713178e-52,-1.7939489999313e-52,1.7939560257827e-52,-4.3514912436152,4.3515137720626,-4.3515145925222,4.3514920956984,0,1.7939499926289e-52,1.7939469248287e-52,-1.7939515030479e-52,-1.7939545710719e-52,8.3087364014095e-21,8.3087595599834e-21,-8.3087718236849e-21,-8.308748661356e-21,0,0,0,6.9974267274434e-07,-6.9974150852004e-07,231.71288940326,231.71288940326,231.71288175512,231.71288175512,246.46573571436,246.46573229315,246.46573030066,246.4657337169,223.40474129362,223.40473264479,223.40473012373,223.40473876917,231.71287756173,246.46573692494,246.46573008504,246.46572909003,246.46573592497,241.43471406269,241.43471099047,241.43470830452,241.43471137336,224.63945483684,224.63944935422,231.71287756173,224.6394461574,224.63945163717,250.33088645011,250.33088361603,250.33088238005,250.33088520802,224.63945677783,224.63944581403,224.63944421633,224.63945517729,253.14589282552,250.33088695134,250.33088270175,250.33088187879,250.33088612226,241.43471623728,241.43470702404,241.43470612986,241.43471533971,253.14589282552,253.14589282206,253.14589282206,231.71288520998,231.71288520998,446.98025292077,446.98025309689,0
0.000108,36497876.138601,3.1715388283569e-05,1.007584958887,6.8122414211932e-07,-6.8122467231754e-07,6.8122724787966e-07,6.8122606217133e-07,1.9796673071651e-33,-1.9796631597505e-33,-1.9796663049591e-33,1.9796704544195e-33,-46.345513878229,46.345733886304,-46.345767813311,46.345548216794,-6.8122762305851e-07,1.9796638376852e-33,1.9796658872261e-33,-1.9796697759564e-33,-1.9796677261687e-33,7.8783647528304e-21,-7.8783541986927e-21,-7.8783660372633e-21,7.8783765976534e-21,-4.3344018405732,4.3344174689635,-6.8122815538342e-07,-4.3344224834794,4.3344068870758,1.6671113949395e-52,-1.6671045704731e-52,-1.6671079930047e-52,1.6671148196639e-52,-4.33439991442,4.3344236052386,-4.334424412832,4.3344007561857,0,1.6671089531991e-52,1.667105985265e-52,-1.6671104354625e-52,-1.6671134036744e-52,7.8783477264048e-21,7.8783709342636e-21,-7.8783830734707e-21,-7.878359862316e-21,0,0,0,6.8122623398956e-07,-6.8122504689954e-07,231.61124962831,231.61124962831,231.6112416015,231.6112416015,246.45144119725,246.45143759145,246.45143554041,246.45143914092,223.24584437059,223.24583523788,223.24583263779,223.24584176688,231.61123713482,246.45144248537,246.45143527643,246.45143425223,246.45144145588,241.39233686955,241.39233363057,241.39233086479,241.39233410016,224.48952654448,224.48952075592,231.61123713482,224.48951745932,224.48952324484,250.33716570758,250.33716272119,250.33716144921,250.33716442909,224.48952861342,224.48951703785,224.48951539031,224.48952696284,253.1666636833,250.3371662408,250.33716176286,250.33716091596,250.3371653874,241.39233918414,241.39232947084,241.39232855012,241.3923382598,253.1666636833,253.16666367962,253.16666367962,231.61124516176,231.61124516176,446.66142358477,446.66142376084,0
0.0001085,36628404.897648,3.1862222256204e-05,1.0076371193202,6.6318782394429e-07,-6.6318836494052e-07,6.6319099645063e-07,6.6318978767473e-07,1.8552538829626e-33,-1.8552498305119e-33,-1.8552528919165e-33,1.8552569465551e-33,-46.366057222868,46.366289432888,-46.366324154399,46.366092392474,-6.6319140087578e-07,1.8552504619986e-33,1.8552525086957e-33,-1.8552563144365e-33,-1.855254267587e-33,7.4705371632203e-21,-7.4705267529726e-21,-7.4705383674271e-21,7.4705487847058e-21,-4.3173438204513,4.3173602208158,-6.6319194407355e-07,-4.3173653550438,4.3173489892635,1.5494141500666e-52,-1.5494075196026e-52,-1.5494108390376e-52,1.5494174717654e-52,-4.3173417392027,4.3173666475036,-4.3173674397597,4.3173425684223,0,1.5494117677267e-52,1.5494088966926e-52,-1.549413222117e-52,-1.5494160934789e-52,7.4705201369104e-21,7.4705433896075e-21,-7.4705554038455e-21,-7.4705321483071e-21,0,0,0,6.631899789207e-07,-6.631887687352e-07,231.51028335719,231.51028335719,231.51027493402,231.51027493402,246.43758962909,246.43758582949,246.43758371882,246.4375875128,223.08763576985,223.08762612806,223.08762344727,223.08763308518,231.51027017847,246.43759099908,246.43758340271,246.43758234878,246.43758993952,241.3505002816,241.35049686749,241.35049402036,241.35049743063,224.34029260555,224.34028649518,231.51027017847,224.34028309672,224.34028920383,250.34380419317,250.34380104693,250.3437997383,250.34380287762,224.34029480984,224.34028259076,224.34028089234,224.34029310817,253.18772916182,250.34380476017,250.34380004254,250.34379917127,250.34380388198,241.35050274405,241.35049250559,241.35049155783,241.35050179244,253.18772916182,253.1877291579,253.1877291579,231.51027860178,231.51027860178,446.34397848082,446.34397865683,0
0.000109,36759135.496595,3.2009056394753e-05,1.007689272643,6.4561959390008e-07,-6.4562014578639e-07,6.4562283407814e-07,6.4562160201085e-07,1.7387942677583e-33,-1.7387903085529e-33,-1.738793288089e-33,1.738797249623e-33,-46.386570013791,46.386815058779,-46.386850571847,46.38660601516,-6.4562326867686e-07,1.7387908950923e-33,1.7387929382078e-33,-1.7387966623508e-33,-1.7387946191748e-33,7.0840768456409e-21,-7.0840665792762e-21,-7.0840779717499e-21,7.0840882459323e-21,-4.300319057855,4.3003362652874,-6.4562382284536e-07,-4.3003415198374,4.3003243498351,1.4401898712065e-52,-1.4401834296026e-52,-1.4401866488529e-52,1.4401930927888e-52,-4.3003168119472,4.300342995221,-4.3003437695017,4.3003176262479,0,1.4401875470044e-52,1.4401847699827e-52,-1.4401889738172e-52,-1.4401917512135e-52,7.0840598229308e-21,7.0840831160544e-21,-7.0840950049048e-21,-7.0840717093927e-21,0,0,0,6.4562181322709e-07,-6.4562057971931e-07,231.40998835348,231.40998835348,231.40997951548,231.40997951548,246.42417896265,246.42417495961,246.42417278825,246.42417678529,222.93011318172,222.93010300444,222.9301002413,222.93011041442,231.40997445468,246.42418041904,246.42417241598,246.42417133181,246.42417932886,241.30920206808,241.30919847006,241.30919554011,241.30919913402,224.19175076421,224.1917443154,231.40997445468,224.19174081299,224.19174725832,250.35080010383,250.35079678981,250.35079544389,250.35079875054,224.19175311165,224.19174021579,224.19173846545,224.19175135783,253.20908769177,250.35080070646,250.35079573728,250.35079484123,250.35079980303,241.30920468663,241.30919389674,241.30919292145,241.30920370725,253.20908769177,253.2090876876,253.2090876876,231.40998329284,231.40998329284,446.02791291189,446.02791308781,0
0.0001095,36890068.088783,3.2155890705517e-05,1.0077414189807,6.2850765037643e-07,-6.2850821324236e-07,6.2851095915224e-07,6.2850970357326e-07,1.6297722231107e-33,-1.6297683554484e-33,-1.6297712550176e-33,1.6297751251466e-33,-46.407051909829,46.407310453419,-46.40734675322,46.407088742204,-6.2851142486524e-07,1.6297688985065e-33,1.6297709373287e-33,-1.6297745812562e-33,-1.6297725424622e-33,6.7178536082622e-21,-6.717843485723e-21,-6.7178546583839e-21,6.7178647895338e-21,-4.2833276468071,4.2833456978562,-6.2851199010053e-07,-4.2833510731906,4.2833330626917,1.3388176899526e-52,-1.3388114321867e-52,-1.3388145540911e-52,1.3388208142539e-52,-4.2833252261817,4.2833527443918,-4.2833534978841,4.2833260230432,0,1.3388154226427e-52,1.3388127368226e-52,-1.3388168221839e-52,-1.338819508422e-52,6.7178365925815e-21,6.7178599217544e-21,-6.7178716848507e-21,-6.7178483537375e-21,0,0,0,6.285099353066e-07,-6.2850867825271e-07,231.31036238829,231.31036238829,231.31035311619,231.31035311619,246.41120715871,246.41120294216,246.41120070907,246.41120491922,222.77327430591,222.77326356547,222.77326071832,222.7732714543,231.31034773293,246.41120870626,246.41120027639,246.41119916145,246.41120758491,241.26844000576,241.26843621468,241.26843320043,241.26843698712,224.04389877387,224.04389196917,231.31034773293,224.04388836076,224.04389516172,250.35815164446,250.35814815439,250.35814677057,250.35815025278,224.04390127265,224.04388766515,224.04388586188,224.04389946564,253.23073771144,250.35815228468,250.35814705155,250.35814613032,250.35815135558,241.26844278909,241.26843142028,241.26843041699,241.26844178142,253.23073771144,253.23073770699,253.23073770699,231.3103570052,231.3103570052,445.71322220013,445.71322237594,0
0.00011,37021202.836869,3.2302725194991e-05,1.0077935584613,6.118404777575e-07,-6.1184105169045e-07,6.1184385605754e-07,6.1184257674932e-07,1.5277054673365e-33,-1.5277016895329e-33,-1.5277045110004e-33,1.5277082914096e-33,-46.427502570798,46.427775308569,-46.427812388305,46.427540231784,-6.1184435383898e-07,1.5277021905426e-33,1.5277042243862e-33,-1.5277077894678e-33,-1.5277057557406e-33,6.3707974705232e-21,-6.3707874917044e-21,-6.3707984467443e-21,6.3708084349837e-21,-4.2663696808894,4.2663886136105,-6.1184493023447e-07,-4.2663941100368,4.2663752212802,1.2447229740268e-52,-1.2447168951943e-52,-1.2447199225181e-52,1.2447260038113e-52,-4.2663670749721,4.2663959906466,-4.2663967203584,4.2663678517162,0,1.2447207623829e-52,1.2447181650286e-52,-1.2447221349651e-52,-1.2447247327796e-52,6.3707804652495e-21,6.3708038261358e-21,-6.3708154631534e-21,-6.3707921007815e-21,0,0,0,6.1184282955104e-07,-6.1184154873067e-07,231.21140324024,231.21140324024,231.21139351392,231.21139351392,246.39867218605,246.39866774546,246.39866544962,246.39866988337,222.61711685144,222.61710551884,222.61710258607,222.61711391389,231.21138779013,246.39867382977,246.39866495204,246.39866380583,246.39867267672,241.22821187899,241.22820788526,241.22820478527,241.22820877432,223.89673439712,223.89672721827,231.21138779013,223.89672350182,223.89673067666,250.36585702796,250.3658533532,250.36585193086,250.36585559723,223.89673705586,223.89672270019,223.89672084297,223.89673519463,253.25267766664,250.36585770782,250.36585219779,250.36585125096,250.3658567526,241.22821483618,241.22820285973,241.22820182796,241.22821379973,253.25267766664,253.2526776619,253.2526776619,231.21139751663,231.21139751663,445.39990168682,445.39990186247,0
0.0001105,37152539.91306,3.2449559869878e-05,1.0078456912158,5.9560683985143e-07,-5.9560742493652e-07,5.9561028860159e-07,5.956089853508e-07,1.4321434154918e-33,-1.4321397258806e-33,-1.4321424710798e-33,1.4321461634345e-33,-46.447921657482,46.448209318426,-46.448247169077,46.44796014296,-5.9561081941888e-07,1.4321401862414e-33,1.4321422144465e-33,-1.4321457020448e-33,-1.4321436740423e-33,6.0418954392498e-21,-6.0418856040004e-21,-6.0418963436448e-21,6.041906189136e-21,-4.2494452532357,4.2494651072492,-5.9561140706678e-07,-4.2494707249013,4.2494509185937,1.1573738328242e-52,-1.1573679281379e-52,-1.1573708635786e-52,1.1573767707875e-52,-4.2494424509135,4.2494728292483,-4.2494735319908,4.2494432047001,0,1.1573716756398e-52,1.1573691640897e-52,-1.1573730215888e-52,-1.1573755336388e-52,6.0418784477084e-21,6.0419018360094e-21,-6.0419133466845e-21,-6.0418899573525e-21,0,0,0,5.9560925977588e-07,-5.9560795497198e-07,231.11310869542,231.11310869542,231.1130984939,231.1130984939,246.38657202146,246.38656734581,246.38656498622,246.38656965455,222.46163853664,222.46162658148,222.46162356147,222.46163551148,231.1130924106,246.38657376658,246.38656441899,246.38656324102,246.3865725813,241.18851547963,241.18851127322,241.1885080861,241.18851228749,223.75025540571,223.75024783357,231.1130924106,223.75024400708,223.75025157491,250.37391447515,250.37391060665,250.3739091452,250.37391300473,223.75025823346,223.75024309138,223.75024117921,223.75025631698,253.27490601075,250.3739151968,250.37390939631,250.37390842351,250.37391421502,241.18851862023,241.18850600608,241.18850494537,241.18851755451,253.27490601075,253.27490600568,253.27490600568,231.1131026123,231.1131026123,445.08794673218,445.08794690766,0
0.000111,37284079.499344,3.2596394737084e-05,1.0078978173782,5.7979577345928e-07,-5.7979636977934e-07,5.7979929358564e-07,5.7979796618189e-07,1.3426650713315e-33,-1.3426614682646e-33,-1.342664138993e-33,1.3426677449433e-33,-46.468308831618,46.468612179578,-46.468650789835,46.468348135578,-5.7979985841907e-07,1.3426618893415e-33,1.3426639112741e-33,-1.3426673227373e-33,-1.3426653010947e-33,5.7301884578951e-21,-5.7301787660195e-21,-5.7301892925125e-21,5.7301989954749e-21,-4.2325544565239,4.2325752730699,-5.798004574086e-07,-4.2325810119035,4.2325602471549,1.0762778906681e-52,-1.0762721554541e-52,-1.0762750016381e-52,1.0762807394366e-52,-4.232551446121,4.2325833550767,-4.2325840274647,4.2325521739381,0,1.0762757867531e-52,1.0762733584174e-52,-1.0762771063987e-52,-1.0762795352739e-52,5.7301714833519e-21,5.7301948948142e-21,-5.7302062789206e-21,-5.7301828668943e-21,0,0,0,5.7979826278937e-07,-5.7979693378871e-07,231.01547654732,231.01547654732,231.01546584873,231.01546584873,246.37490464965,246.37489972745,246.37489730314,246.37490221752,222.30683708902,222.30682447949,222.30682137065,222.30683397466,231.01545938598,246.37490650168,246.37489666122,246.37489545103,246.37490528365,241.14934860705,241.14934417749,241.14934090184,241.14934532604,223.60445958049,223.60445159502,231.01545938598,223.6044476565,223.60445563734,250.38232221475,250.38231814307,250.38231664194,250.38232070402,223.60446258677,223.60444661819,223.60444465009,223.60446061403,253.29742120459,250.38232298045,250.38231687535,250.38231587619,250.3823219717,241.14935194106,241.1493386578,241.1493375677,241.1493508456,253.29742120459,253.29742119917,253.29742119917,231.01547008478,231.01547008478,444.77735271534,444.77735289062,0
0.0001115,37415821.787723,3.2743229803732e-05,1.0079499370852,5.6439658208308e-07,-5.6439718971813e-07,5.644001745104e-07,5.6439882274761e-07,1.2588770609283e-33,-1.2588735427738e-33,-1.2588761407976e-33,1.2588796619747e-33,-46.488663755868,46.488983591177,-46.489022947139,46.488703870336,-5.64400774353e-07,1.2588739259015e-33,1.2588759409501e-33,-1.2588792776182e-33,-1.2588772629452e-33,5.4347685195863e-21,-5.4347589708356e-21,-5.4347692864533e-21,5.4347788471489e-21,-4.2156973829671,4.2157192049724,-5.6440138477223e-07,-4.2157250647417,4.2157032990169,1.0009793069897e-52,-1.0009737366842e-52,-1.0009764961727e-52,1.0009820691228e-52,-4.2156941522212,4.2157276626367,-4.215728301067,4.2156948508827,0,1.0009772551732e-52,1.0009749075309e-52,-1.0009785488538e-52,-1.0009808970731e-52,5.434751565251e-21,5.4347749956568e-21,-5.4347862530275e-21,-5.434762822526e-21,0,0,0,5.6439914210036e-07,-5.6439778869258e-07,230.91850459685,230.91850459685,230.91849337834,230.91849337834,246.36366806329,246.36366288251,246.36366039254,246.36366556494,222.15271024532,222.15269694806,222.15269374886,222.15270704017,230.91848651523,246.36367002798,246.36365967064,246.36365842775,246.36366877671,241.11070906809,241.11070440442,241.11070103892,241.11070569684,223.45934471135,223.45933629157,230.91848651523,223.45933223909,223.45934065389,250.39107848336,250.39107419864,250.39107265728,250.39107693172,223.45934790616,223.45933106913,223.45932904414,223.45934587618,253.32022171648,250.39107929548,250.39107287098,250.39107184511,250.39107825933,241.11071260599,241.11069862079,241.11069750087,241.11071148032,253.32022171648,253.32022171068,253.32022171068,230.91849773397,230.91849773397,444.46811503423,444.46811520926,0
0.000112,37547766.980449,3.2890065077157e-05,1.0080020504771,5.4939882976693e-07,-5.493994487945e-07,5.4940249541902e-07,5.4940111909457e-07,1.180411798351e-33,-1.1804083634964e-33,-1.180410890547e-33,1.180414328565e-33,-46.508986093826,46.509323254833,-46.509363339929,46.509027008669,-5.4940313127673e-07,1.1804087099778e-33,1.1804107175559e-33,-1.1804139807545e-33,-1.1804119736383e-33,5.1547759351772e-21,-5.1547665292614e-21,-5.1547766362967e-21,5.1547860550384e-21,-4.1988741243081,4.1988969964408,-5.4940375321079e-07,-4.1989029766936,4.1988801657464,9.3105602431933e-53,-9.3105061446908e-53,-9.3105328975532e-53,9.3105870231026e-53,-4.1988706603447,4.1989058460389,-4.1989064466905,4.198871326479,0,9.3105402345057e-53,9.3105175404994e-53,-9.3105529150851e-53,-9.3105756152318e-53,5.1547590042064e-21,5.1547824493858e-21,-5.1547935798915e-21,-5.1547701350956e-21,0,0,0,5.49401461759e-07,-5.4940008373785e-07,230.82219065222,230.82219065222,230.82217888999,230.82217888999,246.35286026294,246.35285481101,246.35285225448,246.35285769742,221.9992557514,221.99924173151,221.99923844041,221.9992524539,230.82217160459,246.35286234633,246.35285144701,246.35285017099,246.35286106132,241.07259467704,241.0725897678,241.07258631116,241.07259121422,223.3149085972,223.31489972114,230.82217160459,223.31489555281,223.3149044235,250.40018152545,250.40017701737,250.40017543524,250.40017993231,223.31491199104,223.31489424164,223.31489215881,223.31490990285,253.34330602214,250.40018238645,250.40017562711,250.40017457419,250.40018132252,241.07259842983,241.07258370836,241.07258255821,241.0725972735,253.34330602214,253.34330601593,253.34330601593,230.82218336706,230.82218336706,444.1602291054,444.16022928015,0
0.0001125,37679915.290267,3.3036900564918e-05,1.008054157697,5.3479233507203e-07,-5.3479296556692e-07,5.3479607487124e-07,5.3479467378665e-07,1.1069257744542e-33,-1.1069224213055e-33,-1.1069248790815e-33,1.1069282355361e-33,-46.529275509995,46.529630874783,-46.529671669512,46.529317212798,-5.3479674776238e-07,1.1069227324116e-33,1.1069247319559e-33,-1.106927922999e-33,-1.1069259240033e-33,4.8893967479975e-21,-4.889387484582e-21,-4.8893973853492e-21,4.8894066624946e-21,-4.1820847718116,4.182108740548,-5.347973812943e-07,-4.1821148406063,4.1820909384225,8.6611722644574e-53,-8.6611197270462e-53,-8.6611456621745e-53,8.6611982272315e-53,-4.1820810611173,4.1821179990053,-4.1821185578232,4.1820816911611,0,8.6611527539184e-53,8.6611308184794e-53,-8.6611651817475e-53,-8.6611871236931e-53,4.889379843489e-21,4.8894032993159e-21,-4.8894143028746e-21,-4.8893908479208e-21,0,0,0,5.3479504033253e-07,-5.347936374955e-07,230.72653252898,230.72653252898,230.7265201982,230.7265201982,246.34247925705,246.34247352084,246.34247089688,246.34247662344,221.84647136221,221.84645658313,221.84645319867,221.84646797084,230.72651246746,246.34248146546,246.34246999792,246.34246868835,246.34248014624,241.03500325561,241.03499808884,241.03499453982,241.03499969995,223.17114904592,223.17113969056,230.72651246746,223.17113540454,223.17114475411,250.40962959329,250.40962485109,250.40962322768,250.40962795806,223.17115264981,223.17113394204,223.17113180048,223.17115050245,253.36667260472,250.40963050577,250.40962339544,250.40962231514,250.40962941365,241.03500723482,241.03499174123,241.03499056043,241.03500604739,253.36667260472,253.36667259805,253.36667259805,230.72652479851,230.72652479851,443.85369036399,443.85369053842,0
0.000113,37812266.940651,3.3183736274799e-05,1.0081062588913,5.2056716518078e-07,-5.2056780721525e-07,5.2057098004783e-07,5.2056955400865e-07,1.0380979604331e-33,-1.0380946874153e-33,-1.0380970775827e-33,1.0381003540512e-33,-46.549531669775,46.549906157894,-46.549947639626,46.549574145666,-5.2057169100297e-07,1.0380949643858e-33,1.0380969553563e-33,-1.0381000755451e-33,-1.0380980852111e-33,4.6378602873791e-21,-4.6378511660875e-21,-4.6378608629194e-21,4.6378699988715e-21,-4.1653294162564,4.1653545299457,-5.2057233621344e-07,-4.1653607488916,4.165335707625,8.0580099048594e-53,-8.0579588861368e-53,-8.0579840271868e-53,8.0580350741581e-53,-4.1653254446519,4.1653642148602,-4.1653647275449,4.1653260348412,0,8.0579908813283e-53,8.0579696812643e-53,-8.0580030599319e-53,-8.0580242668694e-53,4.6378434123727e-21,4.6378668747687e-21,-4.6378777513433e-21,-4.6378542903238e-21,0,0,0,5.2056994500892e-07,-5.2056851715759e-07,230.63152804991,230.63152804991,230.63151512468,230.63151512468,246.3325230619,246.33251702772,246.3325143355,246.33252035932,221.69435484176,221.69433926522,221.69433578597,221.69435135505,230.63150692447,246.33252540197,246.33251333883,246.33251199532,246.33252404809,240.99793263292,240.99792719612,240.99792355353,240.99792898319,223.02806387428,223.02805401556,230.63150692447,223.02804961006,223.02805946253,250.41942094693,250.41941595936,250.41941429421,250.41941926909,223.0280676998,223.02804798554,223.02804578436,223.02806549237,253.39031995469,250.41942191361,250.41941443545,250.41941332746,250.41942079293,240.99793685063,240.99792054745,240.99791933563,240.99793563168,253.39031995469,253.39031994754,253.39031994754,230.63151984999,230.63151984999,443.5484942636,443.54849443767,0
0.0001135,37944822.166053,3.3330572214815e-05,1.0081583542097,5.0671363012872e-07,-5.0671428377203e-07,5.067175209819e-07,5.0671606979804e-07,9.7362831837946e-34,-9.7362512393687e-34,-9.7362744812916e-34,9.7363064616969e-34,-46.569754239426,46.570148813721,-46.570190956468,46.569797470937,-5.0671827104395e-07,9.7362536798211e-34,9.7362734986133e-34,-9.7363040048359e-34,-9.7362841933033e-34,4.3994368535222e-21,-4.3994278739369e-21,-4.3994373691829e-21,4.3994463643874e-21,-4.1486081479261,4.1486344568594,-5.0671892801121e-07,-4.1486407935185,4.1486145634277,7.4977211788943e-53,-7.497671637493e-53,-7.497696007496e-53,7.4977455777532e-53,-4.1486039005384,4.1486445865262,-4.1486450485223,4.1486044469022,0,7.4977026314337e-53,7.4976821441921e-53,-7.4977145643666e-53,-7.4977350588499e-53,4.3994200110037e-21,4.3994434759378e-21,-4.399454225533e-21,-4.3994307624936e-21,0,0,0,5.0671648582861e-07,-5.067150327686e-07,230.53717504502,230.53717504502,230.53716149836,230.53716149836,246.32298970165,246.32298335516,246.32298059392,246.32298692926,221.54290396306,221.542887549,221.54288397357,221.54290037957,230.53715280336,246.32299218031,246.32297949297,246.32297811513,246.32299079133,240.96138064546,240.96137492557,240.96137118829,240.96137690051,222.88565090795,222.88564052067,230.53715280336,222.88563599398,222.88564637451,250.42955385421,250.42954860954,250.42954690219,250.42955213323,222.88565496725,222.88563419613,222.88563193447,222.88565269884,253.4142465699,250.42955487794,250.42954701436,250.42954587839,250.42955372834,240.96138511433,240.96136796242,240.96136671922,240.96138386345,253.4142465699,253.41424656222,253.41424656222,230.53716635033,230.53716635033,443.24463627618,443.24463644983,0
0.000114,38077581.212145,3.3477408393215e-05,1.0082104438054,4.9322227716047e-07,-4.9322294247912e-07,4.9322624491592e-07,4.9322476840144e-07,9.1323641160043e-34,-9.1323329419556e-34,-9.1323555401455e-34,9.1323867516727e-34,-46.589942886074,46.590358554588,-46.590401328756,46.589986852954,-4.9322703513934e-07,9.1323350649564e-34,9.1323547878749e-34,-9.132384611183e-34,-9.1323648964328e-34,4.1734355266388e-21,-4.1734266882982e-21,-4.1734359843239e-21,4.1734448392721e-21,-4.1319210566042,4.1319486130853,-4.9322770393933e-07,-4.1319550660091,4.1319275953897,6.9772013056385e-53,-6.9771532011962e-53,-6.9771768225797e-53,6.9772249564915e-53,-4.1319165178365,4.1319592065209,-4.1319596130032,4.1319170161872,0,6.9771832234854e-53,6.9771634271313e-53,-6.9771949143309e-53,-6.9772147182979e-53,4.1734187195317e-21,4.1734421830206e-21,-4.1734528056852e-21,-4.1734293446253e-21,0,0,0,4.9322521004125e-07,-4.9322373158217e-07,230.44347135152,230.44347135152,230.4434571553,230.4434571553,246.31387720822,246.31387053449,246.31386770348,246.31387436522,221.39211650807,221.39209921457,221.39209554166,221.39211282643,230.44344793895,246.31387983274,246.31386649133,246.31386507882,246.31387840824,240.92534513711,240.92533912048,240.92533528745,240.92534129581,222.7439079814,222.7438970392,230.44344793895,222.74389238967,222.74390332458,250.4400265907,250.44002107666,250.4400193267,250.44002482607,222.74391228724,222.74389040656,222.74388808361,222.743909957,253.43845095548,250.44002767445,250.44001940707,250.44001824288,250.44002649558,240.92534987038,240.92533182888,240.92533055395,240.9253485872,253.43845095548,253.43845094722,253.43845094722,230.44346213551,230.44346213551,442.94211189191,442.94211206509,0
0.0001145,38210544.336067,3.3624244818488e-05,1.0082625278349,4.8008388520897e-07,-4.8008456226645e-07,4.8008793077986e-07,4.800864287535e-07,8.5666010794734e-34,-8.566570660628e-34,-8.5665926307843e-34,8.5666230886373e-34,-46.610097277694,46.610535095618,-46.61057846776,46.61014195674,-4.8008876223096e-07,8.5665724776821e-34,8.5665920999854e-34,-8.5666212529897e-34,-8.566601639782e-34,3.9592020936734e-21,-3.9591933960786e-21,-3.9592024952629e-21,3.9592112104854e-21,-4.1152682315659,4.1152970899823,-4.8008944293706e-07,-4.1153036574308,4.115274892549,6.4935741938403e-53,-6.4935274869967e-53,-6.4935503815915e-53,6.4935971185262e-53,-4.1152633850675,4.1153081669505,-4.1153085128124,4.1152638309934,0,6.4935565664264e-53,6.4935374396394e-53,-6.4935680187923e-53,-6.4935871535683e-53,3.9591853248447e-21,3.9592087829558e-21,-3.959219278779e-21,-3.9591958236486e-21,0,0,0,4.8008689658396e-07,-4.8008539253989e-07,230.35041481375,230.35041481375,230.35039993863,230.35039993863,246.30518362133,246.30517660475,246.30517370332,246.30518070699,221.24199026767,221.24197205089,221.24196827922,221.24198648658,230.35039017311,246.30518639932,246.30517237267,246.30517092518,246.30518493892,240.88982395903,240.88981763143,240.88981370166,240.88982002035,222.6028329379,222.60282141321,230.35039017311,222.60281663928,222.60282815608,250.45083743966,250.45083164346,250.45082985051,250.45083563093,222.60283750365,222.60281445828,222.60281207329,222.60283511077,253.46293162384,250.45083858655,250.45082989622,250.45082870355,250.45083737809,240.8898289706,240.88980999681,240.88980868985,240.88982765474,253.46293162384,253.46293161495,253.46293161495,230.35040504859,230.35040504859,442.64091661911,442.64091679178,0
0.000115,38343711.806677,3.3771081499367e-05,1.0083146064582,4.6728945949368e-07,-4.6729014835029e-07,4.6729358379002e-07,4.672920560749e-07,8.0365436987837e-34,-8.0365140201556e-34,-8.0365353776625e-34,8.0365650968597e-34,-46.630217083039,46.630678154782,-46.630722087333,46.630262447914,-4.6729445754651e-07,8.0365155424859e-34,8.036535059639e-34,-8.0365635548069e-34,-8.0365440476975e-34,3.7561170863043e-21,-3.7561085289151e-21,-3.7561174336487e-21,3.7561260097193e-21,-4.0986497615659,4.0986799784658,-4.6729515022944e-07,-4.0986866583887,4.0986565434091,6.0441753335413e-53,-6.0441299859023e-53,-6.0441521749544e-53,6.0441975533154e-53,-4.098644590201,4.0986915595038,-4.0986918393437,4.0986449790577,0,6.0441581504869e-53,6.0441396725362e-53,-6.0441693679881e-53,-6.04418785431e-53,3.7561003585623e-21,3.7561238074134e-21,-3.7561341765228e-21,-3.7561107312235e-21,0,0,0,4.6729255068009e-07,-4.6729102086929e-07,230.25800328314,230.25800328314,230.25798769857,230.25798769857,246.29690698848,246.29689961274,246.29689664028,246.29690400209,221.09252304164,221.09250385567,221.09249998407,221.09251915983,230.25797735472,246.29690992789,246.29689518345,246.2968937007,246.29690843122,240.85481496973,240.85480831628,240.85480428887,240.85481093272,222.46242362946,222.46241149342,230.25797735472,222.46240659361,222.46241872112,250.46198469205,250.46197860033,250.46197676406,250.46198283877,222.46242846916,222.46240420142,222.46240175365,222.46242601285,253.48768709463,250.46198590534,250.46197677204,250.46197555069,250.46198466698,240.85482027413,240.85480032349,240.85479898422,240.85481892525,253.48768709463,253.48768708505,253.48768708505,230.25799293969,230.25799293969,442.34104598415,442.34104615624,0
0.0001155,38477083.904799,3.3917918444834e-05,1.0083666798389,4.5483022623731e-07,-4.5483092695041e-07,4.548344301657e-07,4.5483287658979e-07,7.539901253916e-34,-7.5398723007219e-34,-7.5398930606546e-34,7.5399220560163e-34,-46.650301971714,46.650787453015,-46.650831903996,46.650347992734,-4.5483534731646e-07,7.5398735392572e-34,7.5398929469341e-34,-7.5399207965945e-34,-7.5399013999343e-34,3.5635939242295e-21,-3.5635855064702e-21,-3.5635942191548e-21,3.5636026566853e-21,-4.0820657348397,4.0820973690066,-4.5483605204441e-07,-4.0821041590232,4.0820726359382,5.6265359859161e-53,-5.6264919600495e-53,-5.6265134642386e-53,5.6265575214702e-53,-4.0820602206542,4.0821094754526,-4.0821096835589,4.0820605475543,0,5.6265192370253e-53,5.6265013877654e-53,-5.6265302232967e-53,-5.626548081319e-53,3.5635772403227e-21,3.5636006760845e-21,-3.5636109186479e-21,-3.5635874870306e-21,0,0,0,4.548333985559e-07,-4.5483184280136e-07,230.16623461824,230.16623461824,230.16621829237,230.16621829237,246.28904536486,246.28903761298,246.28903456895,246.28904230581,220.94371263855,220.94369243539,220.94368846275,220.94370865485,230.16620733963,246.28904847404,246.28903297786,246.28903145959,246.28904694076,240.820316035,240.82030904017,240.8203049143,240.82031189877,222.32267791676,222.32266513921,230.16620733963,222.32266011216,222.32267288047,250.47346664647,250.4734602453,250.47345836542,250.47346474825,222.32268304513,222.32265749472,222.32265498351,222.32268052467,253.5127158947,250.47346792957,250.47345833243,250.47345708223,250.47346666103,240.82032164744,240.82030067343,240.82029930159,240.82032026523,253.5127158947,253.51271588438,253.51271588438,230.16622366593,230.16622366593,442.0424955313,442.04249570275,0
0.000116,38610660.923477,3.4064755664122e-05,1.0084187481444,4.4269762749732e-07,-4.4269834012104e-07,4.4270191196039e-07,4.4270033235648e-07,7.0745321437196e-34,-7.0745039013691e-34,-7.0745240784992e-34,7.0745523646519e-34,-46.670351614076,46.670862714245,-46.670907636957,46.670398258027,-4.4270287360524e-07,7.074504866766e-34,7.0745241608384e-34,-7.074551377179e-34,-7.0745320951203e-34,3.3810771580762e-21,-3.3810688793331e-21,-3.38107740238e-21,3.3810857020214e-21,-4.0655162390876,4.0655493516229,-4.427035904439e-07,-4.0655562490003,4.0655232575554,5.238368571557e-53,-5.2383258309619e-53,-5.2383466704134e-53,5.2383894430278e-53,-4.0655103632761,4.0655620056446,-4.0655621359797,4.0655106230813,0,5.238352246825e-53,5.2383350066738e-53,-5.2383630055076e-53,-5.2383802548201e-53,3.3810605206951e-21,3.3810839395903e-21,-3.3810940558147e-21,-3.3810706416782e-21,0,0,0,4.4270088227186e-07,-4.4269930040102e-07,230.07510668457,230.07510668457,230.07508958423,230.07508958423,246.28159681342,246.28158866765,246.28158555158,246.28159368114,220.79555687577,220.79553560522,220.79553153053,220.79555278908,230.0750779906,246.28160010108,246.28158381772,246.28158226373,246.28159853089,240.78632502789,240.78631767547,240.78631345043,240.78632079165,222.18359366916,222.18358021854,230.0750779906,222.18357506299,222.18358850359,250.48528160914,250.48527488399,250.48527296025,250.48527966562,222.18359910163,222.18357220549,222.18356963022,222.18359651633,253.53801655811,250.48528296562,250.48527288286,250.48527160367,250.48528166664,240.78633096429,240.78630891835,240.78630751373,240.78632954847,253.53801655811,253.53801654698,253.53801654698,230.07509509141,230.07509509141,441.74526082266,441.7452609934,0
0.0001165,38744443.168227,3.4211593166725e-05,1.0084708115455,4.3088331611004e-07,-4.3088404069536e-07,4.3088768200649e-07,4.3088607621204e-07,6.6384340526521e-34,-6.6384065067536e-34,-6.6384261155456e-34,6.6384537069256e-34,-46.690365681235,46.690903665435,-46.690949008166,46.690412911134,-4.3088868925586e-07,6.6384072093889e-34,6.6384263859264e-34,-6.6384529809828e-34,-6.6384338174885e-34,3.208040806581e-21,-3.2080326662051e-21,-3.2080410020319e-21,3.2080491644747e-21,-4.0490013614699,4.0490360158727,-4.3088941826797e-07,-4.0490430175068,4.0490084951219,4.8775531651477e-53,-4.8775116742388e-53,-4.8775318685303e-53,4.8775733921294e-53,-4.04899510434,4.0490492404949,-4.0490492866834,4.0489952916505,0,4.8775372547501e-53,4.8775206046789e-53,-4.8775477894818e-53,-4.8775644491267e-53,3.2080242183555e-21,3.2080476166617e-21,-3.2080576067886e-21,-3.2080342138813e-21,0,0,0,4.3088665466703e-07,-4.3088504651213e-07,229.98461735469,229.98461735469,229.98459944532,229.98459944532,246.27455940478,246.2745508466,246.27454765809,246.27455619876,220.64805357943,220.64803118898,220.64802701131,220.64804938874,229.98458717728,246.27456288003,246.27454577251,246.27454418263,246.27456127264,240.7528398287,240.75283210177,240.75282777693,240.75283549175,222.04516876461,222.04515460794,229.98458717728,222.04514932274,222.04516346854,250.4974278939,250.49742082959,250.49741886179,250.49742590474,222.04517451735,222.04514620956,222.04514356967,222.0451718666,253.56358762606,250.49742932749,250.49741873639,250.49741742809,250.49742799782,240.75284610571,240.75282293717,240.75282149959,240.75284465603,253.56358762606,253.56358761404,253.56358761404,229.98460508717,229.98460508717,441.44933743803,441.449337608,0
0.000117,38878430.957287,3.4358430962396e-05,1.008522870217,4.1937915074674e-07,-4.1937988734127e-07,4.193835989706e-07,4.193819668281e-07,6.2297347733807e-34,-6.2297079097364e-34,-6.2297269643591e-34,6.2297538752072e-34,-46.710343845047,46.710910036727,-46.710955742381,46.710391619945,-4.1938465294533e-07,6.2297083597243e-34,6.229727414984e-34,-6.2297534006483e-34,-6.2297343594915e-34,3.0439867829733e-21,-3.043978780279e-21,-3.0439869313106e-21,3.0439949572825e-21,-4.0325211885996,4.0325574508547,-4.1938539419107e-07,-4.0325645532442,4.0325284349371,4.5421250116282e-53,-4.5420847357127e-53,-4.5421043038936e-53,4.5421446131851e-53,-4.0325145295368,4.0325712699906,-4.0325712252988,4.0325146386829,0,4.5421095059288e-53,4.5420934274443e-53,-4.542119820345e-53,-4.5421359088271e-53,3.0439702464745e-21,3.0439936205231e-21,-3.0440034848315e-21,-3.0439801168481e-21,0,0,0,4.1938257441488e-07,-4.1938093981275e-07,229.89476450811,229.89476450811,229.89474575371,229.89474575371,246.2679312172,246.26792222731,246.26791896606,246.26792793703,220.50120058434,220.50117701911,220.50117273764,220.50119628874,229.89473277617,246.26793488958,246.26791691935,246.26791529346,246.26793324476,240.71985832494,240.71985020585,240.7198457807,240.7198538867,221.90740108962,221.90738619244,229.89473277617,221.90738077658,221.90739566197,250.50990382213,250.50989640284,250.50989439086,250.50990178706,221.9074071796,221.90737739123,221.90737468624,221.90740446282,253.58942764686,250.50990533673,250.5098942136,250.50989287613,250.50990397617,240.71986496,240.71984061597,240.71983914529,240.71986347622,253.58942764686,253.58942763388,253.58942763388,229.89475153112,229.89475153112,441.15472097482,441.15472114393,0
0.0001175,39012624.621878,3.4505269061157e-05,1.0085749243374,4.0817719107682e-07,-4.0817793972467e-07,4.0818172251724e-07,4.0818006387442e-07,5.8466836410574e-34,-5.8466574456708e-34,-5.8466759599971e-34,5.8467022043547e-34,-46.730285778071,46.730881561447,-46.730927567199,46.730334052821,-4.0818282434827e-07,5.8466576528528e-34,5.8466765832794e-34,-5.8467019712918e-34,-5.8466830560598e-34,2.8884434057604e-21,-2.8884355400294e-21,-2.8884435086952e-21,2.8884513989586e-21,-4.016075806534,4.0161137451977,-4.0818357788497e-07,-4.016120944421,4.016083162727,4.230262985572e-53,-4.2302238908381e-53,-4.2302428514369e-53,4.2302819802484e-53,-4.0160687239625,4.0161281836782,-4.0161280409991,4.0160687489953,0,4.2302478751111e-53,4.2302323502478e-53,-4.2302579728397e-53,-4.230273508137e-53,2.8884269234988e-21,2.8884502696767e-21,-2.8884600084797e-21,-2.8884366690603e-21,0,0,0,4.081807011866e-07,-4.0817903997905e-07,229.80554603125,229.80554603125,229.80552639433,229.80552639433,246.26171033661,246.26170089486,246.26169756067,246.26170698195,220.35499573398,220.35497093658,220.35496655062,220.35499133267,229.80551267054,246.2617142161,246.26169534293,246.26169368095,246.26171253365,240.68737841133,240.68736988166,240.68736535583,240.68737387133,221.77028853925,221.7702728655,229.80551267054,221.77026731812,221.77028297906,250.52270772276,250.52269993199,250.52269787575,250.52270564156,221.77029498423,221.77026364324,221.77026087275,221.77029220093,253.61553517593,250.52270932246,250.52269764259,250.52269627592,250.52270793083,240.68738542267,240.687359848,240.68735834411,240.68738390461,253.61553517593,253.61553516189,253.61553516189,229.80553230807,229.80553230807,440.86140704792,440.86140721609,0
0.000118,39147024.50645,3.4652107473298e-05,1.0086269740892,3.9726969303823e-07,-3.9727045378037e-07,3.9727430857913e-07,3.972726232887e-07,5.4876435380791e-34,-5.4876179971545e-34,-5.4876359847656e-34,5.48766157648e-34,-46.75019115357,46.750817976204,-46.750864213134,46.750239878553,-3.972754594074e-07,5.4876179711205e-34,5.4876367733424e-34,-5.487661575293e-34,-5.4876427893963e-34,2.7409639893787e-21,-2.7409562598608e-21,-2.7409640485932e-21,2.7409718039465e-21,-3.9996653007668,3.9997049870566,-3.9727622528953e-07,-3.9997122787479,3.9996727636338,3.9402789215254e-53,-3.9402409750212e-53,-3.9402593460605e-53,3.9402973273636e-53,-3.999657772113,3.9997200706636,-3.9997198224998,3.9996577067913,0,3.940264197038e-53,3.9402492083437e-53,-3.9402740816992e-53,-3.9402890812802e-53,2.7409475638082e-21,2.7409708785599e-21,-2.7409804922043e-21,-2.7409571849359e-21,0,0,0,3.972732909213e-07,-3.9727160295525e-07,229.71695981743,229.71695981743,229.71693925894,229.71693925894,246.25589485656,246.25588494195,246.2558815347,246.25589142715,220.20943688046,220.20941079091,220.20940629988,220.20943237274,229.71692475046,246.25589895357,246.25587913552,246.25587743743,246.25589723332,240.65539798977,240.65538903032,240.65538440354,240.65539334765,221.63382901701,221.63381252904,229.71692475046,221.63380684942,221.63382332348,250.53583793225,250.53582975281,250.53582765229,250.53583580473,221.63383583561,221.63380286674,221.6338000304,221.63383298536,253.64190877573,250.53583962131,250.53582735894,250.53582596309,250.53583819846,240.65540539645,240.6553785336,240.65537699645,240.65540384396,253.64190877573,253.64190876055,253.64190876055,229.71694530961,229.71694530961,440.5693912896,440.56939145674,0
0.0001185,39281630.968944,3.4798946209387e-05,1.008679019659,3.8664910421182e-07,-3.8664987708552e-07,3.866538047316e-07,3.8665209265175e-07,5.1510834309899e-34,-5.1510585309305e-34,-5.1510760051215e-34,5.1511009578402e-34,-46.770059645449,46.77071902098,-46.770765413646,46.770108766359,-3.8665500570742e-07,5.1510582810046e-34,5.1510769518261e-34,-5.1511011791535e-34,-5.151082525825e-34,2.6011255104281e-21,-2.6011179163409e-21,-2.601125527575e-21,2.6011331488494e-21,-3.9832897562192,3.9833312641091,-3.8665578398666e-07,-3.9833386434297,3.9832973222117,3.6706077487452e-53,-3.6705709183599e-53,-3.6705887173673e-53,3.6706255832913e-53,-3.9832817578693,3.9833470196065,-3.9833466580493,3.9832815956528,0,3.6705934011329e-53,3.6705789316551e-53,-3.6706030763324e-53,-3.6706175571645e-53,2.6011091439398e-21,2.6011324237659e-21,-2.6011419126318e-21,-2.601118641045e-21,0,0,0,3.8665279120092e-07,-3.8665107632828e-07,229.62900376682,229.62900376682,229.62898224611,229.62898224611,246.25048287818,246.25047246881,246.25046898848,246.25047937387,220.06452188445,220.06449444008,220.06448984352,220.06451726976,229.62896691271,246.2504872036,246.25046639695,246.25046466278,246.25048544545,240.62391496933,240.62390556004,240.6239008322,240.62391022486,221.49802043487,221.49800309332,229.62896691271,221.49799728092,221.49801460734,250.54929279454,250.54928420848,250.54928206374,250.54929062057,221.49802764658,221.49799297118,221.49799006875,221.49802472903,253.66854701578,250.54929457742,250.54928170567,250.54928028071,250.54929312323,240.62392279127,240.62389458022,240.62389300982,240.62392120423,253.66854701578,253.66854699935,253.66854699935,229.62898843412,229.62898843412,440.27866934942,440.27866951544,0
0.000119,39416444.381043,3.4945785280271e-05,1.0087310612371,3.763080592981e-07,-3.7630884433711e-07,3.763128456691e-07,3.7631110666339e-07,4.83557140367e-34,-4.8355471310775e-34,-4.8355641048616e-34,4.8355884320346e-34,-46.789890928257,46.7905844392,-46.790630905219,46.789940385827,-3.7631409795211e-07,4.8355466663389e-34,4.8355652027361e-34,-4.8355888667276e-34,-4.8355703490292e-34,2.4685273454017e-21,-2.468519885932e-21,-2.4685273221044e-21,2.4685348101637e-21,-3.9669492572322,3.9669926635491,-3.7631488867732e-07,-3.9670001251596,3.9669569224144,3.4197983687771e-53,-3.4197626232219e-53,-3.4197798672432e-53,3.4198156490954e-53,-3.9669407644923,3.9670091187172,-3.9670086354275,3.9669404985298,0,3.4197843891264e-53,3.4197704223991e-53,-3.4197938584536e-53,-3.4198078370183e-53,2.468511040329e-21,2.4685342817876e-21,-2.4685436462877e-21,-2.4685204138569e-21,0,0,0,3.7631183672631e-07,-3.7631009480411e-07,229.54167578641,229.54167578641,229.54165326117,229.54165326117,246.24547251019,246.24546158321,246.24545802992,246.24546893091,219.92024861517,219.92021975047,219.9202150481,219.92024389308,229.54163706073,246.2454770754,246.24545523455,246.2454534644,246.24547527926,240.59292726618,240.59291738617,240.5929125573,240.59292241929,221.36286071318,221.36284247695,229.54163706073,221.3628365314,221.36285475119,250.56307066103,250.56306164965,250.56305946082,250.56306844054,221.36286833842,221.36283187433,221.36282890566,221.36286535331,253.69544847258,250.56307254237,250.56305903326,250.56305757931,250.56307105677,240.59293552422,240.5929059024,240.59290429878,240.59293390258,253.69544847258,253.6954484548,253.6954484548,229.54165958674,229.54165958674,439.98923689408,439.98923705889,0
0.0001195,39551465.128426,3.5092624697077e-05,1.0087830990181,3.6623937569359e-07,-3.6624017292814e-07,3.6624424878205e-07,3.6624248271927e-07,4.5397681535357e-34,-4.5397444952121e-34,-4.5397609813201e-34,4.5397846962037e-34,-46.809684677155,46.810413977804,-46.810460427433,46.809734406865,-3.6624555354082e-07,4.5397438244917e-34,4.5397622236107e-34,-4.5397853353953e-34,-4.5397669562259e-34,2.3427900760927e-21,-2.3427827503983e-21,-2.3427900139436e-21,2.3427973696853e-21,-3.9506438875591,3.9506892720803,-3.6624635675768e-07,-3.9506968101143,3.9506516475862,3.1865052192609e-53,-3.1864705280522e-53,-3.1864872336585e-53,3.1865219619449e-53,-3.9506348746117,3.9507064557498,-3.9507058419407,3.9506344977291,0,3.186491598834e-53,3.1864781188664e-53,-3.1865008658552e-53,-3.1865143581619e-53,2.3427738347092e-21,2.3427970344178e-21,-2.3428062749935e-21,-2.342783085138e-21,0,0,0,3.66243244894e-07,-3.6624147578462e-07,229.45497378998,229.45497378998,229.45495021614,229.45495021614,246.24086186883,246.24085040044,246.24084677442,246.24085821463,219.77661495035,219.77658459689,219.77657978855,219.77661012056,229.45493310464,246.24086668573,246.24084376317,246.24084195719,246.24086485159,240.56243280365,240.56242243112,240.56241750142,240.5624278544,221.22834778066,221.22832860681,229.45493310464,221.22832252795,221.22834168392,250.57716989054,250.57716043436,250.57715820165,250.57716762353,221.22835584082,221.22831750222,221.22831446725,221.22835278798,253.72261172963,250.57717187521,250.57715769957,250.5771562168,250.57717035815,240.56244151955,240.56241042172,240.562408785,240.56243986328,253.72261172963,253.72261171037,253.72261171037,229.4549566793,229.4549566793,439.70108960735,439.70108977082,0
0.00012,39686693.611024,3.5239464471225e-05,1.0088351332008,3.5643604916601e-07,-3.564368586225e-07,3.5644100983131e-07,3.5643921658597e-07,4.2624209196147e-34,-4.262397862561e-34,-4.2624138734503e-34,4.2624369891009e-34,-46.829440567893,46.830207387383,-46.830253723004,46.829490499717,-3.564423682431e-07,4.2623969944503e-34,4.2624152535996e-34,-4.2624378241532e-34,-4.2624195862474e-34,2.2235543590252e-21,-2.223547166235e-21,-2.223554259587e-21,2.2235614839382e-21,-3.9343737303569,3.9344211759152,-3.5644318399446e-07,-3.9344287839452,3.9343815804573,2.969480471575e-53,-2.9694468050166e-53,-2.9694629883196e-53,2.9694966927575e-53,-3.9343641702167,3.9344391180031,-3.9344383644147,3.9343636749088,0,2.9694672018107e-53,2.9694541930747e-53,-2.9694762700699e-53,-2.9694892916644e-53,2.2235381835459e-21,2.22356133818e-21,-2.2235704553034e-21,-2.2235473113846e-21,0,0,0,3.5644001147114e-07,-3.5643821504222e-07,229.36889569804,229.36889569804,229.36887102976,229.36887102976,246.23664907791,246.2366370433,246.23663334489,246.23664534895,219.63361877616,219.63358686245,219.63358194818,219.63361383854,229.36885296114,246.23665415891,246.23663010511,246.23662826354,246.23665228679,240.53242951214,240.53241862438,240.53241359421,240.53242446077,221.09447957435,221.09445941803,229.36885296114,221.09445320591,221.09447334277,250.59158884933,250.59157892804,250.59157665173,250.59158653585,221.09448809181,221.09444778907,221.09444468787,221.09448497115,253.75003537735,250.59159094241,250.59157606982,250.59157455847,250.59158939388,240.53243870866,240.5324060668,240.53240439714,240.53243701779,253.75003537735,253.75003535647,253.75003535647,229.36887763031,229.36887763031,439.41422318991,439.41422335194,0
0.0001205,39822130.243268,3.5386304614424e-05,1.0088871639882,3.4689124962446e-07,-3.4689207132568e-07,3.4689629871913e-07,3.468944781713e-07,4.0023578135273e-34,-4.0023353449438e-34,-4.0023508928016e-34,4.0023734220789e-34,-46.849158276771,46.849964422219,-46.850010537851,46.849208334857,-3.468977119694e-07,4.002334287795e-34,4.0023524044428e-34,-4.0023744445877e-34,-4.0023563505232e-34,2.11047985547e-21,-2.1104727946855e-21,-2.1104797202754e-21,2.1104868141933e-21,-3.9181388681776,3.9181884607658,-3.4689854029514e-07,-3.9181961317722,3.9181468031293,2.7675668140622e-53,-2.7675341432282e-53,-2.7675498198919e-53,2.7675825294292e-53,-3.9181287326454,3.9182071923119,-3.9182062891899,3.9181281110625,0,2.7675538865703e-53,2.767541333989e-53,-2.7675627595884e-53,-2.7675753255663e-53,2.1104637480499e-21,2.1104868543448e-21,-2.1104958485174e-21,-2.1104727538391e-21,0,0,0,3.46895306366e-07,-3.4689348249062e-07,229.28343943785,229.28343943785,229.28341362741,229.28341362741,246.2328322687,246.23281964203,246.23281587173,246.23282846527,219.4912579872,219.49122443857,219.49121941859,219.49125294178,229.28339455352,246.23283762679,246.23281239014,246.23281051327,246.23283571678,240.50291532914,240.50290390246,240.50289877238,240.50291017604,220.96125403957,220.96123285394,229.28339455352,220.96122650883,220.96124767327,250.60632591102,250.60631550345,250.60631318394,250.60632355119,220.96126303776,220.96122067727,220.96121751001,220.96125984931,253.77771801308,250.6063281178,250.60631251658,250.60631097696,250.60632653786,240.50292503003,240.50289077325,240.50288907089,240.50292330465,253.77771801308,253.77771799044,253.77771799044,229.28342036493,229.28342036493,439.12863335929,439.12863351975,0
0.000121,39957775.454348,3.5533145138678e-05,1.0089391915875,3.3759831698472e-07,-3.375991509497e-07,3.3760345535386e-07,3.3760160738935e-07,3.7584825263529e-34,-3.7584606336413e-34,-3.7584757303863e-34,3.7584976859522e-34,-46.868837480612,46.869684840387,-46.869730621167,46.868887582977,-3.3760492463619e-07,3.7584593955737e-34,3.7584773673452e-34,-3.7584988877459e-34,-3.7584809399469e-34,2.0032442187906e-21,-2.003237289088e-21,-2.0032440493427e-21,2.0032510138129e-21,-3.9019393829596,3.9019912118387,-3.3760576557305e-07,-3.9019989381769,3.9019473970682,2.5796907762691e-53,-2.5796590729891e-53,-2.5796742582377e-53,2.5797060010686e-53,-3.901928642575,3.9020107650433,-3.9020097021167,3.9019278865122,0,2.5796781828333e-53,2.5796660717709e-53,-2.5796868641034e-53,-2.5796989891207e-53,2.003228181527e-21,2.0032512362783e-21,-2.0032601080285e-21,-2.0032370658369e-21,0,0,0,3.3760246949284e-07,-3.3760061804971e-07,229.19860294333,229.19860294333,229.19857594108,229.19857594108,246.22940958,246.22939633431,246.22939249278,246.22940570251,219.34953048645,219.34949522493,219.34949009964,219.34952533345,229.19855581158,246.2294152287,246.22938875545,246.22938684367,246.22941328096,240.47388819919,240.47387620891,240.47387097966,240.47388294495,220.82866912985,220.82864686602,229.19855581158,220.82864038844,220.82866262921,250.62137945658,250.62136854069,250.62136617846,250.62137705062,220.82867863329,220.82863411735,220.82863088432,220.82867537719,253.80565824106,250.6213817826,250.62136541976,250.62136385222,250.62138017133,240.47389842927,240.47386248369,240.47386074893,240.47389666952,253.80565824106,253.80565821651,253.80565821651,229.19858281488,229.19858281488,438.84431584971,438.84431600847,0
0.0001215,40093629.688457,3.5679986056293e-05,1.0089912162103,3.2855075712646e-07,-3.2855160337022e-07,3.285559856074e-07,3.285541101179e-07,3.5297693861992e-34,-3.5297480569577e-34,-3.5297627142475e-34,3.5297841085662e-34,-46.888477856738,46.889368403909,-46.889413725491,46.888527914975,-3.285575121229e-07,3.5297466458618e-34,3.5297644705311e-34,-3.5297854816977e-34,-3.5297676824377e-34,1.9015421360415e-21,-1.9015353364709e-21,-1.9015419338128e-21,1.9015487698481e-21,-3.8857753560196,3.8858295138346,-3.285583657047e-07,-3.885837287197,3.8857834430975,2.4048565530839e-53,-2.4048257899226e-53,-2.4048404985539e-53,2.4048713021361e-53,-3.8857639800117,3.8858499220966,-3.8858486885508,3.8857630808993,0,2.4048442856538e-53,2.4048326019014e-53,-2.4048527786391e-53,-2.4048644769233e-53,1.9015261709721e-21,1.901549171035e-21,-1.9015579209188e-21,-1.9015349344008e-21,0,0,0,3.2855500672954e-07,-3.2855312760279e-07,229.11438415508,229.11438415508,229.11435590935,229.11435590935,246.22637915804,246.22636526527,246.2263613533,246.22637520704,219.20843418524,219.20839712941,219.20839189943,219.20842892506,229.11433467162,246.2263851115,246.22635734564,246.22635539941,246.22638312623,240.44534607387,240.44533349427,240.44532816681,240.44534071927,220.69672280696,220.69669941388,229.11433467162,220.69669280461,220.69671617257,250.63674787433,250.63673642715,250.63673402279,250.63674542251,220.6967328413,220.6966860679,220.69668276953,220.69672951781,253.83385467238,250.63675032536,250.63673316652,250.63673157152,250.6367486829,240.44535685907,240.4453191477,240.44531738092,240.44535506514,253.83385467238,253.83385464574,253.83385464574,229.11436291848,229.11436291848,438.56126641199,438.56126656891,0
0.000122,40229693.405041,3.5826827379877e-05,1.0090432380725,3.1974223794038e-07,-3.1974309647413e-07,3.1974755736241e-07,3.1974565424539e-07,3.3152587429609e-34,-3.3152379649844e-34,-3.3152521942182e-34,3.3152730395594e-34,-46.908079082937,46.909014878795,-46.90905960678,46.908129001858,-3.197491423195e-07,3.3152363885294e-34,3.3152540640168e-34,-3.3152745763042e-34,-3.3152569277127e-34,1.805084420891e-21,-1.8050777504776e-21,-1.8050841873232e-21,1.8050908959637e-21,-3.8696468680434,3.8697034509382,-3.1975000857701e-07,-3.8697112623185,3.8696550213843,2.2421402907892e-53,-2.2421104410298e-53,-2.2421246874256e-53,2.2421545784988e-53,-3.8696348242808,3.8697247488956,-3.8697233333472,3.8696337731708,0,2.2421283414835e-53,2.2421170712485e-53,-2.2421366496156e-53,-2.2421479349789e-53,1.8050685299953e-21,1.8050914722856e-21,-1.8051001008853e-21,-1.8050771731693e-21,0,0,0,3.1974658596448e-07,-3.1974467904384e-07,229.0307810203,229.0307810203,229.03075147735,229.03075147735,246.2237391565,246.22372458741,246.22372060598,246.22373513268,219.0679670032,219.06792806807,219.06792273423,219.06796163647,229.03072907641,246.22374542947,246.22371631266,246.22371433254,246.22374340695,240.41728691178,240.41727371606,240.41726829157,240.4172814578,220.5654130408,220.56538846518,229.03072907641,220.56538172529,220.56540627354,250.65242955988,250.65241755749,250.65241511169,250.65242706257,220.56542363287,220.56537449553,220.56537113242,220.56542024238,253.86230592496,250.65243214195,250.65241415131,250.65241252937,250.65243046848,240.41729827915,240.41725872179,240.41725692345,240.41729645131,253.86230592496,253.86230589605,253.86230589605,229.03075862057,229.03075862057,438.27948081342,438.27948096835,0
0.0001225,40365967.07905,3.5973669122344e-05,1.0090952573947,3.1116658546436e-07,-3.1116745629534e-07,3.1117199664814e-07,3.1117006580705e-07,3.1140526583962e-34,-3.1140324196784e-34,-3.1140462320005e-34,3.1140665404375e-34,-46.927640837424,46.928624035166,-46.928668024466,46.927690514722,-3.1117364126238e-07,3.1140306853179e-34,3.1140482096871e-34,-3.1140682332934e-34,-3.1140507373584e-34,1.7135971551213e-21,-1.7135906128679e-21,-1.7135968916263e-21,1.7136034739375e-21,-3.8535539990771,3.8536131068136,-3.1117452022323e-07,-3.8536209464677,3.8535622114316,2.0906848000162e-53,-2.090655837647e-53,-2.0906696357821e-53,2.0906986403819e-53,-3.8535412540154,3.8536353303847,-3.8536337208552,3.8535400415702,0,2.090673161124e-53,2.0906622910211e-53,-2.0906812878018e-53,-2.0906921736498e-53,1.7135813403229e-21,1.7136042218176e-21,-1.7136127297401e-21,-1.7135898638954e-21,0,0,0,3.1117103323254e-07,-3.1116909841352e-07,228.94779149278,228.94779149278,228.94776059672,228.94776059672,246.22148773647,246.22147246061,246.22146841089,246.2214836407,218.92812686823,218.92808596507,218.92808052847,218.92812139578,228.94773697511,246.22149434435,246.22146381586,246.22146180249,246.22149228495,240.38970867851,240.38969483876,240.38968931866,240.38970312637,220.43473780941,220.43471199564,228.94773697511,220.43470512648,220.43473091043,250.66842291613,250.66841033361,250.6684078472,250.66842037377,220.43474898727,220.43469737488,220.43469394775,220.43474553031,253.89101062353,250.66842563553,250.66840677581,250.66840512752,250.66842393129,240.3897206563,240.38967916942,240.38967734006,240.38971879489,253.89101062353,253.89101059214,253.89101059214,228.94776787249,228.94776787249,437.99895483765,437.99895499043,0
0.000123,40502451.201175,3.612051129692e-05,1.0091472744017,3.0281778010588e-07,-3.0281866323736e-07,3.0282328386351e-07,3.0282132520771e-07,2.9253108811002e-34,-2.9252911698316e-34,-2.9253045761353e-34,2.9253243595473e-34,-46.947162798826,46.948195647382,-46.948238741562,46.947212124713,-3.0282498935686e-07,2.9252892847985e-34,2.9253066562524e-34,-2.9253262012189e-34,-2.9253088597919e-34,1.6268208760966e-21,-1.6268144609839e-21,-1.6268205840559e-21,1.6268270411283e-21,-3.8374968285199,3.8375585646016,-3.0282588104551e-07,-3.8375664220073,3.8375050920696,1.949694663251e-53,-1.9496665629483e-53,-1.949679926401e-53,1.9497080698759e-53,-3.8374833471467,3.8375817510258,-3.8375799349134,3.8374819636269,0,1.9496833272185e-53,1.9496728442583e-53,-1.9496912758057e-53,-1.9497017751492e-53,1.6268051392591e-21,1.6268279569969e-21,-1.6268363448728e-21,-1.6268135439096e-21,0,0,0,3.0282232893807e-07,-3.0282036612202e-07,228.8654135329,228.8654135329,228.86538122559,228.86538122559,246.21962306645,246.21960705212,246.21960293544,246.21961889974,218.78891171648,218.78886875267,218.78886321466,218.78890613939,228.8653563233,246.21963002532,246.21959802187,246.21959597602,246.21962792945,240.36260934665,240.36259483378,240.36258921975,240.36260369778,220.30469509889,220.30466798895,228.8653563233,220.30466099221,220.30468806966,250.68472635321,250.68471316463,250.68471063854,250.68472376637,220.3047068919,220.30465268852,220.30464919826,220.30470336914,253.91996739959,250.6847292165,250.68470944889,250.68470777496,250.6847274818,240.36262196434,240.36257846092,240.36257660117,240.36262006976,253.91996739959,253.9199673655,253.9199673655,228.86538863203,228.86538863203,437.71968428454,437.719684435,0
0.0001235,40639146.278096,3.6267353917146e-05,1.0091992893232,2.9468995294973e-07,-2.9469084838097e-07,2.9469555008415e-07,2.946935635291e-07,2.7482470873076e-34,-2.7482278918745e-34,-2.7482409028069e-34,2.7482601728789e-34,-46.966644646146,46.967729494166,-46.967771524725,46.96669350299,-2.9469731768484e-07,2.7482258631915e-34,2.7482430800672e-34,-2.7482621562798e-34,-2.7482449710793e-34,1.5445098077161e-21,-1.5445035187037e-21,-1.5445094884812e-21,1.5445158214289e-21,-3.821475435114,3.8215399069143,-2.9469822212262e-07,-3.8215477707271,3.8214837414458,1.8184317070029e-53,-1.8184044441147e-53,-1.8184173860775e-53,1.8184446931046e-53,-3.8214611808936,3.8215640947961,-3.8215620588452,3.8214596161459,0,1.8184206664373e-53,1.8184105580155e-53,-1.8184284402617e-53,-1.8184385657265e-53,1.5444941506462e-21,1.5445169017273e-21,-1.5445251702104e-21,-1.5445024370793e-21,0,0,0,2.9469460416212e-07,-2.9469261325624e-07,228.78364510754,228.78364510754,228.78361132852,228.78361132852,246.21814332232,246.2181265365,246.2181223544,246.21813908587,218.65031949228,218.65027437117,218.65026873338,218.65031381187,228.78358508286,246.21815064893,246.21811710467,246.2181150272,246.2181485171,240.33598689572,240.33597167945,240.33596597343,240.33598115184,220.17528290342,220.17525443675,228.78358508286,220.17524731447,220.17527574572,250.70133828852,250.70132446685,250.70132190216,250.70133565782,220.17529534226,220.17523842691,220.17523487461,220.17529175453,253.94917489137,250.70134130254,250.70132058663,250.70131888783,250.70133953773,240.33600018409,240.33595457351,240.33595268411,240.33599825683,253.94917489137,253.94917485435,253.94917485435,228.78361886342,228.78361886342,437.4416649701,437.44166511805,0
0.000124,40776052.832718,3.6414196996876e-05,1.0092513023932,2.8677738214841e-07,-2.8677828987453e-07,2.8678307345289e-07,2.8678105892015e-07,2.582125369795e-34,-2.5821066787784e-34,-2.5821193047447e-34,2.5821380729684e-34,-46.986086058688,46.987225358681,-46.987266144306,46.986134320633,-2.8678490439513e-07,2.5821045132663e-34,2.5821215740317e-34,-2.5821401912205e-34,-2.5821231638357e-34,1.4664311325273e-21,-1.4664249685546e-21,-1.4664307874193e-21,1.4664369973791e-21,-3.8054898969319,3.805557215826,-2.8678582160024e-07,-3.8055650738342,3.8054982370117,1.696210811088e-53,-1.6961843616192e-53,-1.6961968949082e-53,1.696223389508e-53,-3.8054748317482,3.8055824451802,-3.8055801754497,3.8054730751942,0,1.6962000587601e-53,1.6961903126474e-53,-1.6962076611117e-53,-1.6962174249488e-53,1.4664155569762e-21,1.4664382385625e-21,-1.4664463883287e-21,-1.4664237259204e-21,0,0,0,2.867821370528e-07,-2.867801179702e-07,228.7024841901,228.7024841901,228.70244887651,228.70244887651,246.2170466873,246.2170290956,246.21702484987,246.21704238249,218.51234814811,218.51230076887,218.51229503322,218.51234236598,228.70242122202,246.21705439913,246.21701924551,246.2170171374,246.21705223194,240.30983931223,240.30982336101,240.30981756523,240.30983347528,220.04649922516,220.04646933861,228.70242122202,220.04646209319,220.04649194112,250.71825714661,250.71824266375,250.71824006168,250.71825447281,220.04651234191,220.04645258841,220.04644897533,220.04650869022,253.97863174384,250.71826031849,250.71823861223,250.71823688945,250.718258524,240.30985330338,240.30980549128,240.30980357306,240.30985134398,253.97863174384,253.97863170362,253.97863170362,228.70245653728,228.70245653728,437.16489272629,437.16489287154,0
0.0001245,40913171.404406,3.656104055029e-05,1.0093033138506,2.7907448939424e-07,-2.7907540940622e-07,2.7908027565226e-07,2.7907823306962e-07,2.4262569583274e-34,-2.4262387605026e-34,-2.42625101167e-34,2.4262692893444e-34,-47.005486716085,47.006683028714,-47.006722374485,47.005534248648,-2.790821711757e-07,2.4262364647773e-34,2.426253368027e-34,-2.4262715357676e-34,-2.4262546676621e-34,1.3923643027881e-21,-1.3923582627759e-21,-1.3923639330988e-21,1.3923700212288e-21,-3.7895402913735,3.7896105728737,-2.7908310116317e-07,-3.7896184119506,3.7895486555174,1.5823960295672e-53,-1.582370370164e-53,-1.5823825072289e-53,1.5824082127807e-53,-3.7895243754694,3.7896368851698,-3.7896343670008,3.7895224160924,0,1.5823855584012e-53,1.5823761627338e-53,-1.5823929925322e-53,-1.5824024066274e-53,1.3923488104496e-21,1.3923714197651e-21,-1.3923794515118e-21,-1.3923568626569e-21,0,0,0,2.7907934929779e-07,-2.7907730195757e-07,228.62192876046,228.62192876046,228.62189184693,228.62189184693,246.21633135195,246.2163129186,246.21630861122,246.21632698035,218.37499564462,218.37494590203,218.37494007075,218.37498976265,228.62186271527,246.21633946724,246.2163026329,246.21630049525,246.21633726537,240.28416458958,240.28414787056,240.28414198756,240.2841586618,219.91834207427,219.91831070195,228.62186271527,219.91830333617,219.91833466639,250.73548135924,250.73546618593,250.73546354784,250.73547864321,219.91835590245,219.91829317917,219.91828950679,219.91835218796,254.00833660866,250.73548469643,250.73546195603,250.73546021029,250.73548287274,240.28417931698,240.28412920514,240.28412725905,240.28417732611,254.00833660866,254.00833656496,254.00833656496,228.62189963059,228.62189963059,436.88936340095,436.88936354329,0
0.000125,41050502.549217,3.6707884591885e-05,1.0093553239389,2.715758364711e-07,-2.7157676875577e-07,2.7158171845585e-07,2.7157964775726e-07,2.2799971561809e-34,-2.2799794405156e-34,-2.2799913268169e-34,2.2800091250509e-34,-47.024846298217,47.026102296768,-47.026139993331,47.024892957882,-2.7158367980535e-07,2.2799770209985e-34,2.27999376545e-34,-2.2800114931628e-34,-2.2799947856793e-34,1.3221003883766e-21,-1.3220944712272e-21,-1.3220999953672e-21,1.3221059628469e-21,-3.7736266951515,3.7737000590473,-2.71584622587e-07,-3.7737078651025,3.7736350729971,1.4763969998008e-53,-1.4763721077358e-53,-1.4763838606685e-53,1.4764087999262e-53,-3.7736098870682,3.7737274972576,-3.7737247152391,3.7736077134013,0,1.4763868028783e-53,1.4763777461476e-53,-1.4763940720003e-53,-1.476403147885e-53,1.3220849808893e-21,1.3221075152202e-21,-1.3221154296648e-21,-1.3220929171342e-21,0,0,0,2.7158080267567e-07,-2.7157872700299e-07,228.54197680492,228.54197680492,228.54193822353,228.54193822353,246.21599551414,246.2159762019,246.21597183512,246.21599107754,218.2382599505,218.23820773482,218.2382018105,218.23825397089,228.54190754335,246.2160040519,246.21596546258,246.21596329663,246.21600181613,240.25896072808,240.25894320709,240.25893723972,240.25895471201,219.79080946883,219.79077654203,228.54190754335,219.7907690591,219.79080193999,250.75300936533,250.7529934711,250.75299079852,250.75300660804,219.79082404348,219.79075821317,219.79075448315,219.79082026756,254.03828814413,250.75301287557,250.7529890555,250.75298728789,250.75301102325,240.25897622667,240.25892371285,240.25892173994,240.25897420506,254.03828814413,254.03828809665,254.03828809665,228.54194612667,228.54194612667,436.61507285762,436.61507299683,0
0.0001255,41188046.84013,3.685472913649e-05,1.0094073329064,2.6427612188423e-07,-2.6427706642419e-07,2.6428210035838e-07,2.6428000148411e-07,2.1427424783692e-34,-2.1427252340238e-34,-2.1427367651618e-34,2.1427540948731e-34,-47.044164485212,47.045482960233,-47.045518782906,47.044210119007,-2.642841287835e-07,2.1427226969404e-34,2.1427392814311e-34,-2.1427565783819e-34,-2.1427400327445e-34,1.2554414595789e-21,-1.2554356641785e-21,-1.2554410444818e-21,1.2554468925098e-21,-3.7577491842861,3.7578257547882,-2.6428508436792e-07,-3.7578335127147,3.7577575647628,1.377665617935e-53,-1.3776414710931e-53,-1.3776528516377e-53,1.3776770467428e-53,-3.7577314407985,3.7578543634352,-3.757851301368,3.7577290409122,0,1.377655688488e-53,1.3776469595318e-53,-1.3776627957723e-53,-1.3776715446316e-53,1.2554261385259e-21,1.2554485952206e-21,-1.2554563930997e-21,-1.2554339596042e-21,0,0,0,2.6428119568605e-07,-2.6427909161223e-07,228.46262631622,228.46262631622,228.46258599635,228.46258599635,246.21603737905,246.21601714916,246.21601272547,246.21603287946,218.10213904254,218.1020842393,218.10207822487,218.1021329678,228.46255369318,246.21604635909,246.21600593753,246.21600374465,246.21604409029,240.23422573495,240.23420737639,240.23420132786,240.23421963345,219.66389943483,219.6638648819,228.46255369318,219.66385728546,219.66389178834,250.7708396109,250.77082296406,250.77082025869,250.77083681346,219.66391479254,219.66384571207,219.66384192634,219.66391095676,254.06848501522,250.77084330228,250.77081835514,250.77081656689,250.77084142195,240.23424204115,240.23418701893,240.23418502038,240.23423998964,254.06848501522,254.06848496361,254.06848496361,228.46259401513,228.46259401513,436.34201697547,436.34201711132,0
0.000126,41325804.867267,3.7001574199257e-05,1.0094593410062,2.5717017756635e-07,-2.571711343399e-07,2.5717625328158e-07,2.5717412617824e-07,2.0139279781187e-34,-2.0139111944425e-34,-2.013922379895e-34,2.0139392518133e-34,-47.063440957348,47.06482482149,-47.064858529312,47.063485402412,-2.5717835003622e-07,2.0139085458305e-34,2.0139249693122e-34,-2.013941844615e-34,-2.0139254619341e-34,1.1922000028753e-21,-1.1921943280931e-21,-1.1921995668929e-21,1.1922052966868e-21,-3.7419078340887,3.7419877399802,-2.5717931842893e-07,-3.7419954335982,3.7419162053882,1.2856929607392e-53,-1.2856695376017e-53,-1.2856805571641e-53,1.2857040296616e-53,-3.741889110141,3.7420175651866,-3.7420142060434,3.7418864716311,0,1.2856832921498e-53,1.2856748801418e-53,-1.2856902407268e-53,-1.2856986734097e-53,1.1921847697844e-21,1.1922071462532e-21,-1.1922148283227e-21,-1.1921924765126e-21,0,0,0,2.5717536025548e-07,-2.5717322771789e-07,228.38387529348,228.38387529348,228.38383316175,228.38383316175,246.21645515912,246.21643397125,246.21642949343,246.21645059877,217.96663090553,217.96657339537,217.96656729414,217.96662473852,228.38379915787,246.21646460209,246.21642226791,246.21642004961,246.21646230126,240.20995762428,240.20993839111,240.20993226498,240.20995144053,219.53761000612,219.53757375236,228.38379915787,219.53756604654,219.53760224572,250.7889705491,250.78895311666,250.78895038038,250.78896771273,219.53762618514,219.53755370529,219.537549866,219.53762229127,254.09892589348,250.78897443003,250.78894830652,250.788946499,250.78897252242,240.20997477606,240.20991713469,240.20991511183,240.20997269558,254.09892589348,254.09892583739,254.09892583739,228.38384129186,228.38384129186,436.07019164912,436.07019178134,0
0.0001265,41463777.238113,3.7148419795672e-05,1.0095113484962,2.5025296565898e-07,-2.5025393464011e-07,2.5025913935571e-07,2.5025698397629e-07,1.8930247490812e-34,-1.8930084156135e-34,-1.8930192646359e-34,1.8930356893027e-34,-47.082675395093,47.084127688105,-47.084159022858,47.082718478221,-2.5026130569775e-07,1.8930056613244e-34,1.8930219228615e-34,-1.8930383854769e-34,-1.893022166752e-34,1.132198367957e-21,-1.1321928126477e-21,-1.1321979122628e-21,1.1322035250579e-21,-3.7261027191596,3.7261860939473,-2.5026228690098e-07,-3.7261937059489,3.7261110687033,1.2000064352868e-53,-1.1999837149184e-53,-1.199994384574e-53,1.2000171554257e-53,-3.7260829677965,3.7262171834867,-3.7262135093746,3.7260800777715,0,1.1999970210843e-53,1.1999889155258e-53,-1.2000038140419e-53,-1.2000119410699e-53,1.1321832243016e-21,1.1322055180172e-21,-1.1322130850503e-21,-1.1321908175162e-21,0,0,0,2.5025825851883e-07,-2.5025609746112e-07,228.3057217422,228.3057217422,228.30567772234,228.30567772234,246.21724707405,246.21722488624,246.21722035735,246.21724245542,217.83173353226,217.83167319071,217.8316670064,217.83172727621,228.30564193668,246.21725700148,246.21721267104,246.21721042901,246.21725466969,240.18615441702,240.18613427069,240.18612807091,240.18614815455,219.4119392244,219.41190119192,228.30564193668,219.41189338135,219.4119313543,250.80740064014,250.80738238781,250.80737962269,250.80739776621,219.41195626466,219.41188022987,219.41187633944,219.4119523147,254.12960945707,250.8074047194,250.80737736823,250.80737554294,250.80740278529,240.18617245396,240.18611207821,240.18611003248,240.18617034554,254.12960945707,254.1296093961,254.1296093961,228.30568595897,228.30568595897,435.79959278849,435.79959291682,0
0.000127,41601964.57773,3.7295265941554e-05,1.0095633556392,2.435195753666e-07,-2.4352055652501e-07,2.4352584777352e-07,2.4352366407739e-07,1.7795375915834e-34,-1.7795216980511e-34,-1.7795322196811e-34,1.7795482074523e-34,-47.101867478999,47.103391372941,-47.103420058099,47.101909016173,-2.4352808496451e-07,1.7795188437583e-34,1.7795349425234e-34,-1.7795510012601e-34,-1.779534947384e-34,1.0752682442928e-21,-1.0752628072972e-21,-1.0752677700314e-21,1.07527326708e-21,-3.7103339133717,3.7104208954455,-2.4352907897728e-07,-3.7104284073332,3.7103422277779,1.1201671393498e-53,-1.1201451013847e-53,-1.1201554318874e-53,1.1201775214866e-53,-3.7103130856697,3.7104532987953,-3.710449290913,3.7103099307378,0,1.1201579732117e-53,1.120150163923e-53,-1.1201646135951e-53,-1.1201724451718e-53,1.0752531914936e-21,1.0752753999912e-21,-1.0752828527777e-21,-1.0752606720501e-21,0,0,0,2.4352497967333e-07,-2.4352279004543e-07,228.22816367419,228.22816367419,228.22811768699,228.22811768699,246.21841135077,246.21838811937,246.21838354279,246.21840667659,217.69744492349,217.69738162077,217.69737535755,217.69743858201,228.22808003496,246.21842178507,246.21837537142,246.2183731075,246.21841942355,240.16281414094,240.16279304134,240.16278677226,240.16280780366,219.28688513915,219.28684524677,228.22808003496,219.2868373366,219.28687716407,250.82612835131,250.82610924339,250.8261064517,250.82612544132,219.28690308236,219.2868233305,219.28681939161,219.28689907855,254.16053439067,250.82613263804,250.82610400587,250.82610216444,250.82613067831,240.1628331043,240.1627698743,240.1627678073,240.16283096911,254.16053439067,254.16053432439,254.16053432439,228.2281260248,228.2281260248,435.5302163187,435.53021644286,0
0.0001275,41740367.528962,3.7442112653055e-05,1.009615362703,2.3696521988274e-07,-2.3696621318374e-07,2.3697159171671e-07,2.369693796697e-07,1.6730028320292e-34,-1.6729873683457e-34,-1.6729975714071e-34,1.6730131324535e-34,-47.121016889698,47.122615694354,-47.122641433962,47.121056685612,-2.3697390102121e-07,1.6729844195416e-34,1.6730003548123e-34,-1.6730160183281e-34,-1.6730001300902e-34,1.0212501656655e-21,-1.0212448458112e-21,-1.0212496739525e-21,1.0212550565229e-21,-3.6946014898632,3.6946922226598,-2.3697490783934e-07,-3.6946996146834,3.6946097549148,1.0457674167149e-53,-1.0457460413426e-53,-1.0457560431335e-53,1.045777471318e-53,-3.694579534857,3.6947259910536,-3.6947216296476,3.6945761011146,0,1.0457584924578e-53,1.0457509695687e-53,-1.0457649832688e-53,-1.045772529288e-53,1.0212352050884e-21,1.0212573259653e-21,-1.0212646653111e-21,-1.0212425738606e-21,0,0,0,2.3697073690504e-07,-2.3696851866321e-07,228.15119910762,228.15119910762,228.15115107074,228.15115107074,246.21994622342,246.21992190304,246.21991728245,246.2199414967,217.56376308789,217.56369668873,217.56369035122,217.563756665,228.15111146412,246.21995718797,246.21990860063,246.21990631684,246.21995479805,240.13993483066,240.13991273607,240.13990640247,240.13992842287,219.16244580763,219.16240397075,228.15111146412,219.1623959667,219.1624377328,250.84515215691,250.84513215627,250.84512934051,250.84514921251,219.16246469733,219.16238105944,219.16237707507,219.16246064218,254.19169938552,250.84515666063,250.84512669198,250.84512483622,250.84515467624,240.13995476343,240.13988855448,240.13988646797,240.13995260274,254.19169938552,254.19169931348,254.19169931348,228.15115950383,228.15115950383,435.26205817991,435.26205829959,0
0.000128,41878986.752645,3.7588960021796e-05,1.0096673699603,2.3058523338661e-07,-2.3058623879105e-07,2.3059170535198e-07,2.3058946492641e-07,1.5729862852631e-34,-1.5729712415266e-34,-1.5729811346332e-34,1.5729962789424e-34,-47.140123307858,47.141800476361,-47.14182295386,47.140161155429,-2.3059408803747e-07,1.5729682035337e-34,1.5729839746888e-34,-1.5729992514919e-34,-1.572983529581e-34,9.6999304116694e-22,-9.6998783726978e-22,-9.6999253308988e-22,9.6999780246518e-22,-3.6789055210262,3.6790001531979,-2.3059510765355e-07,-3.6790074042876,3.6789137216359,9.7642859278718e-54,-9.764078607395e-54,-9.7641754395522e-54,9.7643833002058e-54,-3.6788823856359,3.6790353396823,-3.6790306039999,3.6788786586551,0,9.7641990437157e-54,9.7641265831362e-54,-9.7642624856857e-54,-9.764335186226e-54,9.6997817412671e-22,9.7000020504197e-22,-9.7000743176811e-22,-9.6998543200556e-22,0,0,0,2.3059086438491e-07,-2.3058861749176e-07,228.07482606689,228.07482606689,228.07477589484,228.07477589484,246.22184993335,246.22182447677,246.22181981622,246.22184515739,217.43068604204,217.43061640544,217.43060999873,217.43067954221,228.07473424163,246.22186145248,246.22181059741,246.22180829595,246.22185903561,240.1175145276,240.11749139461,240.11748500173,240.11750805401,219.03861929482,219.03857542527,228.07473424163,219.03856733367,219.03861112604,250.86447053825,250.86444960631,250.86444676918,250.86446756128,219.03863917648,219.03855147648,219.03854744993,219.03863507275,254.22310313936,250.86447526887,250.86444390608,250.86444203795,250.8644732609,240.11753547458,240.117466157,240.1174640529,240.11753328978,254.22310313936,254.22310306104,254.22310306104,228.07478441674,228.07478441674,434.99511432715,434.99511444202,0
0.0001285,42017822.927793,3.7735808001607e-05,1.0097193776887,2.2437506810622e-07,-2.2437608557363e-07,2.2438164089775e-07,2.2437937206962e-07,1.4790813504433e-34,-1.4790667168921e-34,-1.4790763084762e-34,1.4790910458933e-34,-47.159186414121,47.160945549181,-47.160964425748,47.159222093676,-2.2438409823072e-07,1.4790635948832e-34,1.4790792013773e-34,-1.4790940998731e-34,-1.4790785449003e-34,9.213537112494e-22,-9.2134862209356e-22,-9.2135318785524e-22,9.2135834535089e-22,-3.6632460784862,3.6633447641132,-2.2438513063778e-07,-3.6633518517874,3.6632541986474,9.1179887701798e-54,-9.1177876951636e-54,-9.1178814402574e-54,9.1180830677592e-54,-3.6632217074567,3.6633814236033,-3.6633762918039,3.663217672241,0,9.117904185272e-54,9.117834399982e-54,-9.1179661904014e-54,-9.118036224529e-54,9.2133893899443e-22,9.2136087766171e-22,-9.2136799262545e-22,-9.2134608690721e-22,0,0,0,2.2438081433572e-07,-2.2437853875689e-07,227.99904258271,227.99904258271,227.99899018669,227.99899018669,246.22412072909,246.22409408721,246.2240893911,246.22411590747,217.29821181038,217.2981387894,217.29813231912,217.29820523854,227.99894639095,246.22413282814,246.22407960754,246.22407729082,246.22413038591,240.09555127998,240.09552706345,240.095520617,240.09554474574,218.91540367343,218.91535767934,227.99894639095,218.91534950715,218.91539541708,250.88408198365,250.88406008026,250.88405722472,250.88407897607,218.91542459449,218.91533264894,218.91532858383,218.91542044522,254.2547443564,250.8840869515,250.88405413459,250.88405225622,250.88408492109,240.09557328784,240.09550072675,240.09549860715,240.09557108045,254.2547443564,254.25474427126,254.25474427126,227.99899879028,227.99899879028,434.7293807302,434.72938083991,0
0.000129,42156876.751798,3.7882656605735e-05,1.0097713861711,2.1833029145726e-07,-2.1833132093638e-07,2.1833696575043e-07,2.1833466850806e-07,1.3909072314871e-34,-1.3908929986302e-34,-1.3909022968718e-34,1.3909166369805e-34,-47.178205889102,47.180050747916,-47.180065662376,47.17823916876,-2.1833949900611e-07,1.3908897975719e-34,1.3909052390006e-34,-1.3909197673508e-34,-1.3909043797948e-34,8.7519652743792e-22,-8.7519155183946e-22,-8.7519598977119e-22,8.7520103667856e-22,-3.6476232331282,3.6477261317827,-2.1834054418655e-07,-3.6477330321427,3.6476312559208,8.515514196201e-54,-8.5153191848349e-54,-8.5154099380736e-54,8.5156055145373e-54,-3.6475975688987,3.6477643211201,-3.6477587703473,3.6475932099683,0,8.5154318530492e-54,8.5153646534281e-54,-8.5154924498641e-54,-8.5155599074669e-54,8.7518185119439e-22,8.7520369540469e-22,-8.7521069943144e-22,-8.7518889004375e-22,0,0,0,2.1833615415726e-07,-2.1833384987178e-07,227.92384669203,227.92384669203,227.92379197981,227.92379197981,246.22675686631,246.22672898808,246.22672426119,246.22675200294,217.16633842521,217.16626186672,217.16625533903,217.16633178676,227.92374594153,246.22676957166,246.22671388388,246.22671155451,246.22676710581,240.0740431428,240.07401779578,240.07401130198,240.07403655351,218.79279702381,218.79274880948,227.92374594153,218.79274056432,218.79278868689,250.90398498837,250.90396207179,250.90395920105,250.90398195234,218.79281903379,218.79272265159,218.7927185519,218.79281484234,254.28662174729,250.90399020419,250.90395587083,250.90395398453,250.9039881526,240.07406626014,240.07399031531,240.0739881825,240.07406403183,254.28662174729,254.28662165475,254.28662165475,227.92380065731,227.92380065731,434.4648533734,434.46485347759,0
0.0001295,42296148.940604,3.8029505852225e-05,1.009823395695,2.1244658323176e-07,-2.1244762467004e-07,2.1245335969183e-07,2.1245103402714e-07,1.3081072740152e-34,-1.308093432496e-34,-1.3081024454026e-34,1.30811639765e-34,-47.197181413303,47.199115915037,-47.199126481218,47.197212047518,-2.1245597014364e-07,1.3080901572145e-34,1.3081054332413e-34,-1.3081195995106e-34,-1.30810437978e-34,8.3139295454632e-22,-8.3138809129061e-22,-8.3139240361086e-22,8.313973412529e-22,-3.6320370550304,3.6321443320784,-2.1245702808041e-07,-3.632151019662,3.6320449625396,7.9538251115908e-54,-7.9536359866762e-54,-7.9537238407686e-54,7.9539135436745e-54,-3.6320100377041,3.6321841100913,-3.6321781162945,3.6320053389855,0,7.9537449538811e-54,7.9536802527939e-54,-7.9538041706334e-54,-7.9538691390916e-54,8.3137837547487e-22,8.3140012307299e-22,-8.31407017024e-22,-8.3138530619935e-22,0,0,0,2.1245256363549e-07,-2.124502306254e-07,227.849236438,227.849236438,227.84917931381,227.84917931381,246.22975660783,246.22972744018,246.2297226877,246.22975170695,217.03506392659,217.03498367107,217.03497709273,217.03505722747,227.84913092875,246.22976994696,246.22971168633,246.22970934715,246.22976745938,240.05298817783,240.05296165148,240.05295511709,240.05298153957,218.67079743396,218.67074689969,227.84913092875,218.67073858991,218.67078902415,250.92417805462,250.92415408147,250.92415119901,250.92417499247,218.67082058454,218.67071956664,218.6707154367,218.67081635456,254.31873402914,250.9241835296,250.92414761498,250.92414572327,250.92418145819,240.05301245527,240.05293298091,240.05293083735,240.05301020783,254.31873402914,254.31873392855,254.31873392855,227.84918805677,227.84918805677,434.20152825551,434.20152835379,0
0.00013,42435640.228891,3.8176355759491e-05,1.0098754065533,2.0671973286724e-07,-2.0672078620759e-07,2.0672661214577e-07,2.067242580573e-07,1.230347410852e-34,-1.2303339514917e-34,-1.2303426868766e-34,1.2303562605333e-34,-47.216112667091,47.218140899017,-47.218146704708,47.21614039644,-2.0672930106814e-07,1.2303306066555e-34,1.2303457170319e-34,-1.2303595291395e-34,-1.2303444775559e-34,7.898211940435e-22,-7.8981644190756e-22,-7.8982063081629e-22,7.8982546052739e-22,-3.616487613488,3.6165994402405,-2.0673037174098e-07,-3.6166058879667,3.6164953867838,7.4300991421994e-54,-7.4299157314474e-54,-7.4300007763728e-54,7.4301847782923e-54,-3.6164591807316,3.6166408678045,-3.6166344057253,3.6164541255806,0,7.4300211149273e-54,7.4299588279312e-54,-7.430078979421e-54,-7.4301415434238e-54,7.8980671325481e-22,7.898283621466e-22,-7.898351468951e-22,-7.8981353680728e-22,0,0,0,2.0672583219781e-07,-2.0672347045171e-07,227.77520986997,227.77520986997,227.7751502344,227.7751502344,246.23311822359,246.23308771136,246.23308293891,246.23311328979,216.90438636242,216.90430224365,216.90429562204,216.9043796091,227.77509939391,246.23313222511,246.23307128181,246.23306893587,246.23312971782,240.03238445357,240.03235669715,240.03235012949,240.03237777294,218.5494029995,218.54935004145,227.77509939391,218.54934167615,218.54939452515,250.94465969152,250.9446346167,250.94463172629,250.94465660578,218.54942734459,218.54932148368,218.54931732822,218.54942308008,254.35107992544,250.94466543731,250.9446278741,250.94462597969,250.94466334756,240.03240994382,240.03232678838,240.03232463676,240.03240767922,254.35107992544,254.3510798161,254.3510798161,227.77515903362,227.77515903362,433.93940138956,433.93940148149,0
0.0001305,42575351.370232,3.832320634632e-05,1.0099274209675,2.011456367708e-07,-2.0114670195156e-07,2.0115261950526e-07,2.0115023699811e-07,1.1573147090697e-34,-1.1573016228661e-34,-1.1573100883522e-34,1.1573232925135e-34,-47.234999330637,47.237125554962,-47.237126160328,47.235023881241,-2.0115538817336e-07,1.1572982129903e-34,1.1573131575529e-34,-1.1573266232738e-34,-1.157311740075e-34,7.5036582754456e-22,-7.5036118529793e-22,-7.5036525297574e-22,7.5036997610096e-22,-3.6009749769921,3.6010915309029,-2.0115647155882e-07,-3.6010977099855,3.6009825960883,6.9417131740826e-54,-6.9415353099916e-54,-6.9416176330713e-54,6.9417961017897e-54,-3.6009450639487,3.6011346710038,-3.6011277141162,3.6009396351384,0,6.9416372235401e-54,6.9415772688093e-54,-6.9416937631283e-54,-6.9417540047493e-54,7.5035144610031e-22,7.5037299425268e-22,-7.5037967068288e-22,-7.503581634471e-22,0,0,0,2.0115185624075e-07,-2.0114946575381e-07,227.70176504349,227.70176504349,227.70170279333,227.70170279333,246.23683999066,246.2368080765,246.23680329014,246.23683502888,216.77430378831,216.77421563319,216.77420897631,216.77429698783,227.7016493842,246.23685468431,246.23679094423,246.23678859485,246.23685215951,240.01223004529,240.01220100602,240.012194413,240.01222332941,218.42861182361,218.42855633365,227.7016493842,218.42854792273,218.42860329383,250.96542841512,250.96540219174,250.96539929743,250.96542530848,218.42863741944,218.42852649965,218.42852232383,218.42863312476,254.38365816606,250.96543444382,250.96539516204,250.96539326786,250.96543233731,240.01225680323,240.01216980918,240.0121676524,240.01225452358,254.38365816606,254.38365804722,254.38365804722,227.70171163883,227.70171163883,433.6784688026,433.67846888774,0
0.000131,42715288.518119,3.847005763187e-05,1.0099794379784,1.9572029570681e-07,-1.9572137266171e-07,1.9572738252025e-07,1.9572497160618e-07,1.0887160118016e-34,-1.0887032899273e-34,-1.0887114929506e-34,1.0887243365385e-34,-47.253841083911,47.256069744846,-47.256064680771,47.253862166864,-1.9573023220954e-07,1.0886998193766e-34,1.0887145980442e-34,-1.0887277250106e-34,-1.0887130103532e-34,7.1291747930525e-22,-7.1291294571103e-22,-7.1291689431864e-22,7.1292151221273e-22,-3.5854992132198,3.5856206780892,-1.9573132828098e-07,-3.5856265579481,3.5855066570345,6.4862290254082e-54,-6.4860565451464e-54,-6.4861362311171e-54,6.486309329751e-54,-3.5854677524191,3.5856655958873,-3.5856581163349,3.5854619321296,0,6.4861550991571e-54,6.4860973974099e-54,-6.4862103407436e-54,-6.486268339513e-54,7.1290319821871e-22,7.1292464365933e-22,-7.1293121266577e-22,-7.1290981033893e-22,0,0,0,1.9572663651762e-07,-1.9572421729169e-07,227.62890002026,227.62890002026,227.62883504836,227.62883504836,246.24092019315,246.24088681748,246.24088202377,246.24091520874,216.64481426762,216.64472189584,216.64471521242,216.64480742763,227.62877895265,246.24093560993,246.24086895448,246.24086660524,246.24093306998,239.99252303497,239.99249265799,239.99248604816,239.99251629152,218.30842201705,218.30836388256,227.62877895265,218.30835543678,218.30841344171,250.98648274829,250.98645532764,250.98645243383,250.9864796237,218.30844892227,218.30833271883,218.30832852824,218.30844460212,254.41646748722,250.98648907251,250.98644799945,250.98644610868,250.98648695095,239.99255111771,239.99246012136,239.99245796255,239.99254882528,254.41646748722,254.41646735808,254.41646735808,227.62884392936,227.62884392936,433.41872653564,433.41872661351,0
0.0001315,42855448.824406,3.8616909635673e-05,1.0100314574624,1.904398122447e-07,-1.9044090090284e-07,1.9044700374539e-07,1.9044456444276e-07,1.0242766685693e-34,-1.0242643023698e-34,-1.0242722501831e-34,1.024284741948e-34,-47.272637606582,47.274973337696,-47.274962104021,47.272654917358,-1.9044993573123e-07,1.0242607753629e-34,1.0242753881334e-34,-1.0242881838359e-34,-1.0242736377987e-34,6.7737249670554e-22,-6.7736807052119e-22,-6.7737190219897e-22,6.7737641622566e-22,-3.5700603890178,3.5701869552023,-1.9045104445881e-07,-3.5701925033698,3.5700676353316,6.0613801661228e-54,-6.0612129114106e-54,-6.0612900424947e-54,6.0614579296102e-54,-3.5700273102843,3.5702337180987,-3.5702256866292,3.5700210800919,0,6.0613082129769e-54,6.0612526874037e-54,-6.0613621830152e-54,-6.0614180159934e-54,6.7735831694254e-22,6.7737965775953e-22,-6.7738612024623e-22,-6.7736482482738e-22,0,0,0,1.9044627558627e-07,-1.9044382762986e-07,227.5566128681,227.5566128681,227.55654506327,227.55654506327,246.2453571223,246.24532222319,246.24531742916,246.24535212097,216.51591587139,216.5158190952,216.51581239467,216.5159090002,227.55648615811,246.24537329441,246.24530360042,246.24530125517,246.24537074185,239.97326151129,239.97322973959,239.97322312215,239.97325474855,218.18883169807,218.18877080183,227.55648615811,218.18876233281,218.18882308787,251.00782122079,251.00779255225,251.00778966365,251.00781808139,218.18885997384,218.18873825276,218.18873405345,218.18885563335,254.44950663148,251.00782785365,251.00778491377,251.0077830298,251.00782571887,239.97329097829,239.97319580953,239.97319365207,239.97328867553,254.44950663148,254.44950649114,254.44950649114,227.55655396812,227.55655396812,433.16017064335,433.16017071345,0
0.000132,42995832.014826,3.8763762377634e-05,1.0100834797469,1.8530038826618e-07,-1.8530148855205e-07,1.8530768504735e-07,1.8530521738116e-07,9.6373934829019e-35,-9.6372732928235e-35,-9.6373502895887e-35,9.6374717748172e-35,-47.291388578026,47.293836209877,-47.293818273542,47.291401795881,-1.853107006045e-07,9.6372374989425e-35,9.6373819684187e-35,-9.6375066863073e-35,-9.6373629121749e-35,6.4363264776167e-22,-6.4362832773997e-22,-6.4363204460745e-22,6.4363645613855e-22,-3.5546585703927,3.554790435022,-1.8531182195521e-07,-3.554795617045,3.5546655958075,5.665059407606e-54,-5.6648972246027e-54,-5.6649718805778e-54,5.6651347103036e-54,-3.5546238007503,3.5548391127255,-3.5548304986219,3.5546171416178,0,5.6649893775981e-54,5.6649359537914e-54,-5.6650421020924e-54,-5.6650958439388e-54,6.436185702409e-22,6.4363980458248e-22,-6.4364616146223e-22,-6.4362497489291e-22,0,0,0,1.8530697531643e-07,-1.8530449864479e-07,227.48490166097,227.48490166097,227.48483090783,227.48483090783,246.25014907635,246.25011258947,246.2501078027,246.25014406428,216.38760667837,216.38750530225,216.38749859483,216.38759978493,227.48476906525,246.25016603732,246.25009317684,246.25009083971,246.25016347488,239.95444356964,239.954410344,239.95440372883,239.95443679652,218.06983899244,218.0697752124,227.48476906525,218.06976673273,218.06983035894,251.02944236922,251.02941240018,251.02940952186,251.02943921836,218.06986870254,218.06974122024,218.06973701876,218.06986434722,254.48277434769,251.02944932434,251.02940443917,251.02940256567,251.0294471783,239.95447448277,239.95437496488,239.9543728124,239.95447217231,254.48277434769,254.48277419521,254.48277419521,227.48483982397,227.48483982397,432.90279719395,432.90279725573,0
0.0001325,43136438.962073,3.8910615878034e-05,1.0101355051651,1.8029832253015e-07,-1.8029943436353e-07,1.8030572516963e-07,1.8030322917153e-07,9.0686292950586e-35,-9.0685124937547e-35,-9.0685870781273e-35,9.068705215065e-35,-47.310093677239,47.312658245313,-47.312633038383,47.3101024646,-1.8030882557185e-07,9.0684762154133e-35,9.0686190281355e-35,-9.0687405790021e-35,-9.0685984904256e-35,6.1160483475038e-22,-6.1160061964015e-22,-6.1160422379561e-22,6.1160853421027e-22,-3.5392938224956,3.5394311896957,-1.8030995950952e-07,-3.5394359690325,3.5393006023911,5.2953074903079e-54,-5.295150229498e-54,-5.2952224877639e-54,5.2953804099042e-54,-3.5392572860694,3.5394818542925,-3.5394726253001,3.5392501783369,0,5.2952393346685e-54,5.295187940554e-54,-5.2952908391736e-54,-5.2953425622161e-54,6.1159086034421e-22,6.1161198641832e-22,-6.1161823861191e-22,-6.1159716277656e-22,0,0,0,1.8030503445449e-07,-1.8030252908966e-07,227.41376447893,227.41376447893,227.41369065776,227.41369065776,246.25529436061,246.25525621913,246.25525144775,246.25528934439,216.25988477492,216.25977859534,216.25977189206,216.25987786893,227.41362574448,246.25531214532,246.25523598543,246.25523366087,246.25530957591,239.93606731211,239.93603257095,239.9360259687,239.93606053815,217.9514420334,217.95137524252,227.41362574448,217.95136676577,217.95143338906,251.05134473696,251.05131341279,251.0513105502,251.05134157825,217.95147324431,217.95133974728,217.95133555068,217.95146888012,254.516269391,251.05135202853,251.05130511656,251.05130325748,251.05134987332,239.93609973573,239.93599568514,239.93599354153,239.9360974204,254.516269391,254.51626922534,254.51626922534,227.41369957166,227.41369957166,432.64660226898,432.64660232185,0
0.000133,43277270.5606,3.9057470384168e-05,1.0101875340559,1.7543000829439e-07,-1.7543113159039e-07,1.7543751735419e-07,1.7543499306248e-07,8.5342146274716e-35,-8.5341011334738e-35,-8.5341733727062e-35,8.5342882438243e-35,-47.328752582823,47.331439335781,-47.331406253355,47.328756584668,-1.7544070387389e-07,8.5340644086705e-35,8.5342055668197e-35,-8.5343240214054e-35,-8.5341836170069e-35,5.8120082308442e-22,-5.8119671163149e-22,-5.8120020515153e-22,5.812044158354e-22,-3.5239662096092,3.5241092907336,-1.7544185035918e-07,-3.5241136286463,3.5239727180999,4.9503025028564e-54,-4.9501500189416e-54,-4.9502199545864e-54,4.9503731147301e-54,-3.5239278275255,3.5241620167587,-3.5241521390089,3.5239202509019,0,4.9502361740043e-54,4.9501867397744e-54,-4.950286483628e-54,-4.9503362579288e-54,5.8118695262027e-22,5.8120796869414e-22,-5.8121411712969e-22,-5.8119315385614e-22,0,0,0,1.7543684624515e-07,-1.7543431221597e-07,227.34319940812,227.34319940812,227.3431223947,227.3431223947,246.26079128741,246.2607514219,246.26074667463,246.26078627409,216.13274825505,216.13263706013,216.1326303729,216.13274134694,227.34305427197,246.26080993212,246.2607303348,246.26072802759,246.26080735885,239.91813084746,239.91809452683,239.91808794889,239.91812408287,217.83363896161,217.83356902769,227.34305427197,217.8335605685,217.83363031986,251.07352687421,251.07349413813,251.07349129711,251.07352371148,217.83367174263,217.83353196705,217.83352778296,217.83366737599,254.5499905228,251.07353451698,251.07348549356,251.07348365311,251.07353235482,239.91816484853,239.91805607453,239.918053944,239.91816253135,254.5499905228,254.54999034285,254.54999034285,227.34313129186,227.34313129186,432.39158196307,432.39158200642,0
0.0001335,43418327.726819,3.9204325716539e-05,1.0102395667643,1.7069193099229e-07,-1.706930656613e-07,1.7069954701837e-07,1.7069699447799e-07,8.0320320028704e-35,-8.031921736363e-35,-8.0319916960207e-35,8.0321033821515e-35,-47.347364972904,47.350179381144,-47.350137779146,47.347363816126,-1.7070282092609e-07,8.0318846017672e-35,8.0320241082019e-35,-8.0321395358892e-35,-8.032000813625e-35,5.5233698462178e-22,-5.5233297556969e-22,-5.5233636050891e-22,5.5234047285341e-22,-3.5086757951321,3.508824809,-1.7070397991653e-07,-3.5088286644401,3.5086820050217,4.6283500711046e-54,-4.6282022228947e-54,-4.6282699087597e-54,4.6284184483882e-54,-3.5086354854136,3.5088796735096,-3.5088691114392,3.5086274189686,0,4.6282855226129e-54,4.6282379806611e-54,-4.6283346620172e-54,-4.6283825554389e-54,5.5232321888241e-22,5.5234412328214e-22,-5.5235016889437e-22,-5.5232931995429e-22,0,0,0,1.7069889610832e-07,-1.7069633345049e-07,227.27320454076,227.27320454076,227.27312420624,227.27312420624,246.26663817609,246.26659651443,246.2665918006,246.26663317321,216.0061952204,216.00607878959,216.0060721312,216.00618832137,227.27305272959,246.2666577185,246.26657454044,246.26657225569,246.26665514469,239.9006322911,239.90059432456,239.90058778315,239.90062554684,217.71642792519,217.71635471063,227.27305272959,217.71634628473,217.71641930047,251.09598733793,251.09595313097,251.09595031778,251.09598417528,217.71646234854,217.71631601989,217.71631185651,217.71645798633,254.58393651073,251.09599534722,251.09594412444,251.09594230717,251.09599318049,239.90066793928,239.90055424383,239.90055213086,239.90066562346,254.58393651073,254.58393631528,254.58393631528,227.27313307108,227.27313307108,432.13773238379,432.13773241696,0
0.000134,43559611.399294,3.9351181893298e-05,1.0102916036411,1.6608066596427e-07,-1.6608181191195e-07,1.6608838948617e-07,1.660858087487e-07,7.5600968884637e-35,-7.5599897712645e-35,-7.5600575152603e-35,7.5601660956164e-35,-47.36593052513,47.368878289693,-47.368827482527,47.3659238179,-1.660917520502e-07,7.5599522622515e-35,7.5600901204819e-35,-7.5602025893085e-35,-7.560065546495e-35,5.2493405463562e-22,-5.2493014672651e-22,-5.2493342511706e-22,5.2493744051859e-22,-3.4934226415671,3.4935778147089,-1.6609292350016e-07,-3.4935811441992,3.4934285243035,4.3278742601749e-54,-4.327730910484e-54,-4.3277964172251e-54,4.3279404738169e-54,-3.4933803190262,3.4936348973551,-3.493623613622,3.4933717411833,0,4.3278114467523e-54,4.3277657316101e-54,-4.3278594401547e-54,-4.3279055184231e-54,5.2492039436006e-22,5.2494118547016e-22,-5.2494712919964e-22,-5.2492639630903e-22,0,0,0,1.6608775937043e-07,-1.6608516812656e-07,227.20377797512,227.20377797512,227.20369418585,227.20369418585,246.27283335296,246.27278982027,246.27278514988,246.27282836857,215.88022378014,215.88010188394,215.88009526817,215.88021690226,227.20361920491,246.27285383228,246.27276692468,246.27276466787,246.27285126148,239.88356976511,239.88353008366,239.88352359183,239.88356305287,217.59980707961,217.59973044126,227.20361920491,217.59972206558,217.59979848742,251.11872469183,251.11868895276,251.11868617409,251.11872153362,217.59984322057,217.59969005323,217.59968591936,217.59983887019,254.61810612863,251.11873308358,251.11867957017,251.11867778093,251.11873091479,239.88360713284,239.88348831029,239.88348621969,239.88360482182,254.61810612863,254.61810591638,254.61810591638,227.20370300168,227.20370300168,431.88504965137,431.88504967366,0
0.0001345,43701122.538924,3.9498038937658e-05,1.0103436450429,1.6159287624176e-07,-1.6159403336899e-07,1.6160070777231e-07,1.6159809889598e-07,7.1165492111469e-35,-7.1164451666868e-35,-7.1165107573165e-35,7.1166163095101e-35,-47.384448916589,47.387535978405,-47.387475236474,47.384436247707,-1.6160416025818e-07,7.1164073173697e-35,7.1165435315303e-35,-7.1166531082058e-35,-7.1165177415457e-35,4.9891690171261e-22,-4.9891309368797e-22,-4.9891626753932e-22,4.989201873985e-22,-3.4782068105031,3.4783683774144,-1.6160534411893e-07,-3.4783711349232,3.478212336132,4.0474091368648e-54,-4.0472701524078e-54,-4.0473335485577e-54,4.0474732556911e-54,-3.4781623866312,3.4784277605218,-3.4784157159156,3.4781532751619,0,4.0473480143315e-54,4.0473040626063e-54,-4.0473948855078e-54,-4.0474392122741e-54,4.989033475969e-22,4.9892402385978e-22,-4.9892986665233e-22,-4.9890925147204e-22,0,0,0,1.6160009904842e-07,-1.6159747926807e-07,227.13491781553,227.13491781553,227.13483043289,227.13483043289,246.27937515134,246.27932966985,246.27932505356,246.27937019401,215.75483205107,215.75470445062,215.75469789226,215.75482520725,227.13475179114,246.27939660833,246.2793058167,246.2793035937,246.27939404428,239.86694139821,239.86689993017,239.8668935019,239.86693473047,217.48377458776,217.48369437666,227.13475179114,217.48368606935,217.48376604472,251.14173750635,251.14170017157,251.14169743459,251.14173435722,217.48381252473,217.48365222159,217.4836481267,217.48380819411,254.65249815655,251.14174629712,251.14169039832,251.1416886423,251.14174412894,239.86698056082,239.86685639763,239.86685433456,239.86697825827,254.65249815655,254.65249792608,254.65249792608,227.13483918185,227.13483918185,431.63352989849,431.63352990914,0
0.000135,43842862.129127,3.9644896873275e-05,1.0103956913323,1.5722531038329e-07,-1.5722647858619e-07,1.5723325041823e-07,1.5723061346791e-07,6.6996454222413e-35,-6.6995443755433e-35,-6.6996078735195e-35,6.699710473584e-35,-47.402919823762,47.406152373269,-47.406080920344,47.402900762,-1.5723679408838e-07,6.6995062188092e-35,6.6996407936336e-35,-6.6997475435545e-35,-6.6996138491633e-35,4.7421430988865e-22,-4.7421060049006e-22,-4.7421367178863e-22,4.7421749750963e-22,-3.4630283625998,3.4631965660035,-1.5723799030806e-07,-3.4631987028137,3.4630334997173,3.7855909437104e-54,-3.7854561950017e-54,-3.7855175470296e-54,3.7856530344844e-54,-3.4629817454541,3.4632583346474,-3.4632454879957,3.4629720774726,0,3.7855314689804e-54,3.7854892192942e-54,-3.7855772412671e-54,-3.7856198781686e-54,4.7420086258682e-22,4.7422142250229e-22,-4.7422716530827e-22,-4.7420666944456e-22,0,0,0,1.5723266368581e-07,-1.5723001542553e-07,227.06662217231,227.06662217231,227.06653105258,227.06653105258,246.28626191149,246.28621440047,246.28620984967,246.28625699035,215.63001815748,215.62988460427,215.6298781192,215.63001136156,227.06644858716,246.28628438851,246.28618955251,246.28618736957,246.28628183522,239.85074532577,239.85070199671,239.8506956469,239.85073871583,217.36832861985,217.36824468106,227.06644858716,217.36823646157,217.36832014374,251.16502435865,251.16498536212,251.16498267449,251.16502122352,217.36836843453,217.36820068653,217.36819664076,217.36836413214,254.68711138068,251.16503356567,251.16497518309,251.16497346585,251.16503140092,239.85078636157,239.85065663607,239.85065460602,239.85078407139,254.68711138068,254.68711113048,254.68711113048,227.06653971558,227.06653971558,431.38316927004,431.38316926825,0
0.0001355,43984831.175998,3.9791755724254e-05,1.0104477428779,1.5297480036129e-07,-1.5297597953119e-07,1.5298284937901e-07,1.5298018442618e-07,6.3077510757071e-35,-6.3076529533677e-35,-6.3077144178529e-35,6.3078141402617e-35,-47.421342922513,47.424727409635,-47.424644420074,47.421317015956,-1.5298648549229e-07,6.3076145209053e-35,6.3077474617016e-35,-6.3078514489665e-35,-6.3077194223963e-35,4.5075877236706e-22,-4.5075516033704e-22,-4.5075813104592e-22,4.5076186403568e-22,-3.4478873575738,3.4480624486904,-1.5298769401594e-07,-3.4480639132615,3.4478920732787,3.5411508396573e-54,-3.5410202009137e-54,-3.541079573283e-54,3.5412109671374e-54,-3.4478384516601,3.4481266907769,-3.4481129988467,3.4478282036194,0,3.541092970714e-54,3.541052363646e-54,-3.5411376670113e-54,-3.5411786737298e-54,4.5074543249184e-22,4.5076587461661e-22,-4.5077151839023e-22,-4.5075114339535e-22,0,0,0,1.5298228523959e-07,-1.5297960856297e-07,226.99888916185,226.99888916185,226.99879415599,226.99879415599,246.29349198064,246.29344235625,246.2934378831,246.29348710539,215.50578023122,215.50564046672,215.50563407192,215.50577349801,226.99870769742,246.29351552171,246.29341647491,246.29341433872,246.29351298341,239.83497968977,239.83493442241,239.83492816695,239.8349731518,217.25346735342,217.25337952578,226.99870769742,217.25337141495,217.25345896329,251.1885838326,251.18854310575,251.18854047562,251.18858071668,217.25350913091,217.25333361664,217.25332963085,217.25350486582,254.72194459339,251.18859347373,251.18853250528,251.18853083275,251.18859131541,239.83502268018,239.83488716224,239.83488517109,239.83502040651,254.72194459339,254.7219443218,254.7219443218,226.99880271264,226.99880271264,431.13396392287,431.13396390778,0
0.000136,44127030.708475,3.9938615515144e-05,1.0104998000541,1.4883825949842e-07,-1.4883944952182e-07,1.4884641795957e-07,1.4884372508234e-07,5.9393338861395e-35,-5.939238616307e-35,-5.9392981049476e-35,5.9393950226348e-35,-47.439717887989,47.443261032524,-47.443165628319,47.439684663369,-1.4885014777084e-07,5.9391999386424e-35,5.9393312512683e-35,-5.9394325386953e-35,-5.9393021749597e-35,4.2848629619813e-22,-4.2848278028082e-22,-4.2848565233954e-22,4.284892940071e-22,-3.4327838541786,3.4329660930052,-1.4885136854041e-07,-3.4329668308287,3.4327881140232,3.3129081656302e-54,-3.3127815146743e-54,-3.3128389698999e-54,3.3129663926274e-54,-3.432732560331,3.4330328993538,-3.4330183167473,3.4327217080201,0,3.3128518615094e-54,3.3128128395379e-54,-3.3128955042849e-54,-3.3129349386042e-54,4.2847306432198e-22,4.2849338726909e-22,-4.2849893296783e-22,-4.2847868034059e-22,0,0,0,1.4884587701639e-07,-1.4884317199412e-07,226.93171690651,226.93171690651,226.93161786001,226.93161786001,246.30106371294,246.30101188817,246.30100750562,246.30105889388,215.38211641165,215.3819701669,215.38196388058,215.38210975697,226.93152723201,246.30108836382,246.3009849335,246.3009828512,246.301085845,239.81964263883,239.81959535291,239.81958920876,239.8196361879,217.13918897334,217.13909708924,226.93152723201,217.13908910934,217.13918068951,251.21241451872,251.21237199037,251.21236942646,251.21241142754,217.13923280226,217.13904918747,217.13904527328,217.13922858414,254.75699659315,251.21242461256,251.21236095224,251.21235933076,251.21242246381,239.81968766847,239.81954611924,239.81954417327,239.81968541571,254.75699659315,254.75699629841,254.75699629841,226.93162628857,226.93162628857,430.8859100255,430.88590999621,0
0.0001365,44269461.778484,4.0085476270945e-05,1.0105518632414,1.4481268045263e-07,-1.4481388121121e-07,1.4482094879982e-07,1.448182280829e-07,5.5929572351494e-35,-5.5928647475025e-35,-5.592922316461e-35,5.5930165008433e-35,-47.458044394641,47.461753197046,-47.461644444699,47.458003356672,-1.4482477355952e-07,5.5928258540294e-35,5.5929555448679e-35,-5.5930541940091e-35,-5.5929254876075e-35,4.0733621733588e-22,-4.0733279627776e-22,-4.0733557160201e-22,4.0733912335785e-22,-3.4177179101913,3.4179075657903,-1.4482600651388e-07,-3.4179075192378,3.4177216781324,3.0997641964538e-54,-3.0996414146183e-54,-3.0996970133216e-54,3.0998205838861e-54,-3.417664125448,3.4179770302179,-3.4179615092635,3.4176526439911,0,3.0997094172209e-54,3.0996719246665e-54,-3.0997520285112e-54,-3.0997899463736e-54,4.073230939918e-22,4.0734329643e-22,-4.0734874501393e-22,-4.0732861620032e-22,0,0,0,1.4482043165766e-07,-1.4481769836758e-07,226.86510353466,226.86510353466,226.86500028737,226.86500028737,246.30897546949,246.308921354,246.30891707584,246.30897071755,215.25902484562,215.25887184089,215.2588656825,215.25901828634,226.86490530654,246.30900127769,246.30889328464,246.30889126384,246.3089987831,239.80473232815,239.80468294039,239.80467692558,239.80472598028,217.02549167176,217.0253955569,226.86490530654,217.02538773173,217.02548351593,251.23651501421,251.23647061046,251.23646812206,251.23651195362,217.02553764441,217.02534558155,217.02534175139,217.02553348358,254.79226618457,251.23652558005,251.23645911788,251.23645755422,251.2365234442,239.80477948497,239.80463165659,239.80462976248,239.80477725778,254.79226618457,254.79226586475,254.79226586475,226.86500856466,226.86500856466,430.63900375791,430.63900371343,0
0.000137,44412125.46108,4.0232338017103e-05,1.0106039328263,1.4089513324929e-07,-1.4089634461987e-07,1.4090351190689e-07,1.4090076344157e-07,5.2672740967413e-35,-5.2671843224701e-35,-5.2672400264571e-35,5.2673315474528e-35,-47.476322116102,47.480203868698,-47.480080775918,47.476272746813,-1.4090743286052e-07,5.2671452414704e-35,5.2672733174077e-35,-5.2673693885653e-35,-5.2672423335056e-35,3.8725102551455e-22,-3.8724769806523e-22,-3.8725037854665e-22,3.8725384180197e-22,-3.4026895823901,3.4028869331865,-1.4090867793542e-07,-3.4028860413506,3.4026928207388,2.9006963433975e-54,-2.9005773154357e-54,-2.9006311163981e-54,2.9007509503443e-54,-3.4026331998655,3.4029591525927,-3.4029426432299,3.4026210637218,0,2.9006430501201e-54,2.9006070330929e-54,-2.9006846515358e-54,-2.9007211070958e-54,3.8723801119653e-22,3.872580918498e-22,-3.8726344428092e-22,-3.8724344067476e-22,0,0,0,1.4090301917186e-07,-1.4090025769903e-07,226.79904718068,226.79904718068,226.79893956658,226.79893956658,246.31722561827,246.31716911833,246.31716495924,246.31722094504,215.13650368746,215.13634363182,215.13633762215,215.13649724159,226.79884004221,246.31725263317,246.31713989146,246.31713794026,246.31725016783,239.79024691957,239.7901953435,239.79018947722,239.79024069176,216.91237364811,216.91227312125,226.79884004221,216.91226547624,216.91236564341,251.26088392292,251.26083756705,251.26083516405,251.26088089909,216.91242186058,216.91222098833,216.91221725548,216.91241776803,254.82775217831,251.26089498081,251.26082560265,251.26082410402,251.26089286134,239.79029629497,239.79014193023,239.79014009509,239.79029409829,254.82775217831,254.82775183134,254.82775183134,226.79894766794,226.79894766794,430.39324131118,430.39324125046,0
0.0001375,44555022.854575,4.0379200779512e-05,1.0106560092009,1.3708276336036e-07,-1.3708398521489e-07,1.3709125273396e-07,1.3708847661815e-07,4.9610213543068e-35,-4.9609342260901e-35,-4.9609881183975e-35,4.961077044447e-35,-47.494550725201,47.498613023836,-47.498474536019,47.49449248328,-1.370952711218e-07,4.9608949847794e-35,4.9610214531804e-35,-4.9611150054255e-35,-4.9609895952458e-35,3.6817619842173e-22,-3.6817296333453e-22,-3.681755508406e-22,3.6817892700664e-22,-3.3876989265388,3.3879042606285,-1.3709652824997e-07,-3.3879024591544,3.3877015959104,2.7147527743203e-54,-2.714637388314e-54,-2.7146894485312e-54,2.7148056580747e-54,-3.3876398352929,3.3879793350851,-3.3879617847421,3.3876270182593,0,2.714700929061e-54,2.7146663354059e-54,-2.7147415417902e-54,-2.7147765874678e-54,3.6816329358633e-22,3.6818325123311e-22,-3.6818850847487e-22,-3.681686314184e-22,0,0,0,1.3709078501338e-07,-1.370879954501e-07,226.73354598491,226.73354598491,226.73343383198,226.73343383198,246.32581253419,246.32575355251,246.32574952809,246.32580795194,215.01455109898,215.0143836899,215.01437785114,215.01454478569,226.7333295657,246.32584080708,246.32572312379,246.32572125083,246.32583837629,239.77618458152,239.77613072739,239.77612503005,239.77617849182,216.79983310908,216.79972798179,226.7333295657,216.79972054404,216.79982528014,251.2855198553,251.28547146771,251.28546916063,251.28551687475,216.7998836614,216.79967360415,216.79966998277,216.79987964884,254.86345339112,251.28553142606,251.28545901349,251.28545758758,251.28552932666,239.77623627044,239.77607510247,239.77607333391,239.7762341095,254.86345339112,254.86345301477,254.86345301477,226.73344173116,226.73344173116,430.14861888723,430.14861880915,0
0.000138,44698155.080656,4.0526064584517e-05,1.0107080927636,1.333727898284e-07,-1.3337402203391e-07,1.3338139030468e-07,1.3337858664283e-07,4.6730144836491e-35,-4.6729299356335e-35,-4.6729820681649e-35,4.673068466253e-35,-47.512729893895,47.516980650051,-47.516825646574,47.512662214026,-1.3338550736121e-07,4.6728905601781e-35,4.673015428865e-35,-4.6731065200516e-35,-4.6729827478439e-35,3.500600446708e-22,-3.5005690070348e-22,-3.5005939707726e-22,3.5006268756473e-22,-3.372745997367,3.3729596128338,-1.3338677647228e-07,-3.3729568337447,3.3727480566299,2.5410474208505e-54,-2.5409355681225e-54,-2.5409859428542e-54,2.5410986369705e-54,-3.3726840822696,3.373037645674,-3.3730189991413,3.3726705574839,0,2.5409969866355e-54,2.5409637658811e-54,-2.5410366314471e-54,-2.5410703179797e-54,3.5004724973742e-22,3.5006708321005e-22,-3.5007224622669e-22,-3.5005249701126e-22,0,0,0,1.3338094820681e-07,-1.333781306527e-07,226.66859809368,226.66859809368,226.66848122364,226.66848122364,246.33473459905,246.33467303468,246.3346691615,246.33473012077,214.89316524943,214.89299017236,214.89298452817,214.89315908912,226.66837200924,246.33476418319,246.33464135822,246.33463957269,246.33476179254,239.76254348902,239.76248726369,239.76248175697,239.76253755655,216.68786826859,216.687758345,226.66837200924,216.68775114339,216.68786064164,251.31042142844,251.3103709265,251.31036872654,251.31041849805,216.68792126491,216.68770163223,216.68769813744,216.68791734477,254.8993686458,251.31043353368,251.31035796386,251.31035661884,251.31043145822,239.7625975901,239.76242934205,239.76242764813,239.76259547043,254.8993686458,254.89936823766,254.89936823766,226.66848889275,226.66848889275,429.90513269849,429.90513260185,0
0.0001385,44841523.284495,4.0672929458908e-05,1.0107601839185,1.2976250343524e-07,-1.2976374585387e-07,1.2977121538158e-07,1.297683842847e-07,4.4021425781084e-35,-4.4020605458867e-35,-4.4021109691885e-35,4.4021949048653e-35,-47.530859293212,47.535306746592,-47.535134036876,47.530781585425,-1.2977543233511e-07,4.4020210614389e-35,4.4021443386686e-35,-4.4022330254517e-35,-4.4021108838831e-35,3.328535551014e-22,-3.3285050101676e-22,-3.328529080768e-22,3.3285611429522e-22,-3.3578308485483,3.3580530537924,-1.2977671335568e-07,-3.3580492253043,3.3578322547723,2.3787553442607e-54,-2.3786469192885e-54,-2.378695662109e-54,2.3788049466192e-54,-3.3577659901402,3.3581341517036,-3.3581143509986,3.3577517300874,0,2.3787062850662e-54,2.3786743883735e-54,-2.3787449823136e-54,-2.3787773588069e-54,3.3284087045344e-22,3.3286057863749e-22,-3.3286564839346e-22,-3.3284602826026e-22,0,0,0,1.2977079951547e-07,-1.2976795407752e-07,226.60420165931,226.60420165931,226.60407988744,226.60407988744,246.34399020151,246.34392594971,246.3439222454,246.34398584093,214.77234431553,214.77216124343,214.77215581905,214.7723383299,226.60396551051,246.34402115221,246.34389297803,246.34389128969,246.3440188076,239.74932182367,239.74926313051,239.7492578374,239.7493160687,216.57647734783,216.57636242432,226.60396551051,216.57635548963,216.57646995074,251.33558726601,251.33553456398,251.33553248305,251.33558439302,216.57653289651,216.57630328266,216.57629993056,216.57652908202,254.93549677118,251.33559992818,251.33552107366,251.33551981825,251.33559788071,239.74937843939,239.74920282407,239.74920121337,239.74937636681,254.93549677118,254.93549632864,254.93549632864,226.60408729685,226.60408729685,429.66277896758,429.66277885111,0
0.000139,44985128.634843,4.0819795429923e-05,1.0108122830758,1.2624926491415e-07,-1.262505174031e-07,1.2625808867833e-07,1.2625523026395e-07,4.1473636935051e-35,-4.147284114099e-35,-4.1473328773894e-35,4.1474144147896e-35,-47.548938593252,47.55359132485,-47.553399644206,47.548850242276,-1.2626240675059e-07,4.1472445448221e-35,4.1473662392681e-35,-4.1474525771175e-35,-4.1473320584509e-35,3.1651026196466e-22,-3.1650729653142e-22,-3.165096160715e-22,3.1651273942859e-22,-3.342953532683,3.3431846467584,-1.2626369960414e-07,-3.3431796930879,3.3429542410874,2.2271084338675e-54,-2.2270033342022e-54,-2.2270504970481e-54,2.2271564747012e-54,-3.3428856070328,3.3432689198765,-3.3432479041035,3.3428705835525,0,2.2270607146002e-54,2.2270300947161e-54,-2.2270984842265e-54,-2.2271295982025e-54,3.1649768795049e-22,3.1651726978421e-22,-3.1652224724347e-22,-3.1650275738423e-22,0,0,0,1.2625769965354e-07,-1.2625482644628e-07,226.54035484006,226.54035484006,226.54022797503,226.54022797503,246.35357773714,246.35351068925,246.35350717247,246.35357350875,214.65208648143,214.65189507434,214.65188989663,214.65208069352,226.5401082127,246.35361011181,246.35347637318,246.35347479244,246.35360781944,239.73651777369,239.73645651242,239.73645145733,239.73651221765,216.46565857515,216.46553844013,226.5401082127,216.46553180509,216.46565143754,251.36101599829,251.36096100719,251.36095905794,251.36101319032,216.465716789,216.46547677231,216.46547358005,216.46571309417,254.97183660209,251.36102924068,251.36094696925,251.36094581273,251.36102722544,239.73657701045,239.73639373002,239.73639221166,239.73657499113,254.97183660209,254.97183612236,254.97183612236,226.54023509328,226.54023509328,429.42155392695,429.42155378928,0
0.0001395,45128972.324118,4.0966662525245e-05,1.0108643906515,1.2283050320429e-07,-1.2283176561579e-07,1.2283943911416e-07,1.2283655350633e-07,3.9077004920375e-35,-3.9076233038723e-35,-3.9076704550717e-35,3.9077496569377e-35,-47.5669674631,47.571834408813,-47.571622414025,47.566867827744,-1.2284385951985e-07,3.9075836729695e-35,3.9077037936985e-35,-3.9077878369164e-35,-3.9076689330317e-35,3.0098610557111e-22,-3.0098322756432e-22,-3.009854613534e-22,3.0098850325454e-22,-3.3281141012733,3.328354454239,-1.2284516412675e-07,-3.3283482953998,3.3281140651752,2.085391413681e-54,-2.0852895398618e-54,-2.0853351730795e-54,2.0854379436366e-54,-3.3280429798301,3.328442016245,-3.3284197214457,3.3280271641278,0,2.0853450001569e-54,2.0853156113639e-54,-2.0853818616968e-54,-2.0854117591428e-54,3.0097364250477e-22,3.009930969783e-22,-3.0099798310382e-22,-3.0097862466154e-22,0,0,0,1.2283907754063e-07,-1.2283617668609e-07,226.4770558002,226.4770558002,226.47692364378,226.47692364378,246.36349560833,246.36342565163,246.36342234221,246.36349152746,214.53238993871,214.53218984326,214.53218494082,214.53238437299,226.4767982644,246.36352946659,246.36338994033,246.36338847821,246.363527233,239.72412953386,239.72406560045,239.72406080925,239.72412419944,216.35541018617,216.35528461971,226.4767982644,216.35527831915,216.35540333948,251.38670626209,251.38664888961,251.38664708549,251.38670352717,216.35547118254,216.35522032488,216.35521731071,216.35546762224,255.00838697937,251.38672010889,251.38663428345,251.38663323568,251.38671813032,239.72419150217,239.72400024772,239.72399883139,239.7241895426,255.00838697937,255.00838645942,255.00838645942,226.47693043754,226.47693043754,429.18145381856,429.18145365822,0
0.00014,45273055.568478,4.1113530773001e-05,1.0109165070674,1.1950371374671e-07,-1.1950498592805e-07,1.1951276210993e-07,1.1950984943923e-07,3.6822361656623e-35,-3.6821613085466e-35,-3.6822068943103e-35,3.6822838220108e-35,-47.584945570809,47.590036035585,-47.589802300206,47.584833983355,-1.1951728605624e-07,3.6821216382869e-35,3.6822401947387e-35,-3.6823219964812e-35,-3.6822046988939e-35,2.8623930800279e-22,-2.8623651620447e-22,-2.8623866598675e-22,2.8624162783427e-22,-3.3133126047021,3.3135625379843,-1.1951860233385e-07,-3.3135550895725,3.3133117754651,1.9529381348372e-54,-1.9528393903126e-54,-1.9528835427072e-54,1.9529832030197e-54,-3.3132381541446,3.3136535062033,-3.3136298651977,3.313221516804,0,1.9528929937621e-54,1.9528647918321e-54,-1.9529289663509e-54,-1.952957691765e-54,2.8622695616486e-22,2.8624628231947e-22,-2.8625107807298e-22,-2.8623185214257e-22,0,0,0,1.1951242859772e-07,-1.1950950022557e-07,226.41430270995,226.41430270995,226.41416505685,226.41416505685,246.37374222437,246.37366924193,246.37366616089,246.37373830716,214.41325288639,214.41304373533,214.41303913857,214.41324756881,226.4140338197,246.3737776281,246.37363208279,246.37363075101,246.37377546013,239.71215530556,239.71208859207,239.71208409219,239.71215021671,216.24573042367,216.24559919727,226.4140338197,216.24559326818,216.24572390125,251.41265670081,251.41259685119,251.41259520644,251.41265404735,216.24579432467,216.24553217086,216.24552935419,216.24579091467,255.04514674984,251.41267117712,251.41258165546,251.41258072692,251.41266923985,239.71222012015,239.71202057137,239.71201926736,239.71221822717,255.04514674984,255.04514618642,255.04514618642,226.41417149075,226.41417149075,428.94247489341,428.94247470884,0
0.0001405,45417379.607882,4.1260400201757e-05,1.0109686327513,1.162664568211e-07,-1.1626773861453e-07,1.1627561792474e-07,1.1627267832826e-07,3.4701106207838e-35,-3.4700380358887e-35,-3.4700821016324e-35,3.4701568151845e-35,-47.602872583349,47.608196255878,-47.607939265305,47.602748348971,-1.1628024661098e-07,3.4699983476361e-35,3.4701153496046e-35,-3.4701949618931e-35,-3.4700792617742e-35,2.7223025351304e-22,-2.722275467128e-22,-2.7222961420749e-22,2.7223249740016e-22,-3.2985490922093,3.2988089589746,-1.1628157447356e-07,-3.2988001319466,3.2985474191913,1.8291281330249e-54,-1.8290324240748e-54,-1.829075142952e-54,1.8291717870405e-54,-3.2984711742899,3.2989034544766,-3.2988783967002,3.29845368529,0,1.829084231979e-54,1.8290571741286e-54,-1.8291193343526e-54,-1.8291469307893e-54,2.7221801315171e-22,2.7223721007914e-22,-2.7224191642029e-22,-2.7222282404936e-22,0,0,0,1.1627531308384e-07,-1.1627235733144e-07,226.35209374551,226.35209374551,226.35195038313,226.35195038313,246.38431600138,246.38423987192,246.38423704151,246.38431226485,214.2946735309,214.29445494258,214.29445068384,214.29466848897,226.35181303805,246.3843530148,246.38420121052,246.38420002151,246.38435091965,239.70059329672,239.70052369123,239.7005195117,239.70058847879,216.13661753763,216.13648041387,226.35181303805,216.13647489557,216.13661137485,251.43886596437,251.43880353825,251.43880206803,251.43886340122,216.13668447027,216.13641054746,216.13640794893,216.13668122726,255.08211476628,251.43888109623,251.4387877309,251.43878693273,251.43887920512,239.70066107672,239.7004529015,239.70045172073,239.70065925753,255.08211476628,255.08211415587,255.08211415587,226.35195641973,226.35195641973,428.70461341125,428.70461320075,0
0.000141,45561945.706142,4.140727088858e-05,1.0110207681367,1.1311635592195e-07,-1.1311764716472e-07,1.1312563003228e-07,1.1312266365353e-07,3.2705169072564e-35,-3.2704465370954e-35,-3.2704891270243e-35,3.2705616851147e-35,-47.620748166573,47.626315134557,-47.626033280788,47.620610562761,-1.1313036464941e-07,3.270406851333e-35,3.2705223089483e-35,-3.270599782687e-35,-3.2704856708833e-35,2.5892137525671e-22,-2.5891875225242e-22,-2.5892073915368e-22,2.5892354508622e-22,-3.2838236118673,3.2840937774079,-1.1313170400808e-07,-3.2840834778463,3.2838210423682,1.7133834316373e-54,-1.7132906672967e-54,-1.7133319985076e-54,1.7134257176382e-54,-3.2837420832523,3.2841919251115,-3.2841653764414,3.2837237119849,0,1.7133407390556e-54,1.713314783902e-54,-1.7133749895567e-54,-1.7134014986717e-54,2.589092465886e-22,2.5892831343043e-22,-2.5893293131628e-22,-2.58913973506e-22,0,0,0,1.1312535447229e-07,-1.1312237148486e-07,226.29042708907,226.29042708907,226.29027779725,226.29027779725,246.39521536231,246.39513596007,246.39513340388,246.3952118244,214.1766500861,214.17642166396,214.17641777759,214.17664534897,226.29013408437,246.39525405207,246.39509574011,246.39509470708,246.3952520373,239.6894417219,239.6893691083,239.68936527985,239.6894372016,216.02806978523,216.02792651747,226.29013408437,216.02792145166,216.02806401956,251.46533270925,251.46526760357,251.46526632392,251.46533024568,216.02813988163,216.02785369867,216.02785134019,216.02813682328,255.11928988742,251.46534852367,251.46525116179,251.46525050582,251.46534668376,239.68951259095,239.68929544501,239.68929439904,239.68951085312,255.11928988742,255.11928922625,255.11928922625,226.29028339691,226.29028339691,428.46786564006,428.46786540182,0
0.0001415,45706755.150962,4.1554143098147e-05,1.0110729136629,1.1005109617388e-07,-1.100523966981e-07,1.100604835359e-07,1.1005749052498e-07,3.0826978758416e-35,-3.0826296642479e-35,-3.0826708213861e-35,3.082741281389e-35,-47.638571985189,47.64439275126,-47.644084327308,47.638420261257,-1.1006532526615e-07,3.0825900006045e-35,3.082703924312e-35,-3.0827793093063e-35,-3.0826667763553e-35,2.4627704801377e-22,-2.4627450761196e-22,-2.4627641558904e-22,2.4627914565132e-22,-3.2691362105566,3.2694170526914,-1.1006667602892e-07,-3.2694051815566,3.2691326897692,1.6051655728121e-54,-1.6050756647965e-54,-1.6051156527805e-54,1.6052065355375e-54,-3.2690509226615,3.2695189814692,-3.2694908640389,3.2690316379562,0,1.6051240579662e-54,1.6050991654837e-54,-1.6051574745486e-54,-1.6051829366396e-54,2.4626503122483e-22,2.4628396717151e-22,-2.4628849755617e-22,-2.462696752618e-22,0,0,0,1.1006023786595e-07,-1.1005722779657e-07,226.22930092879,226.22930092879,226.22914547961,226.22914547961,246.40643873698,246.40635593154,246.40635367452,246.40643541657,214.05918077329,214.05894210531,214.05893862778,214.0591763718,226.22899512894,246.40647917222,246.40631409479,246.40631323174,246.40647724576,239.6786988022,239.6786230601,239.67861961524,239.67869460775,215.92008543082,215.91993576284,226.22899512894,215.91993119381,215.92008010192,251.49205559842,251.49198770629,251.49198663424,251.49205324415,215.92015882839,215.91985987515,215.91985778001,215.92015597338,255.15667097792,251.49207212344,251.49197060649,251.49197010529,251.49207034,239.67877288865,239.67854641509,239.6785455162,239.67877124014,255.15667097792,255.15667026192,255.15667026192,226.22915060038,226.22915060038,428.23222785566,428.23222758776,0
0.000142,45851809.253963,4.1701016605489e-05,1.011125069775,1.0706842278443e-07,-1.0706973241719e-07,1.0707792362177e-07,1.0707490413514e-07,2.9059430492777e-35,-2.9058769413832e-35,-2.9059167075998e-35,2.9059851256036e-35,-47.656343702726,47.662429200937,-47.662092394982,47.656177079274,-1.0708287363809e-07,2.9058373186571e-35,2.905949719201e-35,-2.906023064173e-35,-2.9059121003258e-35,2.3426348658554e-22,-2.3426102760206e-22,-2.3426285829905e-22,2.34265513876e-22,-3.2544869339388,3.2547788434243,-1.0708423570983e-07,-3.254765296299,3.254482404895,1.5039728598298e-54,-1.5038857224614e-54,-1.5039244102876e-54,1.5040125426502e-54,-3.2543977327598,3.2548846862106,-3.2548549182199,3.2543775029067,0,1.5039324928093e-54,1.5039086242875e-54,-1.5039650930426e-54,-1.5039895470945e-54,2.3425158183181e-22,2.3427038612211e-22,-2.3427482995614e-22,-2.3425614408816e-22,0,0,0,1.0707770845007e-07,-1.0707467145988e-07,226.16871345884,226.16871345884,226.16855161633,226.16855161633,246.41798456201,246.41789821815,246.41789628672,246.41798147897,213.94226382119,213.94201447932,213.94201144936,213.94225978797,226.16839434745,246.41802681449,246.41785470441,246.41785402617,246.41802498462,239.66836276535,239.66828376988,239.668280743,239.66835892647,215.81266274594,215.81250641164,226.16839434745,215.81250238631,215.81265789579,251.51903330139,251.51896251193,251.51896166553,251.5190310666,215.81273958757,215.81242733432,215.81242552721,215.81273695563,255.19425690837,251.51905056609,251.51894472972,251.51894439662,251.51904884459,239.66844020237,239.66820403128,239.66820329248,239.66843865155,255.19425690837,255.19425613315,255.19425613315,226.16855621386,226.16855621386,427.99769634126,427.99769604161,0
0.0001425,45997109.350697,4.1847891769016e-05,1.0111772372407,1.0416613953437e-07,-1.0416745809765e-07,1.0417575404884e-07,1.041727082494e-07,2.7395856931274e-35,-2.7395216353419e-35,-2.739560051378e-35,2.7396264822031e-35,-47.674062981493,47.680424594504,-47.680057483654,47.673880649978,-1.0418081351461e-07,2.7394820715303e-35,2.7395929599357e-35,-2.7396643125403e-35,-2.739554907777e-35,2.2284864956231e-22,-2.2284627082283e-22,-2.2284802585874e-22,2.2285060832965e-22,-3.2398758264285,3.2401792073854,-1.0418218679694e-07,-3.2401638742031,3.2398702299506,1.4093377955674e-54,-1.4092533457048e-54,-1.4092907751118e-54,1.4093762405228e-54,-3.2397825523691,3.2402891012871,-3.2402575967988,3.2397613451501,0,1.409298547267e-54,1.4092756652702e-54,-1.4093303483402e-54,-1.4093538320646e-54,2.2283685697115e-22,2.2285552889132e-22,-2.2285988712122e-22,-2.2284133854595e-22,0,0,0,1.0417556998253e-07,-1.041725062408e-07,226.10866287938,226.10866287938,226.1084943993,226.1084943993,246.42985128089,246.42976125839,246.42975968047,246.42984845609,213.82589746593,213.82563700556,213.82563446423,213.82589383549,226.10832992096,246.42989542502,246.42971600541,246.42971552771,246.42989370042,239.65843184563,239.65834946734,239.65834689477,239.65842839366,215.70580000932,215.70563673232,226.10832992096,215.70563330043,215.7057956823,251.54626449416,251.54619069239,251.54619009074,251.54626238949,215.70588044356,215.70555434024,215.70555284738,215.70587805557,255.23204655526,251.54628252869,251.54617220256,251.54617205172,251.54628087482,239.65851277144,239.65826651946,239.65826595452,239.65851132708,255.23204655526,255.23204571612,255.23204571612,226.1084984267,226.1084984267,427.7642673869,427.76426705327,0
0.000143,46142658.437736,4.1994768764213e-05,1.0112294307355,1.0134210730398e-07,-1.0134343461461e-07,1.0135183567526e-07,1.0134876373245e-07,2.58300007346e-35,-2.5829380134542e-35,-2.5829751189507e-35,2.5830396161658e-35,-47.691729482565,47.698379059494,-47.697979603181,47.691530604907,-1.0135700574378e-07,2.582898525768e-35,2.5830079133256e-35,-2.5830773201683e-35,-2.5829694642124e-35,2.1200214817578e-22,-2.1199984851653e-22,-2.1200152948538e-22,2.1200404022311e-22,-3.2253029311663,3.2256182015191,-1.0135839013513e-07,-3.2256009662796,3.2252962058184,1.3208247028294e-54,-1.3207428598014e-54,-1.3207790712375e-54,1.3208619506694e-54,-3.225205418858,3.2257322879283,-3.2256989566537,3.2251832015814,0,1.3207865449269e-54,1.3207646132564e-54,-1.3208175636562e-54,-1.3208401135282e-54,2.1199046784648e-22,2.1200900672952e-22,-2.1201328029732e-22,-2.1199486983768e-22,0,0,0,1.0135168332014e-07,-1.0134859300449e-07,226.04914739658,226.04914739658,226.04897202615,226.04897202615,246.4420373439,246.44194349742,246.44194230255,246.4420347993,213.71007995112,213.70980791043,213.70980590128,213.71007675992,226.04880003592,246.44208345689,246.44189644083,246.44189618033,246.44208184664,239.64890428396,239.64881838862,239.64881630876,239.6489012519,215.59949550687,215.59932500016,226.04880003592,215.59932221442,215.5994917499,251.57374785923,251.57367092591,251.57367058925,251.57374589581,215.59957968818,215.59923916368,215.59923801286,215.59957756613,255.270038801,251.57376669487,251.57365170239,251.57365174881,251.57376511452,239.64898884193,239.6487321118,239.64873173531,239.64898751324,255.270038801,255.27003789286,255.27003789286,226.04897543389,226.04897543389,427.53193728901,427.531936919,0
0.0001435,46288497.046193,4.2141647478983e-05,1.0112816373925,9.8594242634936e-08,-9.8595578504445e-08,9.8604085020201e-08,9.8600987109899e-08,2.4355988892706e-35,-2.4355387759483e-35,-2.4355746094718e-35,2.4356372254196e-35,-47.709342865718,47.716292740762,-47.715858773741,47.709126573978,-9.8609366834321e-08,2.4354993808484e-35,2.4356072790937e-35,-2.4356747857462e-35,-2.4355684680836e-35,2.0169515996521e-22,-2.0169293823305e-22,-2.016945467039e-22,2.0169698707472e-22,-3.2107682899852,3.2110958819209,-9.8610762229828e-08,-3.2110766223919,3.2107603720263,1.2380275134103e-54,-1.2379481989431e-54,-1.2379832316042e-54,1.2380636036309e-54,-3.2106663681056,3.21121430663,-3.2111790537045,3.2106431076461,0,1.2379904183551e-54,1.2379694020074e-54,-1.2380206711842e-54,-1.2380423224839e-54,2.0168359197015e-22,2.0170199719484e-22,-2.0170618703764e-22,-2.01687915474e-22,0,0,0,9.860396498045e-08,-9.8600848276837e-08,225.99016522267,225.99016522267,225.98998270028,225.98998270028,246.45454120818,246.45444338703,246.45444260643,246.45453896683,213.5948095278,213.59452542718,213.59452399636,213.59480681434,225.98980288411,246.45458937009,246.4543944603,246.45439443464,246.45458788367,239.63977832781,239.6396887763,239.63968722968,239.63977575042,215.49374753167,215.49356949725,225.98980288411,215.49356741346,215.49374439432,251.60148208557,251.60140189707,251.60140184684,251.60148027505,215.49383562062,215.49348008205,215.49347930272,215.49383378773,255.30823253386,251.60150175475,251.60138191292,251.60138217252,251.60150025405,239.63986666671,239.63959904681,239.63959887421,239.63986546333,255.30823253386,255.30823155126,255.30823155126,225.98998543607,225.98998543607,427.3007023498,427.30070194084,0
0.000144,46434589.378774,4.2288527714513e-05,1.0113338577454,9.5920516326539e-08,-9.5921860561279e-08,9.593047286028e-08,9.5927349164826e-08,2.2968308683426e-35,-2.2967726518246e-35,-2.2968072508929e-35,2.296868036709e-35,-47.726902789463,47.734165801176,-47.733695026148,47.72666818553,-9.593586755186e-08,2.2967333650341e-35,2.2968397857343e-35,-2.2969054367519e-35,-2.2968006466465e-35,1.9190034700114e-22,-1.9189820205438e-22,-1.9189973957132e-22,1.9190211093433e-22,-3.1962719433836,3.1966123038203,-9.5937273843358e-08,-3.1965908912266,3.1962627667197,1.1605677137196e-54,-1.1604908518745e-54,-1.1605247437413e-54,1.1606026846024e-54,-3.1961654344675,3.1967352171393,-3.1966979428864,3.1961410973078,0,1.1605316547109e-54,1.1605115198423e-54,-1.1605611577186e-54,-1.160581944568e-54,1.9188889138636e-22,1.9190716237662e-22,-1.9191126942614e-22,-1.9189313749717e-22,0,0,0,9.5930385738134e-08,-9.5927242841127e-08,225.9317145759,225.9317145759,225.93152463086,225.93152463086,246.46736133768,246.46725938568,246.46725905232,246.46735942378,213.48008445447,213.47978779588,213.47978699228,213.4800822594,225.93133666273,246.46741163152,246.46720852005,246.46720874791,246.46741027884,239.63105223131,239.63095887939,239.63095790881,239.63105014515,215.38855438404,215.38836851251,225.93133666273,215.38836718971,215.38855191864,251.62946586866,251.62938229677,251.62938255565,251.62946422317,215.38864654751,215.38827537944,215.38827500279,215.38864502826,255.34662664799,251.62948640501,251.62936152415,251.62936201382,251.62948499029,239.63114450543,239.63086556932,239.63086561695,239.63114343746,255.34662664799,255.34662558506,255.34662558506,225.9315266395,225.9315266395,427.07055887675,427.07055842606,0
0.0001445,46580937.071108,4.243540951001e-05,1.0113860923357,9.3318952066181e-08,-9.3320304467157e-08,9.332902285973e-08,9.3325873567952e-08,2.1661785159906e-35,-2.1661221475917e-35,-2.1661555486994e-35,2.1662145543324e-35,-47.744408910977,47.751998422391,-47.751488402156,47.744155066394,-9.3334531549319e-08,2.1660829841277e-35,2.1661879392643e-35,-2.1662517782012e-35,-2.1661485047105e-35,1.8259177842391e-22,-1.8258970913258e-22,-1.8259117721488e-22,1.8259348092155e-22,-3.1818139304889,3.1821675215645,-9.3335948625247e-08,-3.1821438202596,3.18180342663,1.0880924356826e-54,-1.0880179527897e-54,-1.0880507406641e-54,1.0881263243291e-54,-3.1817026507364,3.1822950784418,-3.1822556781238,3.1816772030182,0,1.0880573866592e-54,1.0880381005481e-54,-1.0880861555622e-54,-1.0881061109614e-54,1.8258043521038e-22,1.8259857143434e-22,-1.8260259661645e-22,-1.8258460501997e-22,0,0,0,9.3328969255211e-08,-9.3325800368069e-08,225.87379368057,225.87379368057,225.87359603283,225.87359603283,246.48049620318,246.48038995846,246.48039010716,246.48049464212,213.36590299712,213.36559326341,213.36559313882,213.36590136332,225.87339957431,246.48054871505,246.48033708285,246.480337584,246.48054750643,239.62272425518,239.62262695336,239.62262660398,239.62272269869,215.28391437148,215.28372034163,225.87339957431,215.2837198423,215.28391263326,251.65769791045,251.65761082225,251.65761141423,251.65769644266,215.2840107829,215.28362334656,215.28362340565,215.2840096031,255.38522004342,251.65771934881,251.65758923239,251.65758997,251.65771802664,239.62282062455,239.62252993048,239.62253021563,239.62281970258,255.38522004342,255.38521889386,255.38521889386,225.8735972561,225.8735972561,426.84150318195,426.84150268655,0
0.000145,46727541.79165,4.2582292905414e-05,1.0114383417136,9.0787625092518e-08,-9.0788985455463e-08,9.0797810233799e-08,9.0794635541044e-08,2.0431560068231e-35,-2.0431014390354e-35,-2.0431336776793e-35,2.0431909519095e-35,-47.761860886139,47.76979080563,-47.7692389548,47.761586841939,-9.0803434030157e-08,2.0430624132249e-35,2.0431659149808e-35,-2.0432279844094e-35,-2.043126216399e-35,1.7374485706765e-22,-1.7374286231423e-22,-1.7374426245639e-22,1.7374649985003e-22,-3.1673942890273,3.1677615886004,-9.0804861775536e-08,-3.1677354557241,3.1673823870425,1.0202726824672e-54,-1.0202005070657e-54,-1.0202322266074e-54,1.0203055248371e-54,-3.1672780481053,3.1678939487457,-3.1678523123019,3.167251455681,0,1.0202386180897e-54,1.0202201491033e-54,-1.0202666682516e-54,-1.0202858241136e-54,1.7373362625202e-22,1.7375162722133e-22,-1.737555714558e-22,-1.7373772084959e-22,0,0,0,9.0797790744354e-08,-9.079459607931e-08,225.81640076711,225.81640076711,225.81619512695,225.81619512695,246.49394428232,246.4938335771,246.49383424463,246.4939431007,213.25226342924,213.25194008351,213.25194069271,213.25226240192,225.81598982676,246.49399910145,246.49377861806,246.49377941342,246.49399804766,239.61479266677,239.61469126012,239.61469157958,239.6147916804,215.17982580871,215.17962328712,225.81598982676,215.17962367734,215.17982485594,251.68617691935,251.68608617703,251.68608712751,251.68617564246,215.17992664832,215.17952228078,215.17952281059,215.17992583514,255.42401162604,251.68619929587,251.68606374021,251.68606474473,251.686198073,239.61489329736,239.61459038774,239.61459092869,239.61489253245,255.42401162604,255.42401038305,255.42401038305,225.81619550343,225.81619550343,426.61353158148,426.61353103817,0
0.0001455,46874405.241913,4.2729177941396e-05,1.0114906064372,8.8324660891207e-08,-8.8326029006428e-08,8.8334960444438e-08,8.8331760552487e-08,1.9273072103039e-35,-1.9272543967728e-35,-1.9272855074732e-35,1.9273410979369e-35,-47.779258369461,47.787543172492,-47.786946748757,47.77896313615,-8.8340700444093e-08,1.9272155222773e-35,1.9273175830201e-35,-1.9273779245408e-35,-1.9272776507014e-35,1.653362499525e-22,-1.6533432863215e-22,-1.6533566230386e-22,1.6533783471947e-22,-3.153013055284,3.1533945574556,-8.8342138740299e-08,-3.1533658425772,3.1529996817618,9.5680167934825e-55,-9.5673174212246e-55,-9.5676242787981e-55,9.5683351029026e-55,-3.1528916561228,3.1535318854638,-3.1534878972389,3.1528638846186,0,9.5676857498285e-55,9.5675089254048e-55,-9.5679592141212e-55,-9.5681430859932e-55,1.6532513150796e-22,1.6534299677692e-22,-1.6534686097656e-22,-1.653291519794e-22,0,0,0,8.8334975664579e-08,-8.8331755442967e-08,225.75953407201,225.75953407201,225.75932013977,225.75932013977,246.50770405953,246.50758871995,246.50758994512,246.50770328527,213.13916403183,213.13882651668,213.13882791769,213.13916365864,225.75910563333,246.50776127844,246.5075316016,246.50753271331,246.5077603907,239.60725574009,239.60715006806,239.60715110659,239.6072553663,215.07628701769,215.0760756583,225.75910563333,215.07607700791,215.0762869118,251.71490161025,251.71480707096,251.71480840677,251.71490053802,215.07639247276,215.0759704861,215.07597152366,215.0763920548,255.46300030757,251.71492496237,251.71478375647,251.71478504796,251.7149238458,239.60736080397,239.60704520491,239.60704602098,239.6073602077,255.46300030757,255.46299896386,255.46299896386,225.75931960473,225.75931960473,426.38664039476,426.38663980009,0
0.000146,47021529.156691,4.2876064659367e-05,1.0115428870731,8.5928233922143e-08,-8.5929609574474e-08,8.5938647927398e-08,8.5935423044662e-08,1.8182038414776e-35,-1.8181527369834e-35,-1.8181827533126e-35,1.8182367065162e-35,-47.796601014108,47.805255765868,-47.804611860636,47.796283571755,-8.5944505214214e-08,1.8181140268194e-35,1.8182146590871e-35,-1.8182733133514e-35,-1.8181745222098e-35,1.5734382243861e-22,-1.5734197345967e-22,-1.5734324210619e-22,1.5734535086963e-22,-3.1386702640673,3.1390664797207,-8.5945953939078e-08,-3.139035024458,3.1386553430803,8.9739334071043e-55,-8.9732557443205e-55,-8.9735525987933e-55,8.9742419399766e-55,-3.138543502653,3.1392089452011,-3.1391624836501,3.1385145175364,0,8.9736117241481e-55,8.9734424695557e-55,-8.9738782977517e-55,-8.9740547813057e-55,1.5733281631583e-22,1.5735054548046e-22,-1.5735433055122e-22,-1.5733676374345e-22,0,0,0,8.5938698448436e-08,-8.5935452900889e-08,225.70319183792,225.70319183792,225.70296930368,225.70296930368,246.52177402611,246.52165387203,246.52165569578,246.52177368843,213.02660309342,213.02625083029,213.02625308444,213.02660342457,225.70274521267,246.5218337407,246.52159451597,246.52159596741,246.52183303068,239.6001117558,239.600001652,239.60000346256,239.60011203921,214.97329632765,214.97307577128,225.70274521267,214.97307815411,214.97329713338,251.74387070451,251.74377222015,251.74377396969,251.74386985125,214.97340659273,214.97296627318,214.97296785765,214.9734066001,255.50218500561,251.74389507105,251.74374799628,251.74374959601,251.74389406797,239.60022143139,239.5998926521,239.59989376372,239.60022101584,255.50218500561,255.50218355335,255.50218355335,225.70296778892,225.70296778892,426.16082594382,426.16082529407,0
0.0001465,47168915.304284,4.3022953101482e-05,1.0115951841961,8.3596566377593e-08,-8.3597949346258e-08,8.3607094850427e-08,8.3603845191939e-08,1.7154437288243e-35,-1.7153942892605e-35,-1.7154232438641e-35,1.715475605206e-35,-47.81388847187,47.822928850806,-47.822234379394,47.81354777031,-8.36130704952e-08,1.715355755824e-35,1.7154549723098e-35,-1.7155119790328e-35,-1.7154146589665e-35,1.4974657584825e-22,-1.4974479813255e-22,-1.4974600317474e-22,1.4974804960246e-22,-3.1243659486685,3.1247774060267,-8.3614529522831e-08,-3.1247430436529,3.1243494017394,8.417808448841e-55,-8.4171518435293e-55,-8.4174390192089e-55,8.4181075324478e-55,-3.1242336138291,3.1249251837328,-3.1248761211188,3.1242033804858,0,8.4174958939422e-55,8.4173339234329e-55,-8.417755720057e-55,-8.4179251038631e-55,1.4973568197639e-22,1.4975327467353e-22,-1.497569815139e-22,-1.4973955743839e-22,0,0,0,8.3607181260101e-08,-8.3603910626732e-08,225.64737231366,225.64737231366,225.64714085692,225.64714085692,246.53615268022,246.53602752495,246.53602999049,246.53615280971,212.91457891015,212.9142112985,212.91421447068,212.9145799985,225.64690678881,246.53621498987,246.53596585019,246.53596766612,246.53621446971,239.59335900121,239.59324429327,239.59324693166,239.59335998867,214.87085207508,214.87062194902,225.64690678881,214.87062544303,214.87085386064,251.77308292997,251.77298034703,251.77298254029,251.77308231057,214.87096735228,214.87050795929,214.87051013209,214.87096781663,255.54156464357,251.77310835114,251.77295518101,251.77295711151,251.77310746895,239.59347347349,239.59313100578,239.59313243452,239.59347325128,255.54156464357,255.54156307435,255.54156307435,225.64713829059,225.64713829059,425.93608455253,425.9360838437,0
0.000147,47316565.486705,4.3169843310644e-05,1.0116474983894,8.1327926970389e-08,-8.1329317029059e-08,8.1338569901612e-08,8.1335295688936e-08,1.6186491916969e-35,-1.618601374051e-35,-1.61862929867e-35,1.6186801124634e-35,-47.831120393222,47.84056271546,-47.839814406741,47.8307553523,-8.134466496161e-08,1.618563029137e-35,1.6186608426779e-35,-1.6187162406527e-35,-1.6186203799065e-35,1.4252458837109e-22,-1.4252288085442e-22,-1.4252402368879e-22,1.4252600908767e-22,-3.1101001408236,3.1105273860227,-8.1346134162199e-08,-3.1104899410569,3.110081886891,7.8971530907818e-55,-7.8965169106576e-55,-7.8967947217286e-55,7.8974430422896e-55,-3.1099620140111,3.1106806559854,-3.1106288580623,3.1099304978229,0,7.8968494379417e-55,7.8966944753165e-55,-7.8971026563806e-55,-7.8972652194845e-55,1.4251380665864e-22,1.425312625653e-22,-1.4253489206577e-22,-1.42517611229e-22,0,0,0,8.1338692783592e-08,-8.1335397314308e-08,225.59207375424,225.59207375424,225.5918330436,225.5918330436,246.55083852686,246.55070817699,246.55071132987,246.55083915553,212.80308978573,212.80270620231,212.80271036109,212.80309168692,225.59158859114,246.55090353454,246.55064409989,246.55064630646,246.55090321688,239.58699577036,239.58687627967,239.58687980467,239.58699751102,214.76895260377,214.76871252128,225.59158859114,214.76871720881,214.76895544099,251.80253702093,251.80243018029,251.80243284898,251.80253665086,214.76907310302,214.76859386836,214.76859667329,214.76907405762,255.58113815073,251.80256353839,251.80240403829,251.80240632339,251.80256278471,239.58711523103,239.58675854874,239.58676031742,239.58711521535,255.58113815073,255.5811364555,255.5811364555,225.59182935006,225.59182935006,425.71241254587,425.71241177364,0
0.0001475,47464481.539887,4.3316735330508e-05,1.0116998330396,7.9120629751735e-08,-7.9122026668361e-08,7.9131387106959e-08,7.9128088568445e-08,1.5274655203098e-35,-1.5274192826458e-35,-1.5274462081412e-35,1.5274955176273e-35,-47.848296427281,47.858157672109,-47.857352057454,47.847905937357,-7.9137602625469e-08,1.5273811374643e-35,1.5274775610271e-35,-1.527531388144e-35,-1.5274369748388e-35,1.3565895907861e-22,-1.3565732071127e-22,-1.3565840271026e-22,1.3566032837682e-22,-3.0958728706687,3.0963164683543,-7.9139081865276e-08,-3.0962757561256,3.0958528260634,7.4096455725916e-55,-7.4090292045567e-55,-7.4092979554014e-55,7.4099266993505e-55,-3.0957287257338,3.0964754160175,-3.0964207416904,3.0956958921717,0,7.4093506022931e-55,7.4092023806033e-55,-7.4095973495506e-55,-7.4097533617527e-55,1.3564828941427e-22,1.3566560824661e-22,-1.3566916128955e-22,-1.3565202416224e-22,0,0,0,7.9131547040541e-08,-7.9128226995294e-08,225.53729442089,225.53729442089,225.53704411374,225.53704411374,246.56583007789,246.56569433307,246.5656982213,246.56583123924,212.69213403151,212.69173382958,212.69173904742,212.69213680408,225.53678885447,246.56589789031,246.56562776723,246.56563039208,246.56589778825,239.58102036396,239.5808959055,239.58090037903,239.58102290941,214.66759626486,214.66734582466,225.53678885447,214.66735179264,214.66760022933,251.83223171816,251.83212045491,251.83212363252,251.83223161349,214.66772220418,214.66722233099,214.66722581434,214.667723684,255.62090446218,251.83225937508,251.832093302,251.83209596693,251.8322587577,239.58114501174,239.58077357015,239.58077570283,239.58114521631,255.62090446218,255.62090263125,255.62090263125,225.53703921338,225.53703921338,425.48980624903,425.48980540875,0
0.000148,47612675.231024,4.3463629205483e-05,1.0117522173883,7.6973032957729e-08,-7.697443649446e-08,7.6983904677005e-08,7.6980582047762e-08,1.4415595516923e-35,-1.4415148531287e-35,-1.4415408095034e-35,1.4415886568738e-35,-47.865416221815,47.875714058176,-47.87484745982,47.864999144358,-7.6990241682899e-08,1.4414769183294e-35,1.441571964997e-35,-1.4416242582576e-35,-1.4415312804051e-35,1.2913175488245e-22,-1.2913018462939e-22,-1.2913120714155e-22,1.2913307436174e-22,-3.0816841666932,3.0821447006374,-7.6991730824078e-08,-3.0821005268336,3.0816622451158,6.9531197433499e-55,-6.9525225929368e-55,-6.95278257843e-55,6.9533923431926e-55,-3.0815337696566,3.0823095169969,-3.0822518179689,3.0814995843803,0,6.9528332424432e-55,6.9526915036774e-55,-6.9530736517223e-55,-6.9532233738944e-55,1.2912119713605e-22,1.2913837864852e-22,-1.2914185610775e-22,-1.2912486312584e-22,0,0,0,7.6984102236658e-08,-7.6980757885671e-08,225.48303258113,225.48303258113,225.4827723233,225.4827723233,246.58112585206,246.58098450472,246.58098917893,246.58112758112,212.58170996653,212.58129247498,212.58129882846,212.58171367205,225.48250581904,246.58119657978,246.58091536094,246.58091843327,246.58119670693,239.57543108948,239.57530147159,239.57530695882,239.57543449379,214.56678141682,214.56652020261,225.48250581904,214.56652754278,214.5667865881,251.86216576893,251.86204991214,251.86205363405,251.86216594633,214.56691302262,214.56639168442,214.56639589509,214.56691506438,255.66086251887,251.86219461002,251.86202171224,251.86202478371,251.86219413694,239.57556113029,239.57517436552,239.57517688762,239.57556156945,255.66086251887,255.66086054182,255.66086054182,225.48276613232,225.48276613232,425.26826198657,425.26826107322,0
0.0001485,47761227.935754,4.3610524980739e-05,1.0118046232988,7.4883537884027e-08,-7.4884947797133e-08,7.4894523881489e-08,7.4891177403443e-08,1.3606183354574e-35,-1.3605751361487e-35,-1.3606001525685e-35,1.3606465789845e-35,-47.882479423284,47.893232237314,-47.892300756067,47.882034591641,-7.4900983388778e-08,1.360537421839e-35,1.360631104799e-35,-1.3606819003309e-35,-1.3605903458463e-35,1.2292596028036e-22,-1.2292445712166e-22,-1.2292542147178e-22,1.2292723152068e-22,-3.0675340556948,3.0680121294325,-7.4902482289186e-08,-3.0679642896274,3.0675101681978,6.5255544048988e-55,-6.5249758957531e-55,-6.5252274015492e-55,6.5258187664318e-55,-3.0673771645124,3.0681830111766,-3.0681221315791,3.0673415934779,0,6.5252761664674e-55,6.5251406612652e-55,-6.5255103677231e-55,-6.5256540521022e-55,1.2291551430383e-22,1.2293255828832e-22,-1.2293596102866e-22,-1.2291911259426e-22,0,0,0,7.4894759636375e-08,-7.4891391260471e-08,225.42928650877,225.42928650877,225.42901593419,225.42901593419,246.59672437502,246.59657721014,246.59658272367,246.59672670838,212.47181591754,212.47138044009,212.47138801007,212.47182062072,225.42873773047,246.59679813256,246.59650539631,246.59650894697,246.59679850303,239.57022626113,239.57009128528,239.57009785482,239.57023058099,214.46650642555,214.46623400548,225.42873773047,214.46624281463,214.46651288731,251.89233792697,251.8922172995,251.89222160309,251.89233840373,214.46664393292,214.46610027258,214.46610526224,214.46664657518,255.70101126758,251.89236799854,251.89218801539,251.89219152165,251.89236767794,239.57036190835,239.56995923675,239.56996217512,239.57036259701,255.70101126758,255.70100913324,255.70100913324,225.42900836448,225.42900836448,425.0477760815,425.04777508965,0
0.000149,47910060.335961,4.3757422702208e-05,1.0118570515298,7.2850587788084e-08,-7.2852003827708e-08,7.286168795143e-08,7.2858317873557e-08,1.2843478836317e-35,-1.2843061447491e-35,-1.2843302495653e-35,1.2843752951729e-35,-47.899485676832,47.910712600574,-47.90971210275,47.899011897267,-7.2868270958839e-08,1.2842686605138e-35,1.2843609930449e-35,-1.2844103261174e-35,-1.2843201828289e-35,1.1702542974223e-22,-1.1702399267338e-22,-1.170249001628e-22,1.1702665430396e-22,-3.0534225627283,3.0539188002185,-7.2869779471914e-08,-3.0538670793742,3.0533966177093,6.1250633996004e-55,-6.1245029729754e-55,-6.1247462757926e-55,6.1253198024711e-55,-3.0532589270504,3.0540959498721,-3.0540317258716,3.0532219366338,0,6.1247932228327e-55,6.1246637101996e-55,-6.1250213428128e-55,-6.1251592332686e-55,1.1701509537048e-22,1.1703200165534e-22,-1.1703533053236e-22,-1.1701862701444e-22,0,0,0,7.2861962465025e-08,-7.2858570355892e-08,225.37605448401,225.37605448401,225.37577321434,225.37577321434,246.61262417932,246.61247097421,246.61247738324,246.61262715521,212.36245021907,212.36199603335,212.36200490521,212.36245598791,225.3754828399,246.61270108531,246.61239639523,246.61240045681,246.61270171371,239.5654041999,239.56526366048,239.56527138452,239.56540949472,214.36676966436,214.36648559049,225.3754828399,214.3664959707,214.36677750458,251.92274695252,251.92262137081,251.92262629552,251.92274774655,214.36691331739,214.3663464461,214.36635226932,214.3669166006,255.74134966093,251.92277830253,251.92259096404,251.92259493498,251.92277814277,239.56554567462,239.56512649214,239.5651298751,239.56554662832,255.74134966093,255.74134735731,255.74134735731,225.37576417323,225.37576417323,424.82834485425,424.82834377807,0
0.0001495,48059174.853964,4.3904322416586e-05,1.0119095028541,7.0872666817982e-08,-7.0874088728246e-08,7.0883881008244e-08,7.0880487586459e-08,1.2124719991624e-35,-1.2124316828751e-35,-1.2124549036444e-35,1.2124986075979e-35,-47.916434626381,47.92815556754,-47.927081671263,47.915930679135,-7.0890588498731e-08,1.212394437796e-35,1.212485433258e-35,-1.2125333382972e-35,-1.2124445939613e-35,1.1141484259548e-22,-1.1141347062781e-22,-1.1141432253449e-22,1.1141602201998e-22,-3.0393497110563,3.0398647573597,-7.0892106473225e-08,-3.0398089293133,3.0393216142462,5.749886389518e-55,-5.749343503776e-55,-5.7495788716724e-55,5.7501351047163e-55,-3.0391790719832,3.0400483834311,-3.0399806428239,3.0391406291024,0,5.7496240795956e-55,5.7495003266299e-55,-5.7498462418927e-55,-5.7499785742283e-55,1.1140461964737e-22,1.1142138809668e-22,-1.1142464395627e-22,-1.1140808569189e-22,0,0,0,7.0884194837684e-08,-7.08807792983e-08,225.32333479342,225.32333479342,225.32304243771,225.32304243771,246.62882380445,246.62866432843,246.62867169216,246.62882746278,212.25361121345,212.25313757013,212.253147834,212.25361811938,225.32273940389,246.62890398174,246.62858688614,246.62859149304,246.6289048832,239.56096323361,239.56081691765,239.56082587216,239.5609695656,214.26756951407,214.2672733218,225.32273940389,214.26728538072,214.26757882522,251.95339161232,251.95326088614,251.95326647363,251.95339274218,214.26771956614,214.26712856233,214.2671352767,214.26772353274,255.78187665738,251.95342429044,251.95322931704,251.95323378428,251.95342430002,239.56111076486,239.5606744464,239.56067830383,239.56111199975,255.78187665738,255.78187417163,255.78187417163,225.32303182779,225.32303182779,424.6099646217,424.60996345486,0
0.00015,48208573.966108,4.405122417134e-05,1.0119619780586,6.8948298967844e-08,-6.8949726486538e-08,6.8959627018869e-08,6.8956210516335e-08,1.1447311780842e-35,-1.1446922475406e-35,-1.1447146110468e-35,1.1447570115229e-35,-47.933325914595,47.945561587646,-47.944409648218,47.932790555389,-6.8966459959124e-08,1.1446552502114e-35,1.1447449220323e-35,-1.1447914326367e-35,-1.1447040749463e-35,1.060796602785e-22,-1.060783524394e-22,-1.0607915001833e-22,1.0608079608805e-22,-3.0253155220918,3.0258500440795,-6.8967987238978e-08,-3.0257898709975,3.0252851765636,5.3983802779787e-55,-5.3978544081111e-55,-5.3980821007547e-55,5.3986215680836e-55,-3.0251376119213,3.0260403612089,-3.0259689229864,3.0250976841839,0,5.3981256459262e-55,5.3980074275487e-55,-5.3983419710161e-55,-5.398468973216e-55,1.0606954855756e-22,1.0608617907006e-22,-1.0608936274825e-22,-1.0607295004318e-22,0,0,0,6.8959980714551e-08,-6.8956542059467e-08,225.27112573007,225.27112573007,225.27082188437,225.27082188437,246.64532179682,246.64515581101,246.64516419176,246.64532617925,212.1452972509,212.14480337273,212.14481512372,212.14530536893,225.27050568453,246.64540537264,246.6450754041,246.64508059265,246.64540656283,239.55690169688,239.55674938388,239.55675964874,239.55690913122,214.16890436299,214.16859557052,225.27050568453,214.16860942161,214.16891524224,251.98427067963,251.98413461185,251.98414090609,251.9842721645,214.16906107714,214.16844498534,214.16845265168,214.16906577162,255.82259122126,251.98430473728,251.98410183949,251.98410683646,251.98430492486,239.55705552192,239.55660142065,239.55660578408,239.55705705481,255.82259122126,255.82258853959,255.82258853959,225.27080960327,225.27080960327,424.39263169602,424.3926304317,0
0.0001505,48358260.203535,4.4198128014703e-05,1.0120144779446,6.7076047058689e-08,-6.7077479917128e-08,6.7087488776645e-08,6.7084049463869e-08,1.0808815806234e-35,-1.0808439999316e-35,-1.0808655322059e-35,1.0809066664228e-35,-47.950159182962,47.962931141448,-47.961696235979,47.949591144656,-6.7094448116694e-08,1.080807258481e-35,1.0808956201459e-35,-1.0809407691006e-35,-1.0808547856965e-35,1.010060858353e-22,-1.010048411685e-22,-1.0100558565189e-22,1.0100717953332e-22,-3.011320015342,3.011874702425,-6.7095984540785e-08,-3.0118099342382,3.0112873215204,5.0690112278134e-55,-5.0685018649648e-55,-5.0687221338916e-55,5.0692453472531e-55,-3.0111345573139,3.0120719315376,-3.0119966054353,3.011093113171,0,5.0687640904133e-55,5.0686511891033e-55,-5.0689746956895e-55,-5.0690965881874e-55,1.0099608513087e-22,1.0101257763905e-22,-1.010156899616e-22,-1.0099942309133e-22,0,0,0,6.7087882881657e-08,-6.7084421437367e-08,225.21942559352,225.21942559352,225.2191098405,225.2191098405,246.66211670983,246.66194396684,246.66195343024,246.66212185982,212.03750668957,212.03699177042,212.0370051089,212.03751609843,225.21877994945,246.66220381593,246.66186049074,246.66186629929,246.66220531103,239.55321793125,239.55305939286,239.55307105205,239.55322653615,214.07077260707,214.07045071474,225.21877994945,214.0704664776,214.07078515646,252.01538293423,252.01524132061,252.01524836798,252.01538479394,214.07093625628,214.070294086,214.07030276848,214.07094172527,255.86349232275,252.01541842465,252.01520730273,252.0152128648,252.01541879902,239.55337829582,239.55290574248,239.55291064518,239.55338014417,255.86349232275,255.86348943037,255.86348943037,225.21909578068,225.21909578068,424.17634238359,424.17634101441,0
0.000151,48508236.152967,4.4345034973254e-05,1.0120670033279,6.525451174417e-08,-6.525594966715e-08,6.5266066907213e-08,6.5262605062142e-08,1.0206940668542e-35,-1.0206578010667e-35,-1.0206785274061e-35,1.0207184316414e-35,-47.966934071865,47.980264741916,-47.97894165313,47.966332066314,-6.5273153579922e-08,1.0206213231719e-35,1.0207083882142e-35,-1.0207522075041e-35,-1.0206675859867e-35,9.6181025533525e-23,-9.6179843099655e-23,-9.6180535697092e-23,9.6182078605003e-23,-2.9973632083496,2.9979387732276,-6.5274698981717e-08,-2.9978691470445,2.9973280640262,4.7603472340939e-55,-4.7598538851239e-55,-4.7600669739843e-55,4.7605744294074e-55,-2.9971699163841,2.998143141688,-2.998063727716,2.9971269252921,0,4.7601074137615e-55,4.7599996193185e-55,-4.760312413585e-55,-4.7604294095188e-55,9.6171135621595e-23,9.6187490090991e-23,-9.6190531872983e-23,-9.6174411083708e-23,0,0,0,6.5266501956635e-08,-6.5263018062142e-08,225.16823268993,225.16823268993,225.1679045985,225.1679045985,246.67920710388,246.67902734751,246.67903796264,246.67921306674,211.93023789562,211.92970109948,211.92971613131,211.93024867791,225.16756047184,246.67929787666,246.67894069434,246.67894716336,246.67929969337,239.54991028515,239.54974528492,239.54975842677,239.54992013197,213.97317264985,213.97283713959,225.16756047184,213.97285494022,213.97318697654,252.04672716245,252.04657979135,252.04658764081,252.04672941748,213.97334351744,213.97267424199,213.97268400831,213.97334980981,255.90457893789,252.04676414075,252.04654448437,252.04655064891,252.04676471081,239.55007744373,239.54958574597,239.54959122301,239.55007962569,255.90457893789,255.90457581896,255.90457581896,225.16788864699,225.16788864699,423.96109298371,423.96109150171,0
0.0001515,48658504.457484,4.4491944370958e-05,1.0121195550389,6.3482330541107e-08,-6.3483773246626e-08,6.3493998898853e-08,6.3490514807138e-08,9.6395329279294e-36,-9.6391830788554e-36,-9.639382528745e-36,9.6397696248209e-36,-47.983650220607,47.997562936006,-47.996146134969,47.983012940972,-6.3501213819374e-08,9.6388210079011e-36,9.6396788277877e-36,-9.6401040360571e-36,-9.6392713154388e-36,9.1592052493785e-23,-9.1590931370353e-23,-9.1591573269262e-23,9.15930664053e-23,-2.983445116628,2.9840422960753,-6.3502768026801e-08,-2.9839675355594,2.9834074169948,4.4710512121124e-55,-4.4705733991318e-55,-4.4707795439499e-55,4.4712717221888e-55,-2.9832436950578,2.9842540378445,-2.9841703257842,2.9831991276651,0,4.4708185367696e-55,4.4707156460515e-55,-4.4710180425073e-55,-4.4711303479623e-55,9.158227313774e-23,9.1598489565777e-23,-9.1601461611533e-23,-9.158548712094e-23,0,0,0,6.3494475419262e-08,-6.3490969426353e-08,225.1175453321,225.1175453321,225.11720445701,225.11720445701,246.69659154638,246.69640451136,246.69641635091,246.69659836934,211.8234892433,211.82292970324,211.82294654006,211.82350148567,225.11684553048,246.69668612703,246.69631456978,246.69632174198,246.6966882826,239.54697711396,239.54680540709,239.5468201244,239.54698827736,213.87610290261,213.87575323727,225.11684553048,213.8757732084,213.87611911908,252.07830215718,252.07814880932,252.07815751253,252.07830482867,213.87628128258,213.8755838378,213.87559475938,213.87628844949,255.94585004861,252.0783406804,252.07811216828,252.0781189748,252.07834145516,239.54715133008,239.54663977169,239.54664586003,239.54715386448,255.94585004861,255.94584668617,255.94584668617,225.1171864952,225.1171864952,423.74687978735,423.74687818392,0
0.000152,48809067.817311,4.4638856100802e-05,1.012172133923,6.1758176883676e-08,-6.1759624082729e-08,6.1769958156615e-08,6.1766452111784e-08,9.1045686306653e-36,-9.1042312592065e-36,-9.1044231344942e-36,9.1047986287711e-36,-48.000307267481,48.014826306036,-48.013309934036,47.999633390793,-6.1777302222009e-08,9.1038719645631e-36,9.1047170898598e-36,-9.105129617814e-36,-9.1043102672263e-36,8.7227372222441e-23,-8.7226311504168e-23,-8.7226903870043e-23,8.7228348422437e-23,-2.9695657535936,2.9701853092649,-6.1778865057092e-08,-2.9701051239925,2.9695253912824,4.1998745641079e-55,-4.1994118240483e-55,-4.1996112534527e-55,4.2000886204207e-55,-2.9693558968938,2.9704046650622,-2.9703164339467,2.9693097252367,0,4.1996488671131e-55,4.1995506837992e-55,-4.1998429871681e-55,-4.1999508014189e-55,8.7217703174296e-23,8.7233781589405e-23,-8.7236684692073e-23,-8.7220856690303e-23,0,0,0,6.1770476665396e-08,-6.1766948939143e-08,225.06736183955,225.06736183955,225.06700772095,225.06700772095,246.71426861178,246.71407402345,246.71408716392,246.71427634406,211.717259115,211.71667593213,211.71669469164,211.71727290828,225.06663340984,246.71436714648,246.71398067862,246.71398859906,246.71436965869,239.54441678006,239.54423811313,239.54425450343,239.54442933812,213.7795617844,213.77919740711,225.06663340984,213.7792196885,213.77958000866,252.11010671789,252.10994716608,252.10995677752,252.11010982763,213.77974798179,213.77902126485,213.77903341701,213.7797560768,255.98730464275,252.11014684508,252.10990914461,252.10991663488,252.11014783361,239.54459832659,239.54406616673,239.54407290538,239.54460123296,255.98730464275,255.9873010186,255.9873010186,225.06698762436,225.06698762436,423.53369907583,423.53369734162,0
0.0001525,48959928.990609,4.4785770219076e-05,1.0122247408405,6.0080759200895e-08,-6.0082210597289e-08,6.0092653079953e-08,6.0089125383669e-08,8.6001453657612e-36,-8.5998201496186e-36,-8.6000046824589e-36,8.6003689105141e-36,-48.01690484989,48.032055471292,-48.030433320654,48.016193039968,-6.0100127168595e-08,8.5994636956082e-36,8.6002962624216e-36,-8.6006964068216e-36,-8.5998903016178e-36,8.3075789948849e-23,-8.3074788747955e-23,-8.3075332724711e-23,8.307672986788e-23,-2.9557251305,2.9563678497645,-6.0101698447179e-08,-2.9562819345513,2.955681995634,3.9456511910699e-55,-3.9452030752674e-55,-3.9453960107293e-55,3.9458590179127e-55,-2.9555065230098,2.9565950672292,-2.9565020847953,2.9554587207251,0,3.9454323110857e-55,3.9453386454472e-55,-3.9456211509449e-55,-3.9457246666849e-55,8.3066230949916e-23,8.30821714106e-23,-8.3085006351959e-23,-8.3069325002489e-23,0,0,0,6.0093214084614e-08,-6.0089665003889e-08,225.0176805386,225.0176805386,225.01731270167,225.01731270167,246.73223688163,246.73203445561,246.73204897747,246.73224557447,211.61154590137,211.61093814372,211.61095895,211.61156134078,225.01692240006,246.73233952167,246.73193758905,246.73194630528,246.73234240883,239.54222765286,239.54204176351,239.54205992926,239.54224168719,213.68354772212,213.68316805559,225.01692240006,213.68319279442,213.68356807798,252.14213965067,252.14197365954,252.14198423667,252.14214322111,213.6837420534,213.68298492146,213.68299838362,213.68375113258,256.02894171403,252.14218144291,252.1419342098,252.14194242796,252.14218265435,239.54241681231,239.54186328479,239.54187071483,239.5424201109,256.02894171403,256.0289378087,256.0289378087,225.01729033963,225.01729033963,423.32154711929,423.32154524424,0
0.000153,49111090.794262,4.4932686783054e-05,1.0122773766667,5.8448820016996e-08,-5.8450275307113e-08,5.8460826162988e-08,5.8457277125296e-08,8.124474817716e-36,-8.1241614433159e-36,-8.1243388592909e-36,8.1246921479645e-36,-48.03344260442,48.049251089606,-48.047516583487,48.032691515179,-5.8468431134087e-08,8.1238078904239e-36,8.1246280349339e-36,-8.1250160851125e-36,-8.124223100617e-36,7.912667967041e-23,-7.9125737116968e-23,-7.9126233827196e-23,7.912758472142e-23,-2.9419232563639,2.9425899531648,-5.8470010665422e-08,-2.9424979873671,2.9418772366211,3.7072919181435e-55,-3.7068579919366e-55,-3.7070446479898e-55,3.7074937328535e-55,-2.9416955720039,2.9428252870226,-2.9427273091395,2.9416461145586,0,3.7070796990411e-55,3.7069903677204e-55,-3.7072633613092e-55,-3.707362764876e-55,7.9117230452272e-23,7.9133033046229e-23,-7.91358005963e-23,-7.9120266036896e-23,0,0,0,5.8461430160389e-08,-5.8457860118462e-08,224.96849976244,224.96849976244,224.96811771694,224.96811771694,246.7504949446,246.75028438647,246.75030037437,246.75050465135,211.50634800138,211.50571470278,211.5057376866,211.5063651867,224.96771079704,246.75060184655,246.75018387599,246.75019343815,246.7506051275,239.54040810889,239.54021472555,239.54023477436,239.54042370478,213.5880591506,213.58766359647,224.96771079704,213.58769094764,213.58808176788,252.17439976823,252.17422709393,252.17423869733,252.17440382246,213.58826194408,213.58747321297,213.58748806884,213.58827206605,256.07076026214,252.17444328875,252.17418616658,252.17419515928,252.17444473223,239.54060517369,239.54002948613,239.54003765088,239.54060888547,256.07076026214,256.07075605477,256.07075605477,224.96809295237,224.96809295237,423.11042017529,423.11041814848,0
0.0001535,49262556.10468,4.5079605850998e-05,1.0123300422925,5.6861135073998e-08,-5.6862593946616e-08,5.6873253117098e-08,5.6869683056616e-08,7.6758757839609e-36,-7.6755739462661e-36,-7.6757444645701e-36,7.6760871321514e-36,-48.049920166947,48.0664138591,-48.064560030123,48.049128446101,-5.688098981015e-08,7.6752233513284e-36,7.676031209688e-36,-7.6764074476957e-36,-7.6756274593069e-36,7.5369954815882e-23,-7.5369070057936e-23,-7.5369520603246e-23,7.5370826394517e-23,-2.928160137887,2.9288516536346,-5.6882577396536e-08,-2.928753300419,2.928111118577,3.4837793045758e-55,-3.4833591468946e-55,-3.4835397313592e-55,3.4839753177587e-55,-2.9279230398748,2.9290953658663,-2.9289921359349,2.9278719048118,0,3.4835735953473e-55,3.4834884211312e-55,-3.4837521797826e-55,-3.4838476513881e-55,7.5360615101339e-23,7.5376279944498e-23,-7.5378980861337e-23,-7.5363593205048e-23,0,0,0,5.6873900592657e-08,-5.6870309997717e-08,224.91981785125,224.91981785125,224.91942109104,224.91942109104,246.76904139651,246.76882240146,246.76883994444,246.76905217268,211.40166382246,211.40100398135,211.4010292805,211.40168285816,224.91899690248,246.76915272239,246.76871812106,246.76872858204,246.7691564165,239.53895653178,239.53875537335,239.53877741824,239.53897377834,213.49309451271,213.49268245078,224.91899690248,213.49271257732,213.49311952752,252.20688588994,252.20670627985,252.20671897341,252.20689045172,213.49330610892,213.49248455176,213.49250088959,213.493317335,256.11275929267,252.20693120414,252.20666382403,252.20667364054,252.20693288882,239.53916180463,239.53856313769,239.53857208278,239.53916595134,256.11275929267,256.11275476095,256.11275476095,224.91939378015,224.91939378015,422.90031448713,422.90031229674,0
0.000154,49414327.858591,4.5226528271599e-05,1.0123827386241,5.5316512476064e-08,-5.531797461198e-08,5.5328742015108e-08,5.532515125949e-08,7.2527676275044e-36,-7.252477029854e-36,-7.2526408634811e-36,7.2529732198363e-36,-48.066337172718,48.083544519946,-48.081563987596,48.065503466057,-5.5336611249369e-08,7.2521294462021e-36,7.252925154446e-36,-7.2532898551921e-36,-7.2525227384459e-36,7.1796040441229e-23,-7.1795212645061e-23,-7.1795618106539e-23,7.179687992598e-23,-2.9144357793749,2.9151529838694,-5.5338206685815e-08,-2.9150478894479,2.9143836435376,3.2741628111586e-55,-3.2737560141466e-55,-3.2739307283461e-55,3.2743532268935e-55,-2.9141889199328,2.9154053438825,-2.9152965922026,2.9141360871435,0,3.2739634658187e-55,3.2738822774289e-55,-3.2741370693738e-55,-3.2742287833034e-55,7.1786809945212e-23,7.1802337180717e-23,-7.1804972210235e-23,-7.1789731546154e-23,0,0,0,5.5329433442048e-08,-5.5325822717812e-08,224.87163315223,224.87163315223,224.8712211549,224.8712211549,246.78787484038,246.78764709289,246.78766628455,246.78788674371,211.29749178055,211.29680435881,211.29683211845,211.29751277606,224.87077902395,246.78799075782,246.78753891263,246.78755032819,246.78799488499,239.53787131239,239.53766208794,239.53768624757,239.53789030267,213.39865225942,213.39822304694,224.87077902395,213.39825612039,213.3986798144,252.23959684186,252.23941003428,252.23942388536,252.23960193559,213.39887301156,213.39801735732,213.3980352701,213.39888540583,256.15493781725,252.23964401741,252.23936599755,252.23937668992,252.23964595238,239.53808510659,239.53746261308,239.53747238659,239.53808971069,256.15493781725,256.15493293727,256.15493293727,224.87119114692,224.87119114692,422.69122628221,422.69122391546,0
0.0001545,49566409.053846,4.5373459787079e-05,1.0124354665831,5.3813791855011e-08,-5.3815256926742e-08,5.3826132456927e-08,5.3822521343083e-08,6.8536641372093e-36,-6.8533844911371e-36,-6.8535418470428e-36,6.853864193801e-36,-48.082693256496,48.100643856204,-48.098528803094,48.081816212586,-5.3834135030838e-08,6.8530399687657e-36,6.853823662718e-36,-6.8541770940836e-36,-6.8534227247548e-36,6.8395846877195e-23,-6.8395075227441e-23,-6.8395436665923e-23,6.8396655629691e-23,-2.9007501826528,2.9014939750377,-5.3835738104528e-08,-2.9013817678778,2.9006948111684,3.0775543000732e-55,-3.0771604686989e-55,-3.0773295076591e-55,3.0777393161162e-55,-2.9004932027128,2.9017552598388,-2.9016407029545,2.9004386547267,0,3.0773611775677e-55,3.0772838094471e-55,-3.0775298944044e-55,-3.077618019238e-55,6.8386725307663e-23,6.8402115104919e-23,-6.8404684980468e-23,-6.8389591374767e-23,0,0,0,5.382686829537e-08,-5.3823237881688e-08,224.82394401978,224.82394401978,224.82351624612,224.82351624612,246.80699388648,246.80675705994,246.80677799869,246.80700697699,211.19383030027,211.19311422194,211.19314459497,211.19385337012,224.82305547496,246.80711456892,246.80664484584,246.80665727478,246.80711914955,239.53715084884,239.53693325726,239.5369596562,239.53717168,213.30473084994,213.30428382082,224.82305547496,213.30432002163,213.30476109453,252.27253145678,252.2723371806,252.2723522602,252.27253710749,213.30496112427,213.30407005635,213.30408964204,213.30497475371,256.19729485344,252.27258056368,252.2722915089,252.27230313213,252.27258275796,239.53737348859,239.53672629264,239.53673694522,239.53737857333,256.19729485344,256.19728959966,256.19728959966,224.82348338297,224.82348338297,422.48315177024,422.48314921329,0
0.000155,49718802.750226,4.5520394532386e-05,1.0124882602407,5.2351843556521e-08,-5.2353311228052e-08,5.2364294755681e-08,5.2360663630143e-08,6.4771677698514e-36,-6.4768987949358e-36,-6.4770498742091e-36,6.4773625049123e-36,-48.098988052726,48.117712697727,-48.115454844529,48.09806632811,-5.2372431446316e-08,6.4765573806528e-36,6.4773291958518e-36,-6.4776716188259e-36,-6.4769298730089e-36,6.5160744751651e-23,-6.5160028451628e-23,-6.5160346908062e-23,6.5161524117012e-23,-2.8871033469783,2.887874656721,-5.2374041936134e-08,-2.8877549467224,2.8870446186941,2.8931238437944e-55,-2.8927425954943e-55,-2.8929061481477e-55,2.8933036517864e-55,-2.8868358758837,2.8881451510937,-2.8880244911049,2.8867795981756,0,2.892936807923e-55,2.8928631000402e-55,-2.8931007294567e-55,-2.8931854282686e-55,6.5151731810591e-23,6.5166984364376e-23,-6.5169489806529e-23,-6.5154543303408e-23,0,0,0,5.2365075451672e-08,-5.2361425805299e-08,224.77674881554,224.77674881554,224.77630470911,224.77630470911,246.82639715238,246.8261509087,246.826173698,246.82641149243,211.09067781502,211.08993196502,211.08996511245,211.09070307904,224.77582457504,246.82652277923,246.82603452265,246.82604802697,246.82652783422,239.53679354658,239.53656727627,239.53659604524,239.53681632001,213.21132875181,213.21086321584,224.77582457504,213.21090273379,213.21136184252,252.30568857426,252.30548654863,252.30550293158,252.30569480759,213.21156892813,213.2106410828,213.21066244461,213.21158386268,256.2398294249,252.3057396849,252.30543918624,252.30545179841,252.3057421474,239.53702536734,239.53635256352,239.53636414851,239.53703095674,256.2398294249,256.23982376996,256.23982376996,224.7762688251,224.7762688251,422.27608714138,422.27608437922,0
0.0001555,49871614.777778,4.5667332597269e-05,1.012541136641,5.0929567846658e-08,-5.0931037773037e-08,5.094212914414e-08,5.0938478363604e-08,6.1219642499142e-36,-6.1217056736109e-36,-6.1218506716603e-36,6.1221538718958e-36,-48.115221195633,48.134751922239,-48.132342501126,48.114253460756,-5.0950400706553e-08,6.1213674111721e-36,6.1221274827784e-36,-6.1224591516087e-36,-6.121729905779e-36,6.2082541314918e-23,-6.208187958674e-23,-6.2082156082738e-23,6.208329262193e-23,-2.8734952689448,2.8742950568577,-5.0952018382708e-08,-2.8741674344882,2.8734330608299,2.7200958214839e-55,-2.7197267858052e-55,-2.7198850351978e-55,2.7202706071441e-55,-2.8732169241467,2.8745750535413,-2.8744479773756,2.8731589054768,0,2.7199147408006e-55,2.7198445384525e-55,-2.7200739557421e-55,-2.7201553862884e-55,6.2073636699131e-23,6.208875222851e-23,-6.2091193945027e-23,-6.2076394567491e-23,0,0,0,5.0942955128773e-08,-5.093928672403e-08,224.73004590853,224.73004590853,224.72958489517,224.72958489517,246.84608326298,246.84582725223,246.84585200081,246.84609891736,210.98803276709,210.98725598993,210.98729208128,210.98806035064,224.7290846498,246.84621401981,246.84570655188,246.8457211969,246.84621957057,239.53679781844,239.53656254696,239.53659382314,239.53682263995,213.118444441,213.11795968305,224.7290846498,213.11800271771,213.11848054175,252.33906704064,252.33885697466,252.33887473982,252.33907388286,213.1186949131,213.11772887799,213.11775212461,213.1187112258,256.2825405613,252.33912022989,252.33880786414,252.33882152659,252.33912296934,239.5370391673,239.53633981968,239.53635239327,239.53704528616,256.2825405613,256.28253447596,256.28253447596,224.72954581669,224.72954581669,422.07002856425,422.07002558064,0
0.000156,50024887.211898,4.5814274073556e-05,1.012594053726,4.9545894138124e-08,-4.954736596511e-08,4.9558565000993e-08,4.9554894932662e-08,5.7868175044248e-36,-5.7865690619062e-36,-5.786708168612e-36,5.7870022161793e-36,-48.131392319422,48.151762457354,-48.149192184182,48.130377265076,-4.9566972167645e-08,5.7862339921829e-36,5.7869824549028e-36,-5.7873036172045e-36,-5.7865867483081e-36,5.9153457998595e-23,-5.9152850083373e-23,-5.9153085621514e-23,5.9154182560056e-23,-2.8599259423843,2.8607552016731,-4.956859679103e-08,-2.8606192370812,2.8598601296991,2.5577452827053e-55,-2.5573881009578e-55,-2.5575412244318e-55,2.5579152260204e-55,-2.8596363291373,2.8610450015446,-2.8609111802085,2.8595765619091,0,2.5575700304534e-55,2.5575031840738e-55,-2.5577246248289e-55,-2.5578029397468e-55,5.9144661400754e-23,5.9159640148168e-23,-5.9162018833608e-23,-5.9147366584497e-23,0,0,0,4.9559436689302e-08,-4.9555750018883e-08,224.68383367528,224.68383367528,224.68335516261,224.68335516261,246.86605085059,246.8657847106,246.86581153271,246.86606788656,210.88589360784,210.88508470621,210.88512391996,210.885923642,224.68283403102,246.86618692935,246.86565954921,246.86567540383,246.86619299775,239.53716208473,239.53691747843,239.53695140574,239.53718906468,213.02607640208,213.02557168123,224.68283403102,213.02561844241,213.02611568444,252.37266570912,252.37244730144,252.37246653191,252.37267318709,213.02633757823,213.02533189069,213.02535713659,213.02635534529,256.32542729842,252.37272105441,252.37239638362,252.37241116111,252.37272407934,239.53741332077,239.536686462,239.53670008334,239.53741999468,256.32542729842,256.32542075142,256.32542075142,224.68331270778,224.68331270778,421.86497218383,421.86496896118,0
0.0001565,50178500.814636,4.5961219055183e-05,1.0126470127979,4.8199780235785e-08,-4.8201253599413e-08,4.8212560096295e-08,4.820887111844e-08,5.4705649117524e-36,-5.4703263457576e-36,-5.4704597456374e-36,5.4707449106815e-36,-48.147501058453,48.16874528279,-48.166004327691,48.146437402991,-4.8221103576412e-08,5.4699945068684e-36,5.4707314948778e-36,-5.4710423917614e-36,-5.4703377772793e-36,5.6366109143463e-23,-5.6365554301524e-23,-5.6365749865816e-23,5.6366808256443e-23,-2.8463953582648,2.8472551156129,-4.8222734898039e-08,-2.8471103576994,2.8463258147587,2.4053945598349e-55,-2.4050488847595e-55,-2.4051970541406e-55,2.4055598352421e-55,-2.8460940693177,2.8475550278706,-2.8474141156596,2.8460325499674,0,2.4052250138641e-55,2.4051613788422e-55,-2.4053750710496e-55,-2.4054504180376e-55,5.6357420253012e-23,5.6372262483286e-23,-5.6374578818815e-23,-5.6360073681673e-23,0,0,0,4.8213477886183e-08,-4.8209773462003e-08,224.63811049994,224.63811049994,224.63761387687,224.63761387687,246.88629855499,246.88602191093,246.88605092661,246.88631704236,210.78425879783,210.78341653122,210.78345905519,210.78429141962,224.63707105676,246.88644015415,246.8858921373,246.88590927408,246.88644676254,239.53788477333,239.53763048699,239.53766721639,239.53791402679,212.93422312834,212.93369767703,224.63707105676,212.93374838526,212.93426577185,252.4064834398,252.40625637829,252.4062771616,252.40649158094,212.93449543173,212.93344857721,212.9334759429,212.93451473268,256.36848867821,252.40654102118,252.40620359217,252.40621955309,252.40654433985,239.53814626798,239.53739089833,239.5374056297,239.53815352332,256.36848867821,256.36848163612,256.36848163612,224.63756785517,224.63756785517,421.66091411932,421.66091063855,0
0.000157,50332459.923481,4.6108167638232e-05,1.0127000151878,4.6890211601002e-08,-4.6891686127178e-08,4.6903099855828e-08,4.6899392358267e-08,5.1721128445517e-36,-5.1718839052227e-36,-5.1720117775926e-36,5.172288322759e-36,-48.163547047405,48.185701432615,-48.182779389041,48.162433544656,-4.691178033469e-08,5.1715553326793e-36,5.172280979544e-36,-5.172581845742e-36,-5.1718893637674e-36,5.3713481834634e-23,-5.3712979345618e-23,-5.3713135901948e-23,5.3714156780795e-23,-2.8329035045794,2.8337948212678,-4.6913418095079e-08,-2.8336407967247,2.8328301027112,2.2624101118085e-55,-2.2620756072443e-55,-2.2622189890242e-55,2.2625708883779e-55,-2.832590119865,2.8341051636177,-2.833956797293,2.8325268492759,0,2.2622461544986e-55,2.2621855909952e-55,-2.2623917552475e-55,-2.2624642772509e-55,5.3704900338674e-23,5.3719606338014e-23,-5.3721860991221e-23,-5.3707502931251e-23,0,0,0,4.6904064126884e-08,-4.6900342480926e-08,224.5928747744,224.5928747744,224.5923594106,224.5923594106,246.90682502349,246.90653748745,246.9065688228,246.90684503466,210.68312680696,210.6822498902,210.68229592206,210.68316215958,224.59179407145,246.90697234829,246.90640294577,246.90642144118,246.90697951944,239.53896431974,239.53869999617,239.538739686,239.53899596665,212.84288312193,212.84233614504,224.59179407145,212.84239103208,212.84292931441,252.44051909972,252.44028306104,252.44030548943,252.440527932,212.84316699122,212.84207740155,212.8421070139,212.84318790899,256.41172374875,252.44057899994,252.44022834382,252.44024556034,252.44058262029,239.53923645715,239.53845154353,239.53846745049,239.53924432112,256.41172374875,256.41171617585,256.41171617585,224.59230962257,224.59230962257,421.45785046177,421.45784670223,0
0.0001575,50486768.984789,4.6255119920966e-05,1.0127530622561,4.5616200634494e-08,-4.561767593846e-08,4.5629196643801e-08,4.5625471028522e-08,4.8904324883304e-36,-4.890212933058e-36,-4.8903354521899e-36,4.8906036327596e-36,-48.179529921497,48.202631997646,-48.199517849754,48.17836536957,-4.5638014782078e-08,4.8898876599156e-36,4.8906020985149e-36,-4.8908931625002e-36,-4.8902126918019e-36,5.1188916785736e-23,-5.1188465948724e-23,-5.1188584445336e-23,5.1189568831575e-23,-2.8194503662322,2.8203743392973,-4.5639658710597e-08,-2.8202105516091,2.8193729774241,2.1281995830968e-55,-2.1278759236627e-55,-2.1280146791739e-55,2.1283560247008e-55,-2.8191244525561,2.820695438142,-2.8205392360697,2.8190594365088,0,2.1280411012923e-55,2.1279834740648e-55,-2.1281823237602e-55,-2.1282521591444e-55,5.1180442370027e-23,5.119501244499e-23,-5.1197206069666e-23,-5.1182995034612e-23,0,0,0,4.5630207756102e-08,-4.5626469441324e-08,224.54812489848,224.54812489848,224.54759014389,224.54759014389,246.92762891099,246.92733008153,246.92736386902,246.92765052104,210.58249611469,210.58158321644,210.58163296416,210.58253434772,224.54700142599,246.92778217363,246.92719061129,246.9272105459,246.92778993072,239.54039916719,239.54012443688,239.54016725315,239.54043333255,212.75205489399,212.75148556798,224.54700142599,212.75154487734,212.75210483191,252.47477156292,252.47452621219,252.47455038279,252.47478111483,212.7523507838,212.75121683549,212.75124882803,212.75237340488,256.45513156437,252.47483386754,252.47446949913,252.47448804747,252.47483779711,239.54068234467,239.53986681958,239.53988397114,239.54069084525,256.45513156437,256.45512342251,256.45512342251,224.54753638068,224.54753638068,421.25577727166,421.25577321097,0
0.000158,50641432.556001,4.6402076003862e-05,1.0128061553931,4.437678597695e-08,-4.4378261662842e-08,4.4389889063533e-08,4.4386145745292e-08,4.6245559182976e-36,-4.624345511576e-36,-4.6244628468524e-36,4.6247229108824e-36,-48.195449316727,48.219538127847,-48.216220216198,48.194232567586,-4.4398845496534e-08,4.6240235685627e-36,4.6247269310216e-36,-4.625008415132e-36,-4.6243398352238e-36,4.878609021684e-23,-4.8785690350537e-23,-4.8785771718498e-23,4.8786720614052e-23,-2.8060359249198,2.8069936883431,-4.4400495310692e-08,-2.806819616754,2.8059544198356,2.0022090629399e-55,-2.0018959337283e-55,-2.002030219317e-55,2.0023613284292e-55,-2.8056970356476,2.8073258789727,-2.8071614402267,2.8056302852949,0,2.0020559478805e-55,2.0020011261147e-55,-2.0021928676584e-55,-2.002260150381e-55,4.8777722566706e-23,4.8792157043237e-23,-4.8794290279217e-23,-4.8780226200315e-23,0,0,0,4.4390947356301e-08,-4.4387192947661e-08,224.50385928004,224.50385928004,224.5033044643,224.5033044643,246.94870888007,246.94839834178,246.94843472051,246.94873216679,210.48236521018,210.4814149514,210.48146863376,210.48240647982,224.50269147789,246.94886829992,246.94825377761,246.94827523631,246.94887666651,239.54218776673,239.54190224742,239.54194836417,239.54222458076,212.66173696489,212.66114443676,224.50269147789,212.66120842425,212.66179085364,252.50923971049,252.50898470083,252.50901071597,252.509250011,212.66204534634,212.66086535873,212.66089987198,212.66206976082,256.49871118567,252.50930450795,252.50892592527,252.50894588586,252.50930875383,239.54248239512,239.54163515565,239.54165362443,239.5424915611,256.49871118567,256.49870243408,256.49870243408,224.50324650734,224.50324650734,421.05469057635,421.05468619024,0
0.0001585,50796455.307877,4.6549035989647e-05,1.0128592960197,4.3171031827402e-08,-4.3172507487593e-08,4.3184241275646e-08,4.3180480682724e-08,4.3735724182898e-36,-4.373370931563e-36,-4.3734832476314e-36,4.3737354360814e-36,-48.211304870068,48.236421034938,-48.232887020344,48.210034840207,-4.3193336612567e-08,4.3730523472214e-36,4.3737447648345e-36,-4.374016885387e-36,-4.3733600765837e-36,4.6498996674153e-23,-4.6498647116959e-23,-4.6498692270699e-23,4.6499606659842e-23,-2.7926601590023,2.7936528849435,-4.3194992017282e-08,-2.7934679833836,2.7925744078672,1.8839205309489e-55,-1.8836176272228e-55,-1.8837475944146e-55,1.8840687743094e-55,-2.792307833746,2.7939965117279,-2.7938234151522,2.7922393661327,0,1.8837726782039e-55,1.8837205353466e-55,-1.8839053683377e-55,-1.8839702281113e-55,4.6490735475442e-23,4.6505034697788e-23,-4.6507108170755e-23,-4.6493190963578e-23,0,0,0,4.3185347065927e-08,-4.3181577161366e-08,224.46007633515,224.46007633515,224.45950076707,224.45950076707,246.97006360108,246.96974092409,246.96978004014,246.97008864505,210.3827325925,210.38174354485,210.38180139196,210.38277706182,224.45886259137,246.97022940489,246.96959109567,246.96961416786,246.9702384049,239.54432857736,239.54403187361,239.54408147327,239.54436817565,212.57192786434,212.5713112507,224.45886259137,212.57138018502,212.57198591862,252.54392243067,252.54365740279,252.5436853702,252.54393350918,212.57224922559,212.57102145902,212.57105864083,212.57227552734,256.54246167957,252.54398981236,252.54359649609,252.5436179538,252.5439943811,239.54463508143,239.54375498817,239.5437748506,239.5446449424,256.54246167957,256.54245227473,256.54245227473,224.45943838764,224.45943838764,420.85458636735,420.85458162952,0
0.000159,50951842.026769,4.6695999983332e-05,1.0129124855875,4.1998027278481e-08,-4.1999502493084e-08,4.20113423334e-08,4.2007564908311e-08,4.1366250265279e-36,-4.1364322380576e-36,-4.1365396949756e-36,4.1367842418405e-36,-48.227096219779,48.253281994939,-48.249518820537,48.225771901745,-4.2020577156521e-08,4.1361170388645e-36,4.1367986420379e-36,-4.137061609445e-36,-4.1364164529279e-36,4.4321932741538e-23,-4.4321632851784e-23,-4.4321642689558e-23,4.4322523538607e-23,-2.7793230433738,2.780351943433,-4.2022237843281e-08,-2.7801556394144,2.779232916321,1.7728494761186e-55,-1.7725565030272e-55,-1.7726822986891e-55,1.7729938466385e-55,-2.7789568076801,2.7807073600174,-2.7805251632527,2.7788866462869,0,1.7727067855254e-55,1.7726571991298e-55,-1.7728353165484e-55,-1.772897879003e-55,4.4313777681557e-23,4.4327942011344e-23,-4.4329956332637e-23,-4.4316185898062e-23,0,0,0,4.2012495914535e-08,-4.200871113618e-08,224.41677448829,224.41677448829,224.41617745528,224.41617745528,246.99169175217,246.99135649171,246.99139849843,246.99171863682,210.28359677081,210.28256745503,210.28262970888,210.28364461001,224.41551313749,246.99186417431,246.99120122363,246.99122600346,246.99187383197,239.54682006608,239.54651176886,239.54656504263,239.54686258982,212.48262613159,212.48198451766,224.41551313749,212.48205868094,212.48268857576,252.57881861887,252.57854320065,252.57857323377,252.5788305052,212.48296097842,212.48168363234,212.48172363825,212.48298926519,256.5863821194,252.57888867924,252.57848009211,252.57850313651,252.57889357677,239.54713888499,239.54622476095,239.54624609742,239.54714947133,256.5863821194,256.58637201481,256.58637201481,224.41611041411,224.41611041411,420.65546059748,420.65545547942,0
0.0001595,51107597.61692,4.6842968092246e-05,1.01296572558,4.0856885668639e-08,-4.0858360004758e-08,4.0870305534729e-08,4.0866511735009e-08,3.9129072940477e-36,-3.9127229887474e-36,-3.9128257421322e-36,3.9130628745799e-36,-48.242823005587,48.270122351019,-48.266116202308,48.241443480784,-4.0879680398574e-08,3.9124111992727e-36,3.9130821174432e-36,-3.9133361363234e-36,-3.9127025142004e-36,4.2249481597583e-23,-4.2249230753447e-23,-4.2249206157909e-23,4.2250054414958e-23,-2.7660245493174,2.7670908758483,-4.0881346044604e-08,-2.7668825693168,2.7659299167835,1.6685426772834e-55,-1.6682593495649e-55,-1.6683811160619e-55,1.6686833197019e-55,-2.7656439143577,2.7674584453484,-2.7672666838137,2.7655720896967,0,1.6684050528922e-55,1.668357904452e-55,-1.6685294928361e-55,-1.6685898796795e-55,4.2241432366086e-23,4.2255462181168e-23,-4.2257417947609e-23,-4.2243794172699e-23,0,0,0,4.0871507174862e-08,-4.0867708170056e-08,224.37395217247,224.37395217247,224.37333294,224.37333294,247.01359201946,247.01324371531,247.01328877369,247.01362083111,210.18495626464,210.18388514884,210.18395206385,210.18500765125,224.37264149432,247.01377130213,247.01308282692,247.01310941356,247.01378164194,239.54966070807,239.54934039431,239.54939754252,239.54970630417,212.39383031568,212.3931627542,224.37264149432,212.39324244269,212.39389738411,252.61392717779,252.6136409838,252.61367320206,252.6139399021,212.39417917204,212.39285038305,212.39289337666,212.39420954557,256.63047158489,252.61400001443,252.61357560063,252.61360032622,252.61400524598,239.54999229578,239.54904292525,239.54906582034,239.55000363866,256.63047158489,256.63046073096,256.63046073096,224.37326098682,224.37326098682,420.45730917787,420.45730364869,0
0.00016,51263727.102782,4.6989940426072e-05,1.0130190175124,3.9746743950458e-08,-3.9748216961557e-08,3.9760267790551e-08,3.9756458089664e-08,3.701660242408e-36,-3.7014842117063e-36,-3.7015824128874e-36,3.7018123513781e-36,-48.258484869035,48.286943516298,-48.282679779108,48.257049321611,-3.9769783220984e-08,3.7011758547384e-36,3.7018362163101e-36,-3.7020814856167e-36,-3.7014592809747e-36,4.0276498373229e-23,-4.0276295972857e-23,-4.0276237811664e-23,4.0277054406187e-23,-2.752764644362,2.7538696918169,-3.9771453488432e-08,-2.7536487539673,2.7526653775193,1.5705761338032e-55,-1.5703021755127e-55,-1.570420050868e-55,1.5707131884683e-55,-2.7523691066257,2.7542497870188,-2.7540479728481,2.7522956568676,0,1.5704434838223e-55,1.5703986586221e-55,-1.5705638982517e-55,-1.5706222274199e-55,4.0268554663354e-23,4.0282450356784e-23,-4.0284348150655e-23,-4.0270870909534e-23,0,0,0,3.9761517731005e-08,-3.975770517355e-08,224.33160782948,224.33160782948,224.33096564046,224.33096564046,247.03576309706,247.03540127308,247.03544955209,247.03579392501,210.08680960406,210.08569510198,210.08576694562,210.08686472322,224.33024604708,247.03594949054,247.03523457839,247.03526307624,247.03596053722,239.55284898677,239.5525162189,239.55257745143,239.55289780809,212.30553897558,212.30484448579,224.33024604708,212.30493001044,212.30561091303,252.64924701744,252.64894964849,252.64898417763,252.64926061018,212.30590238422,212.30452022404,212.30456637741,212.30593495037,256.67472916233,252.64932273119,252.64888191576,252.64890842224,252.64932830117,239.55319381249,239.55220793987,239.55223248256,239.55320594387,256.67472916233,256.67471750611,256.67471750611,224.33088851359,224.33088851359,420.26012797482,420.26012200102,0
0.0001605,51420235.631371,4.7136917096877e-05,1.0130723629328,3.8666762075017e-08,-3.8668233300178e-08,3.8680389009074e-08,3.8676563897352e-08,3.5021695082652e-36,-3.5020015499845e-36,-3.5020953461339e-36,3.5023183045365e-36,-48.274081453824,48.303746976703,-48.299210193232,48.27258918582,-3.8690045502419e-08,3.5016966466414e-36,3.5023465789344e-36,-3.5025832920473e-36,-3.5019723890076e-36,3.8398096268361e-23,-3.839794173011e-23,-3.8397850856391e-23,3.8398636698869e-23,-2.7395432921313,2.7406883984397,-3.8691720037272e-08,-2.7404541705013,2.7394392633647,1.4785531361454e-55,-1.4782882803964e-55,-1.4784023984331e-55,1.4786867391586e-55,-2.7391323331207,2.7410814019984,-2.7408690229465,2.7390573047676,0,1.4784253728871e-55,1.4783827598624e-55,-1.4785418249186e-55,-1.4785982107218e-55,3.8390257777626e-23,3.8404019756697e-23,-3.8405860145425e-23,-3.8392529300214e-23,0,0,0,3.868168746256e-08,-3.8677862054138e-08,224.28973991005,224.28973991005,224.28907398428,224.28907398428,247.05820368725,247.0578278508,247.05787952774,247.05823662377,209.98915532996,209.98799579919,209.98807285259,209.9892143747,224.28832518828,247.05839745012,247.05765515832,247.0576856773,247.05840922855,239.55638339402,239.55603771952,239.55610325619,239.55643559954,212.2177506805,212.21702824699,224.28832518828,212.21711993415,212.21782774251,252.68477705531,252.68446809793,252.68450507028,252.68479154716,212.21812920354,212.21669167695,212.216741171,212.21816407241,256.71915394456,252.68485575031,252.68439793851,252.68442633104,252.68486166225,239.55674194267,239.55571827133,239.55574455518,239.55675489525,256.71915394456,256.71914142958,256.71914142958,224.28899141013,224.28899141013,420.06391280647,420.06390635175,0
0.000161,51577128.47463,4.7283898219149e-05,1.013125763422,3.7616122391799e-08,-3.7617591354881e-08,3.7629851495632e-08,3.7626011481236e-08,3.3137626631215e-36,-3.3136025813207e-36,-3.313692115597e-36,3.3139083013214e-36,-48.289612406018,48.320534294099,-48.315708116598,48.288062853989,-3.7639649517639e-08,3.3133011511927e-36,3.3139407803692e-36,-3.3141691252068e-36,-3.3135694089817e-36,3.6609633387582e-23,-3.6609526149911e-23,-3.6609403402899e-23,3.661015938456e-23,-2.7263604521753,2.7275470001744,-3.7641327948745e-08,-2.7272987921525,2.726251535613,1.3921024666992e-55,-1.3918464553914e-55,-1.3919569458797e-55,1.3922327500571e-55,-2.7259335381072,2.7279533048132,-2.7277298231082,2.7258569867152,0,1.3919795065282e-55,1.3919389981132e-55,-1.3920920568433e-55,-1.3921466101161e-55,3.6601899818796e-23,3.6615528503901e-23,-3.6617312039961e-23,-3.660412744167e-23,0,0,0,3.7631198644447e-08,-3.7627361115872e-08,224.24834687407,224.24834687407,224.24765640761,224.24765640761,247.08091250052,247.08052214193,247.08057740287,247.08094764095,209.89199199429,209.89078573443,209.89086829301,209.89205516577,224.24687731795,247.08111389991,247.08034325457,247.08037591038,247.08112643509,239.56026243022,239.55990338108,239.55997345211,239.5603181852,212.13046401007,212.12971258165,224.24687731795,212.12981077377,212.13054646332,252.72051621635,252.72019524235,252.72023479718,252.72053163815,212.13085822965,212.12936327237,212.12941629731,212.13089551569,256.76374503109,252.72059800021,252.72012257684,252.72015296634,252.72060425658,239.56063520289,239.55957239392,239.55960051731,239.56064901012,256.76374503109,256.7637315971,256.7637315971,224.24756810025,224.24756810025,419.86865943933,419.86865246434,0
0.0001615,51734411.031829,4.7430883909828e-05,1.013179220595,3.6594029063757e-08,-3.6595495272571e-08,3.660785936762e-08,3.6604004977687e-08,3.1358066972704e-36,-3.1356543021172e-36,-3.1357397138082e-36,3.1359493279124e-36,-48.305077374481,48.337307109406,-48.332174251582,48.303470127528,-3.6617799352453e-08,3.1353563633903e-36,3.1359858143968e-36,-3.1362059735324e-36,-3.13561733047e-36,3.4906700257063e-23,-3.490663977865e-23,-3.4906485984321e-23,3.4907212976698e-23,-2.7132160798052,2.7144454987036,-3.6619481290509e-08,-2.7141825880846,2.7131021519012,1.3108767218329e-55,-1.3106293054037e-55,-1.3107362942058e-55,1.3110038135695e-55,-2.71277266132,2.7148655074173,-2.7146303585674,2.7126946522665,0,1.3107584851237e-55,1.3107199771144e-55,-1.3108671919968e-55,-1.3109200202348e-55,3.4899071319344e-23,3.4912567142909e-23,-3.4914294363774e-23,-3.490125585316e-23,0,0,0,3.6609255361731e-08,-3.6605406474425e-08,224.20742719084,224.20742719084,224.20671135539,224.20671135539,247.1038882557,247.10348284774,247.10354188785,247.10392569848,209.79531816037,209.7940634111,209.79415178529,209.79538566813,224.20590084375,247.10409756757,247.10329756262,247.10333247705,247.10411088453,239.56448460442,239.56411169672,239.56418654315,239.56454408064,212.04367755462,212.04289604315,224.20590084375,212.04300109951,212.04376567739,252.75646343318,252.75612999905,252.75617228292,252.75647981585,212.04408807354,212.04253355006,212.04259030582,212.04412789569,256.80850152817,252.756548417,252.75605474575,252.75608724921,252.75655501916,239.56487211886,239.56376878983,239.56379885622,239.56488681492,256.80850152817,256.80848711094,256.80848711094,224.20661701606,224.20661701606,419.6743635846,419.67435604667,0
0.000162,51892088.831974,4.7577874288338e-05,1.0132327361007,3.5599707497221e-08,-3.5601170442597e-08,3.5613637984369e-08,3.5609769766126e-08,2.9677056577546e-36,-2.967560765386e-36,-2.9676421900425e-36,2.9678454273538e-36,-48.32047601116,48.354067145816,-48.348609331926,48.318810830589,-3.5623720333511e-08,2.9672663349742e-36,2.9678857314803e-36,-2.9680978822424e-36,-2.9675201998789e-36,3.3285107987282e-23,-3.328509374701e-23,-3.3284909718692e-23,3.3285608573326e-23,-2.7001101259121,2.7013838927967,-3.5625405369906e-08,-2.7011055232203,2.6999910660861,1.2345507468931e-55,-1.2343116840665e-55,-1.2344152932732e-55,1.2346747712139e-55,-2.6996496377903,2.7018180190528,-2.701570610613,2.6995702470959,0,1.2344371579866e-55,1.2344005494034e-55,-1.2345420772989e-55,-1.2345932847986e-55,3.3277583397037e-23,3.3290946802438e-23,-3.3292618230425e-23,-3.3279725638893e-23,0,0,0,3.5615082939352e-08,-3.5611223486835e-08,224.16697933926,224.16697933926,224.16623728156,224.16623728156,247.12712968013,247.12670867736,247.12677170139,247.12716952684,209.69913240316,209.6978273423,209.69792185819,209.69920446542,224.16539418124,247.12734718947,247.12651678571,247.12655408692,247.12736131323,239.56904843454,239.56866116786,239.56874104204,239.56911181046,211.95738991546,211.95657719466,224.16539418124,211.9566894921,211.95748399799,252.7926176461,252.79227129252,252.79231645962,252.79263502055,211.95781735785,211.95620105913,211.95626175586,211.95785983963,256.85342254889,252.79270594463,252.79219336736,252.79222810813,252.79271289263,239.56945122563,239.56830594933,239.56833806747,239.56946684539,256.85342254889,256.85340707992,256.85340707992,224.16613659815,224.16613659815,419.48102089435,419.48101274723,0
0.0001625,52050167.536239,4.7724869476617e-05,1.0132863116227,3.4632403786276e-08,-3.4633862941018e-08,3.4646433391401e-08,3.4642551913455e-08,2.8088984307053e-36,-2.8087608630983e-36,-2.8088384326652e-36,2.8090354818867e-36,-48.335807971477,48.370816212104,-48.3650141236,48.334084812192,-3.4656658472514e-08,2.8084699567615e-36,2.8090794211017e-36,-2.8092837356719e-36,-2.8087169027751e-36,3.1740877047549e-23,-3.1740908544548e-23,-3.1740695083565e-23,3.1741366631584e-23,-2.6870425367815,2.6883621781624,-3.4658346178102e-08,-2.6880675580586,2.6869182281232,1.1628201763624e-55,-1.1625892339113e-55,-1.1626895819735e-55,1.1629412537729e-55,-2.6865643976684,2.688810846103,-2.6885505563947,2.686483712875,0,1.1627111635232e-55,1.1626763564785e-55,-1.1628123487757e-55,-1.1628620367661e-55,3.1733456529446e-23,3.1746687969907e-23,-3.1748304112023e-23,-3.173555726248e-23,0,0,0,3.46479273863e-08,-3.4644058195797e-08,224.12700180812,224.12700180812,224.12623264928,224.12623264928,247.15063550973,247.15019834794,247.15026557061,247.15067786512,209.60343330955,209.60207605108,209.60217705119,209.60351015348,224.12535575403,247.15086151087,247.14999963493,247.1500394578,247.1508764663,239.5739524475,239.57355030442,239.57363547046,239.57401990844,211.87159970516,211.87075460932,224.12535575403,211.87087454304,211.8717000501,252.82897780325,252.82861805451,252.82866626706,252.82899620028,211.87204471713,211.87036435838,211.87042921688,211.87208998681,256.89850721324,252.82906953496,252.828537371,252.82857447912,252.82907682744,239.57437106774,239.57318237088,239.57321665509,239.57438764673,256.89850721324,256.89849061955,256.89849061955,224.12612529583,224.12612529583,419.28862695745,419.28861815102,0
0.000163,52208652.940414,4.7871869599152e-05,1.0133399488801,3.3691384171252e-08,-3.3692838989127e-08,3.3705511778864e-08,3.370161763254e-08,2.6588566590805e-36,-2.65872624392e-36,-2.6588000868743e-36,2.6589911306933e-36,-48.351072914729,48.387556206124,-48.381389425679,48.349291948417,-3.3715879924539e-08,2.6584388763892e-36,2.659038529505e-36,-2.6592351750301e-36,-2.6586790816434e-36,3.0270226620363e-23,-3.0270303373999e-23,-3.0270061270372e-23,3.0270706322112e-23,-2.6740132538976,2.6753803472955,-3.3717569848459e-08,-2.6750686484853,2.6738835839358,1.0954000719661e-55,-1.0951770244774e-55,-1.0952742263413e-55,1.0955183194039e-55,-2.6735168660422,2.6758439919403,-2.6755701687194,2.6734349871456,0,1.0952955673449e-55,1.0952624669145e-55,-1.0953930696807e-55,-1.0954413364531e-55,3.0262909908315e-23,3.0276009845791e-23,-3.027757119373e-23,-3.0264969901444e-23,0,0,0,3.3707054853918e-08,-3.3703176788019e-08,224.08749309634,224.08749309634,224.08669593122,224.08669593122,247.17440448918,247.17395058474,247.17402223122,247.1744494612,209.50821947876,209.50680807069,209.50691591472,209.50830134073,224.08578399406,247.17463928601,247.17374482935,247.17378731577,247.17465509782,239.57919517937,239.57877762493,239.57886835921,239.57926691775,211.78630554787,211.78542687062,224.08578399406,211.78555485498,211.78641247068,252.86554286068,252.86516922412,252.86522065275,252.86556231089,211.78676879824,211.78502201648,211.78509126873,211.78681698891,256.94375464823,252.8656381479,252.86508569329,252.86512530587,252.86564578193,239.57963019942,239.57839656127,239.57843313169,239.57964777381,256.94375464823,256.94373685203,256.94373685203,224.08658156737,224.08658156737,419.09717729537,419.0971677753,0
0.0001635,52367550.977365,4.8018874783005e-05,1.0133936496276,3.2775934511016e-08,-3.2777384425656e-08,3.2790158953748e-08,3.2786252754428e-08,2.5170827873968e-36,-2.5169593579396e-36,-2.5170295994174e-36,2.5172148146239e-36,-48.366270504483,48.404289118276,-48.397736071295,48.364432144717,-3.2800670460214e-08,2.5166755430497e-36,2.5172655044305e-36,-2.5174546431207e-36,-2.5169091806132e-36,2.8869564505325e-23,-2.8869686055128e-23,-2.8869416088237e-23,2.8870035432964e-23,-2.6610222137363,2.6624383893084,-3.2802362128535e-08,-2.6621087455773,2.6608870752778,1.0320236520311e-55,-1.0318082816733e-55,-1.0319024489069e-55,1.0321391829913e-55,-2.6605069627451,2.6629174567567,-2.662629415841,2.6604240031864,0,1.0319235916332e-55,1.0318921057268e-55,-1.0320174598477e-55,-1.0320644008882e-55,2.8862351343495e-23,2.8875320247553e-23,-2.8876827277592e-23,-2.8864371351103e-23,0,0,0,3.279175110796e-08,-3.2787865066354e-08,224.04845171324,224.04845171324,224.04762560977,224.04762560977,247.19843537203,247.19796412128,247.19804042763,247.19848307186,209.41348952262,209.41202194492,209.41213701052,209.41357664849,224.04667734178,247.19867927831,247.19775109613,247.19779639537,247.19869597088,239.5847751756,239.58434165673,239.58443824842,239.58485139108,211.70150607965,211.7005925726,224.04667734178,211.70072904196,211.70161990903,252.90231178254,252.90192374791,252.90197857209,252.90233231619,211.70198826063,211.70017261228,211.700246502,211.70203951032,256.989163988,252.90241075153,252.90183727825,252.9018795398,252.90241872242,239.58522718478,239.58394703581,239.58398601869,239.58524579131,256.989163988,256.98914490644,256.98914490644,224.04750388026,224.04750388026,418.90666735773,418.90665706513,0
0.000164,52526867.719504,4.8165885157842e-05,1.0134474156565,3.1885359768742e-08,-3.1886804192371e-08,3.1899679825488e-08,3.1895762214244e-08,2.3831082255586e-36,-2.3829916205191e-36,-2.3830583824424e-36,2.3832379400161e-36,-48.38140040897,48.421017035059,-48.414054928466,48.37950533854,-3.1910334951261e-08,2.3827113713122e-36,2.383291758947e-36,-2.3834735481689e-36,-2.3829386092671e-36,2.7535477543827e-23,-2.7535643449575e-23,-2.7535346388865e-23,2.7535940794237e-23,-2.6480693475518,2.6495362897526,-3.1912027865569e-08,-2.6491877953925,2.6479286396031,9.7244110584708e-56,-9.7223320215714e-56,-9.7232444307195e-56,9.7255403050077e-56,-2.6475346021532,2.6500312373837,-2.649728261232,2.6474506898826,0,9.723454294952e-56,9.7231546874058e-56,-9.7243571005201e-56,-9.7248141815695e-56,2.7528367687614e-23,2.754120603433e-23,-2.7542659207211e-23,-2.7530348449124e-23,0,0,0,3.1901321014099e-08,-3.1897427935497e-08,224.00987617884,224.00987617884,224.00902017736,224.00902017736,247.22272692088,247.22223769943,247.22231891311,247.22277746295,209.31924206597,209.31771622833,209.31783891197,209.31933471137,224.00803424645,247.22298026051,247.22201717066,247.22206543974,247.22299785781,239.59069099118,239.59024093611,239.59034368768,239.59077189088,211.61719994878,211.61625032018,224.00803424645,211.61639572979,211.61732102714,252.93928354112,252.93888058002,252.93893898846,252.93930518803,211.6177017767,211.61581473514,211.61589351827,211.61775622853,257.03473437392,252.9393863222,252.9387910774,252.93883614023,252.93939462336,239.59116059797,239.5898323185,239.58987384647,239.59118027393,257.03473437392,257.03471391875,257.03471391875,224.00889071142,224.00889071142,418.71709251765,418.71708138868,0
0.0001645,52686609.381267,4.8312900855962e-05,1.0135012487948,3.1018983510837e-08,-3.102042183305e-08,3.1033397904837e-08,3.1029469549996e-08,2.2564916244036e-36,-2.2563816878134e-36,-2.2564450890241e-36,2.256619154247e-36,-48.396462301544,48.437742142928,-48.430346901051,48.394511501929,-3.1044196869231e-08,2.256105016677e-36,2.256675946992e-36,-2.2568505393811e-36,-2.2563260182124e-36,2.6264722537422e-23,-2.6264932378964e-23,-2.6264608984728e-23,2.6265179196484e-23,-2.635154581149,2.6366740304388,-3.1045890505282e-08,-2.6363057387576,2.635008209917,9.1641848722671e-56,-9.1621784688508e-56,-9.163062666632e-56,9.1652891254359e-56,-2.6345996929832,2.6371853271137,-2.6368666633494,2.6345149715841,0,9.1632713853503e-56,9.1629861615258e-56,-9.1641387558113e-56,-9.1645844098311e-56,2.6257715754459e-23,2.6270424025223e-23,-2.6271823786235e-23,-2.6259657994075e-23,0,0,0,3.1035088036677e-08,-3.1031188900654e-08,223.97176502415,223.97176502415,223.97087813671,223.97087813671,247.24727790754,247.24677006961,247.24685644997,247.24733140954,209.22547574703,209.22388948665,209.22402020446,209.22557417763,223.96985316638,247.24754101482,247.2465417967,247.24659320073,247.2475595403,239.59694119084,239.59647400853,239.5965832363,239.59702698952,211.53338581617,211.53239872952,223.96985316638,211.53255355641,211.53351450005,252.97645711706,252.97603868224,252.97610087338,252.97647990644,211.53390803225,211.5319469852,211.5320309305,211.53396583451,257.08046495471,252.97656384473,252.97594604989,252.97599407449,252.97657246743,239.59742902348,239.59605094216,239.59609515457,239.59744980664,257.08046495471,257.08044303197,257.08044303197,223.97074054756,223.97074054756,418.52844806685,418.52843603235,0
0.000165,52846782.3216,4.8459922012322e-05,1.0135551509079,3.0176147418691e-08,-3.017757900502e-08,3.0190654815487e-08,3.0186716414382e-08,2.136817256039e-36,-2.1367138371266e-36,-2.1367739935063e-36,2.1369427260572e-36,-48.411455861076,48.454466731906,-48.446612929655,48.409450644429,-3.0201597797078e-08,2.1364407559054e-36,2.1370023437132e-36,-2.1371698872598e-36,-2.1366556793881e-36,2.5054217633976e-23,-2.5054471011197e-23,-2.5054122035303e-23,2.5054668776816e-23,-2.622277834648,2.6238515892314,-3.0203291603208e-08,-2.6234625110441,2.6221257146335,8.6373668186887e-56,-8.635431084917e-56,-8.6362880929981e-56,8.6384471172885e-56,-2.621702138073,2.6243797154897,-2.6240445753869,2.6216167679642,0,8.63649608213e-56,8.636224399016e-56,-8.6373284358578e-56,-8.6377635406921e-56,2.504731370512e-23,2.5059892385488e-23,-2.5061239164341e-23,-2.5049218131376e-23,1.0247287468934e-314,-8.7833892604979e-315,0,3.0192393750149e-08,-3.0188489579198e-08,223.93411679153,223.93411679153,223.9331980012,223.9331980012,247.27208711319,247.27155999089,247.2716518097,247.27214369605,209.13218921785,209.13054029711,209.13067948575,209.13229370964,223.93213256923,247.27236033311,247.27132372652,247.27137843912,247.27237980957,239.60352434928,239.60303942877,239.60315546351,239.60361526954,211.45006235572,211.44903642834,223.93213256923,211.44920117225,211.45019901624,253.01383149946,253.01339702419,253.01346320661,253.01385545976,211.45060572681,211.44856797375,211.44865736341,211.45066703305,257.12635488655,253.01394231248,253.01330116259,253.01335231807,253.0139512457,239.60403105626,239.6026014487,239.60264849189,239.60405298481,257.12635488655,257.12633139621,257.12633139621,223.9330518854,223.9330518854,418.3407292106,418.3407161956,0
0.0001655,53007393.04644,4.8606948764562e-05,1.0136091238994,2.9356210812937e-08,-2.9357635003457e-08,2.9370809818229e-08,2.9366862099053e-08,2.0236934924748e-36,-2.0235964455441e-36,-2.0236534701412e-36,2.02381702419e-36,-48.426380772478,48.471193199496,-48.462853992518,48.424322816044,-2.9381896953223e-08,2.0233269656581e-36,2.0238793241074e-36,-2.0240399622599e-36,-2.0235359647197e-36,2.3901034157227e-23,-2.3901330689987e-23,-2.3900956876665e-23,2.3901480848503e-23,-2.60943902224,2.6110689398399,-2.9383590348814e-08,-2.610658041934,2.609281077421,8.1419044348614e-56,-8.140037474212e-56,-8.1408682852893e-56,8.1429617879506e-56,-2.6088418341636,2.6116143880971,-2.6112619450139,2.6087559938697,0,8.1410759597963e-56,8.1408169980494e-56,-8.1418736922439e-56,-8.1422991023903e-56,2.3894232877564e-23,2.3906682456105e-23,-2.3907976666983e-23,-2.3896100183029e-23,5.4164233766483e-313,-5.9873436784818e-313,0,2.9372597363107e-08,-2.9368689224791e-08,223.89693003497,223.89693003497,223.89597829514,223.89597829514,247.29715332856,247.29660623118,247.29670377319,247.29721311646,209.0393811447,209.0376672488,209.03781536641,209.03949198425,223.89487093228,247.29743701711,247.29636172105,247.29641992478,247.29745746653,239.61043905138,239.60993576119,239.61005894867,239.61053532382,211.36722825474,211.36616205629,223.89487093228,211.36633724063,211.36737327807,253.05140568602,253.0509545834,253.05102497635,253.05143084479,211.36779357409,211.36567632357,211.3657714538,211.36785854327,257.17240333323,253.05152072757,253.05085539025,253.05090985475,253.05152995772,239.61096530204,239.60948238925,239.60953241693,239.6109884145,257.17240333323,257.17237816885,257.17237816885,223.89582323202,223.89582323202,418.15393106237,418.15391698564,0
0.000166,53168448.211194,4.8753981253029e-05,1.0136631697109,2.8558550190039e-08,-2.855996629774e-08,2.8573239347374e-08,2.8569283071138e-08,1.9167513764981e-36,-1.9166605608007e-36,-1.9167145639503e-36,1.9168730882539e-36,-48.441236727063,48.487924054588,-48.479071106439,48.439128110523,-2.8584470727878e-08,1.9163946933701e-36,1.9169379338908e-36,-1.9170918056459e-36,-1.9165979169752e-36,2.2802388856754e-23,-2.2802728184724e-23,-2.280233027137e-23,2.2802832150869e-23,-2.5966380519239,2.5983260515956,-2.8586163101683e-08,-2.597892255179,2.5964742170492,7.6758749403979e-56,-7.6740749216282e-56,-7.6748805005338e-56,7.6769103283579e-56,-2.5960186716633,2.5988893263361,-2.598518714103,2.5959325591737,0,7.6750882751309e-56,7.6748412379521e-56,-7.675851758874e-56,-7.676268306608e-56,2.2795690036618e-23,2.2808011003704e-23,-2.2809253045231e-23,-2.2797520897441e-23,2.9256005724849e-311,-3.5379491936864e-311,0,2.8575075254566e-08,-2.8571164263687e-08,223.86020332046,223.86020332046,223.85921755411,223.85921755411,247.32247535413,247.32190756739,247.32201113084,247.32253847448,208.94705020857,208.94526894307,208.94542647021,208.94716769331,223.85806674279,247.32276987858,247.32165455007,247.32171643681,247.322791322,239.61768389246,239.61716157991,239.6172922815,239.61778575588,211.28488221437,211.28377426534,223.85806674279,211.28396043822,211.28503600215,253.08917868323,253.08871034546,253.08878517938,253.08920506689,211.28547030246,211.28327066934,211.28337185102,211.285539099,257.2186094663,253.08929810098,253.08860771562,253.08866567678,253.08930761171,239.6182303775,239.61669232442,239.61674549795,239.61825471268,257.2186094663,257.21858251461,257.21858251461,223.8590531052,223.8590531052,417.96804863824,417.96803341175,0
0.0001665,53329954.623218,4.8901019620798e-05,1.0137172903231,2.778255877076e-08,-2.7783966079917e-08,2.7797336559134e-08,2.7793372521752e-08,1.8156432790714e-36,-1.8155585586842e-36,-1.8156096481308e-36,1.8157632861237e-36,-48.456023423099,48.504661921435,-48.495265327679,48.453866668712,-2.7808712231317e-08,1.8152963146489e-36,1.8158305469012e-36,-1.8159777869006e-36,-1.8154939071718e-36,2.1755636556319e-23,-2.1756018338839e-23,-2.1755597056846e-23,2.1756077497666e-23,-2.5838748252426,2.5856228892156,-2.7810402939765e-08,-2.5851650683511,2.5837050472293,7.2374768371141e-56,-7.2357419922998e-56,-7.2365232771144e-56,7.238491212728e-56,-2.5832325344138,2.5862045071834,-2.5858148184446,2.5831463686184,-2.9277964218128e-315,7.2367315669321e-56,7.2364956789897e-56,-7.2374611517781e-56,-7.2378696482451e-56,2.1749040022298e-23,2.1761232868899e-23,-2.1762423124192e-23,-2.1750835097835e-23,1.6223315214628e-309,-2.0589450181583e-309,-1.6102880307619e-314,2.779922052218e-08,-2.7795307843095e-08,223.8239352264,223.8239352264,223.82291432538,223.82291432538,247.34805200033,247.34746278558,247.34757268286,247.34811858374,208.85519510559,208.85334399396,208.85351143462,208.85531954408,223.82171849831,247.34835773953,247.34720099238,247.34726676381,247.34838019686,239.62525747848,239.62471546906,239.62485406235,239.62536518005,211.20302295005,211.2018717202,223.82171849831,211.20206945543,211.20318591989,253.1271495065,253.12666330417,253.12674282119,253.12717714019,211.20363465535,211.20134965804,211.20145721736,211.20370744923,257.26497246517,253.12727345278,253.12655712958,253.126618785,253.12728322469,239.62582491059,239.62422982451,239.62428631331,239.62585050748,257.26497246517,257.2649436057,257.2649436057,223.82274003373,223.82274003373,417.7830768511,417.78306037949,0
0.000167,53491919.244272,4.904806401369e-05,1.0137714877563,2.7027646060248e-08,-2.7029043824707e-08,2.7042510891639e-08,2.7038539926091e-08,1.7200416379265e-36,-1.7199628816272e-36,-1.7200111626436e-36,1.7201600525326e-36,-48.470740566222,48.521409543618,-48.5114377528,48.468538682089,-2.705403085373e-08,1.7197042718611e-36,1.7202296036854e-36,-1.7203703423111e-36,-1.7198963731626e-36,2.0758263179852e-23,-2.0758687095748e-23,-2.075824317135e-23,2.0758702803054e-23,-2.5711492369982,2.5729594125495,-2.7055719219149e-08,-2.57247639258,2.5709734764457,6.825022065711e-56,-6.823350688307e-56,-6.8241085914411e-56,6.8260163552202e-56,-2.5704832994407,2.573559902934,-2.5731501874441,2.5703973216521,-1.097923657414e-313,6.8243178126733e-56,6.8240923190474e-56,-6.8250138257545e-56,-6.8254150620491e-56,2.075176877573e-23,2.076383399221e-23,-2.0764972828949e-23,-2.075352870819e-23,9.1282806034661e-308,-1.1816493246387e-307,-6.3972351772392e-313,2.7044442542068e-08,-2.7040529391093e-08,223.78812434391,223.78812434391,223.78706716819,223.78706716819,247.37388208774,247.3732706812,247.3733872394,247.37395226796,208.76381454763,208.76189102861,208.76206891124,208.76394625979,223.78582470702,247.37419943241,247.37299983596,247.37306970401,247.37422292226,239.63315842635,239.63259602302,239.63274290246,239.63327222177,211.12164919199,211.12045309877,223.78582470702,211.12066299693,211.12182177788,253.16531718038,253.1648124617,253.16489691619,253.16534608769,211.12228539183,211.11991194935,211.12002622851,211.12236235868,257.31149151729,253.16544581224,253.1647026313,253.16476818907,253.16545582265,239.63374754077,239.63209346974,239.63215345163,239.63377443844,257.31149151729,257.31146062194,257.31146062194,223.7868825578,223.7868825578,417.5990105046,417.59899268456,0
0.0001675,53654349.19297,4.919511458029e-05,1.0138257640704,2.6293237419711e-08,-2.6294624861008e-08,2.6308187636391e-08,2.6304210615037e-08,1.6296377723524e-36,-1.6295648534969e-36,-1.6296104290006e-36,1.6297547038544e-36,-48.485387869956,48.538169788122,-48.527589519604,48.483144396652,-2.6319851836624e-08,1.6293098889321e-36,1.6298264262988e-36,-1.6299607897619e-36,-1.6294966344264e-36,1.9807879135515e-23,-1.9808344882893e-23,-1.9807879038022e-23,1.980831846564e-23,-2.558461174962,2.5603355763159,-2.6321537145366e-08,-2.5598261322876,2.5582794077936,6.4369286816717e-56,-6.4353191246207e-56,-6.436054533852e-56,6.4379037857837e-56,-2.557770836702,2.5609554809337,-2.560524743813,2.5576853122737,-4.4692812348267e-312,6.436265104493e-56,6.4360492696483e-56,-6.4369278503151e-56,-6.4373225985287e-56,1.9801486723315e-23,1.9813424798196e-23,-1.981451256866e-23,-1.980321213732e-23,5.1595453346668e-306,-6.6796268906809e-306,-2.5742650021089e-311,2.6310166540108e-08,-2.6306254188025e-08,223.75276927733,223.75276927733,223.75167465425,223.75167465425,247.39996444731,247.39933005925,247.39945362078,247.40003836121,208.67290726275,208.67090868778,208.67109756635,208.67304658013,223.75038388815,247.40029380038,247.39904987818,247.39912406553,247.40031833985,239.64138536418,239.64080184665,239.64095742422,239.64150551786,211.04075968568,211.03951709258,223.75038388815,211.03973978211,211.04094233847,253.20368073869,253.20315682873,253.20324648789,253.20371094148,211.04142128705,211.03895621615,211.03907757409,211.0415026082,257.35816581834,253.2038142181,253.20304322843,253.20311290759,253.2038244407,239.64199691927,239.64028185052,239.64034551211,239.64202515676,257.35816581834,257.35813275091,257.35813275091,223.75147922939,223.75147922939,417.41584428678,417.4158250064,0
0.000168,53817251.747202,4.934217147196e-05,1.0138801213658,2.5578773871538e-08,-2.558015017678e-08,2.5593807743688e-08,2.5589825580507e-08,1.5441407836262e-36,-1.5440735799951e-36,-1.5441165506648e-36,1.5442563385249e-36,-48.499965455881,48.554946050826,-48.543722209279,48.497684516886,-2.5605616078365e-08,1.5438222717638e-36,1.5443301187304e-36,-1.5444582291601e-36,-1.5440037924761e-36,1.8902213209847e-23,-1.89027205056e-23,-1.8902233458825e-23,1.8902653262537e-23,-2.5458105407695,2.547751351092,-2.5607297578922e-08,-2.5472142061744,2.5456227600204,6.0717140714972e-56,-6.0701647451423e-56,-6.070878524618e-56,6.0726708663288e-56,-2.5450950300106,2.5483912245777,-2.5479384245196,2.5450102500634,-1.7745081320765e-310,6.0710908653878e-56,6.0708839721408e-56,-6.0717206258375e-56,-6.0721096400852e-56,1.8895922670656e-23,1.8907734089621e-23,-1.8908771130781e-23,-1.8897614172695e-23,2.9084784523888e-304,-3.7160849380624e-304,-1.0212197829209e-309,2.5595833397253e-08,-2.5591923171527e-08,223.71786864453,223.71786864453,223.71673536806,223.71673536806,247.42629792062,247.4256397345,247.42577065776,247.42637570805,208.5824719958,208.58039562633,208.58059608142,208.58261926182,223.71539457233,247.42663969751,247.42534992603,247.42542866658,247.42666530198,239.64993693157,239.64933155561,239.64949626145,239.65006371676,210.96035319241,210.9590624073,223.71539457233,210.95929854565,210.96054638024,253.24223922479,253.24169542462,253.24179056908,253.24227074288,210.96104113285,210.95848114496,210.95860995808,210.96112699541,257.40499457235,253.24237771868,253.24157793721,253.24165196836,253.24238812326,239.65057170944,239.64879356771,239.64886110479,239.65060132564,257.40499457235,257.40495918808,257.40495918808,223.71652861264,223.71652861264,417.23357279962,417.23355192595,0
0.0001685,53980634.346543,4.948923484293e-05,1.0139345617839,2.4883710874779e-08,-2.4885075194889e-08,2.4898826596461e-08,2.4894840250607e-08,1.4632764552509e-36,-1.4632148490237e-36,-1.4632553134295e-36,1.4633907372893e-36,-48.514472419069,48.571740820276,-48.559836406498,48.512158774073,-2.4910778907186e-08,1.4629672084753e-36,1.4634664671148e-36,-1.4635884426756e-36,-1.4631436311373e-36,1.803910597547e-23,-1.8039654555729e-23,-1.8039147023169e-23,1.8039547757043e-23,-2.5331971731464,2.5352066463402,-2.4912455808314e-08,-2.5346404702252,2.5330033908476,5.727988351284e-56,-5.7264977223737e-56,-5.7271907138091e-56,5.7289276894485e-56,-2.5324557003405,2.5358670562816,-2.535391103708,2.5323719835474,-6.9517656747659e-309,5.7274052479116e-56,5.7272065963407e-56,-5.7280022823615e-56,-5.7283862998442e-56,1.8032917210517e-23,1.8044602454584e-23,-1.8045589088424e-23,-1.8034575388835e-23,1.6271612074859e-302,-2.0335715529248e-302,-4.0008601578244e-308,2.4900898423426e-08,-2.4896991711818e-08,223.68342107721,223.68342107721,223.68224790713,223.68224790713,247.45288136031,247.45219853195,247.45233719197,247.45296316409,208.49250750829,208.49035051298,208.49056315294,208.49266307844,223.68085530175,247.45323598924,247.45189879655,247.45198233597,247.45326267216,239.65881178002,239.65818377668,239.6583580598,239.65894547894,210.8804284892,210.8790877626,223.68085530175,210.87933803736,210.88063269797,253.28099169204,253.28042727795,253.28052820237,253.28102454296,210.88114373765,210.87848543584,210.87862209876,210.88123433453,257.45197699229,253.28113537247,253.28030578302,253.28038440884,253.28114592457,239.65947058708,239.65762723297,239.65769885092,239.6595016206,257.45197699229,257.45193913738,257.45193913738,223.68202928406,223.68202928406,417.05219042045,417.05216783931,0
0.000169,54144504.596057,4.963630485e-05,1.0139890875065,2.420751884221e-08,-2.4208870289386e-08,2.4222714527598e-08,2.4218725005731e-08,1.3867863316501e-36,-1.3867302092646e-36,-1.3867682639591e-36,1.3868994419214e-36,-48.528908337299,48.588557188456,-48.575933211422,48.526567442134,-2.423481059692e-08,1.3864862482121e-36,1.3869770185806e-36,-1.3870929735026e-36,-1.3866576952868e-36,1.7216504877271e-23,-1.7217094497171e-23,-1.7216567193721e-23,1.7216949385781e-23,-2.5206209288406,2.5227013913134,-2.4236482065055e-08,-2.5221047989136,2.5204211782219,5.4044486530846e-56,-5.4030152425101e-56,-5.4036882657032e-56,5.4053713645078e-56,-2.5198526869117,2.5233829183849,-2.5228826737191,2.5197703814813,-2.6875185502232e-307,5.4039054205201e-56,5.4037143279021e-56,-5.4044699663974e-56,-5.4048497077368e-56,1.7210417810554e-23,1.7221977353911e-23,-1.7222913887098e-23,-1.7212043234319e-23,9.005828998885e-301,-1.0942505328866e-300,-1.548174253068e-306,2.4224831872245e-08,-2.422093012618e-08,223.64942522196,223.64942522196,223.64821088312,223.64821088312,247.47971362978,247.47900528644,247.47915207558,247.47979959552,208.40301258091,208.40077203284,208.40099749496,208.403176823,223.64676463134,247.48008155211,247.47869531644,247.4787839127,247.48010932469,239.66800857298,239.66735714787,239.66754147685,239.66814947699,210.80098437108,210.79959189441,223.64676463134,210.7998570245,210.80120010485,253.31993720321,253.31935142582,253.31945843954,253.31997140189,210.80172792875,210.79896780463,210.79911273098,210.80182345874,257.49911229926,253.32008624747,253.31922579972,253.31930927555,253.32009690805,239.6686922406,239.66678146885,239.6668573831,239.66872472963,257.49911229926,257.49907181031,257.49907181031,223.64797983366,223.64797983366,416.871691438,416.8716670082,0
0.0001695,54308870.263705,4.9783381653038e-05,1.0140437007577,2.3549682855448e-08,-2.3551020501217e-08,2.3564956540367e-08,2.3560964897379e-08,1.3144267936905e-36,-1.3143760455045e-36,-1.3144117851094e-36,1.3145388306059e-36,-48.543273659049,48.605399272685,-48.592014644517,48.540911721457,-2.3577196095973e-08,1.3141357763163e-36,1.3146181564702e-36,-1.3147282012378e-36,-1.3143023661093e-36,1.6432458897996e-23,-1.6433089329414e-23,-1.6432542968292e-23,1.6432907121066e-23,-2.5080817010533,2.5102355546021,-2.3578861254393e-08,-2.5096071039247,2.5078760383521,5.099873539752e-56,-5.0984959195909e-56,-5.0991497738892e-56,5.1007804326161e-56,-2.5072858651673,2.5109387929082,-2.5104130643267,2.5072053506772,-1.0255034800704e-305,5.0993699822269e-56,5.099185780418e-56,-5.0999022540356e-56,-5.1002784255114e-56,1.6426473472882e-23,1.6437907785878e-23,-1.6438794510716e-23,-1.6428066692032e-23,4.9211880979309e-299,-5.7884370488489e-299,-5.9180463479392e-305,2.3567118668575e-08,-2.3563223402443e-08,223.61587974049,223.61587974049,223.614622922,223.614622922,247.5067936037,247.5060588432,247.50621417184,247.5068838797,208.31398601328,208.31165888706,208.31189783877,208.31415930758,223.61312112884,247.50717527422,247.50573832261,247.50583224654,247.50720414521,239.67752598631,239.67685031882,239.67704518252,239.67767439599,210.7220196509,210.72057355468,223.61312112884,210.72085429159,210.72224743234,253.35907483103,253.35846691444,253.35858034214,253.35911038951,210.72279255218,210.71992698267,210.72008060592,210.72289321991,257.54639972309,253.35922942182,253.3583370302,253.35842562466,253.35924014682,239.6782353714,239.67625490921,239.67633534563,239.67826935352,257.54639972309,257.5463564266,257.5463564266,223.61437886508,223.61437886508,416.69207007137,416.69204363285,0
0.00017,54473739.289139,4.9930465414538e-05,1.0140984038029,2.2909701293084e-08,-2.2911024165642e-08,2.2925050925237e-08,2.2921058270329e-08,1.2459681321265e-36,-1.245922652482e-36,-1.2459561699212e-36,1.2460791916258e-36,-48.557567708772,48.622270166596,-48.608081614354,48.555191763934,-2.2937433626997e-08,1.2456860881922e-36,1.2461601739219e-36,-1.2462644153326e-36,-1.2458479349146e-36,1.568511275133e-23,-1.568578378372e-23,-1.5685219079888e-23,1.5685565668868e-23,-2.4955793148095,2.497809037436,-2.2939091552992e-08,-2.4971472287362,2.495367822253,4.8131175786807e-56,-4.8117943719985e-56,-4.812429837366e-56,4.8140094406352e-56,-2.4947550431434,2.498534594341,-2.4979821361865,2.4946767329596,-3.8631047168759e-304,4.8126535365804e-56,4.8124755719667e-56,-4.8131537264195e-56,-4.8135270203064e-56,1.5679228935637e-23,1.5690538476899e-23,-1.5691375671471e-23,-1.5680790480657e-23,2.6516939431568e-297,-3.0096842711604e-297,-2.2350816458957e-303,2.2927257014391e-08,-2.2923369811911e-08,223.5827833095,223.5827833095,223.58148266394,223.58148266394,247.5341201688,247.53335805855,247.53352235583,247.53421490592,208.22542662309,208.22300979189,208.22326293202,208.22560936256,223.57992337476,247.53451605605,247.53302666293,247.5331261988,247.53454603145,239.68736270884,239.68666195129,239.68686785959,239.68751893407,210.64353315861,210.64203151062,223.57992337476,210.64232863964,210.64377352939,253.39840365924,253.39777280006,253.39789298248,253.39844058626,210.64433647197,210.64136171608,210.64152449035,210.64444248795,257.59383850349,253.39856398473,253.39763852731,253.39773252295,253.39857472472,239.68809869444,239.68604619968,239.68613139508,239.68813420648,257.59383850349,257.59379221523,257.59379221523,223.5812249955,223.5812249955,416.51332028944,416.51329167528,0
0.0001705,54639119.780564,5.0077556299953e-05,1.0141531989504,2.2287086293424e-08,-2.2288393374721e-08,2.2302509734069e-08,2.2298517232444e-08,1.1811937791009e-36,-1.1811534662516e-36,-1.1811848527051e-36,1.1813039546066e-36,-48.571790323871,48.639173640096,-48.624135599803,48.569408299525,-2.2315035180317e-08,1.1809206205937e-36,1.1813865056975e-36,-1.1814850468536e-36,-1.1810778343294e-36,1.4972702660689e-23,-1.4973414101858e-23,-1.4972831770979e-23,1.4973161243463e-23,-2.4831136124704,2.4854217612118,-2.2316684902176e-08,-2.4847250352529,2.4828964004562,4.5431066562279e-56,-4.5418365349637e-56,-4.5424543721527e-56,4.5439842547231e-56,-2.4822600460314,2.4861702578057,-2.4855897685315,2.4821843893841,-1.4370608003546e-302,4.5426820061685e-56,4.5425096394057e-56,-4.54315028397e-56,-4.5435213788338e-56,1.496692044579e-23,1.4978105667172e-23,-1.4978893594484e-23,-1.4968450826282e-23,1.4078319771657e-295,-1.5380152893691e-295,-8.3414388966166e-302,2.2304758871118e-08,-2.2300881387838e-08,223.55013462202,223.55013462202,223.54878876462,223.54878876462,247.56169222349,247.56090179957,247.56107551413,247.56179157494,208.13733324887,208.13482348144,208.13509154151,208.13752583929,223.54716996361,247.56210281009,247.56055919579,247.56066464193,247.56213389279,239.6975174424,239.69679071931,239.69700820384,239.6976818025,210.5655237438,210.56396454718,223.54716996361,210.56427888868,210.56577726497,253.43792278181,253.43726814824,253.43739544286,253.43796108245,210.56635857268,210.5632707682,210.56344316915,210.56647015327,257.64142788905,253.43808903578,253.43712935316,253.43722904711,253.43809973551,239.69828093833,239.69615399781,239.69624420039,239.69831801617,257.64142788905,257.64137841349,257.64137841349,223.54851685697,223.54851685697,416.3354359444,416.33540497436,0
0.000171,54805020.020813,5.0224654477403e-05,1.014208088551,2.1681363231355e-08,-2.1682653455044e-08,2.1696858248687e-08,2.1692867124551e-08,1.1198995306749e-36,-1.1198642864833e-36,-1.1198936315916e-36,1.1200089132079e-36,-48.585941533326,48.656113781021,-48.640178292044,48.583562328002,-2.1709525967406e-08,1.1196351741521e-36,1.1200929501263e-36,-1.1201858906678e-36,-1.11978786104e-36,1.4293551654463e-23,-1.4294303327894e-23,-1.4293704088238e-23,1.4294016864527e-23,-2.470684435999,2.4730736485161,-2.1711166463624e-08,-2.4723403851818,2.470461645994,4.288833400979e-56,-4.2876150837792e-56,-4.2882160359009e-56,4.289697484564e-56,-2.4698006992859,2.4738457195042,-2.4732358396117,2.4697281836979,-5.2808110411172e-301,4.2884480557492e-56,4.2882806597297e-56,-4.2888845689398e-56,-4.2892541316025e-56,1.4287871056361e-23,1.4298932397555e-23,-1.4299671307236e-23,-1.428937076167e-23,7.3610392944499e-294,-7.7240118418361e-294,-3.0767151310877e-300,2.1699149425038e-08,-2.1695283390263e-08,223.5179323876,223.5179323876,223.5165398954,223.5165398954,247.5895086785,247.58868894464,247.58887254537,247.58961279964,208.04970474986,208.04709870742,208.04738245294,208.04990760994,223.51485950413,247.58993446145,247.58833479074,247.58844646016,247.58996665093,239.70798890242,239.70723530961,239.7074649245,239.70816172613,210.48799027555,210.48637146689,223.51485950413,210.48670387763,210.48825752793,253.47763130362,253.47695203452,253.4770868163,253.47767097895,210.48885775931,210.48565291945,210.48583544518,210.48897512668,257.68916713801,253.47780368562,253.47680857975,253.47691428439,253.47781428354,239.70878084586,239.70657697352,239.70667244334,239.70881952418,257.68916713801,257.68911426768,257.68911426768,223.51625309657,223.51625309657,416.15841073735,416.15837721652,0
0.0001715,54971448.467884,5.0371760117874e-05,1.0142630749981,2.1092070081825e-08,-2.109334233004e-08,2.1107634346024e-08,2.1103645887859e-08,1.0618928087488e-36,-1.0618625387112e-36,-1.0618899306746e-36,1.0620014869736e-36,-48.600020924098,48.67309437599,-48.656210974002,48.59765448859,-2.1120443792723e-08,1.0616371754053e-36,1.0620869314982e-36,-1.0621743676398e-36,-1.0617854376373e-36,1.364606502306e-23,-1.3646856769037e-23,-1.364624134263e-23,1.3646537813807e-23,-2.4582915943995,2.4607645907656,-2.1122073989216e-08,-2.4599931077937,2.4580634019178,4.0493528646661e-56,-4.0481851158892e-56,-4.0487699091122e-56,4.0502041636379e-56,-2.4573767958224,2.4615608846197,-2.4609201947126,2.4573079496225,-1.9180489640887e-299,4.0490067733885e-56,4.0488437332793e-56,-4.0494116474791e-56,-4.0497803330387e-56,1.3640486084313e-23,1.3651423972105e-23,-1.3652114100233e-23,-1.364195558249e-23,3.7893584174546e-292,-3.811998998635e-292,-1.1218282600517e-298,2.1109966452123e-08,-2.1106113674107e-08,223.48617533275,223.48617533275,223.48473474382,223.48473474382,247.61756845726,247.61671838386,247.61691236068,247.61767750537,207.96254000644,207.95983423958,207.96013447139,207.96275356795,223.48299061975,247.61800994826,247.61635232886,247.61647054986,247.61804324019,239.71877581828,239.71799442205,239.71823674472,239.71895744384,210.41093164295,210.40925109035,223.48299061975,210.40960246477,210.41121322749,253.51752834094,253.51682354478,253.51696620696,253.51756938749,210.41183295778,210.40850696775,210.40870013969,210.41195633984,257.73705551867,253.51770705637,253.51667528934,253.51678733304,253.51771748417,239.7195971744,239.71731380951,239.71741481904,239.71963748649,257.73705551867,257.73699903348,257.73699903348,223.48443237689,223.48443237689,415.98223815491,415.98220187046,0
0.000172,55138413.755997,5.0518873395115e-05,1.0143181607286,2.0518757325117e-08,-2.0520010425769e-08,2.0534388408945e-08,2.053040397051e-08,1.0069919958169e-36,-1.0069666088556e-36,-1.0069921344964e-36,1.0071000561045e-36,-48.61402816162,48.690119452941,-48.672235057944,48.611685584028,-2.0547338965574e-08,1.0067450113651e-36,1.0071868345791e-36,-1.0072688591706e-36,-1.0068889472426e-36,1.3028726364275e-23,-1.3029558038603e-23,-1.3028927151584e-23,1.3029207680255e-23,-2.4459348900944,2.4484944753315,-2.054895773311e-08,-2.4476830270107,2.4457015077587,3.8237786045769e-56,-3.8226602320874e-56,-3.8232295764697e-56,3.824617832e-56,-2.4449881223243,2.4493156545154,-2.4486426732778,2.4449235172176,-6.8918547414167e-298,3.823471752629e-56,3.8233124643739e-56,-3.8238450903573e-56,-3.8242135438124e-56,1.302324915278e-23,1.3034064002017e-23,-1.3034705571181e-23,-1.3024688890175e-23,1.9202282070424e-290,-1.8487368655041e-290,-4.0445615285196e-297,2.0536760229646e-08,-2.0532922596889e-08,223.45486220188,223.45486220188,223.45337201444,223.45337201444,247.64587049597,247.64498901907,247.64519388374,247.64598463001,207.87583792181,207.87302886726,207.87334642297,207.87606262961,223.45156194944,247.64632822173,247.64461070277,247.64473581966,247.64636260762,239.72987693366,239.72906676991,239.72932240183,239.73006770882,210.3343467566,210.33260225763,223.45156194944,210.33297352925,210.33464329465,253.55761302125,253.55688177511,253.55703272996,253.55765543062,210.33528311643,210.33183173001,210.33203609389,210.33541274675,257.78509230917,253.55779828152,253.55672857437,253.5568473022,253.55780846357,239.73072869622,239.72836320154,239.72847003615,239.73077067372,257.78509230917,257.78503197573,257.78503197573,223.45305337692,223.45305337692,415.80691150466,415.8068722282,0
0.0001725,55305924.698867,5.0665994485608e-05,1.0143733482227,1.9960987774155e-08,-1.9962220497672e-08,1.997668314485e-08,1.9972704149801e-08,9.5502580366384e-37,-9.5500521192623e-37,-9.5502895682859e-37,9.5513333014974e-37,-48.627963358359,48.707193619435,-48.68825242442,48.625656960126,-1.9989774112186e-08,9.5478739837504e-37,9.5522137332148e-37,-9.5529807599234e-37,-9.5492710240641e-37,1.244009376115e-23,-1.2440965233778e-23,-1.2440319618146e-23,1.2440584538412e-23,-2.4336141367188,2.4362632021359,-1.9991380264364e-08,-2.435409978342,2.433375817858,3.6112789965346e-56,-3.6102088497183e-56,-3.6107634400827e-56,3.6121068488945e-56,-2.4326344775997,2.4371099430129,-2.4364031252656,2.4325747315551,-2.4534184158928e-296,3.6110114054304e-56,3.6108552751668e-56,-3.6113532873493e-56,-3.6117221442435e-56,1.243471837252e-23,1.2445410581902e-23,-1.2446003802115e-23,-1.2436128773562e-23,9.5774982104909e-289,-8.8104340173205e-289,-1.4423792587737e-295,1.9979093352708e-08,-1.9975272838037e-08,223.4239917578,223.4239917578,223.42245042942,223.42245042942,247.67441374401,247.67349976422,247.67371605115,247.67453312429,207.78959742268,207.78668140007,207.78701715544,207.78983373475,223.42057214827,247.67488824657,247.67310881704,247.6732411908,247.67492371329,239.74129100698,239.74045108033,239.74072064779,239.74149128894,210.25823454929,210.25642382897,223.42057214827,210.25681597172,210.2585466829,253.59788448364,253.59712583215,253.59728551181,253.59792824193,210.25920720674,210.25562604276,210.25584216954,210.25934332443,257.8332767978,253.59807650626,253.59696753771,253.59709331222,253.59808635909,239.74217419891,239.73972385888,239.73983681737,239.74221787153,257.8332767978,257.83321236867,257.83321236867,223.42211479261,223.42211479261,415.63242393812,415.63238142297,0
0.000173,55473990.291158,5.0813123568586e-05,1.0144286400043,1.9418335909244e-08,-1.9419546964758e-08,1.9434092925341e-08,1.9430120873018e-08,9.0583265580268e-37,-9.0581677466246e-37,-9.0583882328463e-37,9.0593973038812e-37,-48.641826275293,48.724321295621,-48.704264646301,48.639569710213,-1.9447323522269e-08,9.0560276450715e-37,9.0602897344809e-37,-9.0610044070105e-37,-9.0573832739079e-37,1.1878795847206e-23,-1.1879707002939e-23,-1.1879047397792e-23,1.1879297012548e-23,-2.4213291186466,2.4240706440494,-1.9448915813847e-08,-2.4231737690451,2.4210861609451,3.4110736959779e-56,-3.4100506647295e-56,-3.4105911814918e-56,3.4118908537808e-56,-2.4203156317375,2.4249436371143,-2.4242013716566,2.4202614119183,-8.6748237486195e-295,3.4108454236528e-56,3.4106918670845e-56,-3.4111559082533e-56,-3.4115257950355e-56,1.1873522405215e-23,1.1884092357605e-23,-1.1884637426908e-23,-1.1874903871193e-23,4.7014906156622e-287,-4.1258183825831e-287,-5.0908977125883e-294,1.9436540076278e-08,-1.9432738740785e-08,223.39356278216,223.39356278216,223.39196872886,223.39196872886,247.70319716452,247.70224954595,247.70247781306,247.7033219524,207.70381745941,207.70079066799,207.70114553837,207.70406584687,223.39001988786,247.70368900156,247.70184558876,247.70198559775,247.70372553091,239.75301681194,239.75214609484,239.75243024976,239.75322696733,210.18259397619,210.18071468494,223.39001988786,210.18112871455,210.18292236839,253.63834187945,253.63755483371,253.63772369102,253.63838696676,210.18360422352,210.17988876229,210.18011724919,210.18374707307,257.88160828371,253.63854088817,253.63739129336,253.63752449536,253.63855031985,239.75393248596,239.75139450483,239.75151389997,239.75397788118,257.88160828371,257.88153949667,257.88153949667,223.39161533727,223.39161533727,415.4587683742,415.45872235096,0
0.0001735,55642619.710437,5.0960260825984e-05,1.0144840386406,1.8890387670671e-08,-1.8891575703431e-08,1.8906203578585e-08,1.8902240044962e-08,8.592601283696e-37,-8.5924887617465e-37,-8.5926931189232e-37,8.5936683081325e-37,-48.655616547959,48.741506928893,-48.720273205558,48.653424902182,-1.8919572937425e-08,8.5903869038726e-37,8.5945721315946e-37,-8.5952352838944e-37,-8.5917019909921e-37,1.1343528350079e-23,-1.1344479086641e-23,-1.1343806238202e-23,1.1344040821124e-23,-2.4090796019763,2.411916657446,-1.8921150060704e-08,-2.4109741890028,2.408832351069,3.2224304132554e-56,-3.221453425742e-56,-3.2219805357429e-56,3.2232375422081e-56,-2.4080313374287,2.41281660726,-2.4120372149795,2.4079833630545,-3.0595074874727e-293,3.2222415541755e-56,3.2220899952545e-56,-3.2225206770013e-56,-3.2228922128406e-56,1.1338357006573e-23,1.1348805067638e-23,-1.1349302171687e-23,-1.1339709915545e-23,2.2713578122175e-285,-1.8984697125164e-285,-1.7799589520188e-292,1.8908686106264e-08,-1.8904906101856e-08,223.36357407629,223.36357407629,223.36192567173,223.36192567173,247.73221973461,247.73123730377,247.73147813327,247.73235009211,207.61849700765,207.61535552288,207.61573046471,207.61875795465,223.35990385717,247.7327294797,247.73081994767,247.73096798836,247.73276704797,239.76505313789,239.76415056969,239.76444999039,239.76527354266,210.10742401635,210.10547372783,223.35990385717,210.10591070324,210.10776935129,253.67898437229,253.67816790875,253.67834641812,253.6790307621,210.10847318634,210.10461876611,210.10486023758,210.10862301744,257.93008607684,253.6791905972,253.67799896638,253.67813999579,253.67919950673,239.76600237708,239.76337387707,239.76350003619,239.76604951985,257.93008607684,257.93001265403,257.93001265403,223.36155374247,223.36155374247,415.28593750721,415.28588768629,0
0.000174,55811822.317798,5.1107406442382e-05,1.0145395467429,1.8376740353546e-08,-1.837790394229e-08,1.8392612281219e-08,1.8388658924341e-08,8.1516442804919e-37,-8.1515772594847e-37,-8.1517663123644e-37,8.1527083603035e-37,-48.669334177265,48.758755482241,-48.736279974877,48.667224082122,-1.8406119440846e-08,8.1495138716905e-37,8.1536230108613e-37,-8.1542354484894e-37,-8.1507892513072e-37,1.0833050863481e-23,-1.0834041090272e-23,-1.0833355753895e-23,1.0833575548604e-23,-2.3968653584653,2.3998011058949,-1.8407680025679e-08,-2.3988110344584,2.396614212178,3.0446619114202e-56,-3.0437299322597e-56,-3.0442442899798e-56,3.0454596633586e-56,-2.3957813541471,2.4007287310365,-2.3999104627195,2.3957403996844,-1.0838815171258e-291,3.0445125965178e-56,3.0443624667929e-56,-3.0447603712187e-56,-3.0451341685205e-56,1.0827981799383e-23,1.0838308314678e-23,-1.0838757629163e-23,-1.0829306506696e-23,1.0799131522905e-283,-8.5835481103957e-284,-6.1742280613496e-291,1.8395128491273e-08,-1.8391372064207e-08,223.33402446199,223.33402446199,223.33232003659,223.33232003659,247.7614804456,247.76046199029,247.7607159896,247.76161653499,207.53363506945,207.53037483966,207.53077085196,207.53390907311,223.33022276337,247.76200868855,247.76003083643,247.76018732417,247.76204726591,239.77739879033,239.77646327632,239.77677866832,239.7776298296,210.0327236738,210.03069988281,223.33022276337,210.03116090756,210.03308665695,253.71981113821,253.71896419757,253.71915285584,253.71985879681,210.03381314071,210.029814954,210.03007006279,210.03397020804,257.97870949799,253.72002481589,253.7187896931,253.71893896973,253.72003309253,239.77838270868,239.77566072811,239.77579399364,239.77843162105,257.97870949799,257.97863114515,257.97863114515,223.33192875883,223.33192875883,415.11392383992,415.11386990791,0
0.0001745,55981607.659943,5.1254560604985e-05,1.0145951669662,1.7877002115309e-08,-1.787813976629e-08,1.7892927068647e-08,1.7888985633946e-08,7.7340988330454e-37,-7.7340765520754e-37,-7.7342511168677e-37,7.7351607239978e-37,-48.682979027882,48.776071951399,-48.752286742366,48.680968786246,-1.7906570972797e-08,7.7320518780651e-37,7.7360856771356e-37,-7.7366481766219e-37,-7.7332883475943e-37,1.0346183549651e-23,-1.0347213188013e-23,-1.034651612946e-23,1.0346721347703e-23,-2.3846861402866,2.387723835321,-1.7908113582492e-08,-2.3866840837722,2.3844315534338,2.8771231325866e-56,-2.876235161578e-56,-2.8767374093709e-56,2.8779121456301e-56,-2.3835654227753,2.3886798686088,-2.3878209032697,2.3835323216209,-3.8991463140615e-290,2.8770135295918e-56,2.8768642676825e-56,-2.8772299471749e-56,-2.8776066121187e-56,1.0341216976078e-23,1.0351422271345e-23,-1.0351823961112e-23,-1.0342513812087e-23,5.052829901564e-282,-3.8131711245438e-282,-2.1302185968301e-289,1.7895475130996e-08,-1.7891744626061e-08,223.30491278203,223.30491278203,223.30315062211,223.30315062211,247.79097830367,247.78992257181,247.79019037441,247.791120287,207.44923067376,207.44584751664,207.44626564253,207.44951824395,223.30097533233,247.79152565077,247.78947721124,247.78964258101,247.79156520081,239.79005259139,239.78908300191,239.78941509873,239.79029465934,209.95849197799,209.9563920983,223.30097533233,209.95687832197,209.95887333624,253.76082136637,253.75994285238,253.76014217976,253.76087025215,209.95962315847,209.95547624846,209.95574567665,209.95978772143,258.02747787956,253.76104273997,253.75976262169,253.75992058618,253.76105026252,239.7910723344,239.78825382583,239.78839455592,239.79112303517,258.02747787956,258.02739428508,258.02739428508,223.30273915652,223.30273915652,414.94271963269,414.94266124998,0
0.000175,56151985.471331,5.1401723503544e-05,1.0146509020095,1.7390791746481e-08,-1.7391901891853e-08,1.7406766604397e-08,1.740283892727e-08,7.3386847707789e-37,-7.3387064940251e-37,-7.3388673793135e-37,7.3397452083053e-37,-48.696550987505,48.793461512228,-48.768295342576,48.694660688394,-1.7420546095725e-08,7.3367207963007e-37,7.3406799782674e-37,-7.3411932889031e-37,-7.3379191181401e-37,9.8818041593117e-24,-9.882873140527e-24,-9.882165136231e-24,9.882355959001e-24,-2.3725416873537,2.3756846809013,-1.7422069225964e-08,-2.3745931037577,2.3722841758545,2.719208552478e-56,-2.718363622261e-56,-2.718854391473e-56,2.7199894522131e-56,-2.3713832731943,2.3766698691754,-2.3757683118503,2.3713589207149,-1.4462233504469e-288,2.7191388657399e-56,2.7189899164037e-56,-2.719323894978e-56,-2.7197040286844e-56,9.876940317083e-24,9.8870246963077e-24,-9.8873789167018e-24,-9.8782095878761e-24,2.3265564690411e-280,-1.6643592827147e-280,-7.3417650558033e-288,1.7409344549395e-08,-1.7405642412658e-08,223.27623790096,223.27623790096,223.27441624788,223.27441624788,247.82071233016,247.81961802867,247.81990029498,247.8208603688,207.36528287767,207.36177247681,207.36221380508,207.36558453683,223.27216030948,247.8212794045,247.81915804213,247.81933274933,247.82131988354,239.80301338044,239.80200854988,239.80235811378,239.80326688,209.88472798507,209.88254934717,223.27216030948,209.88306196677,209.88512846673,253.80201425927,253.80110303752,253.80131357851,253.802064322,209.88590233904,209.88160159589,209.88188605596,209.88607466142,258.0763905656,253.80224357861,253.80091691238,253.80108402707,253.80225021469,239.80407012562,239.80115195399,239.8013005231,239.8041226299,258.0763905656,258.07630139967,258.07630139967,223.27398372615,223.27398372615,414.77231690477,414.7722537048,0
0.0001755,56322965.673973,5.1548895330326e-05,1.0147067546153,1.6917738356717e-08,-1.6918819350065e-08,1.6933759867576e-08,1.6929847877833e-08,6.9641940319595e-37,-6.9642590472582e-37,-6.9644070549435e-37,6.9652537314866e-37,-48.710049849075,48.810929415657,-48.784307560844,48.70830150427,-1.6947673683901e-08,6.962312608472e-37,6.9661978705703e-37,-6.9666627151026e-37,-6.9634735102343e-37,9.4388451492259e-24,-9.4399534135436e-24,-9.4392352519166e-24,9.4394118288963e-24,-2.3604317212994,2.363683461237,-1.6949175760278e-08,-2.3625378446514,2.3601718673383,2.5703496908855e-56,-2.5695468653227e-56,-2.5700267770716e-56,2.5711230911308e-56,-2.3592346183261,2.3646985654573,-2.3637524454515,2.3592199756333,-5.6309137922341e-287,2.570320161982e-56,2.5701709750014e-56,-2.5704737487287e-56,-2.5708579485199e-56,9.4340843092698e-24,9.4440480540814e-24,-9.4443549514927e-24,-9.4353262958798e-24,1.054179661531e-278,-7.1372504001524e-279,-2.5453217820864e-286,1.6936365578897e-08,-1.693269436103e-08,223.24799870587,223.24799870587,223.24611575515,223.24611575515,247.85068156203,247.84954735561,247.8498447739,247.85083581607,207.28179076754,207.27814866888,207.27861433555,207.28210705034,223.24377646057,247.85126900373,247.84907231334,247.84925683462,247.85131036024,239.81628001453,239.81523874035,239.81560656317,239.81654535717,209.81143077886,209.80917062781,223.24377646057,209.8097108892,209.81185115367,253.84338903303,253.8424439298,253.84266625416,253.84344021315,209.81264981042,209.80818996761,209.80849020353,209.81283016008,258.12544691222,253.84362655475,253.84225173779,253.84242848763,253.84363215997,239.81737497191,239.81435391272,239.81451071221,239.81742929073,258.12544691222,258.12535182583,258.12535182583,223.24566127957,223.24566127957,414.60270741581,414.6026390014,0
0.000176,56494558.379266,5.1696076280023e-05,1.0147627275699,1.6457481216297e-08,-1.6458531327621e-08,1.6473545990113e-08,1.6469651717901e-08,6.6094865489684e-37,-6.609594165458e-37,-6.6097300924534e-37,6.6105462060319e-37,-48.723475624743,48.828481284609,-48.800325428067,48.721893318241,-1.648759275556e-08,6.6076872905453e-37,6.6114993029318e-37,-6.6119163793937e-37,-6.6088114654275e-37,9.0162910258699e-24,-9.017438520286e-24,-9.0167110041608e-24,9.0168734531348e-24,-2.3483559600777,2.3517199923646,-1.64890721329e-08,-2.3505180543648,2.3480944178652,2.4300128047559e-56,-2.4292511768629e-56,-2.4297208430219e-56,2.4307793081241e-56,-2.3471191692521,2.3527657874067,-2.3517730564812,2.3471152672983,-2.3373722255132e-285,2.4300237125549e-56,2.4298737419628e-56,-2.4301457800282e-56,-2.4305346399248e-56,9.011633490376e-24,9.0214768564803e-24,-9.0217365701823e-24,-9.0128484479783e-24,4.7002931982767e-277,-3.0068846989299e-277,-8.9719507858386e-285,1.6476177197462e-08,-1.6472539556301e-08,223.22019410723,223.22019410723,223.21824800769,223.21824800769,247.88088505222,247.87970956217,247.88002284941,247.88104567986,207.19875346028,207.19497506858,207.19546625843,207.19908491329,223.21582257258,247.88149351867,247.87921902374,247.8794138578,247.8815356926,239.82985136894,239.82877241072,239.82915931458,239.83012897431,209.73859947217,209.73625496526,223.21582257258,209.73682416456,209.73904053115,253.88494491777,253.88396471872,253.88419942243,253.88499714552,209.73986473046,209.73524036104,209.73555714937,209.74005337889,258.17464628772,253.88519090536,253.88376628315,253.88395317669,253.88519532254,239.83098578161,239.82785851903,239.82802395784,239.83104192141,258.17464628772,258.17454491171,258.17454491171,223.21777065068,223.21777065068,414.43388268145,414.43380862307,0
0.0001765,56666773.88859,5.1843266549691e-05,1.01481884077,1.6009669324138e-08,-1.6010686738847e-08,1.6025773830672e-08,1.6021899408853e-08,6.2734862670677e-37,-6.2736358146777e-37,-6.2737604524681e-37,6.2745465581833e-37,-48.736828068664,48.846122652745,-48.816350753789,48.735438090488,-1.6039952053197e-08,6.2717688302278e-37,6.2755082373723e-37,-6.2758782194552e-37,-6.2728569389539e-37,8.6131756752202e-24,-8.6143623538536e-24,-8.6136262994695e-24,8.6137747069581e-24,-2.3363140947693,2.3397940647178,-1.6041407012452e-08,-2.3385334553839,2.3360515953847,2.2976966893001e-56,-2.2969753797012e-56,-2.2974354032602e-56,2.2984568882096e-56,-2.3350366117133,2.3408713393824,-2.3398298699938,2.3350445546097,-1.0406065076398e-283,2.297748349853e-56,2.2975970536931e-56,-2.2978387990159e-56,-2.2982329108928e-56,8.6086217767714e-24,8.6183449954041e-24,-8.6185576574112e-24,-8.609809935804e-24,2.0621910911376e-275,-1.2444567844331e-275,-3.2629552605491e-283,1.6028428103721e-08,-1.602482680977e-08,223.19282303957,223.19282303957,223.19081189244,223.19081189244,247.91132187022,247.91010367321,247.91043357601,247.9114890271,207.11617010419,207.11225067942,207.11276862762,207.11651728538,223.18829745444,247.91195203634,247.90959718732,247.90980285581,247.91199495836,239.84372633784,239.84260841625,239.84301525433,239.84401663338,209.66623320756,209.66380141213,223.18829745444,209.6644008971,209.66669576287,253.92668115809,253.92566460702,253.92591231328,253.92673435266,209.6675462876,209.66275180056,209.66308595157,209.66774350949,258.22398807318,253.92693588204,253.92545974689,253.9256573172,253.92693894026,239.84490148236,239.84166460746,239.84183911269,239.8449594445,258.22398807318,258.22388001719,258.22388001719,223.19031069625,223.19031069625,414.26583392379,414.2657537571,0
0.000177,56839682.57576,5.1990466338629e-05,1.0148751583294,1.5573961325786e-08,-1.5574944137177e-08,1.5590101887619e-08,1.5586249558773e-08,5.9551775313601e-37,-5.9553683584399e-37,-5.9554824948148e-37,5.9562391130532e-37,-48.750107159918,48.863859450245,-48.832385614265,48.748938172268,-1.5604409953566e-08,5.9535416151396e-37,5.9572090342459e-37,-5.9575325724441e-37,-5.954594284474e-37,8.2285800082752e-24,-8.2298058300255e-24,-8.2290620694698e-24,8.229196488752e-24,-2.3243058124687,2.3279054661539,-1.5605838700938e-08,-2.3265837682225,2.3240431702237,2.1729306705111e-56,-2.1722488254316e-56,-2.1726998015465e-56,2.1736851474443e-56,-2.3229866293033,2.3290150230309,-2.3279226066484,2.3230075988412,-4.9347817836998e-282,2.1730234377937e-56,2.1728702767152e-56,-2.1730821463855e-56,-2.1734821007294e-56,8.2241301104876e-24,8.2337333857636e-24,-8.2338991222244e-24,-8.2252916738611e-24,8.9024205873986e-274,-5.0593158537614e-274,-1.2452371962801e-281,1.5592776630744e-08,-1.558921456866e-08,223.16588446245,223.16588446245,223.1638063205,223.1638063205,247.94199110236,247.94072872923,247.94107602471,247.94216494086,207.03403988062,207.02997453435,207.03052052807,207.03440335887,223.16119993808,247.9426436608,247.94020583355,247.94042288185,247.94268725156,239.85790383472,239.85674563055,239.85717328781,239.85820725523,209.59433115894,209.59180905005,223.16119993808,209.59244022145,209.59481604358,253.96859701324,253.96754281079,253.96780417104,253.96865108188,209.59569370247,209.59072333903,209.5910756978,209.59589977513,258.27347166247,253.96886075109,253.96733134069,253.96754014642,253.9688622648,239.8591210216,239.85577103056,239.85595504813,239.85918080185,258.27347166247,258.27335651389,258.27335651389,223.1632802969,223.1632802969,414.09855210232,414.09846532678,0
0.0001775,57013476.441254,5.2137675848305e-05,1.0149316117085,1.5150025137885e-08,-1.5150971344872e-08,1.5166197924742e-08,1.5162370044485e-08,5.6536015668663e-37,-5.6538330391648e-37,-5.6539374573725e-37,5.6546650762501e-37,-48.763312764982,48.881697658278,-48.848431993231,48.762395953782,-1.5180634095982e-08,5.6520469115636e-37,5.6556429343484e-37,-5.6559206562382e-37,-5.6530647363313e-37,7.8616295649235e-24,-7.8628944928329e-24,-7.8621438722238e-24,7.8622643246357e-24,-2.3123307794802,2.3160539646258,-1.5182034761112e-08,-2.3146686936661,2.3120688973384,2.0552726810185e-56,-2.0546294707424e-56,-2.0550719871971e-56,2.0560220098632e-56,-2.3109688867168,2.3171966197931,-2.3160509649463,2.3110041461454,-2.4527967175308e-280,2.0554069472921e-56,2.0552513846196e-56,-2.0554337702031e-56,-2.0558401572687e-56,7.8572840610984e-24,7.8667675711847e-24,-7.866886502472e-24,-7.8584192052185e-24,3.7812897546384e-272,-2.0203176037027e-272,-5.0574984559499e-280,1.5168890374338e-08,-1.516537054708e-08,223.13937736116,223.13937736116,223.13723022783,223.13723022783,247.97289185243,247.97158378692,247.97194928362,247.97307252085,206.95236200488,206.94814569667,206.94872107659,206.9527423593,223.13452887918,247.97356751378,247.97104400788,247.97127300607,247.97361168309,239.87238279313,239.87118294626,239.87163234012,239.87269978019,209.52289253248,209.5202769906,223.13452887918,209.52094130352,209.52340059987,254.01069175767,254.00959856004,254.00987425498,254.01074659468,209.52430622872,209.51915405866,209.51952550621,209.52452143154,258.32309646286,254.01096479412,254.00938029008,254.00960091644,254.01096456213,239.87364336721,239.87017665952,239.87037065483,239.87370495512,258.32309646286,258.32297378568,258.32297378568,223.1366783579,223.1366783579,413.93202787281,413.93193394225,0
0.000178,57187947.688607,5.2284895282279e-05,1.014988204211,1.4737537706168e-08,-1.4738445209485e-08,1.4753738732374e-08,1.4749937772028e-08,5.3678532223649e-37,-5.3681247165983e-37,-5.3682201998862e-37,5.3689192781378e-37,-48.776444533548,48.899643191283,-48.864491704333,48.775813801898,-1.476830112775e-08,5.3663796089322e-37,5.3699047966965e-37,-5.3701373116218e-37,-5.3673631531691e-37,7.5114923105479e-24,-7.5127963053669e-24,-7.5120396917515e-24,7.5121461681901e-24,-2.3003886361442,2.3042393027619,-1.4769671765936e-08,-2.3027879100319,2.300128513735,1.9443074823722e-56,-1.9437020967334e-56,-1.9441367357727e-56,1.9450522288292e-56,-2.2989830258734,2.3054158856632,-2.3042146170824,2.2990339247048,-1.2545788760948e-278,1.944483677758e-56,1.9443251769266e-56,-1.9444784469703e-56,-1.9448918580743e-56,7.5072516250246e-24,7.5166155148194e-24,-7.5166877606189e-24,-7.508360500011e-24,1.5801498020243e-270,-7.9236693234248e-271,-2.1968995724133e-278,1.4756445941198e-08,-1.4752971468039e-08,223.11330074768,223.11330074768,223.11108257622,223.11108257622,248.00402324208,248.00266791958,248.00305245837,248.00421088376,206.87113572768,206.86676326147,206.86736942343,206.87153354692,223.10828315822,248.00472273506,248.00211077223,248.00235231589,248.004767381,239.8871621672,239.88591927561,239.88639135666,239.88749316861,209.45191656797,209.4492043767,223.10828315822,209.44990334191,209.45244869153,254.05296468139,254.05183109896,254.0521218396,254.05302016708,209.45338315438,209.44804307242,209.44843452685,209.45360776816,258.37286189517,254.05324730832,254.05160583469,254.05183889454,254.05324511279,239.88846750802,239.88488038478,239.88508484337,239.88853088634,258.37286189517,258.37273122887,258.37273122887,223.11050381017,223.11050381017,413.7662515739,413.76614990286,0
0.0001785,57363108.574306,5.2432124846e-05,1.0150449391781,1.4336184993185e-08,-1.4337051591618e-08,1.4352410112243e-08,1.4348638664198e-08,5.097077977278e-37,-5.0973888825381e-37,-5.0974762123739e-37,5.0981471797776e-37,-48.789502693052,48.917702705065,-48.880567168797,48.789194829598,-1.4367096709306e-08,5.0956852266418e-37,5.0991401131721e-37,-5.0993280108592e-37,-5.0966350242329e-37,7.1773766519253e-24,-7.178719674133e-24,-7.177957952507e-24,7.1780504125956e-24,-2.2884790344171,2.2924612351733,-1.4368435297197e-08,-2.2909411087764,2.2882217740466,1.8396450245688e-56,-1.8390766726828e-56,-1.8395040111432e-56,1.8403857473237e-56,-2.2870287022936,2.2936725884331,-2.2924132457472,2.2870966804115,-6.5021308827581e-277,1.8398636181701e-56,1.8397016428467e-56,-1.839826142219e-56,-1.8402471709725e-56,7.1732412389243e-24,7.1824856234411e-24,-7.1825113010713e-24,-7.1743239682873e-24,6.4961057041167e-269,-3.0519018503358e-269,-1.0135275130386e-276,1.435512894681e-08,-1.4351703070738e-08,223.08765366164,223.08765366164,223.08536235423,223.08536235423,248.03538441116,248.03398021746,248.03438467237,248.03557916355,206.79036033689,206.78582635735,206.7864647539,206.79077621825,223.08246168151,248.03610848275,248.03340520526,248.03365991644,248.03615349077,239.90224093223,239.90095355095,239.90144930353,239.90258640128,209.38140254048,209.37859038424,223.08246168151,209.37932556938,209.38195961297,254.09541509008,254.09423968608,254.0945462148,254.09547108969,209.38292380348,209.37738952566,209.37780194326,209.38315810966,258.42276739394,254.09570760665,254.09400722846,254.09425336334,254.09570321197,239.90359245432,239.89988111657,239.90009654478,239.90365759834,258.42276739394,258.42262825226,258.42262825226,223.08475561136,223.08475561136,413.60121327998,413.60110323555,0
0.000179,57538971.539079,5.2579364746685e-05,1.0151018200152,1.3945661494918e-08,-1.3946484874447e-08,1.3961906387945e-08,1.3958167176839e-08,4.8404689552469e-37,-4.8408186730384e-37,-4.8408986289059e-37,4.8415418831374e-37,-48.802487189638,48.935882752914,-48.896660560096,48.802542065217,-1.3976715022422e-08,4.8391569283715e-37,4.8425420208612e-37,-4.8426858703993e-37,-4.8400734794025e-37,6.8585293131173e-24,-6.8599113226254e-24,-6.8591453964458e-24,6.859223763549e-24,-2.2766015969,2.2807194881317,-1.3978019457623e-08,-2.2791279540309,2.2763484109394,1.7409188509189e-56,-1.7403867604396e-56,-1.7408073696065e-56,1.7416561005761e-56,-2.2751055444639,2.2819664672314,-2.2806465031698,2.2751921372681,-3.3770479353384e-275,1.7411803515627e-56,1.7410143659905e-56,-1.7411104150663e-56,-1.7415396566015e-56,6.8544996572571e-24,6.8636246209952e-24,-6.8636038449872e-24,-6.8555563326574e-24,2.6270583342359e-267,-1.1542703171887e-267,-4.8899137735119e-275,1.3964633529176e-08,-1.3961259618848e-08,223.06243517088,223.06243517088,223.06006857778,223.06006857778,248.0669745186,248.0655197886,248.06594506772,248.06717651222,206.71003515792,206.70533414685,206.70600628877,206.71046970637,223.05706338194,248.06772393417,248.06492640325,248.06519493134,248.06776917612,239.91761808547,239.91628472561,239.91680516845,239.91797848019,209.31134976082,209.30843422256,223.05706338194,209.30920725335,209.31193269362,254.13804230607,254.13682359522,254.13714668683,254.13809866858,209.31292753644,209.3071925966,209.30762697296,209.3131718163,258.47281240835,254.13834501875,254.13658374051,254.13684362173,254.13833817041,239.91901723867,239.91517778575,239.91540471135,239.91908411547,258.47281240835,258.47266427806,258.47266427806,223.05943274654,223.05943274654,413.43690272183,413.43678361933,0
0.0001795,57715549.292831,5.2726615193236e-05,1.0151588501795,1.3565670081477e-08,-1.3566447821958e-08,1.3581930261361e-08,1.3578226138011e-08,4.5972642286743e-37,-4.5976521667415e-37,-4.5977255283706e-37,4.5983414436799e-37,-48.815397912538,48.954189964772,-48.91277401583,48.815858656395,-1.3596858611176e-08,4.5960328239867e-37,4.5993486008509e-37,-4.5994489557729e-37,-4.5969166024287e-37,6.5542334806807e-24,-6.5556544313208e-24,-6.5548852235482e-24,6.5549493928911e-24,-2.2647559267754,2.2690137679684,-1.3598126714195e-08,-2.2673480931638,2.2645081443844,1.6477846465462e-56,-1.6472880589565e-56,-1.6477025070758e-56,1.6485189692118e-56,-2.2632131649312,2.2702972407946,-2.2689140204242,2.2633200067848,-1.7451485496396e-273,1.6480896030625e-56,1.6479190694156e-56,-1.647986967049e-56,-1.6484250220918e-56,6.5503100939278e-24,6.5593156887204e-24,-6.5592485756526e-24,-6.5513407826277e-24,1.0449808629861e-265,-4.2863412620579e-266,-2.4245685445095e-273,1.3584662192631e-08,-1.3581343743052e-08,223.03764437259,223.03764437259,223.03520029124,223.03520029124,248.09879274272,248.09728575919,248.09773280549,248.09900210009,206.63015955556,206.62528582833,206.62599328616,206.6306133827,223.0320872201,248.09956828615,248.09667348046,248.09695650314,248.09961361922,239.93329264673,239.93191177443,239.93245796115,239.93366842898,209.24175757734,209.23873513622,223.0320872201,209.2395476976,209.24236729954,254.18084566848,254.1795821156,254.17992257841,254.18090222536,209.24339375181,209.23745149808,209.23790886921,209.24364828557,258.52299640226,254.1811588911,254.17933465531,254.17960898508,254.18114931446,239.93474091636,239.93076934433,239.93100831723,239.9348094841,258.52299640226,258.52283874191,258.52283874191,223.03453422934,223.03453422934,413.27330929365,413.27318039271,0
0.00018,57892854.778253,5.2873876396045e-05,1.0152160331797,1.3195921802719e-08,-1.3196651369806e-08,1.3212192609264e-08,1.3208526557449e-08,4.3667442635541e-37,-4.3671698339797e-37,-4.3672373815832e-37,4.3678263087079e-37,-48.828234706013,48.972631098082,-48.92890968503,48.829147927061,-1.3227238189659e-08,4.3655934155335e-37,4.3688403269248e-37,-4.3688977260036e-37,-4.3664448677352e-37,6.2638070178274e-24,-6.2652668553556e-24,-6.2644953100598e-24,6.2645451468705e-24,-2.2529416086925,2.2573437630212,-1.3228467704363e-08,-2.2556011587419,2.2527006844825,1.5599188733713e-56,-1.5594570418452e-56,-1.5598658940174e-56,1.5606508100534e-56,-2.251351160813,2.2586646097946,-2.2572154097492,2.2514799904337,-8.9335096300954e-272,1.5602678744509e-56,1.5600922526341e-56,-1.5601322764598e-56,-1.5605797511236e-56,6.2599904388123e-24,6.2688766835028e-24,-6.2687633532984e-24,-6.2609951808357e-24,4.0881328529284e-264,-1.5626099786461e-264,-1.2173511858514e-271,1.3214925610364e-08,-1.3211666243243e-08,223.01328039415,223.01328039415,223.0107565684,223.0107565684,248.1308382817,248.129277274,248.12974706617,248.13105511611,206.55073293559,206.54568063753,206.54642504308,206.55120665835,223.00753218534,248.13164075544,248.12864556955,248.12894379368,248.13168602111,239.94926365895,239.94783369442,239.94840671405,239.9496552935,209.17262537733,209.16949240645,223.00753218534,209.17034624367,209.17326283476,254.22382453358,254.22251455218,254.22287322911,254.22388109751,209.17432188766,209.16816547908,209.16864692251,209.1745869535,258.57331885455,254.22414858733,254.222259273,254.22254878554,254.22413598639,239.950762566,239.94665476618,239.94690635908,239.95083277311,258.57331885455,258.5731510931,258.5731510931,223.01005910301,223.01005910301,413.11042204863,413.1102825494,0
0.0001805,58070901.170656,5.3021148566794e-05,1.0152733725756,1.2836135701001e-08,-1.2836814440288e-08,1.2852412292534e-08,1.2848787432768e-08,4.1482295129792e-37,-4.1486921284545e-37,-4.1487546433684e-37,4.1493169119942e-37,-48.840997448898,48.991213077006,-48.945069767005,48.842413450258,-1.2867572447503e-08,4.1471591921014e-37,4.1503376582733e-37,-4.1503526254456e-37,-4.147978736205e-37,5.9866007689858e-24,-5.9880994271146e-24,-5.9873265100007e-24,5.9873618508036e-24,-2.2411582121329,2.2457091456798,-1.2868761040785e-08,-2.2438867707059,2.2409257343232,1.4770174909957e-56,-1.4765896774855e-56,-1.4769934967388e-56,1.4777475783387e-56,-2.2395191176631,2.2470682581847,-2.2455502660638,2.2396717830813,-4.5179949005315e-270,1.4774111670254e-56,1.4772299129201e-56,-1.4772423189042e-56,-1.4776998269286e-56,5.9828915628041e-24,5.9916584403544e-24,-5.9914990167429e-24,-5.9838703693357e-24,1.5727888749137e-262,-5.591640037255e-263,-6.1237913810071e-270,1.2855142436009e-08,-1.2851945899623e-08,222.98934239416,222.98934239416,222.98673651333,222.98673651333,248.16311035407,248.16149349685,248.1619870501,248.16333476833,206.4717547462,206.4665178491,206.46730089684,206.4722489855,222.98339729689,248.16394057917,248.16084182209,248.16115598467,248.16398560204,239.9655301889,239.96404950539,239.96465048279,239.96593814233,209.10395258856,209.1007053527,222.98339729689,209.10160227223,209.10461874256,254.26697827516,254.26562022606,254.26599799568,254.26703463864,209.105711423,209.09933382613,209.09984046198,209.10598729594,258.62377925935,254.26731348862,254.26535690979,254.26566237246,254.26729754467,239.96708129016,239.96283304763,239.96309785666,239.96715307448,258.62377925935,258.62360079487,258.62360079487,222.98600644152,222.98600644152,412.9482296959,412.9480787345,0
0.000181,58249701.878558,5.3168431918286e-05,1.0153308719771,1.248603859308e-08,-1.2486663726502e-08,1.2502315938652e-08,1.2498735541756e-08,3.9410781373428e-37,-3.9415772161814e-37,-3.941635481128e-37,3.9421713940828e-37,-48.853686003335,49.009942949921,-48.961256468461,48.855659001126,-1.2517587840191e-08,3.9400883497055e-37,3.9431987653993e-37,-3.9431718113658e-37,-3.9408763767609e-37,5.7219969308492e-24,-5.7235343364357e-24,-5.7227610352222e-24,5.722781680388e-24,-2.2294052893426,2.2341095698838,-1.2518733104086e-08,-2.2322045342407,2.2291829881495,1.3987947539158e-56,-1.3984002308417e-56,-1.3987995787069e-56,1.3995235246985e-56,-2.2277166071302,2.2355078513764,-2.2339181650641,2.2278950704618,-2.253701142012e-268,1.3992337778443e-56,1.3990463455485e-56,-1.3990313687576e-56,-1.3994995297472e-56,5.7183956892154e-24,5.7270431496229e-24,-5.7268377621578e-24,-5.7193485426311e-24,5.9496214871124e-261,-1.9637560248482e-261,-3.0649011071452e-268,1.2505039086289e-08,-1.2501909265085e-08,222.96582956326,222.96582956326,222.96313926136,222.96313926136,248.19560819923,248.1939336112,248.19445197802,248.19584028428,206.39322447944,206.38779677808,206.38862022657,206.39373985866,222.95968160485,248.19646701537,248.19326140909,248.19359227816,248.19651160193,239.98209132783,239.98055825067,239.9811883469,239.98251606731,209.0357386806,209.03237333399,222.95968160485,209.03331520445,209.03643450666,254.31030628495,254.30889847486,254.3092962525,254.31036221885,209.03756187908,209.03095586482,209.03148885681,209.03784882981,258.6743771265,254.31065299412,254.30862689836,254.30894911282,254.31063336434,239.98369621587,239.9793032082,239.97958185359,239.98376950377,258.6743771265,258.67418732471,258.67418732471,222.96237535056,222.96237535056,412.7867205895,412.78655723286,0
0.0001815,58429270.542045,5.3315726664257e-05,1.015388535043,1.2145364876431e-08,-1.2145933502867e-08,1.2161637764861e-08,1.2158105233423e-08,3.7446838753423e-37,-3.7452188241463e-37,-3.74527362433e-37,3.7457834755656e-37,-48.866300202625,49.028827895697,-48.977472028041,48.868888545994,-1.2177018393702e-08,3.743774657606e-37,3.746817384908e-37,-3.7467490093903e-37,-3.7445315347566e-37,5.4694075258572e-24,-5.4709835813104e-24,-5.4702109062286e-24,5.4702166374217e-24,-2.2176823742592,2.2225446719103,-1.2178117847711e-08,-2.2205540417601,2.2174721303761,1.3249820939375e-56,-1.324620133156e-56,-1.3250155713289e-56,1.325710079129e-56,-2.2159431871495,2.223983036154,-2.2223186637693,2.2161495289865,-1.107714232114e-266,1.3254671812084e-56,1.3252730165759e-56,-1.3252308721288e-56,-1.3257103190396e-56,5.4659148601446e-24,5.4744428151957e-24,-5.4741916019535e-24,-5.466841716705e-24,2.2126943325938e-259,-6.7673825393346e-260,-1.5195591909931e-266,1.2164349560754e-08,-1.2161290457329e-08,222.94274112509,222.94274112509,222.93996397998,222.93996397998,248.22833107795,248.22659682064,248.2271410915,248.22857091141,206.31514167275,206.30951678149,206.31038245466,206.31567881599,222.93638419132,248.22921934337,248.22590352156,248.22625189711,248.22926328077,239.99894619215,239.99735899775,239.99801941034,239.99938818416,208.96798316631,208.96449575041,222.93638419132,208.96548450332,208.96870965254,254.35380797308,254.35234865318,254.35276739199,254.35386322509,208.96987282072,208.96303096121,208.96359151773,208.97017111432,258.72511198184,254.35416652129,254.35206858829,254.35240839163,254.35414283733,240.00060649531,239.99606429125,239.99635741798,240.0006812007,258.72511198184,258.72491017471,258.72491017471,222.93916496861,222.93916496861,412.62588272186,412.62570596205,0
0.000182,58609621.030652,5.3463033019099e-05,1.0154463654797,1.1813856342639e-08,-1.1814365426491e-08,1.1830119361837e-08,1.1826638258302e-08,3.5584740144543e-37,-3.5590442408253e-37,-3.5590963632414e-37,3.5595804224889e-37,-48.878839856681,49.047875169286,-48.993718659597,48.88210628116,-1.1845605513101e-08,3.55764543729e-37,3.5606208125681e-37,-3.5605115032658e-37,-3.5583715041119e-37,5.2282729260869e-24,-5.2298875219774e-24,-5.2291165060994e-24,5.2291070687432e-24,-2.2059889835281,2.2110140675381,-1.1846656604944e-08,-2.2089348700154,2.205792837917,1.2553270605158e-56,-1.2549969396278e-56,-1.2553890295871e-56,1.2560547881245e-56,-2.2041984019585,2.2124934386062,-2.2107512985224,2.204434827243,-5.3609513775306e-265,1.255858972092e-56,1.2556575173169e-56,-1.2555883993619e-56,-1.2560797736649e-56,5.2248894723582e-24,5.2332977990315e-24,-5.2330009063475e-24,-5.2257902569474e-24,8.0891056153494e-258,-2.2880346757807e-258,-7.4434414178643e-265,1.1832815232072e-08,-1.1829830985448e-08,222.92007633721,222.92007633721,222.91720986978,222.91720986978,248.26127827288,248.25948234938,248.26005365343,248.26152591744,206.23750591045,206.23167725988,206.2325870483,206.23806544069,222.91350417148,248.26219686435,248.25876737094,248.25913408587,248.26223991902,240.01609392406,240.01445083899,240.01514280214,240.01655363293,208.90068560333,208.89707204467,222.91350417148,208.89810967508,208.90144374871,254.3974827684,254.39597013295,254.39641082494,254.39753706145,208.90264385781,208.89555852341,208.89614789844,208.90295375231,258.77598336754,254.39785350633,254.39568134643,254.39603961236,254.3978253728,240.01781130635,240.01311536472,240.01342364312,240.01788732971,258.77598336754,258.7757688518,258.7757688518,222.91637446807,222.91637446807,412.46570371675,412.46551246558,0
0.0001825,58790767.440507,5.3610351197667e-05,1.0155043670396,1.1491261986882e-08,-1.1491708365434e-08,1.1507509536752e-08,1.1504083565552e-08,3.381907504998e-37,-3.3825124035698e-37,-3.3825626385661e-37,3.3830211673289e-37,-48.891304742027,49.067092136151,-49.009998597258,48.895316585847,-1.1523097801164e-08,3.3811596671005e-37,3.3840679964054e-37,-3.3839182343886e-37,-3.3818552429157e-37,4.998060479111e-24,-4.9997134801373e-24,-4.9989451795496e-24,4.9989202984875e-24,-2.1943246156959,2.1995173541461,-1.1524097913944e-08,-2.1973465832668,2.1941447779271,1.1895923419491e-56,-1.1892933349166e-56,-1.1896826402186e-56,1.1903203402568e-56,-2.1924817827565,2.2010386656657,-2.1992155865726,2.1927506242945,-2.5534406887814e-263,1.1901718839944e-56,1.1899625726526e-56,-1.1898666572032e-56,-1.1903706153637e-56,4.994786889912e-24,5.0030754277866e-24,-5.0027330160776e-24,-4.9956615031432e-24,2.9063938032057e-256,-7.588039074328e-257,-3.5965430938721e-263,1.1510184682848e-08,-1.1507279553907e-08,222.897834492,222.897834492,222.89487616537,222.89487616537,248.29444908905,248.29258944278,248.29318894846,248.2947045908,206.16031682529,206.154277659,206.15523352103,206.16089936231,222.89104069469,248.29539890168,248.29185218969,248.29223811067,248.29544081795,240.03353369222,240.03183289226,240.03255767699,240.03401157859,208.83384559552,208.83010170364,222.89104069469,208.83119027065,208.83463640795,254.44133011889,254.43976230382,254.44022598094,254.44138314944,208.83587464663,208.82853800309,208.82915749718,208.83619639147,258.82699084241,254.44171340451,254.43946455731,254.43984219727,254.44168039738,240.0353098531,240.03045552174,240.03077964813,240.03538708038,258.82699084241,258.82676287804,258.82676287804,222.89400305628,222.89400305628,412.30617082531,412.30596390764,0
0.000183,58972724.091072,5.3757681414997e-05,1.0155625435192,1.1177337836043e-08,-1.1177718209708e-08,1.1193564117532e-08,1.1190197136109e-08,3.2144731648118e-37,-3.215112118921e-37,-3.2151612593396e-37,3.2155945072751e-37,-48.903694587915,49.086486213605,-49.026314054466,48.908524055219,-1.1209250879906e-08,3.2138061937016e-37,3.2166477550417e-37,-3.2164580118623e-37,-3.2144715738488e-37,4.7782631816838e-24,-4.7799544280222e-24,-4.7791899215303e-24,4.7791492958871e-24,-2.1826887512678,2.1880541083767,-1.1210197331128e-08,-2.1857887316046,2.1825276097254,1.1275548386153e-56,-1.1272862156234e-56,-1.1276733018885e-56,1.1282836355177e-56,-2.1807928472619,2.189618302798,-2.1877110247801,2.1810965713741,-1.1964822047074e-261,1.1281828652912e-56,1.1279651230231e-56,-1.1278425656551e-56,-1.1283597790659e-56,4.7751001269777e-24,4.7832686790347e-24,-4.7828809207423e-24,-4.7759484403538e-24,1.0261360796962e-254,-2.4679209239336e-255,-1.7124320768467e-261,1.1196213515542e-08,-1.1193391890446e-08,222.87601491757,222.87601491757,222.87296213628,222.87296213628,248.32784285429,248.32591736781,248.32654628345,248.32810624094,206.08357409997,206.0773174714,206.07832143425,206.08418025812,222.86899294559,248.32882480143,248.32515723175,248.32556326011,248.32886530003,240.05126469238,240.04950430165,240.05026321577,240.05176121147,208.76746279453,208.76358425986,222.86899294559,208.76472588697,208.76828728867,254.48534949205,254.48372457353,254.48421230868,254.48540092831,208.76956489124,208.76196889708,208.76261985819,208.7698987257,258.87813398221,254.48574569053,254.48341762347,254.48381558784,254.48570735549,240.05310136651,240.04808388137,240.04842457865,240.05317966804,258.87813398221,258.87789179089,258.87789179089,222.87204997668,222.87204997668,412.14727092086,412.14704706841,0
0.0001835,59155505.52131,5.3905023886032e-05,1.0156208987578,1.0871846771602e-08,-1.0872157706312e-08,1.0888045786884e-08,1.0884741807369e-08,3.0556879959204e-37,-3.0563603744309e-37,-3.0564092173534e-37,3.0568174249592e-37,-48.916009079985,49.106064883589,-49.042667224997,48.921733482688,-1.0903827216564e-08,3.0551020452805e-37,3.0578770886957e-37,-3.0576478316773e-37,-3.0557375058516e-37,4.5683984295595e-24,-4.5701277333303e-24,-4.5693681235171e-24,4.5693114281729e-24,-2.1710808531897,2.1766238871115,-1.090471726884e-08,-2.1742608518987,2.1709409845133,1.0690047988417e-56,-1.0687658232822e-56,-1.0691512602064e-56,1.0697349239013e-56,-2.1691311008003,2.1782319151628,-2.1762370898048,2.1694723114566,-5.5135931750461e-260,1.0696822138347e-56,1.069455457188e-56,-1.0693063954796e-56,-1.0698375524183e-56,4.5653465928047e-24,4.5733949252674e-24,-4.5729620111733e-24,-4.5661684526543e-24,3.5593268994578e-253,-7.8699787358314e-254,-8.02914540746e-260,1.0890664186849e-08,-1.0887930573485e-08,222.85461697864,222.85461697864,222.85146708788,222.85146708788,248.36145891972,248.3594654136,248.36012498789,248.36173019869,206.00727746872,206.00079623809,206.00185039879,206.00790785443,222.84736014518,248.36247393274,248.35868177302,248.35910884566,248.36251270928,240.06928614804,240.06746423809,240.06825862611,240.06980174781,208.70153690126,208.69751929316,222.84736014518,208.69871616848,208.70239609611,254.52954037519,254.52785636829,254.52836927633,254.52958985532,208.70371434497,208.6958507489,208.69653457322,208.7040604963,258.92941237993,254.52994985882,254.52753996586,254.52795924509,254.52990570962,240.07118510489,240.06599958921,240.06635760743,240.07126433415,258.92941237993,258.92915514346,258.92915514346,222.85051450982,222.85051450982,411.98899049704,411.98874834074,0
0.000184,59339126.48497,5.4052378825328e-05,1.0156794366346,1.0574558365001e-08,-1.0574796287233e-08,1.0590723917661e-08,1.0587487101372e-08,2.9050955996324e-37,-2.9058007507746e-37,-2.9058500956998e-37,2.9062335008109e-37,-48.928247840349,49.125835659028,-49.059060288563,48.934949854127,-1.0606595960947e-08,2.9045908473783e-37,2.9072995940287e-37,-2.9070312836797e-37,-2.9051966433936e-37,4.3680068293452e-24,-4.3697739681551e-24,-4.36902037935e-24,4.3689472707599e-24,-2.1595003665523,2.1652262268718,-1.0607426821436e-08,-2.1627624688852,2.1593845454865,1.0137450106923e-56,-1.0135349342395e-56,-1.0139192954364e-56,1.0144769951722e-56,-2.1574960361942,2.1668790464809,-2.1647932388135,2.157877479741,-2.4978807864619e-258,1.0144727694541e-56,1.0142364036984e-56,-1.0140609551894e-56,-1.0146067643037e-56,4.3650669044434e-24,4.3729947463471e-24,-4.3725168835494e-24,-4.3658621294263e-24,1.2126955936921e-251,-2.4601119288187e-252,-3.7054940655646e-258,1.0593305842e-08,-1.0590664862555e-08,222.83364007739,222.83364007739,222.83039036222,222.83039036222,248.39529666022,248.39323289184,248.39392441429,248.39557581663,205.93142671877,205.92471355021,205.92582007644,205.93208192795,222.82614155192,248.39634568818,248.39242511188,248.39287420206,248.39638241156,240.08759731101,240.0857119,240.08654314296,240.08813243018,208.63606766732,208.63190643218,222.82614155192,208.63316080844,208.63696258363,254.57390227581,254.57215713309,254.5726963718,254.57394940593,208.63832281166,208.63018315033,208.63090128306,208.63868149325,258.98082564602,254.5743254239,254.5718310242,254.57227264994,254.57427494053,240.08956035439,240.0842018181,240.08457793501,240.08964034684,258.98082564602,258.98055250474,258.98055250474,222.82939597445,222.82939597445,411.83131566622,411.83105372854,0
0.0001845,59523601.945326,5.4199746446742e-05,1.015738161067,1.0285248709069e-08,-1.0285409908198e-08,1.0301374402133e-08,1.0298209065649e-08,2.7622646747679e-37,-2.763001926007e-37,-2.7630525767844e-37,2.7634114137989e-37,-48.940410416412,49.145806051068,-49.075495366164,48.948178335607,-1.0317332774966e-08,2.7618413214445e-37,2.7644839651828e-37,-2.7641770599607e-37,-2.7624176910427e-37,4.1766510619011e-24,-4.1784557782859e-24,-4.177709357806e-24,4.1776194719221e-24,-2.1479467188217,2.1538606429626,-1.0318101607422e-08,-2.1512930941613,2.1478579282857,9.6159003956358e-57,-9.6140810085377e-57,-9.6179196614213e-57,9.6232441854618e-57,-2.1458871343393,2.1555592186809,-2.1533789080368,2.1463117035524,-1.1121959613278e-256,9.6236915214137e-57,9.6212257105555e-57,-9.6192083512513e-57,-9.6248202663395e-57,4.1738237503131e-24,4.1816307944066e-24,-4.1811082123676e-24,-4.174592134912e-24,4.0575044137616e-250,-7.5364808108848e-251,-1.6825964853661e-256,1.030391414695e-08,-1.030137053674e-08,222.8130836543,222.8130836543,222.80973133892,222.80973133892,248.42935547478,248.42721913727,248.42794393855,248.42964246932,205.85602169191,205.84906905064,205.85023018143,205.85670230702,222.80533646278,248.43043948419,248.42638656958,248.42685868778,248.4304737949,240.10619746202,240.10424651393,240.10511602903,240.10675252791,208.57105489659,208.56674535594,222.80533646278,208.56805955034,208.57198655391,254.61843472188,254.61662633209,254.61719310312,254.6184790741,208.57339014715,208.56496574301,208.56571967899,208.57376155645,259.03237340867,254.61887192062,254.61629025727,254.61675530351,254.61881454754,240.10822642953,240.1026897687,240.10308479026,240.10830700125,259.03237340867,259.03208345981,259.03208345981,222.8086937286,222.8086937286,411.67423215867,411.67394884572,0
0.000185,59708947.069286,5.4347126963089e-05,1.0157970760077,1.0003700266082e-08,-1.0003780892231e-08,1.0019779504369e-08,1.0016690112626e-08,2.6267876128686e-37,-2.6275562644007e-37,-2.6276090280238e-37,2.6279435346807e-37,-48.952496280206,49.16598356777,-49.091974551168,48.961424274076,-1.0035819684203e-08,2.6264458790983e-37,2.6290225857243e-37,-2.6286775408372e-37,-2.6269930431452e-37,3.9939148128555e-24,-3.9957568073055e-24,-3.9950187236899e-24,3.9949116821543e-24,-2.1364193206249,2.1425266306529,-1.0036523612512e-08,-2.1398522287179,2.1363607616539,9.1236552017e-57,-9.1221093960348e-57,-9.125948954294e-57,9.1310283315408e-57,-2.134303865281,2.1442719325202,-2.1419935148415,2.1347746034703,-4.8654824972056e-255,9.1319705394791e-57,9.1293963761725e-57,-9.1271169398961e-57,-9.1328902346129e-57,3.9912008194073e-24,3.9988867220182e-24,-3.9983196721926e-24,-3.9919421329767e-24,1.3328622441707e-248,-2.2620532843559e-249,-7.5149533344043e-255,1.0022271140586e-08,-1.0019829737908e-08,222.79294718892,222.79294718892,222.78948943589,222.78948943589,248.46363478691,248.46142350808,248.46218296031,248.4639295536,205.781062286,205.77386243569,205.77508048199,205.78176887296,222.78494421431,248.46475476131,248.46056549072,248.46106168541,248.46478626972,240.12508591128,240.12306733512,240.12397657528,240.12566133753,208.50649844661,208.50203579542,222.78494421431,208.5034121892,208.50746786019,254.6631372621,254.66126344884,254.66185899861,254.66317837244,208.50891626053,208.50019821996,208.50098950431,208.50930057688,259.084055314,254.66358890441,254.66091714324,254.66140672738,254.66352404863,240.12718267363,240.12146267015,240.12187743101,240.12726362,259.084055314,259.08374761004,259.08374761004,222.78840717052,222.78840717052,411.51772532604,411.51741891839,0
0.0001855,59895177.220524,5.4494520585788e-05,1.0158561854422,9.7297017109749e-09,-9.7296977766991e-09,9.7457277018021e-09,9.7427188694644e-09,2.4982791650855e-37,-2.4990784883691e-37,-2.4991341755758e-37,2.499444594057e-37,-48.964504814866,49.186375688473,-49.108499881511,48.974693180971,-9.7618449224455e-09,2.4980192900891e-37,2.5005301986534e-37,-2.5001474685534e-37,-2.4985374546842e-37,3.8194017469641e-24,-3.8212806759763e-24,-3.8205521186403e-24,3.8204275289061e-24,-2.1249175663683,2.1312236650605,-9.7624810413622e-09,-2.128439362886,2.1248926680485,8.6590748786084e-57,-8.6577946535887e-57,-8.6616410650386e-57,8.6664828044148e-57,-2.1227456888686,2.1330166678179,-2.1306364574455,2.1232657934525,-2.0905753367649e-253,8.6679257147115e-57,8.6652368544354e-57,-8.6626959461745e-57,-8.6686384523797e-57,3.8168017764305e-24,3.8243661589437e-24,-3.8237549185138e-24,-3.8175157651302e-24,4.2975400086831e-247,-6.6502968144285e-248,-3.3002567852047e-253,9.7481650794319e-09,-9.745830820367e-09,222.77323020064,222.77323020064,222.76966411019,222.76966411019,248.49813404502,248.49584538634,248.49664090327,248.49843648881,205.70654845636,205.69909345669,205.70037080178,205.70728156123,222.76496418357,248.49929098457,248.49496124364,248.49548260201,248.4993192691,240.14426199898,240.1421736481,240.14312410137,240.14485818306,208.44239823,208.43777753501,222.76496418357,208.43921857294,208.44340640737,254.70800946619,254.70606798661,254.70669360715,254.70804683238,208.44490111545,208.43588032712,208.43671055571,208.4452984978,259.13587102622,254.70847595152,254.70571117991,254.7062264639,254.70840298069,240.14642845921,240.1405197806,240.14095514455,240.14650955348,259.13587102622,259.13554457321,259.13554457321,222.76853573977,222.76853573977,411.361780145,411.36144878826,0
0.000186,60082307.952242,5.4641927524496e-05,1.0159154933854,9.4630477813831e-09,-9.4629551613637e-09,9.4790135352342e-09,9.4760900241488e-09,2.3763751895442e-37,-2.3772044236013e-37,-2.3772638482749e-37,2.3775504287807e-37,-48.97643528804,49.206989804176,-49.12507331076,48.987990711137,-9.4952027798147e-09,2.3761974291132e-37,2.3786426523254e-37,-2.3782226907881e-37,-2.3766867861147e-37,3.6527345362478e-24,-3.6546500080916e-24,-3.6539321861056e-24,3.6537896442886e-24,-2.1134408340716,2.1199512001632,-9.4957681628077e-09,-2.1170539766937,2.1134532637503,8.2206175505022e-57,-8.2195946641975e-57,-8.2234539689734e-57,8.2280657982901e-57,-2.1112120551607,2.1217928821369,-2.1193071145965,2.1117848812445,-8.8197648330331e-252,8.2300158229026e-57,8.227205761528e-57,-8.2244037836685e-57,-8.2305236409482e-57,3.6502492896593e-24,3.6576917389821e-24,-3.6570366120632e-24,-3.6509356764333e-24,1.3597048585224e-245,-1.9145326778184e-246,-1.4246417474323e-251,9.4813902873084e-09,-9.4791681973574e-09,222.75393224938,222.75393224938,222.75025485867,222.75025485867,248.53285272267,248.53048417832,248.53131721542,248.53316271702,205.63248021723,205.62476192158,205.6261010213,205.63324036265,222.74539578917,248.53404764364,248.52957322078,248.53012086946,248.53407224892,240.16372509579,240.16156476722,240.162557956,240.16434241641,208.37875421589,208.37397041405,222.74539578917,208.37547860355,208.37980215315,254.75305092504,254.75103946865,254.75169649838,254.75308400429,208.38134473138,208.37201186481,208.37288268469,208.38175531577,259.1878202278,254.75353265921,254.75067188504,254.75121407636,254.7534508996,240.16596318837,240.15986038777,240.16031724815,240.1660441802,259.1878202278,259.18747398369,259.18747398369,222.74907891806,222.74907891806,411.20638122153,411.20602291622,0
0.0001865,60270354.998481,5.4789347986705e-05,1.0159751689485,9.2035391343696e-09,-9.2033535704397e-09,9.2194374724252e-09,9.2166041831068e-09,2.2607314710997e-37,-2.2615898170653e-37,-2.2616537963731e-37,2.2619168030686e-37,-48.988286864042,49.227833247018,-49.141696737907,49.001322650055,-9.2356934663485e-09,2.2606360948686e-37,2.263015719064e-37,-2.262558981132e-37,-2.2610968248561e-37,3.4935539388583e-24,-3.4955055074747e-24,-3.4947996481525e-24,3.4946387446259e-24,-2.1019884874688,2.1087086716316,-9.2361851773694e-09,-2.1056955426815,2.1020421599165,7.8068332647084e-57,-7.8060591868075e-57,-7.8099375354372e-57,7.8143274511178e-57,-2.0997024065176,2.1106000135876,-2.1080048481191,2.1003314691966,-3.6521598071746e-250,7.8167916083031e-57,7.8138536599139e-57,-7.8107908113977e-57,-7.8170965100084e-57,3.4911841078102e-24,3.4985041775702e-24,-3.4978054983768e-24,-3.4918425951555e-24,4.2202165155214e-244,-5.3956635624093e-245,-6.0430542429061e-250,9.2217470220355e-09,-9.2196422029023e-09,222.73505293623,222.73505293623,222.73126121865,222.73126121865,248.56779031888,248.56533931485,248.56621136927,248.56810770312,205.55885764313,205.55086769646,205.55227107927,205.55964532447,222.72623849215,248.56902425313,248.564400839,248.56497594472,248.56904468807,240.18347460325,240.18124003709,240.18227751727,240.18411341758,208.31556643121,208.31061432826,222.72623849215,208.31219223833,208.31665510904,254.79826125091,254.79617743831,254.79686726281,254.79828945761,208.31824718478,208.30859268925,208.30950579892,208.31867108178,259.23990261952,254.79875864585,254.79579879646,254.79636914917,254.79866738034,240.1857862931,240.17948380944,240.17996308947,240.18586690703,259.23990261952,259.23953549251,259.23953549251,222.7300362302,222.7300362302,411.05151280187,411.05112539284,0
0.000187,60459888.489453,5.4936782177333e-05,1.0160351787028,8.9509822023361e-09,-8.950699305455e-09,8.9668057595911e-09,8.9640677287769e-09,2.151022603749e-37,-2.1519092229843e-37,-2.1519785770052e-37,2.1522182901293e-37,-49.000058559699,49.248913200072,-49.158371960484,49.0146948917,-8.9831229657059e-09,2.1510098938018e-37,2.1533239804073e-37,-2.1528309226311e-37,-2.1514421671816e-37,3.3415179157913e-24,-3.3435050784111e-24,-3.3428124260541e-24,3.3426327469825e-24,-2.0905598755824,2.0974954947495,-8.9835380692806e-09,-2.094363525671,2.0906589632279,7.4163584980122e-57,-7.4158243825729e-57,-7.419728049214e-57,7.4239043447059e-57,-2.0882161776233,2.0994374789504,-2.0967290022387,2.0889051548234,-1.4838502190447e-248,7.4268903005727e-57,7.4238175867975e-57,-7.4204938507785e-57,-7.4269942646401e-57,3.3392641789142e-24,3.3464613913002e-24,-3.3457195256514e-24,-3.3398944496574e-24,1.2845726188042e-242,-1.4882075173413e-243,-2.5179612030271e-248,8.9690413254714e-09,-8.9670589465965e-09,222.716591904,222.716591904,222.71268276852,222.71268276852,248.60294635835,248.60041025157,248.60132286204,248.60327093497,205.48568087011,205.47741070705,205.47888097389,205.48649655149,222.70749179678,248.60422035267,248.59944353989,248.60004731007,248.60423608849,240.20350995421,240.20119883306,240.20228219293,240.2041705949,208.25283496194,208.24770923108,222.70749179678,208.249359491,208.25396534138,254.84364007752,254.84148145933,254.84220551198,254.84366278085,208.2556086102,208.24562271384,208.24657986347,208.25604590216,259.29211792061,254.84415355105,254.8410914723,254.84169128798,254.84405201703,240.20589723554,240.19938939386,240.199892047,240.2059771694,259.29211792061,259.29172876741,259.29172876741,222.71140724492,222.71140724492,410.89715878036,410.89673994482,0
0.0001875,60650767.986137,5.5084230298284e-05,1.0160954180492,8.705189057344e-09,-8.7048043118753e-09,8.7209302888107e-09,8.7182926813123e-09,2.0469409418413e-37,-2.0478549509528e-37,-2.0479305022914e-37,2.0481472232193e-37,-49.0117492464,49.270236714337,-49.175100673754,49.028113405863,-8.7373029031936e-09,2.0470111903434e-37,2.0492597760455e-37,-2.0487308573159e-37,-2.0474151689614e-37,3.1963007984278e-24,-3.1983229897879e-24,-3.1976448036453e-24,3.1974459357163e-24,-2.079154334796,2.0863110673713,-8.7376384778844e-09,-2.0830573846898,2.079303276396,7.0479110312223e-57,-7.0476076711076e-57,-7.0515430696642e-57,7.0555143816092e-57,-2.0767527974422,2.0883046762261,-2.0854789053427,2.0775055314229,-5.9131342589302e-247,7.0590304935208e-57,7.0558159212773e-57,-7.0522310544679e-57,-7.0589354874265e-57,3.1941638157654e-24,3.2012376628488e-24,-3.2004530103963e-24,-3.1947655344022e-24,3.833345786288e-241,-4.0160309208948e-242,-1.0302037789704e-246,8.723084898116e-09,-8.7212301809148e-09,222.69854883776,222.69854883776,222.69451912819,222.69451912819,248.63832039157,248.63569646917,248.63665121573,248.63865192343,205.41295009703,205.40439094013,205.40593076411,205.41379420697,222.68915525141,248.63963550706,248.63470078998,248.63533447327,248.63964597523,240.22383061306,240.22144056155,240.22257142062,240.22451338521,208.19055995432,208.18525513501,222.68915525141,208.18698043275,208.19173297218,254.88918706015,254.88695111583,254.88771087845,254.88920358164,208.19342920136,208.18310191057,208.18410490204,208.1938799395,259.34446586869,254.88971703568,254.88654949109,254.88718011979,254.88960442291,240.22629550818,240.21957652021,240.22010353032,240.22637443147,259.34446586869,259.34405349286,259.34405349286,222.69319157561,222.69319157561,410.7433027144,410.7428499503,0
0.000188,60842676.323668,5.5231692548003e-05,1.016155891798,8.4659772755045e-09,-8.4654860454834e-09,8.4816284631544e-09,8.4790965652298e-09,1.948195605743e-37,-1.9491360744295e-37,-1.9492186477409e-37,1.9494127020997e-37,-49.023357631256,49.291810630055,-49.191884455148,49.041584224011,-8.4980504102715e-09,1.9483491136597e-37,1.9505322119611e-37,-1.9499678938998e-37,-1.9487249528497e-37,3.0575924896173e-24,-3.0596490793269e-24,-3.0589866317403e-24,3.0587681651339e-24,-2.0677711898161,2.0751547688879,-8.4983035608314e-09,-2.0717765745672,2.0679746996446,6.7002851259675e-57,-6.7002029222045e-57,-6.7041766223869e-57,6.7079519649424e-57,-2.0653116908082,2.0772009838065,-2.0742538708562,2.0661321893233,-2.3102950558042e-245,6.7120073339764e-57,6.7086435820898e-57,-6.7047971005359e-57,-6.7117153290771e-57,3.0555728985992e-24,3.062522844615e-24,-3.0616958405118e-24,-3.0561457133857e-24,1.1211089682009e-239,-1.0600600845824e-240,-4.1372276874053e-245,8.4836949595404e-09,-8.4819731663183e-09,222.68092346521,222.68092346521,222.67676995958,222.67676995958,248.67391199499,248.67119747358,248.67219597721,248.67425020235,205.34066558662,205.33180844489,205.33342057067,205.34153851353,222.67122844909,248.67526930627,248.6701720809,248.67083696768,248.67527389647,240.24443607605,240.24196466042,240.24314466797,240.24514125386,208.12874161595,208.12325211285,222.67122844909,208.12505519316,208.12995817997,254.93490187561,254.9325860125,254.93338301581,254.93491148663,208.13170921207,208.12103031118,208.12208099803,208.13217341347,259.39694621973,254.93544878184,254.93217245185,254.9328352929,254.93532423034,240.24698063397,240.24004459883,240.24059698045,240.24705818619,259.39694621973,259.39650937003,259.39650937003,222.675388881,222.675388881,410.58992783914,410.58943845149,0
0.0001885,61035632.469083,5.5379169120999e-05,1.0162166047724,8.2331698064116e-09,-8.2325673424993e-09,8.2487230692317e-09,8.2463022775231e-09,1.8545115484231e-37,-1.8554774944525e-37,-1.8555679162817e-37,1.8557396592961e-37,-49.034882237488,49.313641600315,-49.208724760803,49.05511339494,-8.2651879991883e-09,1.8547486231866e-37,1.8568662247575e-37,-1.856266972592e-37,-1.8550964738299e-37,2.9250977099317e-24,-2.9271879965307e-24,-2.9265425708288e-24,2.9263041045118e-24,-2.056409755381,2.064025963774,-8.2653558730164e-09,-2.0605205479895,2.0566728312488,6.3723470284653e-57,-6.3724759428785e-57,-6.3764946907143e-57,6.3800835044289e-57,-2.0538922798765,2.0661257638878,-2.0630531994431,2.0547847164342,-8.8464409791777e-244,6.3846880314042e-57,6.3811675257391e-57,-6.377058690412e-57,-6.3842010192243e-57,2.9231961190897e-24,2.9300216024292e-24,-2.9291527197793e-24,-2.9237396640633e-24,3.2123054336001e-238,-2.7362816793486e-239,-1.6301557747296e-243,8.250694129199e-09,-8.2491105433722e-09,222.66371555702,222.66371555702,222.65943496691,222.65943496691,248.70972077095,248.706912796,248.70795671816,248.71006532851,205.26882766655,205.25966333411,205.26135057722,205.26972975394,222.65371102823,248.71112136544,248.70585692952,248.70655435226,248.71111942341,240.26532587138,240.26277059912,240.2640014327,240.26605369482,208.06738021676,208.06170029879,222.65371102823,208.0635839611,208.06864120049,254.98078422219,254.97838577451,254.97922159861,254.98078614142,208.07044895706,208.05940800837,208.06050829558,208.07092660147,259.44955874796,254.98134849283,254.97795997406,254.97865647692,254.98121109062,240.26795216639,240.2607930715,240.26137186993,240.2680279553,259.44955874796,259.44909611669,259.44909611669,222.65799886575,222.65799886575,410.43701708782,410.43648817531,0
0.000189,61229655.539598,5.5526660207357e-05,1.0162775618027,8.0065948482481e-09,-8.0058762948951e-09,8.0220421503818e-09,8.0197379612468e-09,1.7656286714136e-37,-1.7666190577402e-37,-1.7667181554427e-37,1.7668679760405e-37,-49.046321419037,49.335736045181,-49.225622920569,49.068706978627,-8.0385434380809e-09,1.7659496258392e-37,1.768001699908e-37,-1.7673679814612e-37,-1.7662696354195e-37,2.7985352759404e-24,-2.8006584834978e-24,-2.8000313706313e-24,2.7997725166803e-24,-2.045069339258,2.0529240026846,-8.0386232380923e-09,-2.0492887578526,2.0453972696486,6.0630307444303e-57,-6.0633602623252e-57,-6.0674309979192e-57,6.0708431908255e-57,-2.0424939872361,2.0550783631814,-2.0518761809801,2.0434627005328,-3.318526166705e-242,6.0760076481196e-57,6.0723225426575e-57,-6.0679503337415e-57,-6.0753276502984e-57,2.7967522601566e-24,2.8034526960539e-24,-2.8025424460584e-24,-2.7972661563215e-24,9.0142054815773e-237,-6.9056701031762e-238,-6.2993272162269e-242,8.0239102997352e-09,-8.0224702100195e-09,222.64692492704,222.64692492704,222.64251389693,222.64251389693,248.74574634774,248.74284199303,248.74393303496,248.74609688145,205.19743673027,205.18795578534,205.18972103109,205.19836827179,222.63660267301,248.74719132471,248.74175487798,248.74248621162,248.74718215012,240.28649955936,240.28385787891,240.28514124256,240.28725023055,208.00647608989,208.00059988944,222.63660267301,208.00256698535,208.00778232726,255.02683381955,255.02435004753,255.02522632221,255.02682721036,208.00964881271,207.99823515673,207.99938700041,208.01013983927,259.50230324572,255.02741589292,255.02391169766,255.02464336262,255.02726467388,240.2892096894,240.2818214116,240.28242770298,240.28928328927,259.50230324572,259.50181346709,259.50181346709,222.6410212809,222.6410212809,410.28455311425,410.2839815538,0
0.0001895,61424764.782617,5.5674165992234e-05,1.0163387677184,7.7860857082978e-09,-7.7852461143252e-09,7.8014188728099e-09,7.7992368712493e-09,1.6813009888527e-37,-1.682314720785e-37,-1.6824233223714e-37,1.682551646894e-37,-49.057673253266,49.35810003907,-49.24258007081,49.082370927878,-7.8179496171648e-09,1.6817061398814e-37,1.6836926355694e-37,-1.683024921869e-37,-1.6819984550609e-37,2.67763740997e-24,-2.6797926846242e-24,-2.6791851813065e-24,2.6789055687188e-24,-2.0337492404627,2.0418482205971,-7.8179386190373e-09,-2.0380806571287,2.0341476118249,5.771334080095e-57,-5.7718531733132e-57,-5.7759830519277e-57,5.7792290404476e-57,-2.0311162344458,2.044058111937,-2.0407220942237,2.0321657268562,-1.2190367904264e-240,5.7849651501513e-57,5.7811073046929e-57,-5.7764704016061e-57,-5.7840942390679e-57,2.6759735052101e-24,2.6825482889488e-24,-2.681597223128e-24,-2.6764573633743e-24,2.4763749001093e-235,-1.7037963359147e-236,-2.3862039241575e-240,7.8031765015167e-09,-7.8018851841069e-09,222.63055143239,222.63055143239,222.62600653901,222.62600653901,248.7819883794,248.77898464656,248.7801245486,248.78234446331,205.12649323779,205.11668604179,205.1185322441,205.12745447195,222.61990311382,248.78347884913,248.77786549363,248.77863215582,248.78346169339,240.30795673232,240.3052260329,240.30656365525,240.30873041187,207.94602963238,207.93995114466,222.61990311382,207.94200457526,207.947381912,255.07305040857,255.07047849758,255.07139690262,255.07303437638,207.94930921763,207.93751197364,207.93871738052,207.94981352142,259.5551795232,255.07365072726,255.07002728295,255.07079566179,255.07348466886,240.31075281733,240.3031291242,240.30376401549,240.31082376715,259.5551795232,259.55466117175,259.55466117175,222.62445592423,222.62445592423,410.13251831249,410.13190074458,0
0.00019,61620979.55245,5.582168665535e-05,1.0164002273409,7.5714807004831e-09,-7.5705150295992e-09,7.5866914234064e-09,7.5846372661808e-09,1.6012958453778e-37,-1.6023317661273e-37,-1.6024506995821e-37,1.6025579977047e-37,-49.068935642567,49.380739415179,-49.259597255016,49.096111179914,-7.6032444450109e-09,1.6017855126414e-37,1.6037063597948e-37,-1.6030051246036e-37,-1.6020502812234e-37,2.5621490940575e-24,-2.5643354986226e-24,-2.5637489043931e-24,2.563448185781e-24,-2.0224487563201,2.0307979448104,-7.6031400139129e-09,-2.0268957061379,2.0229234596737,5.496314961987e-57,-5.4970120411233e-57,-5.5012084552079e-57,5.504299217132e-57,-2.0197584494023,2.0330643310047,-2.0295902136046,2.020893385115,-4.3832728567662e-239,5.5106197378474e-57,5.5065806925032e-57,-5.5016774460374e-57,-5.5095600531598e-57,2.5606047915488e-24,2.5670533009077e-24,-2.5660620120237e-24,-2.5610582147086e-24,6.6575634846168e-234,-4.1096067369821e-235,-8.856533135843e-239,7.5883308048951e-09,-7.5871934993148e-09,222.61459497347,222.61459497347,222.60991272516,222.60991272516,248.81844654553,248.81534036367,248.8165309043,248.81880769851,205.05599771633,205.04585441329,205.04778459318,205.05698882111,222.60361212744,248.81998362831,248.81418836894,248.81499182019,248.81995769235,240.32969701456,240.32687462599,240.32826825819,240.33049381772,207.88604130585,207.87975438836,222.60361212744,207.88189710116,207.88744036508,255.11943375095,255.11677081087,255.11773307611,255.11940734065,207.88943067311,207.87723874006,207.87849976689,207.88994810166,259.60818740813,255.12005276143,255.1163064103,255.11711310689,255.11987078255,240.33258119463,240.32471574597,240.32538037488,240.33264899629,259.60818740813,259.6076389972,259.6076389972,222.60830264052,222.60830264052,409.98089485474,409.9802276664,0
0.0001905,61818319.285972,5.596922237044e-05,1.0164619454754,7.3626230027746e-09,-7.3615261448034e-09,7.3777028639872e-09,7.3757822680795e-09,1.5253931679561e-37,-1.5264500567607e-37,-1.5265801493885e-37,1.5266669371883e-37,-49.080106181251,49.403659573659,-49.276675255984,49.109933477128,-7.39427070844e-09,1.5259676735791e-37,1.5278227845817e-37,-1.5270885032544e-37,-1.5262050459105e-37,2.4518274391467e-24,-2.4540439508646e-24,-2.4534795647967e-24,2.4531574197776e-24,-2.0111671803189,2.0197724907074,-7.3940703161061e-09,-2.0157333685748,2.0117244161052,5.2370879600612e-57,-5.2379508390121e-57,-5.2422214427726e-57,5.245168556948e-57,-2.0084200637385,2.0220963278068,-2.0184798055375,2.0096452652968,-1.5420625101789e-237,5.2520873885537e-57,5.2478583424061e-57,-5.2426867406103e-57,-5.2508411530182e-57,2.4504031807897e-24,2.4567247794529e-24,-2.4556939017436e-24,-2.4508257658501e-24,1.7508599200386e-232,-9.6924914839259e-234,-3.2192101097586e-237,7.379216178234e-09,-7.3782380686527e-09,222.59905549376,222.59905549376,222.59423232984,222.59423232984,248.85512055099,248.85190877643,248.85315177123,248.8554862334,204.98595076072,204.97546127684,204.97747852069,204.98697184785,222.58772953715,248.85670537611,248.85072312126,248.85156486504,248.85666980819,240.35172006209,240.34880325478,240.35025466817,240.3525400548,207.82651163685,207.82001000902,222.58772953715,207.82224499458,207.82795815553,255.16598362902,255.1632266935,255.16423459894,255.16594582221,207.83001374341,207.81741580101,207.81873455374,207.83054409298,259.66132674545,255.16662178121,255.16274878003,255.16359545078,255.16642273991,240.3546944956,240.34658084508,240.34727637992,240.35475861207,259.66132674545,259.66074672568,259.66074672568,222.59256132156,222.59256132156,409.82966471209,409.82894401933,0
0.000191,62016803.477695,5.6116773304721e-05,1.0165239269022,7.1593605499676e-09,-7.1581273376464e-09,7.1743010346882e-09,7.1725197576166e-09,1.4533847683105e-37,-1.454461337919e-37,-1.4546034154359e-37,1.4546702603124e-37,-49.091182229561,49.426865604911,-49.293814740123,49.123843398451,-7.1908759770947e-09,1.4540444363857e-37,1.4558337080288e-37,-1.4550668565969e-37,-1.4542545680771e-37,2.3464410982246e-24,-2.3486866057327e-24,-2.3481457226763e-24,2.3478018638644e-24,-1.9999038087846,2.0087711703434,-7.1905772200102e-09,-2.0045931204505,2.0005500902625,4.9928210675251e-57,-4.9938369229869e-57,-4.9981896570591e-57,5.001005352874e-57,-1.9971005193505,2.0111534053595,-2.0073901376345,1.9984209623495,-5.3056191963828e-236,5.0085376514374e-57,5.0041094344629e-57,-4.9986670670176e-57,-5.007107193603e-57,2.3451372706051e-24,2.3513313130806e-24,-2.3502615226937e-24,-2.3455286120479e-24,4.5024445066261e-231,-2.2362438149816e-232,-1.1453641773425e-235,7.1756803912275e-09,-7.1748665826288e-09,222.5839329796,222.5839329796,222.5789652697,222.5789652697,248.89201012548,248.88868954156,248.88998684203,248.89237973574,204.91635303371,204.90550707722,204.90761453477,204.91740414287,222.57225521267,248.89364383013,248.88746939254,248.88835097524,248.89359772363,240.37402556232,240.37101154725,240.37252253098,240.37486875713,207.76744121715,207.76071846012,222.57225521267,207.76304874842,207.76893581114,255.21269984517,255.20984587114,255.21090124682,255.21264955756,207.77105905586,207.75804356606,207.75942219892,207.77160206773,259.71459739679,255.213357592,255.20935411197,255.21024246622,255.21314028333,240.37709242392,240.36872402095,240.36945166038,240.37715227735,259.71459739679,259.71398415469,259.71398415469,222.57723190618,222.57723190618,409.67880969941,409.67803132894,0
0.0001915,62216451.652228,5.6264339618331e-05,1.0165861763684,6.9615459052864e-09,-6.9601711260332e-09,6.9763384164216e-09,6.9747022386752e-09,1.3850736782086e-37,-1.3861685710712e-37,-1.3863234571088e-37,1.3863709824366e-37,-49.102160796232,49.450362107303,-49.311016087292,49.137846224008,-6.9929124653263e-09,1.3858188349581e-37,1.3875421491674e-37,-1.3867432028226e-37,-1.3860018875742e-37,2.2457696966234e-24,-2.2480429952348e-24,-2.2475269025807e-24,2.2471610810737e-24,-1.9886579393521,1.9977932898065,-6.9925130838999e-09,-1.9934744469156,1.9894000952532,4.7627326769605e-57,-4.7638879999239e-57,-4.7683311193426e-57,4.771028329045e-57,-1.9857992673197,2.0002348587439,-1.996320475115,1.9872200749024,-1.7844653491885e-234,4.7791906401724e-57,4.7745536833956e-57,-4.7688376989605e-57,-4.7775784106186e-57,2.2445866261953e-24,2.2506524599909e-24,-2.249544474931e-24,-2.244946316995e-24,1.1316900450077e-229,-5.0513966941242e-231,-3.986751991359e-234,6.9775758838985e-09,-6.976931374275e-09,222.56922745969,222.56922745969,222.56411150307,222.56411150307,248.92911502305,248.92568234003,248.92703583226,248.92948789428,204.84720526598,204.83599232716,204.8381932093,204.8482863588,222.55718906991,248.93079875125,248.92442684889,248.92534985971,248.93074114244,240.39661323356,240.39349916243,240.39507152082,240.39747958553,207.70883070377,207.70188026027,222.55718906991,207.70430891676,207.71037391826,255.25958222137,255.25662808862,255.25773281444,255.25951830012,207.71256730079,207.69912250944,207.70056322381,207.71312265742,259.76799923996,255.26026001839,255.25612214505,255.25705394541,255.26002317221,240.3997747121,240.39114490387,240.39190587657,240.39982968203,259.76799923996,259.76735109659,259.76735109659,222.56231437992,222.56231437992,409.52831150415,409.52747097448,0
0.000192,62417283.334968,5.6411921463775e-05,1.016648698578,6.7690361514547e-09,-6.7675145657841e-09,6.7836720318762e-09,6.7821867370671e-09,1.3202735253575e-37,-1.321385312728e-37,-1.3215538277909e-37,1.3215827170264e-37,-49.113038600875,49.474153276531,-49.328279515104,49.151946972981,-6.8002369373548e-09,1.3211044997544e-37,1.322761726279e-37,-1.3219311571914e-37,-1.3212606434819e-37,2.1496032958861e-24,-2.1519030866589e-24,-2.1514130602517e-24,2.1510250709822e-24,-1.9774288778811,1.9868381566181,-6.7997348329972e-09,-1.9823768506025,1.978274054242,4.5460887660349e-57,-4.547369325005e-57,-4.5519114270811e-57,4.5545038350522e-57,-1.9745157741897,1.9893399833917,-1.9852700897974,1.9760422101739,-5.8644167161623e-233,4.5633142394428e-57,4.558458548174e-57,-4.5524656064486e-57,-4.5615228378653e-57,2.1485412441117e-24,2.1544782154782e-24,-2.1533327944577e-24,-2.148868879456e-24,2.7791318306719e-228,-1.1186683074048e-229,-1.3568847517443e-232,6.7847596633579e-09,-6.7842893205268e-09,222.55493900452,222.55493900452,222.54967102947,222.54967102947,248.96643502143,248.96288687653,248.96429847969,248.96681041797,204.77850825615,204.76691760752,204.76921518382,204.77961921001,222.54253107056,248.96816992283,248.96159518005,248.96256125079,248.96809978875,240.41948282446,240.41626578984,240.4179013396,240.42037222693,207.65068081888,207.64349599328,222.54253107056,207.64602611465,207.65227312151,255.30663059853,255.30357310931,255.3047291147,255.3065518196,207.6545392313,207.64065317006,207.64215821324,207.65510655242,259.8215321683,255.30732890337,255.30305263675,255.30402969924,255.30707118227,240.42274112083,240.41384315443,240.41463871875,240.42279054231,259.8215321683,259.82084737795,259.82084737795,222.54780877465,222.54780877465,409.37815173689,409.37724423753,0
0.0001925,62619318.022905,5.655951898536e-05,1.0167114981829,6.5816927705093e-09,-6.5800191290291e-09,6.5961633212254e-09,6.5948346761976e-09,1.2588079421158e-37,-1.2599351218151e-37,-1.2601180828857e-37,1.2601290833154e-37,-49.12381203107,49.498242812136,-49.345605012665,49.166150293494,-6.6127105835128e-09,1.2597250671432e-37,1.2613160651317e-37,-1.2604543404582e-37,-1.2598544820687e-37,2.0577418789166e-24,-2.0600667659196e-24,-2.0596040667372e-24,2.0591937532976e-24,-1.9662159403758,1.9759050809982,-6.6121038382417e-09,-1.9712998526659,1.967171600122,4.3422002713572e-57,-4.3435910671713e-57,-4.3482411237606e-57,4.3507432185253e-57,-1.9632495241521,1.9784680759437,-1.9742382611407,1.9648869842168,-1.8823235788102e-231,4.3602215005214e-57,4.3551366234394e-57,-4.3488628427644e-57,-4.3582536997568e-57,2.0568010379365e-24,2.0626084955941e-24,-2.0614264374632e-24,-2.0570962171796e-24,6.6652227015758e-227,-2.4338018650983e-228,-4.5131178267681e-231,6.5970931855848e-09,-6.5968017192212e-09,222.54106772562,222.54106772562,222.53564388872,222.53564388872,249.00396992133,249.00030287881,249.00177454361,249.00434703537,204.7102628703,204.69828356704,204.70068116304,204.71140347211,222.52828122148,249.00575715007,248.99897409875,248.99998490349,249.00567340633,240.44263411327,240.43931114886,240.4410117162,240.44354639356,207.59299234936,207.58556630784,222.52828122148,207.58820101755,207.59463412318,255.35384483575,255.35068071458,255.35188997808,255.35374990137,207.59697566276,207.58263615127,207.58420781506,207.59755450143,259.87519608995,255.35456410769,255.3501453625,255.35116955666,255.35428410491,240.44599143818,240.43681846292,240.43764990637,240.44603459995,259.87519608995,259.87447283899,259.87447283899,222.533715168,222.533715168,409.22831197289,409.22733234296,0
0.000193,62822575.152149,5.6707132318629e-05,1.0167745797729,6.3993815277821e-09,-6.3975505928861e-09,6.4136780321376e-09,6.4125117643158e-09,1.2005100069723e-37,-1.2016510041291e-37,-1.2018492233601e-37,1.2018431496194e-37,-49.134477130218,49.522633899735,-49.36299234942,49.180460435615,-6.4301989103523e-09,1.201513621466e-37,1.2030382424611e-37,-1.2021458219206e-37,-1.2016165004637e-37,1.969994859323e-24,-1.9723433505296e-24,-1.9719092201141e-24,1.9714764800238e-24,-1.9550184570871,1.964993379843,-6.4294858036505e-09,-1.9602429972702,1.9560923789576,4.1504206420683e-57,-4.1519058760901e-57,-4.1566732635533e-57,4.1591003881417e-57,-1.9520000228271,1.9676184383047,-1.9632242807338,1.9537540248553,-5.8983097962231e-230,4.1692682181027e-57,4.1639432201184e-57,-4.1573841224268e-57,-4.1671270002278e-57,1.9691753481581e-24,1.9748526489939e-24,-1.9736347910668e-24,-1.9694376788914e-24,1.5605175378358e-225,-5.2173576835749e-227,-1.466148719333e-229,6.4144422412167e-09,-6.414334179594e-09,222.52761377464,222.52761377464,222.52203016007,222.52203016007,249.0417195456,249.03793009698,249.03946380386,249.0420974937,204.64247004144,204.63009092196,204.63259191621,204.64363998124,222.51443957386,249.04356025905,249.03656333999,249.03762059468,249.0434617578,240.46606690695,240.46263498793,240.46440240551,240.46700182212,207.53576614623,207.52809191702,222.51443957386,207.53083436052,207.5374576825,255.40122480954,255.39795070305,255.39921525174,255.40111234564,207.53987747208,207.52507212028,207.52671273942,207.54046731072,259.92899092707,255.401965509,255.39740011497,255.3984733638,255.40166174644,240.46952547868,240.46007054854,240.46093918721,240.46956162137,259.92899092707,259.92822733291,259.92822733291,222.5200336825,222.5200336825,409.07877380236,409.07771650817,0
0.0001935,63027074.065645,5.68547615898e-05,1.0168379478656,6.2219723538499e-09,-6.2199789146631e-09,6.236086097148e-09,6.2350878685636e-09,1.1452217207473e-37,-1.1463748809003e-37,-1.1465891655515e-37,1.1465669060637e-37,-49.145029526718,49.5473292037,-49.380441035429,49.194881114365,-6.2525716243437e-09,1.1463121708461e-37,1.1477702588441e-37,-1.1468475897229e-37,-1.1463887186492e-37,1.8861806173925e-24,-1.8885511169498e-24,-1.8881467744102e-24,1.8876915668116e-24,-1.9438357740404,1.9541023816278,-6.251750651353e-09,-1.9492058532924,1.9450360491389,3.9701435898624e-57,-3.9717065834707e-57,-3.9766011204655e-57,3.9789695502376e-57,-1.9407667983686,1.9567903822301,-1.9522274554924,1.9426429714834,-1.8035966614268e-228,3.9898507027559e-57,3.9842741162462e-57,-3.9774245470909e-57,-3.9875392774814e-57,1.8854824768322e-24,1.8910289889097e-24,-1.8897762033939e-24,-1.885711574433e-24,3.5653504929751e-224,-1.1064678557814e-225,-4.6494500569606e-228,6.2366768475675e-09,-6.2367564963538e-09,222.51457734217,222.51457734217,222.50882996098,222.50882996098,249.07968373823,249.07576830262,249.07736605989,249.08006155801,204.57513076861,204.56234045531,204.56494827617,204.57632963315,222.50100622222,249.08157909581,249.07436266016,249.07546812204,249.08146462367,240.48978104022,240.48623708366,240.48807318735,240.49073827273,207.47900312375,207.47107359758,222.50100622222,207.47392693729,207.48074461462,255.44877041288,255.44538288981,255.4467047986,255.44863896669,207.48324559678,207.46796180748,207.46967375792,207.48384584317,259.98291661496,255.44953300094,255.44481670325,255.44594098306,255.44920392725,240.49334308229,240.48359915842,240.48450633635,240.49337139668,259.98291661496,259.98211072504,259.98211072504,222.50676448459,222.50676448459,408.92951887911,408.92837799159,0
0.000194,63232833.978961,5.70024069152e-05,1.0169016068962,6.0493392348975e-09,-6.047178132619e-09,6.0632615270586e-09,6.0624369139403e-09,1.0927935046578e-37,-1.0939570988152e-37,-1.0941882498368e-37,1.094150767628e-37,-49.155464531549,49.572330845529,-49.397950355393,49.209415565331,-6.0797025233797e-09,1.0939711476436e-37,1.0953625434884e-37,-1.0944100586964e-37,-1.0940215845167e-37,1.8061260502861e-24,-1.8085168643419e-24,-1.8081435011943e-24,1.8076658494859e-24,-1.932667261581,1.9432314305357,-6.0787724128355e-09,-1.9381880203134,1.93400228825,3.8008009550866e-57,-3.8024241361018e-57,-3.807456118615e-57,3.8097831036964e-57,-1.9295494099498,1.9459832338289,-1.9412471131661,1.9315534816017,-5.3796374133787e-227,3.8214036819804e-57,3.8155634867584e-57,-3.8084175557445e-57,-3.8189255389874e-57,1.8055492410917e-24,1.810964350191e-24,-1.8096775428087e-24,-1.8057447336076e-24,7.9461341402992e-223,-2.3331577618011e-224,-1.4384670743648e-226,6.0636711305393e-09,-6.0639425550019e-09,222.50195865655,222.50195865655,222.49604344591,222.49604344591,249.1178623633,249.11381728776,249.11548112961,249.1182390101,204.50824611587,204.49503301596,204.49775113821,204.50947338211,222.48798130315,249.1198135252,249.112371836,249.11352730301,249.11968180135,240.51377637433,240.51011723966,240.51202386527,240.51475552776,207.42270425834,207.41451218885,222.48798130315,207.41747959894,207.42449578948,255.49648155414,255.49297710548,255.49435849627,255.49632959184,207.42708103385,207.41130600531,207.41309170237,207.42769101712,260.03697310103,255.49726649205,255.49239495193,255.49357229204,255.49691048087,240.51744411318,240.50740406653,240.50835115498,240.51746373849,260.03697310103,260.03612289201,260.03612289201,222.49390778343,222.49390778343,408.78052898138,408.77929815097,0
0.0001945,63439873.945359,5.7150068400731e-05,1.0169655612068,5.8813600777758e-09,-5.8790262283171e-09,5.8950822811683e-09,5.8944367459837e-09,1.0430837315394e-37,-1.0442559544256e-37,-1.044504765973e-37,1.0444531029628e-37,-49.165776935247,49.597640274441,-49.415519286088,49.224066270792,-5.9114693723891e-09,1.0443489394415e-37,1.0456734827932e-37,-1.0446915960297e-37,-1.044373502211e-37,1.7296661460264e-24,-1.7320754811761e-24,-1.7317342578056e-24,1.7312342556675e-24,-1.9215123112525,1.9323798866493,-5.9104291011117e-09,-1.9271891286987,1.9229907879639,3.6418607774514e-57,-3.6435256205862e-57,-3.6487058621327e-57,3.6510096997761e-57,-1.9183474440352,1.9351963341232,-1.9302826040198,1.9204852251814,-1.5645893422382e-225,3.6633983993396e-57,3.6572819791008e-57,-3.6498329742851e-57,-3.6607573494269e-57,1.7292105459759e-24,1.7344936610227e-24,-1.7331737669856e-24,-1.7293720761979e-24,1.7269698748301e-221,-4.9201615210855e-223,-4.3393508028477e-225,5.8953031997817e-09,-5.8957701922154e-09,222.4897579823,222.4897579823,222.48367080468,222.48367080468,249.15625530373,249.15207686382,249.15380884818,249.15662964743,204.44181721082,204.42816951728,204.43100145858,204.44307223951,222.47536499381,249.15826342971,249.15059066354,249.15179797353,249.15811310402,240.53805279577,240.53427528535,240.53625426522,240.53905339063,207.36687058712,207.35840859147,222.47536499381,207.36149325244,207.36871213032,255.54435815606,255.54073319519,255.54217623596,255.54418406052,207.37138483822,207.35510556699,207.35696746336,207.37200380497,260.09116034376,255.5451659047,255.54013470008,255.54136718246,255.54478125295,240.54182845846,240.53148507245,240.53247346908,240.5418384807,260.09116034376,260.09026372083,260.09026372083,222.48146382937,222.48146382937,408.63178605766,408.6304584897,0
0.000195,63648212.819734,5.7297746141315e-05,1.017029815036,5.7179166224684e-09,-5.7154050384804e-09,5.7314301734665e-09,5.7309690406587e-09,9.9595828592198e-38,-9.9713725631377e-38,-9.9740451475914e-38,9.9733979479546e-38,-49.175961233347,49.623258469165,-49.433146640576,49.238835169375,-5.7477538097677e-09,9.9731144975426e-38,9.9856898206535e-38,-9.9755808321422e-38,-9.9731039326872e-38,1.6566435847026e-24,-1.6590695488891e-24,-1.6587615902446e-24,1.6582394063784e-24,-1.9103703493592,1.9215471394023,-5.7466026183896e-09,-1.9162088498752,1.9120012665465,3.4928255114765e-57,-3.4945124854792e-57,-3.4998523570532e-57,3.5021524627209e-57,-1.9071605277601,1.9244290518001,-1.9193333112559,1.9094378979517,-4.4353299224399e-224,3.5153408598378e-57,3.5089349673205e-57,-3.5011752682613e-57,-3.5125410892491e-57,1.6563089867044e-24,1.661459545074e-24,-1.6601075250332e-24,-1.6564362143676e-24,3.659010758173e-220,-1.0436579074951e-221,-1.2756404646297e-223,5.7314550588039e-09,-5.732121109008e-09,222.47797561853,222.47797561853,222.47171226089,222.47171226089,249.19486245993,249.19054686025,249.19234906659,249.19523328181,204.3758452431,204.36175093574,204.36470025278,204.37712727235,222.46315751027,249.19692870805,249.18901895675,249.19027998663,249.19675835937,240.56261021479,240.55871107452,240.56076423402,240.56363168434,207.31150320634,207.30276376583,222.46315751027,207.3059688589,207.31339461211,255.59240015432,255.58865101744,255.59015792112,255.59220222308,207.31615812122,207.29936140491,207.30130198855,207.31678523159,260.14547831145,255.59323117378,255.58803580009,255.58932555877,255.59281610011,240.56649602665,240.55584199987,240.55687312788,240.56649547707,260.14547831145,260.14453310779,260.14453310779,222.46943291236,222.46943291236,408.48327230423,408.48184073182,0
0.0001955,63857869.222055,5.7445440220392e-05,1.0170943725081,5.5588942984121e-09,-5.5562001127442e-09,5.5721907320602e-09,5.5719191627831e-09,9.5129014158802e-38,-9.524739032395e-38,-9.5276038670069e-38,9.5268381787649e-38,-49.186011390419,49.649185678383,-49.450830882552,49.253723334316,-5.5884412098691e-09,9.5273167644575e-38,9.5392204371529e-38,-9.5288249363632e-38,-9.5270527474511e-38,1.586908344837e-24,-1.589348949078e-24,-1.5890753411332e-24,1.5885312232466e-24,-1.8992408326752,1.9107326029442,-5.587178615547e-09,-1.905246892759,1.9010334619808,3.3532303678768e-57,-3.3549188802016e-57,-3.3604303560301e-57,3.3627473376905e-57,-1.8959883242955,1.9136807792082,-1.9083986488446,1.8984112143129,-1.2251488245411e-222,3.3767702110054e-57,3.3700609266267e-57,-3.3619819065788e-57,-3.3738163419276e-57,1.5866944557293e-24,1.5917119287028e-24,-1.590328764051e-24,-1.586787059494e-24,7.55603498282e-219,-2.237223111018e-220,-3.652283149236e-222,5.572012462387e-09,-5.5728807291407e-09,222.46661189702,222.46661189702,222.46016806992,222.46016806992,249.23368374837,249.2292271233,249.23110165029,249.23404973821,204.31033146229,204.29577830881,204.29884859344,204.31163960125,222.45135910553,249.23580927381,249.22765654629,249.22897321106,249.23561740837,240.58744856378,240.58342448377,240.58555363778,240.58849025,207.25660326932,207.24757873004,222.45135910553,207.25090743141,207.25854425957,255.64060749641,255.63673044292,255.6383034662,255.64038393966,207.26140204849,207.24407448865,207.24609628051,207.26203637237,260.19992698107,255.64146224544,255.63609811651,255.63744733693,255.64101488885,240.59144674617,240.58047469513,240.58155000222,240.5914345998,260.19992698107,260.19893095744,260.19893095744,222.45781535998,222.45781535998,408.33497021005,408.33342686807,0
0.000196,64068861.500315,5.7593150709407e-05,1.0171592376228,5.4041821238548e-09,-5.4013006151456e-09,5.4172531005513e-09,5.4171760635496e-09,9.0895897017034e-38,-9.1014549271871e-38,-9.1045196994335e-38,9.1036484805404e-38,-49.195921001992,49.675421608753,-49.468570282056,49.268731064804,-5.4334205855686e-09,9.1048932065992e-38,9.116123767049e-38,-9.10544501634e-38,-9.1043786872756e-38,1.520317340337e-24,-1.522770500695e-24,-1.5225322859926e-24,1.5219665662147e-24,-1.8881232597724,1.899935728956,-5.4320463932475e-09,-1.8943030139557,1.8900871404838,3.2226418222841e-57,-3.2243101554673e-57,-3.2300058576383e-57,3.2323616054543e-57,-1.8848305434506,1.9029509445957,-1.8974780724576,1.8874049160795,-3.2965965730438e-221,3.2472572877484e-57,3.2402299798732e-57,-3.2318219010514e-57,-3.2441544542264e-57,1.5202237798364e-24,1.5251076785756e-24,-1.5236943660235e-24,-1.520281459814e-24,1.5205868089286e-217,-4.8581042718837e-219,-1.0178657634438e-220,5.4168648199332e-09,-5.4179381015401e-09,222.45566718019,222.45566718019,222.4490385169,222.4490385169,249.27271909995,249.26811751442,249.27006647751,249.27307885321,204.24527717585,204.23025273294,204.23344760807,204.24661039849,222.43997006733,249.27490505384,249.26650327786,249.26787752954,249.27469010376,240.6125677955,240.6084154108,240.61062236012,240.61362894518,207.20217198427,207.19285455786,222.43997006733,207.19631003284,207.20416214509,255.68898014003,255.68497135313,255.68661279514,255.68872907891,207.20711783781,207.18924584277,207.1913513945,207.20775835122,260.25450633682,255.6898590756,255.68432152467,255.68573244286,255.6893774942,240.61668056353,240.60538302536,240.60650398275,240.61665573784,260.25450633682,260.25345718133,260.25345718133,222.44661153532,222.44661153532,408.1868626337,408.1851992302,0
0.0001965,64281207.692828,5.7740877667338e-05,1.0172244142443,5.2536725790129e-09,-5.2505991929664e-09,5.2665099070831e-09,5.2666321550214e-09,8.6885076665745e-38,-8.7003794791093e-38,-8.7036517760319e-38,8.7026888732118e-38,-49.205683153223,49.701965278815,-49.486362826428,49.283857748784,-5.2825844620315e-09,8.7047041433547e-38,8.7152602421623e-38,-8.7043010904345e-38,-8.7039422860808e-38,1.4567340654302e-24,-1.4591976067132e-24,-1.4589957810723e-24,1.4584088785561e-24,-1.8770171705291,1.8891560063346,-5.281098772216e-09,-1.8833770180744,1.8791620965993,3.1006562393272e-57,-3.1022814881343e-57,-3.1081747356544e-57,3.1105925088541e-57,-1.8736869409561,1.8922390125817,-1.88657108114,1.8764187724304,-8.6387978727659e-220,3.1264032885596e-57,3.1190425718533e-57,-3.1102944650807e-57,-3.1231572175491e-57,1.4567603675317e-24,1.4615102489208e-24,-1.4600677939652e-24,-1.4567828461854e-24,2.981909445107e-216,-1.067988164703e-217,-2.7597429363793e-219,5.2659050622317e-09,-5.2671857697385e-09,222.44514185888,222.44514185888,222.43832391441,222.43832391441,249.31196845837,249.30721790866,249.30924343764,249.31232047357,204.18068374645,204.16517536091,204.16849847633,204.1820408856,222.42899071576,249.31421598662,249.30555901069,249.30699283713,249.31397630864,240.63796788112,240.63368377251,240.63597030028,240.63904764217,207.14821061168,207.13859237606,222.42899071576,207.14217777317,207.15024938632,255.73751805163,255.73337363904,255.73508583986,255.73723751665,207.15330675661,207.13487654425,207.13706843578,207.15395233813,260.30921636878,255.73842162847,255.73270590927,255.73418081096,255.73790379846,240.64219744153,240.63056687664,240.63173497795,240.64215879518,260.30921636878,260.30811169686,260.30811169686,222.43582183459,222.43582183459,408.03893286079,408.03714054833,0
0.000197,64494925.4907,5.7888621140254e-05,1.0172904107899,5.1072614943941e-09,-5.1039918706513e-09,5.1198571575624e-09,5.1201831994945e-09,8.3085750147343e-38,-8.3204316902961e-38,-8.3239189925988e-38,8.3228791657973e-38,-49.215290541879,49.728815149959,-49.504206319915,49.299101869898,-5.1358287683161e-09,8.3256697120775e-38,8.3355501468149e-38,-8.3243129739111e-38,-8.3246639184166e-38,1.3960282641682e-24,-1.3984999231862e-24,-1.3983354324578e-24,1.3977278574528e-24,-1.8659221555045,1.8783929714672,-5.134231986272e-09,-1.8724687654337,1.868258158684,2.9868986541793e-57,-2.9884566485061e-57,-2.9945615093986e-57,2.9970660422392e-57,-1.8625573274963,1.8815444944734,-1.8756772260789,1.8654525855174,-2.2042951813601e-218,3.0138385928467e-57,3.0061282842389e-57,-2.9970278290059e-57,-3.010455711806e-57,1.3961738771852e-24,1.400789349753e-24,-1.3993187612727e-24,-1.3961609021187e-24,5.698705379884e-215,-2.3687161191508e-216,-7.275576223398e-218,5.1190295350533e-09,-5.1205196646916e-09,222.43503634989,222.43503634989,222.42802459995,222.42802459995,249.35143177824,249.34652819296,249.3486324294,249.35177445463,204.11655258931,204.10054739905,204.10400242715,204.11793233081,222.41842140056,249.35374202046,249.34482361572,249.34631903934,249.35347589484,240.66364880816,240.65922950298,240.66159737106,240.6647462261,207.09472046156,207.08479336166,222.41842140056,207.08851180666,207.09680714354,255.78622120477,255.78193719948,255.7837225386,255.78590913446,207.09997011921,207.08096771965,207.08324855664,207.10061954664,260.36405707134,255.78714987494,255.78125116288,255.78279238238,255.78659368974,240.66799735728,240.65602615196,240.65724291201,240.66794368901,260.36405707134,260.36289442585,260.36289442585,222.42544668452,222.42544668452,407.89116467856,407.88923402419,0
0.0001975,64711768.940422,5.8036381160891e-05,1.01735692327,4.964847924501e-09,-4.9613779190387e-09,4.9771941027982e-09,4.9777281789313e-09,7.9487678808983e-38,-7.9605870249024e-38,-7.964296693099e-38,7.9631956299344e-38,-49.224735386346,49.75596898447,-49.522098273616,49.314460866991,-4.9930527102364e-09,7.9667665665146e-38,7.9759703241046e-38,-7.9644569582533e-38,-7.9655204821668e-38,1.338075608599e-24,-1.3405530396319e-24,-1.3404267755314e-24,1.3397991321907e-24,-1.85483785746,1.8676462087489,-4.9913455460189e-09,-1.861578171578,1.8573751882814,2.881021663162e-57,-2.8824868883075e-57,-2.8888182319276e-57,2.8914358472951e-57,-1.8514415693085,1.8708669479013,-1.8647961115767,1.8545061907217,-5.4759114364058e-217,2.9092217126103e-57,2.9011447909251e-57,-2.8916781706413e-57,-2.9057092651623e-57,1.3383398979443e-24,1.3428206280551e-24,-1.3413229095791e-24,-1.3382912426169e-24,1.0615812589304e-213,-5.2720455996763e-215,-1.8640759252624e-216,4.976137866274e-09,-4.9778389772979e-09,222.42535109342,222.42535109342,222.41814093336,222.41814093336,249.39110902326,249.38604826433,249.38823335897,249.39144065863,204.05288516895,204.03637010396,204.03996073538,204.05428604616,222.40826249828,249.39348311174,249.3842969738,249.38585605021,249.39318874129,240.68961057833,240.68505255131,240.68750349675,240.69072459298,207.04170289024,207.03145873868,222.40826249828,207.03531332862,207.0438366168,255.83508957847,255.83066193969,255.83252283431,255.83474381824,207.04710928376,207.02752054184,207.02989295315,207.047761231,260.41902844174,255.83604379094,255.82995718437,255.8315671034,255.83544706054,240.69408030008,240.68176076899,240.68302772258,240.69401034781,260.41902844174,260.41780529331,260.41780529331,222.41548653954,222.41548653954,407.7435424347,407.74146339031,0
0.000198,64930639.999537,5.8184157748287e-05,1.0174237941715,4.8263340303927e-09,-4.8226597383992e-09,4.8384231243941e-09,4.839169181444e-09,7.6081157401836e-38,-7.6198743093652e-38,-7.6238135803385e-38,7.6226679097778e-38,-49.234009434419,49.783423945056,-49.540035981001,49.329931117982,-4.8541586548574e-09,7.6270247822556e-38,7.6355510765429e-38,-7.6237627295165e-38,-7.6255423155976e-38,1.2827573981991e-24,-1.2852381772439e-24,-1.2851509752008e-24,1.2845039639833e-24,-1.8437639761847,1.8569153588434,-4.8523421278943e-09,-1.8507052135953,1.8465130848636,2.7827044614769e-57,-2.7840499629993e-57,-2.7906235186009e-57,2.793382257204e-57,-1.8403395929792,1.860205986181,-1.8539274025638,1.8435794609886,-1.3242729775652e-215,2.8122383813399e-57,2.803776942242e-57,-2.7939286977257e-57,-2.8086045717341e-57,1.2831396484723e-24,1.2874853659251e-24,-1.2859615093201e-24,-1.2830551137919e-24,1.9283984010703e-212,-1.1703754413667e-213,-4.6392088752694e-215,4.8371328505239e-09,-4.8390460387174e-09,222.41608655024,222.41608655024,222.40867329393,222.40867329393,249.43100016411,249.42577802786,249.42804613803,249.43131895297,203.98968299593,203.97264477912,203.97637471837,203.99110338447,222.39851440915,249.43343922289,249.42397897373,249.42560379024,249.43311473228,240.71585320512,240.71115287931,240.71368861082,240.71698264764,206.98915929702,206.97858977484,222.39851440915,206.98258357205,206.99133904283,255.88412315536,255.87954776954,255.88148667277,255.88374145666,206.99472564899,206.97453622664,206.97700286168,206.9953786831,260.47413047836,255.88510335562,255.87882387721,255.88050492354,255.88446380621,240.72044626923,240.7077706578,240.70908935841,240.72035870924,260.47413047836,260.4728442259,260.4728442259,222.40594187871,222.40594187871,407.59605110805,407.59381297912,0
0.0001985,65151062.613085,5.833195090743e-05,1.0174910271966,4.691624963549e-09,-4.6877427418687e-09,4.7034496152145e-09,4.7044112826446e-09,7.2856984860043e-38,-7.2973728250363e-38,-7.301548799536e-38,7.3003761020244e-38,-49.243104036028,49.811176581134,-49.55801654692,49.345507930107,-4.7190520152613e-09,7.3055249505941e-38,7.3133732687838e-38,-7.3013104510481e-38,-7.3038102848858e-38,1.2299602719901e-24,-1.2324419035227e-24,-1.2323945393742e-24,1.2317289589571e-24,-1.8327002756638,1.8462001234848,-4.7171274497081e-09,-1.8398499344977,1.8356717899582,2.691651999258e-57,-2.6928492798088e-57,-2.6996816962405e-57,2.7026114603303e-57,-1.8292513919502,1.8495612827532,-1.8430708306433,1.8326723116582,-3.1175873839534e-214,2.7226007778034e-57,2.7137359915601e-57,-2.7034888521687e-57,-2.7188549337926e-57,1.230459691172e-24,1.2346701954922e-24,-1.2331211719685e-24,-1.2303391063318e-24,3.4179090721368e-211,-2.5764881922869e-212,-1.1210027427434e-213,4.70192032606e-09,-4.7040462057932e-09,222.40724319877,222.40724319877,222.39962207742,222.39962207742,249.47110517642,249.46571739469,249.46807068165,249.47140920839,203.92694762314,203.90937277104,203.9132457321,203.92838573608,222.38917755377,249.47361032036,249.46386951014,249.46556218427,249.47325375566,240.74237671137,240.73753045903,240.74015265357,240.74352030153,206.93709112046,206.92618777768,222.38917755377,206.93032380403,206.93931569175,255.93332191986,255.92859460184,255.93061400083,255.93290193957,206.94282065067,206.92201602895,206.92457955505,206.94347322923,260.52936317907,255.93432854961,255.92785114773,255.92960579374,255.93364382337,240.7470952717,240.73405575834,240.73542777679,240.746988718,260.52936317907,260.5280111505,260.5280111505,222.39681320248,222.39681320248,407.44867637731,407.44626779127,0
0.000199,65373054.974144,5.8479760628967e-05,1.0175586257836,4.5606287406106e-09,-4.5565352286593e-09,4.5721818549833e-09,4.5733624218905e-09,6.9806436927705e-38,-6.9922095667286e-38,-6.9966291992852e-38,6.99544801562e-38,-49.252010097005,49.839222872505,-49.576036881694,49.361185437426,-4.5876411273962e-09,7.0013954377666e-38,7.0085655871934e-38,-6.9962280274607e-38,-6.9994530502e-38,1.1795759356946e-24,-1.1820558589859e-24,-1.1820490464389e-24,1.1813657950694e-24,-1.82164658682,1.8355002715451,-4.5856101473102e-09,-1.8290124458804,1.8248512881358,2.6075942724046e-57,-2.6086131722473e-57,-2.6157220811434e-57,2.6188547986092e-57,-1.8181770283692,1.8389325772921,-1.83222619847,1.8217847015972,-7.1446868574841e-213,2.6400468803924e-57,2.6307589494698e-57,-2.6200936522115e-57,-2.6361996499835e-57,1.180191658787e-24,1.1842668253447e-24,-1.182693577134e-24,-1.1800348821821e-24,5.9154042719176e-210,-5.5966013712587e-211,-2.6288356932971e-212,4.5704090516073e-09,-4.5727477357907e-09,222.39882153197,222.39882153197,222.39098769291,222.39098769291,249.51142403857,249.50586627991,249.50830690624,249.51171129714,203.86468064188,203.84655546513,203.8505751671,203.86613452523,222.38025236963,249.51399637261,249.50396848147,249.50573115924,249.51360570097,240.76918112667,240.76418527024,240.76689556969,240.77033747052,206.88549983442,206.87425409065,222.38025236963,206.87853532172,206.8877678635,255.98268585629,255.97780235052,255.97990476449,255.9822251564,206.89139575779,206.86996123876,206.87262433851,206.89204622653,260.58472653952,255.9837193531,255.97703890331,255.97886966441,255.98298700832,240.77402731973,240.76061601788,240.76204294095,240.77390032366,260.58472653952,260.58330599271,260.58330599271,222.38810102923,222.38810102923,407.30140468395,407.29881355791,0
0.0001995,65596634.496897,5.8627586888955e-05,1.0176265930927,4.4332561290818e-09,-4.4289482674513e-09,4.444530892412e-09,4.4459332875465e-09,6.6921240457167e-38,-6.7035566710403e-38,-6.70822676308e-38,6.7070566011167e-38,-49.260718121843,49.867558215776,-49.59409374886,49.376956649671,-4.4598371311615e-09,6.713809825731e-38,6.7203019828959e-38,-6.7076885439548e-38,-6.7116445049638e-38,1.1315009030566e-24,-1.1339764987856e-24,-1.1340108880533e-24,1.1333109641805e-24,-1.8106028125338,1.8248156430524,-4.4577016527097e-09,-1.8181929327841,1.8140516129161,2.5302857363842e-57,-2.5310942948442e-57,-2.5384983791711e-57,2.5418681894736e-57,-1.8071166386774,1.8283196802262,-1.8213933854386,1.8109166395793,-1.5939947603075e-211,2.5643399590659e-57,2.5546080787994e-57,-2.5435031670756e-57,-2.5604035365953e-57,1.132231997464e-24,1.13617178299e-24,-1.1345752149191e-24,-1.1320389171727e-24,1.0006696607404e-208,-1.1947640834424e-209,-5.9805430332018e-211,4.4425105818082e-09,-4.4450616653587e-09,222.39082205412,222.39082205412,222.38277055947,222.38277055947,249.55195672944,249.54622460035,249.54875472732,249.55222509103,203.80288367763,203.78419428135,203.78836444413,203.80435120639,222.37173930739,249.5545973479,249.54427578765,249.54611064195,249.55417045758,240.79626648472,240.79111729774,240.79391730574,240.79743407256,206.83438694386,206.82279008871,222.37173930739,206.82721944828,206.83669688414,256.03221494693,256.02717092883,256.02935890697,256.03171099454,206.84045246857,206.81837317674,206.82113854535,206.84109905938,260.64022055142,256.03327574397,256.02638705057,256.02829648348,256.03249325536,240.80124242834,240.78745138835,240.78893481737,240.80109347835,260.64022055142,260.63872867529,260.63872867529,222.37980589164,222.37980589164,407.15422329848,407.15143680681,0
0.0002,65821817.762008,5.8775429648662e-05,1.0176949319922,4.3094205186386e-09,-4.3048955687813e-09,4.3204104162836e-09,4.3220371866355e-09,6.4193549212025e-38,-6.4306290057015e-38,-6.4355561888499e-38,6.4344175328546e-38,-49.269218181238,49.896177411801,-49.612183687296,49.39281330675,-4.3355538448928e-09,6.441984497443e-38,6.4477992640315e-38,-6.4349078496138e-38,-6.4396013676725e-38,1.0856362489686e-24,-1.0881048473852e-24,-1.0881810224651e-24,1.0874655255785e-24,-1.7995689305482,1.8141461528462,-4.3333160622236e-09,-1.8073916533151,1.803272845331,2.4595048464387e-57,-2.4600691484632e-57,-2.4677882117912e-57,2.4714316776061e-57,-1.7960704351957,1.8177224757021,-1.8105723494263,1.8000681835923,-3.4621793435874e-210,2.4952682000908e-57,2.4850705224444e-57,-2.4735021221461e-57,-2.4912565931563e-57,1.0864817202336e-24,1.0902861690862e-24,-1.0886671388388e-24,-1.086252254855e-24,1.6564127196775e-207,-2.4990120829003e-208,-1.3194127061398e-209,4.3181391380043e-09,-4.3209016865452e-09,222.38324527737,222.38324527737,222.37497110279,222.37497110279,249.59270322614,249.58679227237,249.58941405734,249.59295045956,203.74155838571,203.72229066948,203.72661500953,203.74303726029,222.36363882701,249.59541321215,249.58479132795,249.5867005567,249.59494791277,240.82363282061,240.81832652869,240.82121780752,240.82481002536,206.78375398039,206.77179717385,222.36363882701,206.7763775285,206.78610410184,256.08190917006,256.07670024746,256.07897636683,256.08135933764,206.78999230624,206.7672531897,206.77012353232,206.7906331354,260.69584520073,256.08299769589,256.07589549349,256.07788619444,256.08216245519,240.82874061281,240.81456182358,240.81610337295,240.82856813441,260.69584520073,260.69427911667,260.69427911667,222.37192833288,222.37192833288,407.00712037603,407.00412491769,0
0.0002005,66048620.46397,5.8923288854413e-05,1.017763645046,4.1890378100534e-09,-4.1842933685181e-09,4.1997366410742e-09,4.2015899351362e-09,6.1615921469644e-38,-6.1726819223487e-38,-6.1778726475701e-38,6.1767869603007e-38,-49.277499992136,49.92507476622,-49.630303139813,49.40874594293,-4.2147076523207e-09,6.1851763992141e-38,6.1903148572703e-38,-6.1771423208276e-38,-6.1825809410901e-38,1.0418873798957e-24,-1.0443462683252e-24,-1.04446474585e-24,1.0437348756288e-24,-1.7885449994821,1.8034917979059,-4.212370022567e-09,-1.7966089452087,1.792515120119,2.3950537386863e-57,-2.395337735227e-57,-2.4033927778047e-57,2.4073491241115e-57,-1.7850387118509,1.8071409294579,-1.7997631349877,1.7892394474231,-7.3212569235391e-209,2.4326444780253e-57,2.4219580780576e-57,-2.4098996500533e-57,-2.42857381616e-57,1.0428461778151e-24,1.046515427537e-24,-1.0448747367128e-24,-1.0425802761291e-24,2.6862388784205e-206,-5.1093919798537e-207,-2.8219105982983e-208,4.1972114919449e-09,-4.2001840303625e-09,222.37609171836,222.37609171836,222.3675897516,222.3675897516,249.63366350164,249.62756920948,249.63028480337,249.63388726783,203.6807064466,203.66084610435,203.66532833054,203.68219418981,222.35595139384,249.63644392668,249.62551499858,249.62750082294,249.63593794968,240.85128016788,240.84581294967,240.84879701747,240.8524652439,206.73360249768,206.72127677034,222.35595139384,206.72601092429,206.73599088291,256.13176849791,256.12639021258,256.12875707585,256.13117006392,206.74001681462,206.71660264584,206.71958067498,206.74064988146,260.7516004659,256.13288517629,256.12556413144,256.12763873421,256.13199449316,240.85652188601,240.84194727641,240.84354857214,240.85632424196,260.7516004659,260.74995722929,260.74995722929,222.3644689027,222.3644689027,406.86008502093,406.85686618575,0
0.000201,66277057.36092,5.9071164437496e-05,1.0178327345017,4.0720262980776e-09,-4.0670603102079e-09,4.0824281892792e-09,4.0845097417383e-09,5.9181298957259e-38,-5.9290091504081e-38,-5.9344696746249e-38,5.9334594039938e-38,-49.285552932149,49.954244105117,-49.648448476591,49.424743916017,-4.0972173837406e-09,5.9426809373469e-38,5.9471447116202e-38,-5.9336867597104e-38,-5.9398790169904e-38,1.0001638147463e-24,-1.0026102457352e-24,-1.0027714741453e-24,1.0020285296346e-24,-1.7775311621837,1.7928526609865,-4.0947826074863e-09,-1.7858452288361,1.7817786299617,2.3367580411591e-57,-2.3367233431693e-57,-2.3451366420123e-57,2.3494480310867e-57,-1.7740218476902,1.7965750928354,-1.7889658775605,1.7784306052108,-1.5072752911282e-207,2.376306267096e-57,2.3651071182103e-57,-2.3525291800721e-57,-2.37219516191e-57,1.0012348401721e-24,1.0047691272405e-24,-1.0031075120608e-24,-1.0009324813978e-24,4.2730583808865e-205,-1.0193048181641e-205,-5.849326763116e-207,4.0796468407588e-09,-4.0828273465584e-09,222.36936189451,222.36936189451,222.36062693405,222.36062693405,249.67483752239,249.66855532005,249.67136686486,249.67503537465,203.62032956112,203.59986208066,203.6045058903,203.62182351576,222.3486774744,249.67768944594,249.66644669034,249.66851135282,249.6771404454,240.87920855573,240.87357654387,240.87665487191,240.88039963801,206.68393406658,206.67123031974,222.3486774744,206.67612100998,206.68635860752,256.18179289464,256.17624072392,256.17870095715,256.18114304446,206.69052755352,206.66642292969,206.66951136266,206.6911507395,260.80748631605,256.18293814439,256.17539285727,256.17755403118,256.18198924759,240.88458625576,240.8696076958,240.87127037404,240.88436174648,260.80748631605,260.80576291805,260.80576291805,222.35742815333,222.35742815333,406.71310734301,406.70964987823,0
0.0002015,66507142.227381,5.9219056314117e-05,1.0179022022804,3.9583065494461e-09,-3.9531173219629e-09,3.9684059672318e-09,3.9707170844275e-09,5.6882987117409e-38,-5.6989408242149e-38,-5.704677192636e-38,5.703765779118e-38,-49.293366041831,49.983678771067,-49.666615939532,49.440795309478,-3.9830041928634e-09,5.713830009769e-38,5.7176213336389e-38,-5.7038724252206e-38,-5.7108279117938e-38,9.6037897745008e-25,-9.6281017735627e-25,-9.6301453571279e-25,9.6225991411429e-25,-1.7665276485094,1.7822289136392,-3.9804751911753e-09,-1.7751010067723,1.7710636247892,2.2844668183479e-57,-2.2840724629377e-57,-2.2928676560366e-57,2.2975795005074e-57,-1.7630203086115,1.7860251050363,-1.7781808046415,1.7676418916862,-3.02091969613e-206,2.3261157014922e-57,2.3143786584219e-57,-2.3012484716312e-57,-2.3219856652449e-57,9.6156108941612e-25,9.6496075487461e-25,-9.6327887676233e-25,-9.6122228333468e-25,6.6743224334325e-204,-1.981300584478e-204,-1.1748004634461e-205,3.9653666821293e-09,-3.9687525825851e-09,222.36305632043,222.36305632043,222.35408307402,222.35408307402,249.716225246,249.709750505,249.71266013136,249.71639463053,203.5604294454,203.53934010764,203.54414918262,203.56192677233,222.34181753224,249.71914971531,249.70758628636,249.70973204886,249.718555269,240.9074180061,240.90161728819,240.90479129839,240.9086131099,206.63475027008,206.62165927571,222.34181753224,206.62670916742,206.63720866524,256.23198231441,256.22625167291,256.22880792321,256.23127814158,206.64152609396,206.6167154369,206.61991699333,206.64213716205,260.8635027093,256.23315654933,256.22538155542,256.22763200319,256.23214658814,240.9129337222,240.89754302393,240.89926872943,240.91268058637,260.8635027093,260.86169607885,260.86169607885,222.35080663534,222.35080663534,406.56617850423,406.5624662814,0
0.000202,66738887.8106,5.936696438542e-05,1.017972049967,3.8478012933571e-09,-3.8423875019432e-09,3.8575930523453e-09,3.8601346016103e-09,5.4714636906467e-38,-5.4818416526888e-38,-5.4878596847542e-38,5.4870715686075e-38,-49.300928060496,50.013371692499,-49.684801736029,49.456887010569,-3.8719914440538e-09,5.4979901886037e-38,5.5011119712759e-38,-5.4870652140875e-38,-5.4947946482348e-38,9.2245000395509e-25,-9.2486318065755e-25,-9.2511097883053e-25,9.2434617337942e-25,-1.7555347782411,1.7716208207066,-3.8693713338704e-09,-1.7643768681027,1.7603704169768,2.2380526736155e-57,-2.2372548517457e-57,-2.2464570301777e-57,2.2516183506601e-57,-1.7520346508368,1.7754911985129,-1.7674082415098,1.7568736079558,-5.8932490040633e-205,2.2819598025251e-57,2.2696585943772e-57,-2.2559398085427e-57,-2.2778357293629e-57,9.2374202728335e-25,9.2700752177609e-25,-9.2530595850903e-25,-9.2336681358506e-25,1.0244245840263e-202,-3.7478825477292e-203,-2.2857629672202e-204,3.8542946965151e-09,-3.8578828662856e-09,222.35717550416,222.35717550416,222.34795858734,222.34795858734,249.75782661881,249.75115465537,249.75416448026,249.75796487568,203.50100782576,203.47928170365,203.48425970678,203.50250550264,222.33537202361,249.76082466883,249.74893365964,249.75116280151,249.76018227952,240.93590853073,240.92993515024,240.93320621296,240.93710555169,206.58605269822,206.57256509879,222.33537202361,206.57777678106,206.5885424506,256.28233669932,256.27642294071,256.27907787388,256.28157520714,206.59301401333,206.56748156897,206.57079896838,206.59361060786,260.91964959095,256.28354032816,256.27553009996,256.27787255548,256.28246637411,240.94156427501,240.92575319321,240.92754357785,240.94128069045,260.91964959095,260.91775659695,260.91775659695,222.34460489335,222.34460489335,406.41929076911,406.41530674984,0
0.0002025,66972305.790223,5.9514888537557e-05,1.0180422788024,3.7404353101308e-09,-3.7347960063462e-09,3.7499145807524e-09,3.7526869813152e-09,5.2670227740262e-38,-5.2771092152596e-38,-5.2834144842648e-38,5.2827751161958e-38,-49.308227500948,50.043315425026,-49.703002074,49.47300475107,-3.7641045997812e-09,5.2945610136941e-38,5.2970169189614e-38,-5.2826639593503e-38,-5.2911792620773e-38,8.8629755962161e-25,-8.8868991114844e-25,-8.8898138960393e-25,8.8820798715273e-25,-1.7445529655706,1.7610287438968,-3.7613966631159e-09,-1.7536734906133,1.7496993846433,2.1974119933541e-57,-2.1961637392113e-57,-2.205799543043e-57,2.211463378413e-57,-1.7410655246099,1.7649737019212,-1.7566486147313,1.746126125458,-1.1187181127574e-203,2.2437508580786e-57,2.230858101292e-57,-2.2165103511439e-57,-2.2396615883376e-57,8.8769829257132e-25,8.9083018192747e-25,-8.8910941832055e-25,-8.8728674099427e-25,1.5456329752231e-201,-6.8920561906156e-202,-4.3076171451677e-203,3.7463566295057e-09,-3.7501433951571e-09,222.35171994336,222.35171994336,222.34225387801,222.34225387801,249.79964157356,249.79276765005,249.79587977452,249.79974593807,203.44206643338,203.41968839056,203.42483896213,203.44356125404,222.32934139317,249.80271422696,249.79048867075,249.79280348676,249.80202132401,240.9646801282,240.95853008544,240.96189951744,240.96587684292,206.53784294278,206.52394925091,222.32934139317,206.52932523285,206.54036135851,256.33285597744,256.32675439632,256.32951069448,256.33203408091,206.54499289035,206.51872272778,206.52215868727,206.54557253726,260.97592689179,256.33408940393,256.32583835272,256.32827557878,256.3329484528,240.97047789079,240.95423812333,240.9560948446,240.97016197549,260.97592689179,260.97394434551,260.97394434551,222.33882346177,222.33882346177,406.27243754868,406.26816375085,0
0.000203,67207406.742436,5.9662828641778e-05,1.0181128896771,3.6361353171622e-09,-3.6302699329375e-09,3.6452976309334e-09,3.6483008465137e-09,5.0744051665428e-38,-5.0841723721989e-38,-5.0907701864622e-38,5.0903060402682e-38,-49.315252622654,50.073502153134,-49.721213109698,49.489133037878,-3.6592711028568e-09,5.10297341705e-38,5.1047679410029e-38,-5.0900988499011e-38,-5.0994132206351e-38,8.5184566756322e-25,-8.5421439008561e-25,-8.5454972021708e-25,8.537693984002e-25,-1.7335827191094,1.7504531430955,-3.6564787568301e-09,-1.7429916393694,1.7390509707072,2.1624653574926e-57,-2.1607161943212e-57,-2.1708139188951e-57,2.1770377926667e-57,-1.7301136741824,1.7544730416321,-1.7459024519326,1.7353998859292,-2.0656889470559e-202,2.2114269954667e-57,2.1979142222433e-57,-2.1828926628891e-57,-2.2074059540835e-57,8.5335388974294e-25,8.5635285967224e-25,-8.5461327918901e-25,-8.5290609934353e-25,2.2920162628907e-200,-1.2308665141317e-200,-7.8618884176799e-202,3.6414801735015e-09,-3.6454613192182e-09,222.34669012156,222.34669012156,222.33696933436,222.33696933436,249.84167002708,249.83458935346,249.83780586052,249.84173763152,203.38360699897,203.36056168803,203.36588844252,203.38509557332,222.3237260696,249.84481829441,249.83225116554,249.83465396388,249.84407223564,240.99373278108,240.9874020341,240.99087109677,240.99492684811,206.49012259194,206.47581318992,222.3237260696,206.48135589712,206.49266677952,256.38354006099,256.3772458948,256.38010625395,256.382654589,206.4974643,206.47044031005,206.47399754207,206.49802440749,261.03233452654,256.38480368388,256.37630616146,256.37884094732,256.38359265798,240.99967453036,240.98299771833,240.98492243784,240.99932434381,261.03233452654,261.03025918418,261.03025918418,222.33346286049,222.33346286049,406.12561343253,406.12103089678,0
0.0002035,67444200.108453,5.9810784554653e-05,1.0181838831258,3.5348298687828e-09,-3.5287382154691e-09,3.5436711223319e-09,3.5469046562323e-09,4.893069881841e-38,-4.9024897994475e-38,-4.9093851737775e-38,4.9091237734391e-38,-49.321991493327,50.103923782445,-49.739431090194,49.505255291522,-3.557420275272e-09,4.92268826654e-38,4.9238268243666e-38,-4.908829970897e-38,-4.9189579720525e-38,8.1902154958299e-25,-8.2136384495872e-25,-8.2174312947165e-25,8.2095765410136e-25,-1.7226246447757,1.7398945801164,-3.5545470366563e-09,-1.7323321715009,1.7284256888867,2.133158132835e-57,-2.1308536593763e-57,-2.141443359862e-57,2.1482898283175e-57,-1.719179940421,1.7439897460206,-1.7351703878792,1.7246954075331,-3.70818923693e-201,2.1849529384926e-57,2.1707906530846e-57,-2.1550454223694e-57,-2.1810388769572e-57,8.206360300245e-25,8.2350289103214e-25,-8.2174476693882e-25,-8.2015212809176e-25,3.3382568365257e-199,-2.1328674765087e-199,-1.3894996200568e-200,3.5395948586107e-09,-3.5437656353545e-09,222.34208650428,222.34208650428,222.33210532527,222.33210532527,249.88391187799,249.87661961327,249.87994256584,249.88393975377,203.32563124731,203.3019031078,203.3074096309,203.32711000199,222.31852646127,249.88713675798,249.87422097285,249.87671407305,249.8863348318,241.02306645299,241.01655091848,241.02012081636,241.02425541433,206.44289322486,206.42815836406,222.31852646127,206.4338701354,206.44546009519,256.43438884435,256.42789727538,256.43086440298,256.43343654226,206.45042980843,206.42263570177,206.42631691205,206.45096766806,261.08887239213,256.43568305756,256.42693335802,256.429568517,256.43439880825,241.02915413612,241.01203186372,241.01402624571,241.02876768079,261.08887239213,261.08670095761,261.08670095761,222.32852359049,222.32852359049,405.9788142255,405.97390298135,0
0.000204,67682694.166992,5.9958756118279e-05,1.018255259324,3.4364492541584e-09,-3.4301315227741e-09,3.4449657090779e-09,3.4484286035278e-09,4.7225043890818e-38,-4.7315486325108e-38,-4.7387462689527e-38,4.7387161996409e-38,-49.328432070176,50.134571982841,-49.757652309044,49.521353877103,-3.4584832096955e-09,4.7531950075425e-38,4.7536840316964e-38,-4.7383459624375e-38,-4.7493036099374e-38,7.8775547676865e-25,-7.9006855984112e-25,-7.9049183428481e-25,7.8970305465132e-25,-1.7116794482601,1.7293537209894,-3.455532660078e-09,-1.7216960346618,1.7178241247293,2.1094612459358e-57,-2.1065426703508e-57,-2.1176562852358e-57,2.1251935428044e-57,-1.7082652638197,1.7335244467387,-1.724453163747,1.7140132876289,-6.4674930029204e-200,2.1643209672003e-57,2.149478740947e-57,-2.1329543499693e-57,-2.1605588349649e-57,7.8947498115942e-25,7.922106732807e-25,-7.9043416147802e-25,-7.8895512384169e-25,4.7699670722235e-198,-3.5827105070096e-198,-2.3779329318004e-199,3.4406319463968e-09,-3.4449870834041e-09,222.3379095353,222.3379095353,222.32766219638,222.32766219638,249.92636700449,249.91885825821,249.92228969725,249.9263520847,203.26814089178,203.24371414788,203.24940399372,203.26960607138,222.31374295191,249.92966948444,249.91639790228,249.9189836332,249.92880891223,241.05268108583,241.04597664,241.04964851949,241.05386236883,206.39615640632,206.38098620631,222.31374295191,206.38686929123,206.39874267333,256.48540220232,256.47870835977,256.48178497232,256.48437973483,206.40389096776,206.37531027261,206.37911815811,206.40440375594,261.14554036627,256.48672739511,256.47771975661,256.48045812359,256.48536670562,241.05891662948,241.04134042359,241.04340613348,241.05849185255,261.14554036627,261.14326949418,261.14326949418,222.32400612959,222.32400612959,405.83203697403,405.82677600604,0
0.0002045,67922896.012068,6.0106743160609e-05,1.0183270180854,3.3409253940457e-09,-3.3343821505908e-09,3.3491136762488e-09,3.3528045153102e-09,4.562223360964e-38,-4.5708632011542e-38,-4.5783674721405e-38,4.5785983985934e-38,-49.334562143982,50.16543816473,-49.775873123047,49.537410102996,-3.3623926657182e-09,4.594010425665e-38,4.5938574613123e-38,-4.5781627487759e-38,-4.5899676192234e-38,7.5798062881749e-25,-7.6026173392258e-25,-7.6072896896328e-25,7.5993881280563e-25,-1.7007479330088,1.7188313343646,-3.3593684132013e-09,-1.711084266434,1.7072469361267,2.0913721651994e-57,-2.0877757654556e-57,-2.0994472556487e-57,2.1077498326227e-57,-1.6973706817006,1.7230778779638,-1.7137516275373,1.7033542026387,-1.0951405596286e-198,2.1495521292785e-57,2.1339987214765e-57,-2.1166333212201e-57,-2.1459940517655e-57,7.5980392747868e-25,7.6240952444544e-25,-7.6061465516082e-25,-7.5924829863156e-25,6.6765454039962e-197,-5.8286760578514e-197,-3.9402614764839e-198,3.3445243198557e-09,-3.3490580397269e-09,222.33415963287,222.33415963287,222.32364026636,222.32364026636,249.96903526226,249.96130509595,249.96484703867,249.96897438453,203.21113762889,203.18599628677,203.19187297535,203.21258529783,222.30937589638,249.9724163186,249.95878174213,249.96146243988,249.97149425734,241.08257659701,241.07567907645,241.07945402488,241.08374751677,206.3499136812,206.33429812888,222.30937589638,206.34035468501,206.35251586322,256.53657998846,256.5296789505,256.53286777112,256.53548394274,206.35784931093,206.3284653703,206.33240261739,206.35833409084,261.20233830602,256.53793654561,256.52866515218,256.53150958102,256.53649613407,241.08896190835,241.0709232379,241.07306194086,241.0884967036,261.20233830602,261.19996460469,261.19996460469,222.31991092816,222.31991092816,405.68527997985,405.67964719455,0
0.000205,68164811.535476,6.0254745495663e-05,1.0183991588618,3.2481917550861e-09,-3.2414239315536e-09,3.2560488548786e-09,3.2599657598893e-09,4.4117675357607e-38,-4.4199738901415e-38,-4.4277887832282e-38,4.4283115256316e-38,-49.34036946578,50.196513609923,-49.794090057066,49.553404333184,-3.2690829786468e-09,4.4446775056584e-38,4.4438913253266e-38,-4.4278224166104e-38,-4.4404937293377e-38,7.2963296522411e-25,-7.318793533634e-25,-7.323904538288e-25,7.3160092672838e-25,-1.689831003552,1.7083282951552,-3.2659886183409e-09,-1.700497997261,1.6966948558572,2.0789161179771e-57,-2.0745726278243e-57,-2.0868380891036e-57,2.095987708796e-57,-1.6864973317618,1.7126508798115,-1.7030667372573,1.6927189128786,-1.7989382539369e-197,2.1406976802084e-57,2.1244012329154e-57,-2.1061257745168e-57,-2.1374040751781e-57,7.315588413073e-25,7.3403555452206e-25,-7.3222222524347e-25,-7.3096765017086e-25,9.1386282449486e-196,-9.1762876077702e-196,-6.3213918183025e-197,3.2512063896841e-09,-3.2559124285909e-09,222.33083718602,222.33083718602,222.32003982322,222.32003982322,250.01191648237,250.00395991106,250.00761434925,250.01180639216,203.15462313283,203.12875097774,203.13481799271,203.15604917786,222.30542561649,250.0153770813,250.00137225732,250.00415026323,250.0143906264,241.11275287682,241.10565807932,241.10953712416,241.11391063896,206.30416656916,206.28809551767,222.30542561649,206.29432760888,206.30678099099,256.58792203336,256.58080882934,256.58411258529,256.58674892251,206.31230634661,206.28210231517,206.28617159788,206.31276007052,261.25926604642,256.58931033548,256.57976931875,256.58272267975,256.58778685816,241.11928984463,241.10078011977,241.10299347928,241.11878205461,261.25926604642,261.25678608117,261.25678608117,222.316238405,222.316238405,405.53854282058,405.53251501273,0
0.0002055,68408445.414028,6.0402762924049e-05,1.0184728584985,3.1581832566939e-09,-3.1511921468389e-09,3.1657065234655e-09,3.1698471648218e-09,4.2707026781195e-38,-4.2784460653862e-38,-4.2865751719519e-38,4.2874217122625e-38,-49.345841750612,50.227789481926,-49.812299770744,49.569316058399,-3.1784899645498e-09,4.3047643700216e-38,4.3033550996347e-38,-4.2868921645551e-38,-4.3004509147641e-38,7.0265110529081e-25,-7.048600676536e-25,-7.0541487706919e-25,7.0462805437913e-25,-1.6789296636948,1.6978455837145,-3.1753290411051e-09,-1.6899384474022,1.686168693654,2.0721475710022e-57,-2.0669814588567e-57,-2.0798792821603e-57,2.0899657603129e-57,-1.6756464510643,1.7022443973645,-1.6923995589612,1.6821082636707,-2.8642445453662e-196,2.1378408032827e-57,2.1207690937817e-57,-2.1015063602495e-57,-2.1348817322797e-57,7.0467836011811e-25,7.0702754319339e-25,-7.0519551335517e-25,-7.0405184399849e-25,1.2210155080783e-194,-1.3968445885042e-194,-9.8183947169871e-196,3.1606140007685e-09,-3.1654856244483e-09,222.32794255095,222.32794255095,222.31686112078,222.31686112078,250.05501046938,250.04682246305,250.05059136158,250.05484782355,203.09859905011,203.07197964315,203.07824042977,203.09999918336,222.30189239695,250.0585515676,250.04416918747,250.04704684602,250.05749775601,241.14320978584,241.13591347126,241.13989757967,241.14435148972,206.25891655934,206.24237972684,222.30189239695,206.24878932166,206.2615393549,256.63942814319,256.63209775578,256.63551917612,256.63817440991,206.26726355408,206.23622239464,206.24042637306,206.26768306606,261.31632339924,256.640848567,256.63103200802,256.63409718525,256.63923862182,241.14990028197,241.13091085294,241.13320052943,241.14934770026,261.31632339924,261.31373369579,261.31373369579,222.31298894322,222.31298894322,405.39182635475,405.38537917394,0
0.000206,68657972.129782,6.0550795233278e-05,1.0185474338602,3.0708361913951e-09,-3.0636234332506e-09,3.0780233270768e-09,3.0823849312523e-09,4.1386185983579e-38,-4.1458691195847e-38,-4.1543156064802e-38,4.1555191400207e-38,-49.350966702173,50.259256876941,-49.830499114413,49.585123956033,-3.0905508340003e-09,4.1738633502967e-38,4.1718425967054e-38,-4.1549633168731e-38,-4.1694323828735e-38,6.7697621420407e-25,-6.7914507884603e-25,-6.7974338143593e-25,6.7896140343054e-25,-1.6680450159244,1.6873842853879,-3.087326800509e-09,-1.6794069269451,1.6756693361233,2.0711519503318e-57,-2.0650806303159e-57,-2.0786516790934e-57,2.0897740036185e-57,-1.664819374291,1.6918594801716,-1.6817512668217,1.6715231869234,-4.4165511147041e-195,2.1410986849963e-57,2.1232194561459e-57,-2.1028828677262e-57,-2.1385553018774e-57,6.7910367636334e-25,6.8132682802928e-25,-6.794757111262e-25,-6.7844209581997e-25,1.5896751315338e-193,-2.0543698680635e-193,-1.4763298020208e-194,3.0726843418386e-09,-3.07771437037e-09,222.3254760475,222.3254760475,222.31410437516,222.31410437516,250.09831699951,250.08989248459,250.09377778002,250.09809837022,203.04306699423,203.0156836689,203.02214163228,203.0444367569,222.29877648143,250.1019395451,250.08717224506,250.09015190189,250.10081535856,241.17394715253,241.16644504357,241.17053512218,241.17506979482,206.21416510511,206.19715207344,222.29877648143,206.20374104394,206.21679222077,256.69109809826,256.68354546569,256.68708727889,256.68976011879,206.22272237832,206.19082685792,206.1951681767,206.22310441728,261.37351015186,256.69255101695,256.68245294794,256.68563283665,256.69085114711,241.18079303347,241.16131518932,241.16368283884,241.18019340714,261.37351015186,261.37080719981,261.37080719981,222.31016288629,222.31016288629,405.24513272207,405.23824063958,0
0.0002065,68910838.277634,6.0698842198284e-05,1.0186224764133,2.9860881458698e-09,-2.9786557108716e-09,2.9929371989233e-09,2.9975165561249e-09,4.0151283176983e-38,-4.0218555783115e-38,-4.0306221394434e-38,4.0322171514409e-38,-49.355732082009,50.290906862381,-49.848685142756,49.600805967069,-3.0052041107678e-09,4.0515901015289e-38,4.0489711018698e-38,-4.0316504749156e-38,-4.0470547616401e-38,6.5255190146867e-25,-6.5467803501498e-25,-6.5531955781388e-25,6.5454462594627e-25,-1.6571782606198,1.6769455894656,-3.0019202894454e-09,-1.6689048340916,1.6651977471931,2.076047763239e-57,-2.0689806416863e-57,-2.0832683994582e-57,2.0955359927123e-57,-1.6540175341869,1.681497281015,-1.671123141672,1.6609647021329,-6.5898687781127e-194,2.1506248907551e-57,2.1319062871445e-57,-2.1103985483638e-57,-2.148591200103e-57,6.5477843176656e-25,6.5687719946584e-25,-6.5500645794056e-25,-6.5408207145659e-25,2.0134202923179e-192,-2.917079682178e-192,-2.1488764111042e-193,2.98735586582e-09,-2.9925366947961e-09,222.32343795573,222.32343795573,222.31176976146,222.31176976146,250.14183581892,250.13316967979,250.13717327908,250.14155769782,202.9880285405,202.959864399,202.9665229026,202.98936330707,222.29607806879,250.1455407523,250.13038111378,250.1334651137,250.14434312079,241.20496477098,241.19725255396,241.20144944887,241.2060652496,206.16991361899,206.15241383224,222.29607806879,206.15918395323,206.17254081754,256.74293165175,256.73515167007,256.73881660163,256.74150574002,206.17868422508,206.14591691077,206.15039819781,206.17902542821,261.43082606627,256.74441743535,256.73403184149,256.73732934543,256.74262413322,241.21196787957,241.19199284672,241.19444011961,241.21131891182,261.43082606627,261.42800632271,261.42800632271,222.30776053428,222.30776053428,405.09846533872,405.09110161446,0
0.000207,69165757.255727,6.0846903581886e-05,1.0186979853905,2.9038779304652e-09,-2.8962281058528e-09,2.9103872891058e-09,2.9151807653569e-09,3.8998672713632e-38,-3.9060403260714e-38,-3.9151291395829e-38,3.9171514714409e-38,-49.360125715331,50.322730522156,-49.866855173201,49.616339387223,-2.9223895573578e-09,3.9375828315881e-38,3.9343806238988e-38,-3.9165907235524e-38,-3.9329572854694e-38,6.2932412367524e-25,-6.3140493555096e-25,-6.3208935097061e-25,6.3132372205507e-25,-1.6463306937461,1.6665307875889,-2.9190491003131e-09,-1.6584336545264,1.6547549689296,2.0869890181743e-57,-2.0788264443564e-57,-2.0938771932398e-57,2.1074113457912e-57,-1.643242458686,1.6711590544392,-1.6605165699965,1.6504339170865,-9.5071915970726e-193,2.1666121745244e-57,2.1470233265317e-57,-2.1242347954116e-57,-2.1651969895501e-57,6.3164862158123e-25,6.3362480484931e-25,-6.3173374421102e-25,-6.3091778744012e-25,2.47724139168e-191,-3.9964466945044e-191,-3.0275287618458e-192,2.9045682130894e-09,-2.9098918408336e-09,222.32182851268,222.32182851268,222.30985741053,222.30985741053,250.18556664219,250.17665372261,250.18077750203,250.18522544488,202.93348522103,202.90452313035,202.9113854947,202.934780204,222.29379730952,250.18935489712,250.17379544697,250.17698613194,250.18808070247,241.23626239872,241.22833572433,241.23264022139,241.23733751712,206.12616346775,206.10816623071,222.29379730952,206.11511917935,206.12878633287,256.79492852849,256.78691605383,256.79070682403,256.79341094047,206.13515045616,206.10149371055,206.10611757576,206.13544736269,261.48827087815,256.79644754432,256.78576836548,256.78918639425,256.79455725539,241.24342456608,241.22294350668,241.22547204633,241.24272391898,261.48827087815,261.48533077134,261.48533077134,222.30578214022,222.30578214022,404.95182888662,404.94396553564,0
0.0002075,69422734.817476,6.0995021602232e-05,1.0187739594663,2.8241455105681e-09,-2.8162808866688e-09,2.8303138942001e-09,2.8353174464072e-09,3.7924926065409e-38,-3.7980798676064e-38,-3.807492561021e-38,3.8099794890074e-38,-49.364135552729,50.354719019397,-49.885006772088,49.631700922487,-2.8420481043853e-09,3.8315015930293e-38,3.827733212292e-38,-3.809442923416e-38,-3.8268011405645e-38,6.0724109505072e-25,-6.0927403890774e-25,-6.1000096862859e-25,6.0924694878902e-25,-1.6355037048675,1.6561412720133,-2.8386539571746e-09,-1.647994957517,1.6443421201243,2.1041680873162e-57,-2.0948001240701e-57,-2.1106631446053e-57,2.1255986774856e-57,-1.632495769713,1.6608461551523,-1.6499330407033,1.6399320271589,-1.3252585898547e-191,2.1892957294189e-57,2.1688074930234e-57,-2.1446142564569e-57,-2.1886250047295e-57,6.0966250388897e-25,6.1151805856624e-25,-6.0960582222133e-25,-6.0889752427337e-25,2.9571046318536e-190,-5.2796127230447e-190,-4.1282991610316e-191,2.8242621416251e-09,-2.8297201946891e-09,222.32064790923,222.32064790923,222.30836740595,222.30836740595,250.22950915087,250.22034425549,250.22459005956,250.22910122155,202.87943851984,202.84966110767,202.85673060932,202.88068877493,222.29193430232,250.23338165559,250.21741486615,250.22071457339,250.23202773524,241.26783975473,241.25969423884,241.26410706405,241.26888622645,206.08291596766,206.06441044418,222.29193430232,206.07154779989,206.08552990891,256.84708842399,256.83883827484,256.84275759643,256.84547536218,206.0921223849,206.05755836136,206.06232739558,206.0923714401,261.54584429609,256.84864103706,256.83766216958,256.841203636,256.84665016414,241.27516280236,241.25416681251,241.25677825412,241.27440809974,261.54584429609,261.54278022922,261.54278022922,222.30422790664,222.30422790664,404.80522929417,404.79683705428,0
0.000208,69681774.817134,6.1143183895244e-05,1.0188503967515,2.7468319543281e-09,-2.7387553990138e-09,2.7526584028363e-09,2.7578675936937e-09,3.692682581134e-38,-3.6976517219655e-38,-3.7073893111065e-38,3.7103796463388e-38,-49.367749699004,50.386863628343,-49.903137831677,49.646866832811,-2.7641217874247e-09,3.733027701373e-38,3.728712360951e-38,-3.7098870885132e-38,-3.7282688034919e-38,5.862532067904e-25,-5.8823578187513e-25,-5.8900479941849e-25,5.8826473887282e-25,-1.6246987745534,1.6457785331887,-2.7606766548273e-09,-1.6375903956627,1.6339603976272,2.127819063418e-57,-2.1171241013976e-57,-2.1338518493752e-57,2.1503390448257e-57,-1.6217791800612,1.6505600350121,-1.6393741432669,1.6294603170397,-1.7838120939619e-190,2.2189570114029e-57,2.197542864575e-57,-2.1718044720199e-57,-2.2191764177006e-57,5.8877052015348e-25,5.905075589655e-25,-5.8857312382471e-25,-5.8797173996687e-25,3.4211506703293e-189,-6.7221706304133e-189,-5.4476936998411e-190,2.7463794675931e-09,-2.7519632278663e-09,222.31989628718,222.31989628718,222.30729978116,222.30729978116,250.27366299221,250.26424088801,250.26861052866,250.27318460862,202.82588986822,202.79527951866,202.80255938938,202.82709030007,222.29048909089,250.27762067061,250.26123895983,250.2646500199,250.27618382148,241.29969651768,241.29132774198,241.29584956224,241.30071097119,206.04017237993,206.0211475912,222.29048909089,206.02847083598,206.04277263833,256.89941100349,256.89091796301,256.894968539,256.8976986216,206.04960127173,206.01411190942,206.01902868345,206.04979883129,261.60354600096,256.900997577,256.88971287539,256.89338069285,256.89890248439,241.30718225958,241.28566236746,241.28835833685,241.30637109001,261.60354600096,261.60035435596,261.60035435596,222.30309798233,222.30309798233,404.65867371607,404.6497220134,0
0.0002085,69942879.171662,6.1291373782555e-05,1.0189272947897,2.6718793720204e-09,-2.6635940155078e-09,2.6773632349256e-09,2.6827732529009e-09,3.600136013026e-38,-3.6044538414904e-38,-3.6145166972655e-38,3.6180508807805e-38,-49.370956460016,50.419155797065,-49.921246551462,49.661812940546,-2.6885536900207e-09,3.6418631576954e-38,3.6370225143769e-38,-3.6176238328414e-38,-3.6370635442824e-38,5.6631294975402e-25,-5.6824270052686e-25,-5.6905333602506e-25,5.683296218655e-25,-1.6139174710941,1.6354441569512,-2.6850600017399e-09,-1.627221699565,1.6236110724828,2.1582216436456e-57,-2.1460647927325e-57,-2.1637131401297e-57,2.1819199607507e-57,-1.6110944908876,1.6403022400594,-1.6288415636238,1.6190201574329,-2.3172102918277e-189,2.2559280698302e-57,2.233565338722e-57,-2.2061220764742e-57,-2.2572060851381e-57,5.6892521506218e-25,5.7054601274368e-25,-5.6858818334573e-25,-5.6809299635782e-25,3.8327294914771e-188,-8.2452734008922e-188,-6.956051768902e-189,2.6708630075769e-09,-2.6765634390546e-09,222.31957373642,222.31957373642,222.30665451679,222.30665451679,250.3180277781,250.30834319581,250.31283845159,250.31747515651,202.77284064027,202.74137948943,202.74887291558,202.77398600849,222.28946166104,250.32207155091,250.30526728233,250.30879201728,250.32054853338,241.33183232424,241.32323583703,241.32786726092,241.33281130801,205.99793390639,205.97837872922,222.28946166104,205.9858892482,206.00051556037,256.95189590121,256.9431547195,256.94733924102,256.95008030894,206.00758832003,205.97115533877,205.97622240252,206.0077306546,261.66137564534,256.95351679705,256.94192007572,256.9457171556,256.95131381493,241.33948256923,241.31742973313,241.32021184563,241.33861248912,261.66137564534,261.65805278675,261.65805278675,222.30239245938,222.30239245938,404.51217050072,404.50262741701,0
0.000209,70206047.832628,6.1439581455091e-05,1.0190046505569,2.5992308733086e-09,-2.5907400845332e-09,2.6043717999171e-09,2.6099774767159e-09,3.5145718393583e-38,-3.5182041562071e-38,-3.5285919267483e-38,3.5327121644328e-38,-49.373744351765,50.45158713767,-49.939331489308,49.676514757703,-2.6152878930377e-09,3.5577302286456e-38,3.5523886444769e-38,-3.5323738966252e-38,-3.5529089407276e-38,5.473748451685e-25,-5.4924936049875e-25,-5.5010110343242e-25,5.493961545697e-25,-1.603161446139,1.625139819332,-2.6117477710803e-09,-1.6168906763517,1.6132954899846,2.1957057054101e-57,-2.1819369589017e-57,-2.2005653627525e-57,2.2206800639576e-57,-1.6004435872785,1.6300744055217,-1.6183370805006,1.6086130047232,-2.9037598001672e-188,2.3005966809449e-57,2.2772680275249e-57,-2.2479376700423e-57,-2.3031280589661e-57,5.5008116872036e-25,5.5158816445418e-25,-5.4960556667487e-25,-5.4921588584263e-25,4.1549776147231e-187,-9.7393245523937e-187,-8.5935531011194e-188,2.5976565289128e-09,-2.6034643064636e-09,222.31968029243,222.31968029243,222.30643153814,222.30643153814,250.36260308402,250.35265071964,250.35727333503,250.36197238455,202.72029214867,202.68796208017,202.69567220231,202.72137707435,222.28885193788,250.36673387015,250.3494993529,250.35314007445,250.36512141213,241.36424676765,241.3554180845,241.36015966337,241.36518675546,205.95620168546,205.9361048504,222.28885193788,205.94380393278,205.95875965727,257.00454271973,256.99554811615,256.99986926031,257.00261998764,205.96608467217,205.92868956714,205.93390944887,205.96616797223,261.71933285322,257.00619829899,256.99428333396,256.99821258303,257.0038837278,241.37206332177,241.349468428,241.35233828733,241.3711318585,261.71933285322,261.71587513204,261.71587513204,222.3021113703,222.3021113703,404.3657291568,404.3555613954,0
0.0002095,70471278.765342,6.158780665446e-05,1.0190824604626,2.5288305244698e-09,-2.5201378899704e-09,2.5336284524686e-09,2.5394242854435e-09,3.4357287283752e-38,-3.4386401703507e-38,-3.4493517164711e-38,3.4541021119276e-38,-49.376102157963,50.484149534205,-49.957391589222,49.690947543177,-2.5442694285724e-09,3.4803710489188e-38,3.474555902107e-38,-3.4538777582432e-38,-3.4755485136906e-38,5.2939537924828e-25,-5.3121229081354e-25,-5.321045942077e-25,5.3142085442991e-25,-1.5924324310543,1.6148672846414,-2.5406846612027e-09,-1.6065992054407,1.6030150667906,2.2406565807473e-57,-2.2251087258829e-57,-2.2447804317291e-57,2.2670145782944e-57,-1.5898284349458,1.6198782535925,-1.6078625612174,1.5982403984246,-3.5090546168872e-187,2.3534122060669e-57,2.3291075154011e-57,-2.297681475693e-57,-2.3574220546389e-57,5.3219492971678e-25,5.3359073048805e-25,-5.3158180633778e-25,-5.3129696649775e-25,4.3562144976677e-186,-1.1075200431321e-185,-1.0270699071018e-186,2.5267047093337e-09,-2.5326102453006e-09,222.32021593388,222.32021593388,222.30663071297,222.30663071297,250.40738844834,250.39716296447,250.40191464941,250.40667578023,202.66824564075,202.63502828111,202.64295819377,202.66926461329,222.28865978344,250.41160716615,250.39393465486,250.39769366264,250.40990196719,241.39693939645,241.38787400092,241.39272623006,241.39783679282,205.91497678831,205.89432687785,222.28865978344,205.90221571801,205.91750585077,257.0573510295,257.04809769496,257.05255812282,257.055317194,205.92509140584,205.88671544215,205.89209064784,205.92511178664,261.77741721963,257.05904165299,257.04680218358,257.05086650145,257.05661176792,241.40492406538,241.38177792617,241.38473712344,241.40392872053,261.77741721963,261.7738209772,261.7738209772,222.30225468559,222.30225468559,404.21936031399,404.2085331661,0
0.00021,70738567.936283,6.1736049106203e-05,1.0191607203628,2.4606233155237e-09,-2.4517326150934e-09,2.4650784572121e-09,2.4710586337152e-09,3.3633647929607e-38,-3.3655186406858e-38,-3.3765519652694e-38,3.3819786707324e-38,-49.378018976871,50.516835141664,-49.975426188437,49.705086389293,-2.4754442420785e-09,3.4095473400283e-38,3.4032893751833e-38,-3.381895328909e-38,-3.4047454172113e-38,5.1233294360402e-25,-5.140899228697e-25,-5.1502220775142e-25,5.1436213863986e-25,-1.581732232977,1.6046283999824,-2.4718162590031e-09,-1.5963492340936,1.592771288526,2.2935212573675e-57,-2.2760074526544e-57,-2.296789685965e-57,2.3213816715496e-57,-1.5792510758289,1.6097155873169,-1.5974199564019,1.5879039589892,-4.0884093147445e-186,2.4148924346633e-57,2.3896111850228e-57,-2.3558499186942e-57,-2.4206408956431e-57,5.1522495591863e-25,5.1651233963135e-25,-5.1447534122098e-25,-5.1429470047656e-25,4.4150607567565e-185,-1.2121987066938e-184,-1.1874466447426e-185,2.4579531005993e-09,-2.4639465724724e-09,222.32118058049,222.32118058049,222.30725184945,222.30725184945,250.45238337162,250.44187939896,250.44676182832,250.4515847987,202.61670229482,202.5825790088,202.59073176044,202.61764967906,222.28888499441,250.45669094029,250.43857263504,250.44245221485,250.45488967577,241.42990971342,241.42060305769,241.42556637768,241.43076085923,205.87426021533,205.85304566201,222.28888499441,205.86112536097,205.87675499899,257.11032036851,257.10080296772,257.10540532232,257.10817143685,205.88460953054,205.84523373782,205.85076675064,205.8845630374,261.83562831057,257.11204639731,257.0994761278,257.10367840443,257.10949745279,241.438064305,241.41435765637,241.41740776903,241.43700255763,261.83562831057,261.83188988248,261.83188988248,222.30282231137,222.30282231137,404.07307567853,404.06155298783,0
0.0002105,71007909.339772,6.1884308520437e-05,1.0192394255629,2.3945551277043e-09,-2.385470313751e-09,2.3986679605653e-09,2.4048263807358e-09,3.297257377088e-38,-3.2986153471484e-38,-3.3099674990495e-38,3.3161188964076e-38,-49.379484229238,50.549636449096,-49.993435060577,49.71890624031,-2.4087591587e-09,3.3450401870408e-38,3.3383739265918e-38,-3.3162057118776e-38,-3.3402822298774e-38,4.9614777939992e-25,-4.9784253406938e-25,-4.988141933392e-25,4.9818026806563e-25,-1.5710627285057,1.5944250905063,-2.405089010417e-09,-1.5861427736958,1.5825657052016,2.3548155950181e-57,-2.3351266138468e-57,-2.3570907098771e-57,2.3843098880498e-57,-1.5687136229389,1.5995882864791,-1.5870112949396,1.577605382755,-4.5919874516925e-185,2.4856314944733e-57,2.4593857451813e-57,-2.4230132380507e-57,-2.4934192118792e-57,4.9913155744488e-25,5.0031347721589e-25,-4.9824645963472e-25,-4.9816939795495e-25,4.3241597582655e-184,-1.2768027366371e-183,-1.3280213999688e-184,2.3913480979938e-09,-2.3974194743308e-09,222.32257409111,222.32257409111,222.30829469433,222.30829469433,250.49758731619,250.48679945487,250.49181426815,250.49669886239,202.56566321675,202.53061510267,202.53899369577,202.56653326041,222.28952730019,250.50198465709,250.48341270324,250.48741512544,250.50008398239,241.46315717465,241.45360468024,241.45867947847,241.4639583529,205.83405289293,205.81226197749,222.28952730019,205.82053354453,205.83650789345,257.16345024211,257.15366341584,257.15841032025,257.16118219743,205.84463998449,205.80424515133,205.80993843118,205.84452259811,261.89396566301,257.16521203811,257.15230463939,257.15664775266,257.16254027231,241.47148350147,241.44720700102,241.45034959198,241.47035281141,261.89396566301,261.8900813829,261.8900813829,222.30381408738,222.30381408738,403.92688798262,403.91463211109,0
0.000211,71279294.988533,6.2032584592512e-05,1.0193185708318,2.3305727130405e-09,-2.3212978870486e-09,2.3343439648313e-09,2.3406742707756e-09,3.2372029322669e-38,-3.2377249453665e-38,-3.2493919221686e-38,3.2563187952407e-38,-49.380487746562,50.582546290293,-50.01141840168,49.73238200744,-2.3441618567873e-09,3.28664991578e-38,3.27961413297e-38,-3.2566070602357e-38,-3.281960812288e-38,4.8080192608364e-25,-4.824321961809e-25,-4.8344259922767e-25,4.8283729377588e-25,-1.5604258603414,1.5842593539736,-2.3404501959609e-09,-1.5759818937646,1.5723999289131,2.4251327697472e-57,-2.4030338361183e-57,-2.4262553407755e-57,2.4564068146451e-57,-1.558218256308,1.5894983008202,-1.5766386774714,1.5673464398644,-4.97196506419e-184,2.5663090564605e-57,2.5391271957066e-57,-2.4998243618678e-57,-2.5764835109405e-57,4.8387684554884e-25,4.8495643436703e-25,-4.8285724744345e-25,-4.8288316404719e-25,4.0915994529641e-183,-1.2940592001831e-182,-1.4367996279727e-183,2.3268369178165e-09,-2.3329759854759e-09,222.32439626208,222.32439626208,222.3097589314,222.3097589314,250.5429997058,250.5319225268,250.5370713279,250.54201736076,202.5151294369,202.47913732192,202.4877447133,202.51591627835,222.29058636126,250.54748774388,250.52845423199,250.53258174984,250.54548429863,241.49668118892,241.48687824732,241.49206485956,241.49742863056,205.79435567057,205.77197652002,222.29058636126,205.78044087463,205.7967652565,257.21674012291,257.20667849023,257.21157254573,257.21434892932,205.80518363172,205.76375030016,205.76960628335,205.80499127371,261.95242878495,257.21853804938,257.20528716058,257.20977397385,257.21573968875,241.5051810709,241.48032529563,241.4835619123,241.50397888207,261.95242878495,261.94839498841,261.94839498841,222.30522978523,222.30522978523,403.78081093243,403.76778272462,0
0.0002115,71552714.94705,6.218087700377e-05,1.0193981504213,2.2686236766465e-09,-2.2591630648946e-09,2.2720543147729e-09,2.2785499143749e-09,3.1830169961211e-38,-3.1826609101571e-38,-3.1946375207648e-38,3.2023932954882e-38,-49.381019773239,50.615557925543,-50.029376903211,49.745488602887,-2.2816008474142e-09,3.2341960624939e-38,3.2268343192201e-38,-3.202916525031e-38,-3.2296022593115e-38,4.6625917443373e-25,-4.678227271971e-25,-4.6887122297707e-25,4.6829701064979e-25,-1.5498236307027,1.5741332558623,-2.2778479146759e-09,-1.5658687187559,1.5622756288742,2.5051531878283e-57,-2.4803803248348e-57,-2.5049389650299e-57,2.5383693003379e-57,-1.5477672166643,1.5794476457546,-1.56630427155,1.5571289692005,-5.1904153909783e-183,2.6577010538147e-57,2.629632486815e-57,-2.5870292627424e-57,-2.6706639278437e-57,4.6942468522129e-25,4.7040526076738e-25,-4.6827154005106e-25,-4.6839984975069e-25,3.7396767299874e-182,-1.2619266114391e-181,-1.5040711383758e-182,2.2643675803572e-09,-2.2705639699472e-09,222.32664682574,222.32664682574,222.31164418023,222.31164418023,250.5886199255,250.57724797201,250.58253232906,250.58753965017,202.46510190732,202.42814634277,202.43698544402,202.46579958354,222.29206176772,250.59319959066,250.57369655638,250.57795140452,250.59109000299,241.53048111712,241.52042309046,241.52572180266,241.53117100702,205.75516931811,205.73218990398,222.29206176772,205.74084787792,205.75752773891,257.27018945087,257.25984761137,257.26489139567,257.26767105854,205.76624125943,205.72374971953,205.72977081851,205.76596979804,262.01101715571,257.27202387301,257.25842310311,257.26305646293,257.2690951368,241.53915638413,241.51371182834,241.51704400182,241.53788012789,262.01101715571,262.00683018403,262.00683018403,222.30706910687,222.30706910687,403.63485915242,403.62101789818,0
0.000212,71828157.380245,6.232918542228e-05,1.0194781580883,2.2086564615826e-09,-2.1990143939976e-09,2.2117476793419e-09,2.2184017781104e-09,3.1345342524007e-38,-3.1332555584499e-38,-3.1455353055795e-38,3.154176259471e-38,-49.381071023245,50.648665054298,-50.047311710348,49.758200959084,-2.2210254561123e-09,3.1875174229591e-38,3.1798786987569e-38,-3.1549703001818e-38,-3.1830469646973e-38,4.524850219256e-25,-4.539796452996e-25,-4.5506556827953e-25,4.5452490988032e-25,-1.5392580955484,1.5640489231698,-2.2172310713283e-09,-1.5558054206278,1.5521945261863,2.5956560970841e-57,-2.5679119119533e-57,-2.5938915206127e-57,2.6309953661929e-57,-1.5373627999504,1.5694383951579,-1.5560103032215,1.5469548722882,-5.2263069806811e-182,2.7606921527321e-57,2.7318131976634e-57,-2.6854790515392e-57,-2.7769079819917e-57,4.5574064988162e-25,4.5662572076158e-25,-4.5445487784034e-25,-4.5468500739812e-25,3.3012865111353e-181,-1.1839422294182e-180,-1.524090982281e-181,2.2038888972708e-09,-2.2101321053497e-09,222.32932544932,222.32932544932,222.31394999502,222.31394999502,250.63444732161,250.62277511041,250.62819655572,250.63326505397,202.41558149928,202.377642756,202.3867164341,202.41618395414,222.29395303825,250.63911955015,250.61913897407,250.62352336708,250.6369004409,241.56455627202,241.55423849373,241.55964954386,241.56518475497,205.71649452352,205.69290265996,222.29395303825,205.7017549997,205.71879591783,257.32379763352,257.3131701695,257.31836623505,257.32114798379,205.72781357577,205.68424386014,205.69043246339,205.72745883168,262.06973022626,257.32566891902,257.31171184848,257.31649458227,257.32260602379,241.57340876653,241.5473658396,241.55079508388,241.57205586504,262.06973022626,262.06538643019,262.06538643019,222.30933168338,222.30933168338,403.48904812252,403.47435152076,0
0.0002125,72105608.61393,6.2477509503623e-05,1.0195585871131,2.1506203419417e-09,-2.140801229321e-09,2.1533735458046e-09,2.1601791782998e-09,3.0916087204927e-38,-3.0893602167587e-38,-3.1019351207321e-38,3.1115206382135e-38,-49.380632726046,50.681861825548,-50.065224426396,49.770494096478,-2.1623858123327e-09,3.1464722145623e-38,3.1386116447648e-38,-3.1126237673019e-38,-3.1421547542861e-38,4.3944663252644e-25,-4.408701292176e-25,-4.4199280333302e-25,4.4148813835702e-25,-1.52873135892,1.5540085371608,-2.1585493674692e-09,-1.5457942129354,1.5421583891444,2.6975333196715e-57,-2.6664821560556e-57,-2.6939703241885e-57,2.7351982817919e-57,-1.5270073515819,1.5594726740917,-1.5457590501143,1.5368261086909,-5.0802533350656e-181,2.8762903421883e-57,2.8467116654637e-57,-2.7961441394989e-57,-2.8962965938229e-57,4.4279198037493e-25,4.4358525382746e-25,-4.4137446436829e-25,-4.4170584720835e-25,2.8147706674071e-180,-1.068454016994e-179,-1.4963530881884e-180,2.1453504637997e-09,-2.1516298777922e-09,222.33243173393,222.33243173393,222.31667586395,222.31667586395,250.68048120192,250.6685032247,250.67406325484,250.67919286263,202.36656900109,202.32762706486,202.33693814296,202.36707009387,222.29625961921,250.68524693792,250.66478074548,250.66929687642,250.68291492486,241.5989059181,241.58832369353,241.59384727361,241.59946910494,205.67833189086,205.6541152329,222.29625961921,205.66316260215,205.68057029508,257.37756404629,257.36664552492,257.37199639732,257.37477907671,205.68990120784,205.64523308632,205.65159155828,205.6894589601,262.1285674197,257.3794725659,257.3651527482,257.3700876621,257.37627173,241.6079374978,241.58128652218,241.58481433341,241.60650536739,262.1285674197,262.12406316315,262.12406316315,222.312017074,222.312017074,403.34339411576,403.32779823564,0
0.000213,72385053.18278,6.2625848891731e-05,1.0196394303325,2.0944654218439e-09,-2.0844737323106e-09,2.0968822181724e-09,2.1038322774814e-09,3.0541140549247e-38,-3.0508454675203e-38,-3.0637058679792e-38,3.0742987297519e-38,-49.379696681468,50.715142974718,-50.08311718507,49.782343161295,-2.1056328455955e-09,3.1109383613581e-38,3.1029180784285e-38,-3.0757517650642e-38,-3.1068051607972e-38,4.2711279991706e-25,-4.2846297938096e-25,-4.2962172189379e-25,4.2915546027661e-25,-1.5182455674445,1.5440143299067,-2.1017533013001e-09,-1.5358373466191,1.5321690277373,2.8118054267069e-57,-2.7770677204831e-57,-2.8061552209998e-57,2.852023173732e-57,-1.5167032604363,1.5495526548029,-1.535552836072,1.5267446903466,-4.7763994635222e-180,3.0056440283118e-57,2.9755199708296e-57,-2.9201309018542e-57,-3.0300629486289e-57,4.3054754808668e-25,4.3125293808291e-25,-4.289991284636e-25,-4.2943119875831e-25,2.3183966467141e-179,-9.2687955582425e-179,-1.4263317905451e-179,2.0887026604037e-09,-2.095007578799e-09,222.33596521391,222.33596521391,222.31982120852,222.31982120852,250.72672083593,250.71443156064,250.72013163661,250.72532233407,202.3180651163,202.27809968331,202.28765094176,202.31845863048,222.29898088412,250.73158103266,250.7106210941,250.71527113319,250.72913273474,241.6335292716,241.62267787871,241.62831413692,241.63402324538,205.64068193856,205.61582798043,222.29898088412,205.62507096302,205.64285129569,257.43148803294,257.42027300841,257.42578118484,257.42856368235,205.65250469999,205.60671767449,205.61324835564,205.65197069212,262.18752813181,257.43343416104,257.41874512426,257.42383500098,257.43009160905,241.64274181205,241.61547302122,241.61910087701,241.64122786659,262.18752813181,262.18285979548,262.18285979548,222.3151247654,222.3151247654,403.19791413574,403.18137337798,0
0.0002135,72666473.930383,6.2774203219702e-05,1.0197206801667,2.0401426324637e-09,-2.0299828709169e-09,2.0422248152008e-09,2.0493120867281e-09,3.0219439693124e-38,-3.0176015459042e-38,-3.0307358708607e-38,3.0424025461362e-38,-49.378255282838,50.748503735144,-50.100992553166,49.793723404835,-2.0507182799078e-09,3.0808138841885e-38,3.0727040048054e-38,-3.0442489840571e-38,-3.0768978117943e-38,4.1545391197215e-25,-4.1672858300916e-25,-4.1792270909649e-25,4.1749722046565e-25,-1.507802902744,1.5340685741075,-2.0467941665416e-09,-1.5259371011113,1.5222282864225,2.939640927507e-57,-2.900786667661e-57,-2.9315664869158e-57,2.9826666409248e-57,-1.5064529520505,1.539680546071,-1.525394020409,1.5167126735027,-4.3618422449772e-179,3.1500621003765e-57,3.1196024351864e-57,-3.0587012900792e-57,-3.179614665833e-57,4.1897781875086e-25,4.1959945635707e-25,-4.1729928902739e-25,-4.1783147435963e-25,1.8456303936373e-178,-7.7133126696277e-178,-1.3257661134074e-178,2.03389665036e-09,-2.0402163043819e-09,222.33992535641,222.33992535641,222.32338538343,222.32338538343,250.77316545534,250.76055932752,250.76640087503,250.77165269419,202.27007046212,202.22906093461,202.23885511211,202.27035011445,222.30211613332,250.7781210767,250.75665920694,250.76144530032,250.77555311823,241.66842550076,241.65730019076,241.66304923371,241.66884632302,205.60354509807,205.5780411715,222.30211613332,205.58748027451,205.60563926686,257.48556890615,257.47405192178,257.47971986965,257.48250111975,205.61562451248,205.56869781184,205.57540301895,205.61499445871,262.24661173174,257.4875530213,257.47248826972,257.47773586649,257.48406498849,241.67782089809,241.64992443455,241.65365379342,241.67622255232,262.24661173174,262.24177571673,262.24177571673,222.31865417127,222.31865417127,403.05262584411,403.03509290079,0
0.000214,72949852.087891,6.2922572110663e-05,1.019802328653,1.9876037390025e-09,-1.977280425963e-09,1.9893532769038e-09,1.9965704727794e-09,2.9950128182992e-38,-2.9895388727715e-38,-3.0029333596926e-38,3.0157443313399e-38,-49.376301595319,50.7819399735,-50.118853568609,49.804610251346,-1.9975946384246e-09,3.0560174304891e-38,3.0478972158349e-38,-3.0180305134493e-38,-3.0523529542256e-38,4.0444191995929e-25,-4.0563888232836e-25,-4.0686770918782e-25,4.0648531187169e-25,-1.497405576756,1.5241735790577,-1.9936240605528e-09,-1.5160957789109,1.512338039281,3.0823790679268e-57,-3.0389201625483e-57,-3.0714859989421e-57,3.1285000556447e-57,-1.4962588828332,1.5298585888314,-1.5152849918641,1.5067321535302,-3.9049004091774e-178,3.3110375168813e-57,3.2805223650557e-57,-3.2132960536456e-57,-3.3465599211985e-57,4.080548204373e-25,4.0859706617958e-25,-4.0624692337214e-25,-4.0687863572136e-25,1.422062267718e-177,-6.1201040544708e-177,-1.2127576295419e-177,1.98088438921e-09,-1.9872079630338e-09,222.3443115612,222.3443115612,222.32736767651,222.32736767651,250.81981425457,250.80688569868,250.81287010856,250.81818313736,202.22258556825,202.18051105023,202.19055084531,202.22274501816,222.30566459405,250.82486627645,250.80289423515,250.80781850372,250.82217529134,241.70359372623,241.69218972424,241.69805161942,241.70393744332,205.56692171275,205.54075498543,222.30566459405,205.55039064264,205.56893447715,257.5398059482,257.52798153851,257.5338116941,257.53659068256,205.57926102043,205.53117359558,205.53805562204,205.57853061209,262.30581756278,257.5418284337,257.5263814493,257.53178949592,257.53819117042,241.71317389971,241.68463981318,241.68847211396,241.71148857269,262.30581756278,262.30081029405,262.30081029405,222.32260463206,222.32260463206,402.90754749605,402.8889733093,0
0.0002145,73235167.380607,6.3070955178644e-05,1.0198843674823,1.9368013491977e-09,-1.9263189999358e-09,1.9382203725137e-09,1.9455601665954e-09,2.9732563563508e-38,-2.9665887434923e-38,-2.9802271206549e-38,2.994257229522e-38,-49.37382937483,50.815448191353,-50.136703702842,49.814979301613,-1.946215248131e-09,3.036488976004e-38,3.0284481642336e-38,-2.9970325469516e-38,-3.0331121406266e-38,3.9405031059638e-25,-3.9516734468917e-25,-3.964301964909e-25,3.9609314525079e-25,-1.4870558239692,1.5143316829977,-1.9421958924956e-09,-1.5063156984411,1.5025001830561,3.241557093554e-57,-3.192938352389e-57,-3.2273824113518e-57,3.2910973040637e-57,-1.4861235333994,1.5200890478628,-1.5052281597211,1.496805257857,-3.4938509198098e-177,3.4902752479682e-57,3.4600738583932e-57,-3.3855622686156e-57,-3.5327384151764e-57,3.9775211472457e-25,3.9821957214538e-25,-3.958155380741e-25,-3.9654616318331e-25,1.0643830319874e-176,-4.5469680233073e-176,-1.112026700135e-176,1.9296186347995e-09,-1.9359352816963e-09,222.3491231607,222.3491231607,222.33176730903,222.33176730903,250.86666639147,250.85340981222,250.85953844096,250.86491282721,202.17561087598,202.1324501691,202.14273824185,202.17564373525,222.3096254206,250.8718158032,250.84932529472,250.85438983305,250.8689984391,241.73903302157,241.72734552731,241.73332030566,241.73929567111,205.53081203708,205.50396951121,222.3096254206,205.51380208688,205.5327371161,257.59419841169,257.58206110451,257.58805587177,257.59083163982,205.54341451302,205.4941450323,205.50120614865,205.54257942509,262.36514494319,257.59625965616,257.58042390019,257.58599509722,257.59246943222,241.7487999163,241.71961816194,241.72355482336,241.74702503475,262.36514494319,262.35996287305,262.35996287305,222.32697541506,222.32697541506,402.76269786923,402.74303158886,0
0.000215,73522398.140147,6.3219352029428e-05,1.0199667880351,1.8876889234645e-09,-1.8770520267732e-09,1.8887797111868e-09,1.8962347756508e-09,2.9566326702665e-38,-2.948704227599e-38,-2.9625673119736e-38,2.9778961273822e-38,-49.370833107337,50.849025576675,-50.154546833153,49.824806340904,-1.8965342497604e-09,3.0221906820403e-38,3.0143310684324e-38,-2.9812132816372e-38,-3.0191390848984e-38,3.842540801267e-25,-3.8528893758932e-25,-3.8658514898611e-25,3.8629562155196e-25,-1.4767558955778,1.5045452464435,-1.8924633956294e-09,-1.4965991870441,1.4927166308864,3.4189428289768e-57,-3.3645313936495e-57,-3.4009411353319e-57,3.4722679173999e-57,-1.4760494011769,1.5103742048796,-1.4952259456926,1.4869341381931,-3.2372400903396e-176,3.6897252867065e-57,3.6603199792746e-57,-3.5773861528518e-57,-3.7402580955161e-57,3.8804476986706e-25,3.8844230240095e-25,-3.8598014307209e-25,-3.8680902735418e-25,7.8128308351786e-176,-2.9852636663314e-175,-1.0555463346731e-175,1.8800529594343e-09,-1.88635181977e-09,222.35435942028,222.35435942028,222.33658343625,222.33658343625,250.91372098811,250.90013077174,250.90640494225,250.91184089748,202.12914673752,202.08487833715,202.09541731129,202.12904658041,222.3139976949,250.91896879382,250.89595146737,250.90115834275,250.91602171636,241.77474241397,241.76276660245,241.76885426115,241.77492003142,205.49521623619,205.46768474709,222.3139976949,205.47771454016,205.49704729408,257.64874552048,257.63628983895,257.64245158845,257.64522323679,205.50808519306,205.45761203775,205.46485449244,205.50714109094,262.42459316716,257.6508459184,257.63461483291,257.64035184986,257.64689902739,241.78469800355,241.75485844026,241.75890086057,241.78283100525,262.42459316716,262.4192327786,262.4192327786,222.33176571466,222.33176571466,402.61809619304,402.597285133,0
0.0002155,73811521.42254,6.3367762261454e-05,1.0200495814201,1.8402207903601e-09,-1.8294337881248e-09,1.8409857566474e-09,1.848548799351e-09,2.9451233453228e-38,-2.9358612515657e-38,-2.9499264938566e-38,2.9666386943532e-38,-49.367308067895,50.882670040254,-50.172387194676,49.834067373888,-1.8485066099871e-09,3.0131079618893e-38,3.0055452415367e-38,-2.9705540357831e-38,-3.0104207238146e-38,3.750297125302e-25,-3.7598010476055e-25,-3.7730902583636e-25,3.7706910737193e-25,-1.4665080533224,1.4948166454998,-1.8443811425912e-09,-1.4869485740195,1.4829893058835,3.6165738927836e-57,-3.5556466428608e-57,-3.594100209861e-57,3.6740967630195e-57,-1.4660389950444,1.500716351153,-1.4852807755581,1.4771209649158,-3.2654101705291e-175,3.9116219529763e-57,3.8836385375349e-57,-3.7909323052773e-57,-3.9715389222773e-57,3.789093373433e-25,3.7924208759579e-25,-3.7671722929887e-25,-3.776436642981e-25,5.7575359947364e-175,-1.3414289739056e-174,-1.0834252897748e-174,1.8321417668926e-09,-1.8384119828902e-09,222.36001953879,222.36001953879,222.3418151482,222.3418151482,250.96097713167,250.94704764731,250.95346864977,250.95896645291,202.08319341578,202.0377955072,202.04858797253,202.08295378946,222.31878042724,250.96632435175,250.94277180146,250.94812305305,250.9632442487,241.8107208851,241.79845190728,241.8046524128,241.81080951044,205.46013438567,205.43190060049,222.31878042724,205.44212784923,205.46186504254,257.70344647057,257.69066693518,257.69699800314,257.69976469594,205.4732731768,205.4215744369,205.42900045726,205.47221572322,262.48416150579,257.70558642282,257.68895343226,257.69485890599,257.70147918647,241.82086717424,241.79035956317,241.79450911987,241.81890551146,262.48416150579,262.47861931578,262.47861931578,222.33697465282,222.33697465282,402.47376208036,402.45175167399,0
0.000216,74102513.13333,6.3516185466688e-05,1.0201327385138,1.7943521607729e-09,-1.7834194281516e-09,1.794793842563e-09,1.8024576450113e-09,2.938734884202e-38,-2.9280599562894e-38,-2.942300879193e-38,2.9604866617373e-38,-49.363250314263,50.916380234461,-50.190229284175,49.842738580018,-1.8020881350311e-09,3.0092507766602e-38,3.0021167018827e-38,-2.9650606228456e-38,-3.0069685134692e-38,3.6635516040235e-25,-3.672187470425e-25,-3.6857974729395e-25,3.6839141361878e-25,-1.4563145624082,1.4851482644175,-1.7979045624113e-09,-1.4773661823405,1.4733201335738,3.8368050579153e-57,-3.7685335935552e-57,-3.8090933374517e-57,3.8989918255599e-57,-1.4560948273894,1.4911177798273,-1.475395069697,1.4673679178767,-3.730916082111e-174,4.1585307698382e-57,4.1327773292507e-57,-4.0286908372555e-57,-4.2293652290311e-57,3.7032383139737e-25,3.705972433885e-25,-3.6800474983244e-25,-3.6902795335406e-25,4.4801205005038e-174,5.7648619725929e-174,-1.2443875707458e-173,1.7858403090199e-09,-1.7920710398954e-09,222.36610264925,222.36610264925,222.34746147069,222.34746147069,251.00843387548,250.99415947646,251.00072856938,251.0062885704,202.03775108424,201.99120153912,202.00225005435,202.03736551969,222.32397255728,251.01388154793,250.98978531308,250.99528295119,251.01066513337,241.84696737202,241.83440035557,241.84071364683,241.84696305658,205.42556647155,205.39661688818,222.32397255728,205.40704177529,205.4271903145,257.75830043115,257.74519156172,257.75169424927,257.75445521792,205.43897849404,205.38603196435,205.39364375779,205.43780335621,262.54384920818,257.76048034563,257.7434388583,257.74951539152,257.75620911806,241.85730639921,241.82612040236,241.83037845203,241.85524754212,262.54384920818,262.53812177088,262.53812177088,222.34260127979,222.34260127979,402.32971545536,402.30644920931,0
0.0002165,74395348.156238,6.3664621231477e-05,1.0202162499988,1.7500391492882e-09,-1.7389649734826e-09,1.7501601912801e-09,1.7579176501695e-09,2.9375004316409e-38,-2.925326328439e-38,-2.939711876494e-38,2.9594673520985e-38,-49.358656762694,50.950155650559,-50.208077841829,49.850796425453,-1.757235489061e-09,3.0106551863008e-38,3.0041001124725e-38,-2.9647650174681e-38,-3.0088199994305e-38,3.5820983074737e-25,-3.5898420621577e-25,-3.6037667977104e-25,3.6024177670755e-25,-1.4461776866415,1.4755424912519,-1.7529899614544e-09,-1.467854323207,1.4637110383326,4.0823656760921e-57,-4.0057982379201e-57,-4.0485017897218e-57,4.1497418507398e-57,-1.4462194091619,1.4815807805129,-1.4655712363473,1.4576771829197,-4.8037171025789e-173,4.4334045422495e-57,4.4109210979721e-57,-4.2935342193624e-57,-4.5169485808711e-57,3.6226771192937e-25,3.6248755705943e-25,-3.598221049043e-25,-3.60941198886e-25,3.9820403558875e-173,3.0639138161445e-172,-1.5946692620624e-172,1.7411047098322e-09,-1.7472851427994e-09,222.3726078198,222.3726078198,222.35352136658,222.35352136658,251.05609023999,251.04146526515,251.04818367672,251.05380630005,201.99281982726,201.94509620029,201.95640329646,201.99228185059,222.32957295524,251.06163942186,251.03699098719,251.0426369927,251.05828344043,241.88348076826,241.8706108183,241.87703681021,241.88337958173,205.3915123907,205.3618333367,222.32957295524,205.37245599506,205.39302298536,257.81330654564,257.7998628633,257.80653943581,257.80929398263,205.40520108843,205.35098426496,205.3587840205,205.40390394544,262.60365550251,257.81552683776,257.79807024745,257.80432040733,257.81108800979,241.89401460845,241.86213978739,241.86650766567,241.8918560486,262.60365550251,262.59773941237,262.59773941237,222.34864457495,222.34864457495,402.18597649068,402.1613959377,0
0.000217,74690000.4845,6.3813069137419e-05,1.0203001064036,1.7072387916013e-09,-1.6960273513118e-09,1.7070419336589e-09,1.7148861009842e-09,2.9414818384615e-38,-2.9277141762953e-38,-2.942207931768e-38,2.9636355363917e-38,-49.353525137961,50.983996608459,-50.225937744109,49.858217600554,-1.7139062120381e-09,3.0173852240886e-38,3.0115811060004e-38,-2.9697273797944e-38,-3.0160406922061e-38,3.5057457333709e-25,-3.5125725267296e-25,-3.5268062332381e-25,3.526008442532e-25,-1.4360996806914,1.4660017093695,-1.7095945439144e-09,-1.4584152888742,1.4541639355157,4.3564296096232e-57,-4.2704692300001e-57,-4.3153171611946e-57,4.4295862739203e-57,-1.4364152419403,1.4721076315837,-1.4558116625467,1.4480509427985,-6.6564714074285e-172,4.7396508750684e-57,4.721773080212e-57,-4.5887862536681e-57,-4.8380035355402e-57,3.5472187116936e-25,3.5489427822152e-25,-3.5215013133172e-25,-3.5336411478137e-25,4.2811439866985e-172,6.5100622670079e-171,-2.1939016017775e-171,1.6978919838636e-09,-1.70401134593e-09,222.37953405475,222.37953405475,222.35999373727,222.35999373727,251.10394521403,251.08896398906,251.09583291862,251.10151866643,201.94839964046,201.89947916629,201.91104735066,201.94770278474,222.33558042339,251.10959698282,251.08438777882,251.09018410276,251.10609821384,241.92025992502,241.90708212481,241.91362071206,241.92005796261,205.35797195131,205.32754958307,222.33558042339,205.33837010204,205.35936285401,257.86846393286,257.85467996198,257.86153264867,257.86428015039,205.37194081808,205.31643089475,205.32442078492,205.37051736852,262.66357959725,257.87072502615,257.85284671362,257.85927303061,257.8661150295,241.93099069223,241.89841650708,241.90289552876,241.92872994601,262.66357959725,262.657471492,262.657471492,222.35510344792,222.35510344792,402.04256553788,402.01661018853,0
0.0002175,74986443.351619,6.396152876221e-05,1.0203842981393,1.6659090666515e-09,-1.6545644098255e-09,1.6653971282839e-09,1.6733212545088e-09,2.9507721428309e-38,-2.935307500479e-38,-2.9498667575065e-38,2.973075644197e-38,-49.347854006082,51.017904286703,-50.243813884783,49.864979073707,-1.6720587395799e-09,3.0295351265179e-38,3.0246790430115e-38,-2.9800384797482e-38,-3.0287263184186e-38,3.4343167457309e-25,-3.4402007763278e-25,-3.4547380453521e-25,3.4545066385469e-25,-1.42608278515,1.4565282920388,-1.667676433237e-09,-1.4490513452147,1.4446807266868,4.6627008070886e-57,-4.5660786986903e-57,-4.6130176778523e-57,4.7423003444429e-57,-1.4266848121215,1.462700593107,-1.4461187060098,1.4384913722364,-9.4368554447002e-171,5.0812136456401e-57,5.0696546504488e-57,-4.9183060274032e-57,-5.1968393871155e-57,3.4766862452063e-25,3.4780011370095e-25,-3.4497109631062e-25,-3.4627881342897e-25,5.4132327640264e-171,1.136498816154e-169,-3.0968416510775e-170,1.6561600610312e-09,-1.6622076283173e-09,222.38688029589,222.38688029589,222.36687742429,222.36687742429,251.15199775595,251.13665459467,251.14367521452,251.14942466991,201.90449043147,201.85435002181,201.86618178244,201.90362824903,222.3419936976,251.157753211,251.13197461438,251.13792317768,251.15410847272,241.95730365234,241.94381306411,241.95046412526,241.95699704218,205.32494487367,205.29376517563,222.3419936976,205.30478360809,205.32620964409,257.92377168816,257.90964195826,257.91667295194,257.91941286306,205.33919745639,205.28237132211,205.29055350514,205.33764342617,262.72362068232,257.92607401482,257.90776734937,257.91437231612,257.92128932631,241.9682335024,241.93494931086,241.93954077013,241.96586811455,262.72362068232,262.71731724588,262.71731724588,222.36197673972,222.36197673972,401.89950306447,401.87211035738,0
0.000218,75284649.359688,6.4109999680462e-05,1.0204688155366,1.6260089194393e-09,-1.6145349411704e-09,1.6251847851078e-09,1.6331823635065e-09,2.9654985432329e-38,-2.9482233430841e-38,-2.9627980082607e-38,2.9879044006189e-38,-49.341642773279,51.051880841849,-50.261711129404,49.871058142849,-1.6316524260251e-09,3.0472319850479e-38,3.0435503204211e-38,-2.995822630219e-38,-3.0470055176219e-38,3.3676485653767e-25,-3.3725629048477e-25,-3.3873987492644e-25,3.3877467687613e-25,-1.4161292212434,1.4471245983788,-1.62719469904e-09,-1.4397647277271,1.4352632957212,5.0055185513749e-57,-4.8967615178876e-57,-4.9456613663086e-57,5.0922991439906e-57,-1.4170305855152,1.4533619037299,-1.4364946892682,1.4290006328801,-1.3227897525772e-169,5.462671796683e-57,5.4596279426942e-57,-5.2865908390848e-57,-5.5984718270036e-57,3.4109170599066e-25,3.4118922856217e-25,-3.3826869793489e-25,-3.3966879994185e-25,7.4159462261505e-170,1.8076026410309e-168,-4.3409270351006e-169,1.6158678117395e-09,-1.6218329169691e-09,222.39464542382,222.39464542382,222.37417121114,222.37417121114,251.20024679483,251.18453600057,251.19170945799,251.19752328788,201.86109202085,201.80970826189,201.82180607284,201.86005809603,222.34881144916,251.20610705877,251.17975039296,251.18585308638,251.20231321253,241.99461072049,241.98080238622,241.9875657881,241.99419563116,205.29243079117,205.26047957522,222.34881144916,205.27169594529,205.29356300559,257.97922888464,257.96474793223,257.9719593893,257.97469124526,205.30697069303,205.24880492912,205.25718155166,205.30528184347,262.78377793028,257.98157288608,257.9628312271,257.96961729762,257.97661003182,242.00574185369,241.97173691036,241.97644208116,242.00326940078,262.78377793028,262.77727589554,262.77727589554,222.36926322417,222.36926322417,401.75680959743,401.72791484881,0
0.0002185,75584590.603549,6.4258481464526e-05,1.0205536488788,1.5874982824413e-09,-1.5758987009213e-09,1.5863648847052e-09,1.5944296975209e-09,2.9858259340382e-38,-2.9666151911819e-38,-2.9811464714916e-38,3.0082739777679e-38,-49.334891619051,51.085929330325,-50.279634103231,49.876432454734,-1.5926475632535e-09,3.0706388997743e-38,3.0683922880164e-38,-3.0172411833814e-38,-3.0710430397887e-38,3.305592810476e-25,-3.3095092112397e-25,-3.3246391382686e-25,3.3255771699954e-25,-1.4062411839873,1.4377929654005,-1.5881093777842e-09,-1.4305576332313,1.425913503709,5.3899874065457e-57,-5.2673777796828e-57,-5.3180003795548e-57,5.4847654119541e-57,-1.4074550003651,1.4440937717306,-1.4269418900264,1.4195808679126,-1.8003062503743e-168,5.8893597670518e-57,5.8976472346329e-57,-5.6989028819945e-57,-6.048759378556e-57,3.3497626836157e-25,3.3504725168886e-25,-3.3202807031967e-25,-3.3351897023395e-25,1.0297406657198e-168,2.699287590258e-167,-5.9312336287003e-168,1.576975069593e-09,-1.5828471078622e-09,222.40282825953,222.40282825953,222.38187382524,222.38187382524,251.24869123187,251.23260709868,251.23993451831,251.24581347621,201.81820414312,201.76555329319,201.77791962051,201.8169921056,222.35603228668,251.254657452,251.22771398773,251.23397267199,251.25071140637,242.03217986135,242.01804880351,242.02492440605,242.03165250961,205.2604292514,205.22769215639,222.35603228668,205.23910646801,205.26142251655,258.03483457437,258.01999694477,258.02739098541,258.03011440555,205.27526013511,205.21573101321,205.22430421336,205.27343227131,262.84405049765,258.03722070179,258.01803740025,258.02500698924,258.03207626125,242.04351452511,242.00877798092,242.01359811757,242.04093261912,262.84405049765,262.83734664907,262.83734664907,222.37696160939,222.37696160939,401.61450566171,401.58404201332,0
0.000219,75886238.7884,6.4406973685265e-05,1.0206387884337,1.550338099485e-09,-1.5386164308234e-09,1.5488984015616e-09,1.5570245680764e-09,3.0119611518167e-38,-2.9906770515837e-38,-3.0050959075348e-38,3.0343757226033e-38,-49.327601475827,51.120053843797,-50.297587151715,49.881080059061,-1.5550054060794e-09,3.0999587379335e-38,3.0994479338854e-38,-3.0444967419174e-38,-3.101043571169e-38,3.2480156151107e-25,-3.2509042908514e-25,-3.2663243949012e-25,3.2678601402793e-25,-1.396420838162,1.4285357055653,-1.5503815001474e-09,-1.4214322173075,1.4166331858295,5.8221387348412e-57,-5.6836647588645e-57,-5.7356220585882e-57,5.9258071271568e-57,-1.3979604621914,1.4348983730746,-1.4174625372483,1.4102341978429,-2.3588321083515e-167,6.3675149868301e-57,6.3907470837617e-57,-6.1614262562034e-57,-6.554571085972e-57,3.2930889024449e-25,3.2936128960365e-25,-3.262357971138e-25,-3.2781561618034e-25,1.3997212622694e-167,3.8251982228078e-166,-7.8263776903406e-167,1.5394426581956e-09,-1.5452110904311e-09,222.41142756595,222.41142756595,222.38998393997,222.38998393997,251.29732994157,251.28086675557,251.28834924203,251.29429417056,201.77582644808,201.72188443555,201.73452174409,201.77442998657,222.3636547582,251.30340329129,251.27586424729,251.28228075342,251.29930200627,242.07000976978,242.0555509922,242.06253865352,242.06936642854,205.22893971749,205.19540220887,222.3636547582,205.20701445514,205.22978768487,258.0905877896,258.07538803867,258.08296674736,258.08568143764,205.24406530858,205.18314878882,205.19192069984,205.24209428788,262.90443752603,258.09301650453,258.07338490452,258.08054038692,258.0876871146,242.08155026134,242.04607116323,242.05100750114,242.07885655316,262.90443752603,262.89752870215,262.89752870215,222.38507053931,222.38507053931,401.47261173149,401.44051009838,0
0.0002195,76189565.339478,6.4555475912817e-05,1.0207242244815,1.5144903488232e-09,-1.5026498794491e-09,1.5127473248686e-09,1.5209293521012e-09,3.044158024217e-38,-3.0206483279134e-38,-3.0348736351512e-38,3.0664446212897e-38,-49.319773969806,51.154259486046,-50.315574154186,49.884979481051,-1.5186881928865e-09,3.1354385992179e-38,3.1370114532325e-38,-3.077838207196e-38,-3.1372562859871e-38,3.1947978155874e-25,-3.1966271985987e-25,-3.2123342695302e-25,3.2144720492263e-25,-1.3866703132541,1.4193551012314,-1.5139731149748e-09,-1.4123905884981,1.4074241487867,6.3091321633461e-57,-6.1524264648744e-57,-6.2051239201867e-57,6.4226530275333e-57,-1.388549338573,1.425777845672,-1.4080588038827,1.400962717504,-2.9646024992359e-166,6.9044595099264e-57,6.9472772297841e-57,-6.681462665764e-57,-7.1239937002289e-57,3.2407758941081e-25,3.2411994688204e-25,-3.2087993271442e-25,-3.2254643665453e-25,1.8351696414567e-166,5.1664359089639e-165,-9.9300626136401e-166,1.5032324157456e-09,-1.508886770064e-09,222.42044204965,222.42044204965,222.39850017685,222.39850017685,251.34616177315,251.32931381374,251.33695245461,251.34296428774,201.7339585022,201.67870092364,201.69161168463,201.73237137859,222.37167735328,251.35234345334,251.32419999705,251.33077612698,251.34808394441,242.10809910516,242.09330759375,242.1004071757,242.10733611151,205.19796156954,205.16360893914,222.37167735328,205.17541911258,205.1986579504,258.14648754398,258.1309202398,258.13868566603,258.14139142153,205.21338565963,205.15105738939,205.16003014373,205.21126740035,262.96493814341,258.14895931887,258.12887275904,258.13621646983,258.14344167777,242.11984777425,242.08361506502,242.08866882166,242.11703995717,262.96493814341,262.9578212391,262.9578212391,222.39358859544,222.39358859544,401.3311481812,401.29733719755,0
0.00022,76494541.501639,6.4703987717324e-05,1.0208099473399,1.4799180641247e-09,-1.4679618231608e-09,1.4778746793315e-09,1.4861075140481e-09,3.0827234160959e-38,-3.0568196607543e-38,-3.0707560285462e-38,3.1047645989911e-38,-49.311411309983,51.188552394455,-50.333598396497,49.888109760407,-1.4836591685615e-09,3.1773751240209e-38,3.1814349096399e-38,-3.1175668436055e-38,-3.1799802935456e-38,3.14583522443e-25,-3.146571693735e-25,-3.1625633464836e-25,3.1653035159591e-25,-1.3769916981546,1.4102534002138,-1.4788473134273e-09,-1.4034348051338,1.3982881680469,6.8595085376351e-57,-6.681771490656e-57,-6.734332018178e-57,6.9838961689308e-57,-1.3792239532403,1.4167342852658,-1.3987328018757,1.3917684918436,-3.5692898440074e-165,7.5088248606031e-57,7.5771977471003e-57,-7.2676769616754e-57,-7.7665891828373e-57,3.1927184358726e-25,3.1931335633741e-25,-3.1595003279577e-25,-3.1770055715893e-25,2.3076846689473e-165,6.6640787209776e-164,-1.2092781432912e-164,1.4683072182794e-09,-1.4738370896594e-09,222.42987036256,222.42987036256,222.40742110767,222.40742110767,251.39518555182,251.37794709288,251.38574296197,251.39182272708,201.69259979011,201.6360019087,201.64918860834,201.690815854,222.38009850526,251.40147679226,251.37272004065,251.37945756802,251.39705613439,242.14644649281,242.13131721642,242.1385285904,242.14556025627,205.16749410623,205.13231147209,222.38009850526,205.14431957574,205.16803268685,258.20253283383,258.18659255826,258.19454671753,258.19724342467,205.1832205563,205.11945586927,205.12863160332,205.18095104658,263.02555146534,258.20504815257,258.18449996752,258.19203420176,258.19933902367,242.1584057443,242.12140826268,242.12658063869,242.15548155752,263.02555146534,263.0182234339,263.0182234339,222.40251429855,222.40251429855,401.19013524025,401.15454120575,0
0.0002205,76801138.428035,6.4852508669625e-05,1.020895947385,1.4465853591263e-09,-1.4345160867576e-09,1.4442445469688e-09,1.4525236321061e-09,3.1280244678009e-38,-3.0995399359535e-38,-3.1130751282556e-38,3.1496748463192e-38,-49.302516231226,51.222939814581,-50.351662484551,49.890450608078,-1.4498826071948e-09,3.2261208441884e-38,3.2331361841388e-38,-3.1640435796436e-38,-3.2295711334075e-38,3.1010390130599e-25,-3.1006465856135e-25,-3.116921423396e-25,3.1202596779078e-25,-1.3673870379423,1.4012328139669,-1.4449682559197e-09,-1.3945668738517,1.3892269889479,7.4835091123897e-57,-7.2814132439377e-57,-7.3325751851279e-57,7.6197990593684e-57,-1.369986582611,1.407769744336,-1.3894865792578,1.38265355607,-4.1156423884733e-164,8.1908322339786e-57,8.2924518388424e-57,-7.9304072510227e-57,-8.4937166109105e-57,3.148826214157e-25,3.1493321900167e-25,-3.1143719629672e-25,-3.1326855759657e-25,2.7779692744406e-164,8.2188443589685e-163,-1.412616186433e-163,1.4346310064997e-09,-1.4400260526038e-09,222.43971110373,222.43971110373,222.4167452567,222.4167452567,251.4444000801,251.42676539111,251.43471955212,251.44086837166,201.65174971627,201.59378646043,201.6072516093,201.64976291979,222.38891659349,251.45080214082,251.42142316123,251.42832383249,251.4462174724,242.1850505255,242.16957843665,242.17690148989,242.18403753632,205.13753654641,205.1015088528,222.38891659349,205.11371491218,205.137911204,258.25872263926,258.24240398939,258.25054886457,258.253236503,205.15356929014,205.08834320589,205.09772406516,205.15114459688,263.08627659609,258.26128199775,258.24026551939,258.24799253252,258.25537821327,242.19722282203,242.15944930291,242.1647414835,242.19418005408,263.08627659609,263.07873445113,263.07873445113,222.41184611052,222.41184611052,401.04959296015,401.01213978477,0
0.000221,77109327.256722,6.5001038341925e-05,1.020982215069,1.414457447097e-09,-1.4022775615362e-09,1.411822083377e-09,1.4201434160965e-09,3.180497262655e-38,-3.1492247009739e-38,-3.1622265717203e-38,3.2015773662881e-38,-49.293091835683,51.257430051823,-50.369768130187,49.891982416056,-1.4173238327429e-09,3.2820917570803e-38,3.2926085137235e-38,-3.2176977964379e-38,-3.2864485722166e-38,3.0603361983565e-25,-3.0587761843081e-25,-3.0753339895663e-25,3.079260547635e-25,-1.3578583289696,1.392295512642,-1.4123011932693e-09,-1.3857887451577,1.3802423232515,8.1934806992468e-57,-7.9630513135283e-57,-8.0110316670457e-57,8.3426780176792e-57,-1.3608394497709,1.3988862273109,-1.3803221146553,1.3736199121,-4.5462246230649e-163,8.9626436988138e-57,9.1074397824939e-57,-8.6820593012448e-57,-9.318937349224e-57,3.1090242279495e-25,3.1097285653725e-25,-3.0733411880853e-25,-3.0924251078695e-25,3.2001599245164e-163,9.6999903876186e-162,-1.5828928304364e-162,1.402168806534e-09,-1.4074187419867e-09,222.44996282106,222.44996282106,222.42647110289,222.42647110289,251.49380413917,251.47576748626,251.48388099667,251.49010008958,201.61140760665,201.55205356883,201.56579971225,201.60921201938,222.3981299457,251.50031831179,251.47030812285,251.47737365856,251.49556683841,242.223909765,242.20808980059,242.21552444266,242.22276660248,205.10808803095,205.07120004834,222.3981299457,205.08360412428,205.1082927496,258.31505592543,258.29835351489,258.30669105783,258.30936970202,205.12443107795,205.05771830184,205.0673064468,205.12184735569,263.14711262985,258.31765983211,258.2961683909,258.30409039932,258.31155829655,242.23629762951,242.19773670443,242.20314986091,242.23313412159,263.14711262985,263.13935344686,263.13935344686,222.42158243616,222.42158243616,400.90954117561,400.8701503243,0
0.0002215,77419079.174303,6.5149576308427e-05,1.021068740934,1.3835006624543e-09,-1.3712122240083e-09,1.38057353831e-09,1.3889337315573e-09,3.2406572439018e-38,-3.2063663064149e-38,-3.2186791772901e-38,3.2609460149775e-38,-49.283141463088,51.292032507103,-50.387916068748,49.892686393766,-1.3859492397122e-09,3.3457764089876e-38,3.3604319306205e-38,-3.2790379668298e-38,-3.3511059456322e-38,3.0236702730898e-25,-3.0209008864754e-25,-3.0377428594813e-25,3.0422414931491e-25,-1.3484075152637,1.3834436234577,-1.3808124915561e-09,-1.3771023139421,1.3713358508589,9.0043928940223e-57,-8.7408590727898e-57,-8.7831704457625e-57,9.167390148182e-57,-1.3517847208645,1.3900856897134,-1.371241315345,1.3646695285461,-4.8134032771308e-162,9.8388054243287e-57,1.0039625023355e-56,-9.5376119654417e-57,-1.0258528246344e-56,3.0732533207807e-25,3.074272769329e-25,-3.0363516162145e-25,-3.0561603226626e-25,3.5287145983788e-162,1.0963085908385e-160,-1.7019629325008e-161,1.3708867541535e-09,-1.3759813408818e-09,222.46062401308,222.46062401308,222.43659708198,222.43659708198,251.54339649009,251.52495213704,251.53322605235,251.5395167351,201.57157271054,201.5108021462,201.52483187553,201.56916253455,222.40773684018,251.55002409916,251.51937367168,251.52660576814,251.54510309721,242.26302274352,242.24684982555,242.2543959952,242.26174608429,205.07914762451,205.04138394965,222.40773684018,205.05398615188,205.07917651149,258.37153164368,258.35444010378,258.36297223721,258.36564205771,205.0958050635,205.02757998704,205.03737759952,205.09305856335,263.20805865179,258.37418062002,258.35220754611,258.36032672807,258.36787831347,242.27562876179,242.23626895951,242.24180425108,242.27234241097,263.20805865179,263.2000795695,263.2000795695,222.43172162508,222.43172162508,400.76999947954,400.72858991717,0
0.000222,77730365.466231,6.5298122145924e-05,1.0211555156217,1.3536824809961e-09,-1.3412871536496e-09,1.3504662722341e-09,1.3588626207693e-09,3.3091117500492e-38,-3.2715461496717e-38,-3.2829865137032e-38,3.3283373366267e-38,-49.272668576109,51.326757704578,-50.406105966022,49.892544718455,-1.3557263145207e-09,3.4177467967127e-38,3.4372870421932e-38,-3.348664526886e-38,-3.4241214308903e-38,2.9910019866668e-25,-2.9869779108134e-25,-3.004106955497e-25,3.0091538415884e-25,-1.3390364863097,1.3746792289789,-1.3504696555884e-09,-1.3685094194427,1.362509221731,9.9345024463907e-57,-9.6321113492667e-57,-9.6653171285048e-57,1.0111954000686e-56,-1.3428245017956,1.3813700378142,-1.3622460162708,1.3558043415703,-4.8880964272982e-161,1.083681095553e-56,1.1110314283401e-56,-1.0515269539683e-56,-1.1332136655026e-56,3.0414708476956e-25,3.042932568504e-25,-3.0033643699149e-25,-3.023843446955e-25,3.7263039639778e-161,1.1873449547432e-159,-1.7568544666265e-160,1.3407521164497e-09,-1.3456811518332e-09,222.47169313061,222.47169313061,222.44712158855,222.44712158855,251.59317587509,251.5743180841,251.58275346238,251.58911714969,201.53224420233,201.47003102905,201.48434699383,201.52961378711,222.41773550809,251.59991827935,251.56861853722,251.57601886831,251.59482509939,242.30238796518,242.28585700135,242.29351467361,242.30097459141,205.05071431742,205.01205937342,222.41773550809,205.02485987492,205.05056161943,258.42814873257,258.41066271328,258.41939133307,258.42205259734,205.06769031935,204.99792702097,205.00793631106,205.06477739769,263.26911373915,258.43084331361,258.40838193782,258.41670043459,258.42433729473,242.31521478826,242.27504453557,242.28070311128,242.31180355054,263.26911373915,263.26091196049,263.26091196049,222.44226197359,222.44226197359,400.63098720267,400.58747533801,0
0.0002225,78043157.554147,6.544667543436e-05,1.0212425298801,1.3249715378099e-09,-1.3124705482422e-09,1.3214687716152e-09,1.3298993209907e-09,3.3865751338976e-38,-3.3454494930777e-38,-3.3558009342562e-38,3.4044035841004e-38,-49.261676541092,51.361617233132,-50.424336276526,49.891540601065,-1.3266236538688e-09,3.4986715127856e-38,3.5239716665857e-38,-3.4272855204505e-38,-3.5061716213205e-38,2.9623103032037e-25,-2.9569822037484e-25,-2.9744032756123e-25,2.9799656320566e-25,-1.3297470726937,1.3660043642464,-1.321241349386e-09,-1.3600118446556,1.353764055679,1.1006211876305e-56,-1.0657998072768e-56,-1.0677385327121e-56,1.1198345527123e-56,-1.3339608335187,1.372741126269,-1.3533379777629,1.3470262538226,-4.76496365624e-160,1.1977822423537e-56,1.2345668258178e-56,-1.1637310618416e-56,-1.2563622177455e-56,3.0136515084476e-25,3.0156944236287e-25,-2.9743591284611e-25,-2.9954435686001e-25,3.7706818482645e-160,1.2329869571999e-158,-1.7420746767281e-159,1.311733311755e-09,-1.3164866132449e-09,222.48316857845,222.48316857845,222.45804297794,222.45804297794,251.64314101885,251.62386405123,251.63246195789,251.638900163,201.49342118337,201.42973897999,201.44434390097,201.4905650405,222.42812413567,251.64999961242,251.61804143348,251.62561165282,251.64473168228,242.34200390754,242.32510979176,242.33287898523,242.34045071492,205.02278702759,204.98322506397,222.42812413567,204.99622411592,205.02244714688,258.48490611905,258.46702028975,258.47594726742,258.47860034032,205.0400858486,204.96875809469,204.97898130826,205.03700297556,263.33027696219,258.48764685388,258.46469050851,258.47321042587,258.48093426256,242.35505425402,242.31406187665,242.31984487761,242.35151614722,263.33027696219,263.32184975502,263.32184975502,222.45320172656,222.45320172656,400.49252339288,400.44682302357,0
0.000223,78357427.020095,6.5595235757353e-05,1.0213297745658,1.2973376467251e-09,-1.2847317395607e-09,1.2935506640801e-09,1.3020142848491e-09,3.4738870530237e-38,-3.4288834607566e-38,-3.4378906440909e-38,3.4899084157113e-38,-49.250168478485,51.396623751332,-50.442604197203,49.88965845777,-1.2986109837871e-09,3.5893316281079e-38,3.6214209734192e-38,-3.5157356583769e-38,-3.5980480079411e-38,2.9375935688234e-25,-2.9309075508551e-25,-2.9486280788792e-25,2.9546625423375e-25,-1.3205410435636,1.3574210158672,-1.2930974186171e-09,-1.3516113185544,1.3451019456915,1.2247186278367e-56,-1.1844686679063e-56,-1.184382945979e-56,1.245352555166e-56,-1.3251956894752,1.3642007589757,-1.3445188859995,1.3383371367676,-4.4626688648041e-159,1.3287601095258e-56,1.377801977866e-56,-1.2931201396314e-56,-1.398214774862e-56,2.9897883699319e-25,2.9925647153838e-25,-2.9493354040956e-25,-2.9709476222268e-25,3.658686187524e-159,1.2282635655591e-157,-1.660454839105e-158,1.2837999298054e-09,-1.28836731536e-09,222.49504871694,222.49504871694,222.46935956808,222.46935956808,251.6932906296,251.67358874633,251.6823502591,251.6888645937,201.45510268384,201.38992468967,201.40482137256,201.45201550122,222.4389008663,251.70026684316,251.66764106,251.67538280331,251.69482167078,242.38186902296,242.36460663582,242.37248742005,242.38017302836,204.99536460245,204.95487969514,222.4389008663,204.96807764239,204.99483211258,258.54180271947,258.52351176942,258.53263895498,258.53528429875,205.01299058672,204.94007183303,204.95051125963,205.00973435422,263.3915473852,258.54459017165,258.5211321911,258.52985560112,258.53766823135,242.39514568119,242.35331940483,242.35922796657,242.39147878757,263.3915473852,263.38289208258,263.38289208258,222.46453907937,222.46453907937,400.35462680516,400.30664906277,0
0.0002235,78673145.618053,6.5743802702676e-05,1.0214172406443,1.2707518158315e-09,-1.2580412080858e-09,1.266682731965e-09,1.2751791981995e-09,3.572034659801e-38,-3.522798972798e-38,-3.5301605380716e-38,3.5857458659538e-38,-49.23814710409,51.431790962656,-50.460905581555,49.886884023528,-1.2716591776341e-09,3.6906399448075e-38,3.7307319552638e-38,-3.6149996160394e-38,-3.7006769756929e-38,2.9168709204833e-25,-2.9087679311047e-25,-2.9267983218627e-25,2.9332490161749e-25,-1.311420105548,1.3489311210658,-1.2660089098726e-09,-1.3433095173215,1.3365244598612,1.369181553792e-56,-1.3224719823317e-56,-1.3194896647568e-56,1.3910774951774e-56,-1.3165309730733,1.3557506888279,-1.3357903528501,1.3297388310781,-4.0192609101812e-158,1.479771775613e-56,1.5447605019192e-56,-1.4431068081713e-56,-1.5623604289146e-56,2.9698941017318e-25,2.9735712249875e-25,-2.9283140781159e-25,-2.9503615822949e-25,3.4063360275418e-158,1.1741270050048e-156,-1.5223549433771e-157,1.256922750425e-09,-1.2612940173724e-09,222.50733186353,222.50733186353,222.48106964109,222.48106964109,251.74362340041,251.72349086238,251.7324170765,251.73900925023,201.41728766468,201.3505867786,201.36577812849,201.41396432003,222.45006380257,251.75071870219,251.7174161029,251.72533099062,251.74509387801,242.42198174009,242.40434594912,242.41233845209,242.42014008883,204.96844582096,204.92702187219,222.45006380257,204.94041916901,204.96771548194,258.59883744055,258.58013607912,258.58946530419,258.59210347807,204.98640340328,204.91186679654,204.92252477783,204.98297053263,263.45292406735,258.60167218856,258.57770590971,258.58663485285,258.59453820821,242.43548757019,242.39281552161,242.39885077658,242.43169003875,263.45292406735,263.44403806746,263.44403806746,222.4762721797,222.4762721797,400.21731589307,400.16696918902,0
0.000224,78990285.274557,6.5892375862718e-05,1.0215049191869,1.2451862650243e-09,-1.2323705953641e-09,1.240836924346e-09,1.2493669969987e-09,3.6821795706579e-38,-3.6283175289974e-38,-3.6336777173954e-38,3.6929633427855e-38,-49.225614493582,51.467133555519,-50.479234923571,49.883204483682,-1.2457402735573e-09,3.803664452163e-38,3.8531932386437e-38,-3.7262406075516e-38,-3.8151441887049e-38,2.9001839667001e-25,-2.8905991361161e-25,-2.9089533843044e-25,2.9157496181343e-25,-1.3023858987094,1.3405365659017,-1.2399480911137e-09,-1.3351080671255,1.3280331436322,1.5383141420705e-56,-1.4838868092895e-56,-1.4768285899207e-56,1.5611441957887e-56,-1.3079685140338,1.3473926184117,-1.3271539173455,1.3212331486682,-3.4841240260852e-157,1.654714064665e-56,1.7404852944432e-56,-1.6179660632023e-56,-1.7532487561521e-56,2.9540024800284e-25,2.9587649082972e-25,-2.9113392496513e-25,-2.9337119005338e-25,3.0451190099329e-157,1.0770209095983e-155,-1.3435086250286e-156,1.2310737605416e-09,-1.2352386595164e-09,222.52001629416,222.52001629416,222.49317144479,222.49317144479,251.79413801024,251.77356907838,251.78266111187,251.78933293138,201.37997501938,201.31172379897,201.32721283525,201.37641059299,222.46161100821,251.80135390704,251.76736523577,251.77545487594,251.795547106,242.46234046525,242.44432612512,242.45243054059,242.46035043782,204.94202939548,204.89965013356,222.46161100821,204.9132473597,204.94109616825,258.65600918034,258.636892137,258.64642521812,258.64905687748,204.96032310362,204.88414148344,204.89502042193,204.95671045251,263.51440606352,258.65889181796,258.63441058033,258.64354706783,258.65154319341,242.47607840092,242.43254860912,242.43871168942,242.47214844947,263.51440606352,263.50528682916,263.50528682916,222.48839912949,222.48839912949,400.08060880478,400.02779877714,0
0.0002245,79308818.078609,6.6040954834894e-05,1.0215928013653,1.2206144410386e-09,-1.2076927171405e-09,1.2159863685486e-09,1.2245518853336e-09,3.8056908004246e-38,-3.7467640959411e-38,-3.7497028807768e-38,3.8127895984684e-38,-49.212571936839,51.502667152312,-50.497585329834,49.87860860646,-1.2208274912116e-09,3.9296569651099e-38,3.9903215522673e-38,-3.8508355469629e-38,-3.9427244498554e-38,2.8875988029172e-25,-2.8764607299215e-25,-2.8951571472492e-25,2.9022106610625e-25,-1.2934399961413,1.3322391851894,-1.2148884697567e-09,-1.3270085463816,1.31962952277,1.7375415436554e-56,-1.6738605717134e-56,-1.6611367087813e-56,1.7607245205317e-56,-1.2995100667594,1.3391282003148,-1.3186110465544,1.3128218740767,-2.9089574085456e-156,1.8584336814009e-56,1.9713435404801e-56,-1.8230994576622e-56,-1.9764392139535e-56,2.9421701828076e-25,2.9482220193536e-25,-2.8984804395637e-25,-2.9210472409201e-25,2.6156157041849e-156,9.4740574880716e-155,-1.1421165505817e-155,1.2062261718679e-09,-1.2101743782691e-09,222.53310024469,222.53310024469,222.50566319395,222.50566319395,251.8448331251,251.82382206025,251.83308105923,251.83983442681,201.3431635759,201.27333423631,201.2891241081,201.33935336221,222.47354050989,251.85217116311,251.81748712053,251.8257531118,251.8461801462,242.50294358377,242.4845455363,242.4927621311,242.50080260193,204.91611397384,204.87276295277,222.47354050989,204.88656082937,204.91497303356,258.71331682918,258.69377885305,258.70351759529,258.70614349027,204.93474843065,204.85689433148,204.86799669955,204.93095299931,263.57599242508,258.71624796581,258.69124511138,258.70059112793,258.70868218077,242.51691663394,242.47251703137,242.47880907152,242.51285255067,263.57599242508,263.56663748274,263.56663748274,222.50091798673,222.50091798673,399.94452338299,399.88915284442,0
0.000225,79628716.262967,6.6189539222025e-05,1.0216808784444,1.1970110327055e-09,-1.1839815748603e-09,1.1921053813305e-09,1.200709352707e-09,3.9441850513029e-38,-3.8797075650064e-38,-3.8797290843708e-38,3.9466688529916e-38,-49.19901973282,51.538408254324,-50.515948562901,49.873086864395,-1.1968952487957e-09,4.070088267735e-38,4.143906478516e-38,-3.990418484295e-38,-4.0849183533137e-38,2.879208400099e-25,-2.8664383802652e-25,-2.8855004767974e-25,2.8927021427997e-25,-1.2845839014619,1.3240407613981,-1.1908048120983e-09,-1.3190124896111,1.3113151061086,1.9737517416092e-56,-1.8989444933076e-56,-1.8784176226683e-56,1.9963332010197e-56,-1.2911573077392,1.3309590389097,-1.3101631380033,1.3045067659307,-2.3409417109813e-155,2.0970078387124e-56,2.2454360560677e-56,-2.0653936250402e-56,-2.2389354892367e-56,2.9344789436711e-25,2.9420466392946e-25,-2.8898352232714e-25,-2.9124405443337e-25,2.1602134636546e-155,7.9766992779011e-154,-9.3592660037643e-155,1.1823544368836e-09,-1.1860755185281e-09,222.54658191213,222.54658191213,222.51854307139,222.51854307139,251.89570739911,251.87424846158,251.88367560565,251.89051251744,201.30685209855,201.23541651122,201.25151051289,201.30279161647,222.48585029888,251.90316916464,251.86778040821,251.87622434307,251.89699177987,242.54378946141,242.52500253537,242.53333165639,242.54149509348,204.89069814131,204.84635874013,222.48585029888,204.86035814554,204.88934488948,258.77075927053,258.75079512967,258.76074133043,258.76336230412,204.90967806638,204.83012371966,204.84145206882,204.90569700294,263.63768220059,258.7737395315,258.74820840423,258.75776591093,258.76595415792,242.55800071161,242.51271913527,242.51914127514,242.55380085629,263.63768220059,263.62808913905,263.62808913905,222.51382676733,222.51382676733,399.80907716808,399.7510460557,0
0.0002255,79949952.177751,6.6338128632688e-05,1.0217691417738,1.1743519864283e-09,-1.1612123689223e-09,1.1691694788756e-09,1.1778161897856e-09,4.0995761855475e-38,-4.0290107661111e-38,-4.0255297838593e-38,4.0963025868891e-38,-49.18495708927,51.574374135814,-50.534315082808,49.866631572141,-1.1739191800631e-09,4.2266913764552e-38,4.3160655836729e-38,-4.1469344394169e-38,-4.2434975102436e-38,2.8751354364149e-25,-2.8606466490723e-25,-2.8801041824632e-25,2.8873200513246e-25,-1.2758190488424,1.3159430238726,-1.1676731606871e-09,-1.3111213903886,1.3030913875795,2.2557557767978e-56,-2.1675464040452e-56,-2.1363496821262e-56,2.2762370879101e-56,-1.2829118355326,1.3228866902555,-1.3018115215662,1.2962895594174,-1.8228353725675e-154,2.3781225033043e-56,2.5731508438985e-56,-2.353711126107e-56,-2.5496378867573e-56,2.9310381151961e-25,2.9403736860919e-25,-2.8855323571011e-25,-2.9079915032055e-25,1.7167026460673e-154,6.3996867755286e-153,-7.3996784515985e-154,1.1594342643963e-09,-1.1629176469712e-09,222.56045945588,222.56045945588,222.53180922892,222.53180922892,251.9467594756,251.92484692447,251.93444343192,251.94136597567,201.27103928986,201.19796898092,201.21437056781,201.2667242915,222.49853833266,251.95434659563,251.91824373965,251.92686720777,251.94798077848,242.58487644563,242.56569545642,242.57413753725,242.58242641096,204.86578042255,204.82043584455,222.49853833266,204.83463782959,204.86421049757,258.82833538185,258.80793986218,258.81809531506,258.82071230122,204.88511063363,204.8038279699,204.81538494005,204.88094123841,263.69947443644,258.83136540862,258.80529935369,258.8150702912,258.82335810651,242.5993290591,242.5531532517,242.55970663943,242.59499186384,263.69947443644,263.68964090495,263.68964090495,222.52712344697,222.52712344697,399.67428740409,399.61349273045,0
0.000226,80272498.258935,6.6486722681541e-05,1.0218575827786,1.1526145192474e-09,-1.1393615080103e-09,1.1471553857374e-09,1.1558505069209e-09,4.2741361900601e-38,-4.1968924816058e-38,-4.1892186620155e-38,4.2637008673174e-38,-49.170381863087,51.610582785323,-50.552674097921,49.859236934687,-1.1518761509533e-09,4.401515047923e-38,4.5093125845682e-38,-4.3227063693749e-38,-4.4205605061336e-38,2.8755356537265e-25,-2.8592323080683e-25,-2.8791225537466e-25,2.8861890874698e-25,-1.2671467998248,1.3079476483722,-1.1454708520286e-09,-1.3033367038463,1.2949598478287,2.5949119146224e-56,-2.4905507180355e-56,-2.4448474685184e-56,2.611007080002e-56,-1.2747751661263,1.3149126639381,-1.2935574610335,1.2881719655645,-1.4112958754603e-153,2.7115871034952e-56,2.9679174969284e-56,-2.6995684264966e-56,-2.9199610612151e-56,2.9319877177444e-25,2.9433724859471e-25,-2.8857354872456e-25,-2.9078294916871e-25,1.3141424995408e-153,4.8446262179286e-152,-5.6546091898095e-153,1.1374426354379e-09,-1.1406775638229e-09,222.57473099888,222.57473099888,222.54545978803,222.54545978803,251.99798798812,251.97561608027,251.98538321319,251.99239356564,201.23572379239,201.16098994084,201.17770274471,201.23115027012,222.51160253635,252.00570213075,251.96887574615,251.9776803379,251.99914590398,242.62620286702,242.60662261607,242.61517818319,242.62359503937,204.84135928366,204.79499255524,222.51160253635,204.80939835787,204.83956856963,258.88604403542,258.86521193925,258.87557843814,258.87819245842,204.86104469755,204.77800534859,204.78979367731,204.85668442621,263.76136817752,258.88912448577,258.86251684843,258.87250314038,258.88089300236,242.6409000855,242.59381769646,242.60050349146,242.63642405496,263.76136817752,263.75129188346,263.75129188346,222.54080596291,222.54080596291,399.54017104265,399.47650684983,0
0.0002265,80596326.993432,6.6635320989597e-05,1.0219461929493,1.1317771363215e-09,-1.1184066224947e-09,1.1260410457567e-09,1.134791751198e-09,4.4705705077536e-38,-4.3860046851425e-38,-4.3733244166979e-38,4.4512456663373e-38,-49.155290552848,51.647052769386,-50.571013670924,49.850899183116,-1.1307442777931e-09,4.5969902532127e-38,4.7266419405796e-38,-4.5205188169091e-38,-4.6186024261104e-38,2.8806018162819e-25,-2.8623782939476e-25,-2.8827475636293e-25,2.8894659016234e-25,-1.2585684444319,1.3000562558113,-1.1241765358865e-09,-1.2956598497288,1.2869219556076,3.0059784202768e-56,-2.8821744514174e-56,-2.8168417001953e-56,3.0142684713412e-56,-1.2667487354615,1.3070384231798,-1.2854021563856,1.2801556739644,-1.2479821439795e-152,3.1100416899773e-56,3.447243417937e-56,-3.1180806457172e-56,-3.3646854128635e-56,2.9375020808957e-25,2.9512510098972e-25,-2.8906475643347e-25,-2.9121170457744e-25,9.7195619025694e-153,3.3819370923599e-151,-4.2048091921407e-152,1.1163578187318e-09,-1.1193333171079e-09,222.58939462868,222.58939462868,222.55949284047,222.55949284047,252.04939156148,252.02655455028,252.03649361946,252.04359404322,201.20090419062,201.12447762606,201.14150547032,201.19606838218,222.52504080402,252.0572344362,252.01967505011,252.02866236001,252.050485909,242.66776704052,242.64778231454,242.65645199293,242.66499945046,204.8174331342,204.77002710348,222.52504080402,204.78463816249,204.81541776774,258.94388409911,258.9226102433,258.9331895865,258.93580174722,204.83747876719,204.75265406805,204.76467659971,204.83292523274,263.82336246768,258.94701564725,258.91985977127,258.9300633279,258.93855781552,242.68271218479,242.6347107711,242.64153014704,242.67809589585,263.82336246768,263.81304117383,263.81304117383,222.55487221583,222.55487221583,399.40674475374,399.34010206895,0
0.000227,80921410.881712,6.6783923184499e-05,1.0220349638329,1.1118196440845e-09,-1.0983265761187e-09,1.1058056309681e-09,1.1146207265883e-09,4.6921115118458e-38,-4.5995290616e-38,-4.5808846815754e-38,4.6617691703894e-38,-49.139678163289,51.68380317855,-50.589320888604,49.841616616365,-1.1105029471459e-09,4.8160130182914e-38,4.9716343000586e-38,-4.743722694823e-38,-4.8406016337687e-38,2.8905683958866e-25,-2.8703084033284e-25,-2.8912138843622e-25,2.8973428967261e-25,-1.2500852006676,1.292270412301,-1.1037701925661e-09,-1.2880922159012,1.2789791689581,3.5082876176187e-56,-3.3611590087868e-56,-3.2693729810053e-56,3.5037293067627e-56,-1.2588338964544,1.2992653866229,-1.2773467468066,1.2722423514636,-1.7904296784896e-151,3.5899379017629e-56,4.0341487026346e-56,-3.629289523065e-56,-3.903141498285e-56,2.9477941402763e-25,2.9642609083312e-25,-2.9005160565122e-25,-2.9210540072061e-25,7.0347019522174e-152,2.0446541774592e-150,-3.137455802322e-151,1.0961593871961e-09,-1.098864216424e-09,222.6044483985,222.6044483985,222.57390644863,222.57390644863,252.10096881279,252.07766094648,252.08777331596,252.09496615613,201.16657901279,201.08843021285,201.10577712721,201.16147740428,222.53885099998,252.10894217054,252.07064026553,252.07981189588,252.10199953706,242.70956726677,242.68917283677,242.69795735488,242.70663810282,204.79400032915,204.74553766429,222.53885099998,204.76035563198,204.79175670412,259.00185443719,258.98013365092,258.99092764529,258.99353913378,204.81441129702,204.72777228798,204.74003198261,204.80966227038,263.88545635033,259.00503777379,258.97732699961,258.98774972146,258.99635151033,242.72476373681,242.67583076382,242.68278491154,242.72000583772,263.88545635033,263.87488787162,263.87488787162,222.56932007166,222.56932007166,399.27402493345,399.204291728,0
0.0002275,81247722.401801,6.6932528900749e-05,1.0221238870235,1.0927231688395e-09,-1.0791014781113e-09,1.086429552449e-09,1.0953196144679e-09,4.9426348221073e-38,-4.8412981416205e-38,-4.8155644623314e-38,4.8986510768562e-38,-49.123538121543,51.720853462942,-50.607581950314,49.831389635104,-1.0911328349983e-09,5.0620482579023e-38,5.2485883547862e-38,-4.996367154153e-38,-5.0901283817071e-38,2.9057170984269e-25,-2.8832928853751e-25,-2.9048048617784e-25,2.9100527372398e-25,-1.2416982131441,1.2845916273506,-1.0842331536094e-09,-1.2806351591346,1.2711329340053,4.1273745016433e-56,-3.9524433659194e-56,-3.825140361877e-56,4.1026013459703e-56,-1.2510319189224,1.2915949279473,-1.2693923109883,1.2644336425235,-4.5152278068009e-150,4.172913070186e-56,4.7591690797155e-56,-4.260046249521e-56,-4.5608727786242e-56,2.9631205764277e-25,2.9827034682481e-25,-2.9156391579914e-25,-2.9348824137089e-25,5.2740442937616e-151,8.2017176139853e-150,-2.656015715059e-150,1.0768282350361e-09,-1.0792508481238e-09,222.61989032823,222.61989032823,222.58869864592,222.58869864592,252.15271835243,252.12893387223,252.13922096357,252.1465086439,201.13274673274,201.05284582005,201.07051605448,201.12737605944,222.55303095988,252.16082398553,252.12176999865,252.13112756303,252.15368552269,242.75160183349,242.73079245351,242.73969264747,242.74850944206,204.771059171,204.72152235817,222.55303095988,204.73654911166,204.76858394084,259.05995391111,259.03778103329,259.04879149834,259.05140357888,204.79184068845,204.70335811672,204.71585805851,204.78689409774,263.94764886892,259.06318974326,259.03491740575,259.04556118754,259.05427304544,242.76705310829,242.71717595024,242.72426608057,242.76215231719,263.94764886892,263.93683106877,263.93683106877,222.58414736341,222.58414736341,399.14202771054,399.06908886131,0
0.000228,81575233.974701,6.708113777993e-05,1.0222129541553,1.0744701738212e-09,-1.0607126975197e-09,1.0678944704588e-09,1.0768719957319e-09,5.2268045753437e-38,-5.1159478413136e-38,-5.0818061063728e-38,5.1659398391981e-38,-49.10686225465,51.75822328783,-50.625782297638,49.820220734788,-1.0726159292938e-09,5.3392603243262e-38,5.5626864647223e-38,-5.2833660114105e-38,-5.3714814031416e-38,2.926383387747e-25,-2.9016550807273e-25,-2.92385963194e-25,2.9278736581124e-25,-1.2334085531798,1.2770213518126,-1.0655481211772e-09,-1.2732900060885,1.2633846837756,4.8972532298664e-56,-4.6895324776243e-56,-4.5147144111516e-56,4.8415795803065e-56,-1.2433439890766,1.2840283747251,-1.2615398671754,1.2567311670019,-1.3945927255832e-148,4.8877333805272e-56,5.663174863782e-56,-5.0467034158659e-56,-5.3719910723442e-56,2.9837878997759e-25,3.0069366970411e-25,-2.9363731374897e-25,-2.9538923177934e-25,4.9795950905858e-150,-3.7762279647822e-149,-3.3742344889517e-149,1.0583465946816e-09,-1.0604750911148e-09,222.63571840547,222.63571840547,222.60386743692,222.60386743692,252.20463878513,252.180371923,252.19083521904,252.19822023782,201.09940577178,201.01772251056,201.03572054833,201.09376301665,222.56757849186,252.21287852701,252.17306284841,252.18260797522,252.20554259162,242.7938690167,242.77263942244,242.78165623945,242.79061190075,204.74860791177,204.69797925286,222.56757849186,204.71321690386,204.74589798945,259.11818138021,259.0955512565,259.10678002852,259.10939403785,204.76976529132,204.67940961266,204.69215301791,204.76461921964,264.00993906739,259.12147043133,259.09262985715,259.10349659178,259.11232137385,242.80957865375,242.75874459413,242.76597194066,242.80453375666,264.00993906739,263.99886985366,263.99886985366,222.59935189304,222.59935189304,399.0107689506,398.93450620546,0
0.0002285,81903917.934154,6.7229749470879e-05,1.0223021568963,1.0570444795172e-09,-1.0431428785753e-09,1.0501833086222e-09,1.05926287869e-09,5.5502555073206e-38,-5.4291103933026e-38,-5.385020047404e-38,5.4685043485245e-38,-49.089640850306,51.795932503939,-50.643906888056,49.808114552812,-1.0549355562903e-09,5.6526779105881e-38,5.9202034932152e-38,-5.6107086034017e-38,-5.6898602319527e-38,2.9529642077675e-25,-2.9257793471423e-25,-2.9487816293108e-25,2.9511357470125e-25,-1.2252172207084,1.2695609785362,-1.0476991925579e-09,-1.2660580557338,1.255735837535,5.863623462032e-56,-5.6178772787506e-56,-5.3797289771278e-56,5.7616222937561e-56,-1.2357712106056,1.2765670114601,-1.25379037716,1.2491365197472,-4.3173648811037e-147,5.7730677044125e-56,6.8013711190769e-56,-6.038995318842e-56,-6.3825424611529e-56,3.0101596911273e-25,3.0373837323928e-25,-2.9631410691134e-25,-2.9784286774744e-25,7.8225239355766e-149,-1.7954655627773e-147,-7.0736148570097e-148,1.0406980589269e-09,-1.0425201384482e-09,222.6519305865,222.6519305865,222.61941079753,222.61941079753,252.25672871088,252.23197368699,252.24261473528,252.25009966087,201.06655450055,200.98305829282,201.00138886248,201.0606368903,222.58249137755,252.26510443561,252.22451740696,252.23425174283,252.25756946086,242.8363670821,242.81471198925,242.82384649009,242.83294389846,204.7266447551,204.67490636513,222.58249137755,204.6903572681,204.72369731054,259.17653570247,259.15344318198,259.16489211797,259.16750946048,204.74818340543,204.6559247855,204.66891501003,204.74283608724,264.07232599062,259.17987871212,259.15046321679,259.16155479927,259.17049544288,242.85233871648,242.8005349482,242.80790076983,242.84714856468,264.07232599062,264.06100331114,264.06100331114,222.61493143332,222.61493143332,398.88026426779,398.80055621379,0
0.000229,82233746.502657,6.7378363629876e-05,1.0223914869447,1.0404312861469e-09,-1.0263759573366e-09,1.0332802668177e-09,1.0424787264443e-09,5.9198218520582e-38,-5.7876591246505e-38,-5.731828351979e-38,5.8122243286275e-38,-49.071862645294,51.834000980817,-50.661940304521,49.795077762723,-1.0380764074004e-09,6.0084032461566e-38,6.3287711137943e-38,-5.9857278377755e-38,-6.05158345648e-38,2.9859270873664e-25,-2.9561204767174e-25,-2.9800487365346e-25,2.9802283495043e-25,-1.2171251430349,1.2622118401476,-1.0306718837008e-09,-1.2589405779577,1.248187796098,7.0884203134899e-56,-6.7997365516596e-56,-6.4775252725491e-56,6.9178868730732e-56,-1.22831460381,1.2692120770626,-1.2461447443066,1.2416512666979,-1.2800116265795e-145,6.8814837813075e-56,8.2490202663392e-56,-7.305675374289e-56,-7.6553578313496e-56,3.0426652248475e-25,3.0745428390171e-25,-2.9964432017105e-25,-3.0088995361115e-25,1.8553618572248e-147,-4.0745661021203e-146,-1.8559253284232e-146,1.0238676017232e-09,-1.0253705173232e-09,222.66852479736,222.66852479736,222.63532667515,222.63532667515,252.30898672601,252.283737746,252.29455816157,252.30214562773,201.0341912409,200.94885112228,200.96751920845,201.02799623978,222.5977673731,252.31750034765,252.27613226028,252.28605747334,252.30976483894,242.87909428636,242.85700838876,242.86626174943,242.87550384179,204.70516785829,204.65230166257,222.5977673731,204.66796842105,204.7019803133,259.2350157353,259.21145566696,259.22312664845,259.22574879107,204.72709328205,204.63290159756,204.64614214344,204.72154309808,264.13480868486,259.23841345893,259.20841634355,259.21973467505,259.22879419426,242.89533162954,242.84254525486,242.85005083821,242.8899951364,264.13480868486,264.12323052262,264.12323052262,222.63088372968,222.63088372968,398.75052902284,398.66725105837,0
0.0002295,82564691.774265,6.7526979920796e-05,1.0224809360274,1.0246171978534e-09,-1.0103971802195e-09,1.017170836848e-09,1.0265074904044e-09,6.3438261771417e-38,-6.2000202754835e-38,-6.1303769679075e-38,6.2042301743941e-38,-49.053514908144,51.872448446402,-50.67986688217,49.781118984814,-1.0220245706223e-09,6.4138784771647e-38,6.7977136858661e-38,-6.4174420755061e-38,-6.4643660761766e-38,3.0258209263165e-25,-2.9932149354559e-25,-3.0182254314257e-25,3.0156088242951e-25,-1.2091331760045,1.2549752061112,-1.0144531562701e-09,-1.2519388115287,1.2407419374419,8.6563189287412e-56,-8.3212247642598e-56,-7.8879667550006e-56,8.3853454905051e-56,-1.2209751054412,1.2619647630902,-1.2386038123299,1.2342769408987,-3.6096943201903e-144,8.2852561739683e-56,1.0109695763061e-55,-8.9427683103605e-56,-9.2770991838523e-56,3.0818097330469e-25,3.1189993082486e-25,-3.0368692829316e-25,-3.0457857291685e-25,4.9709482856118e-146,-8.8177173128585e-145,-4.993258814354e-145,1.0078416026657e-09,-1.0090121148479e-09,222.68549893491,222.68549893491,222.65161298885,222.65161298885,252.36141142418,252.3356626761,252.34666414383,252.35435684483,201.00231426777,200.91509890297,200.93410975577,200.99583956895,222.61340421021,252.37006489599,252.32790598868,252.33802377175,252.36212742611,242.92204887848,242.89952684613,242.90890035849,242.91829012447,204.68417533448,204.63016306544,222.61340421021,204.64604853656,204.68074535512,259.29362033625,259.26958756488,259.28148250158,259.28411096841,204.70649312553,204.6103379651,204.6238324866,204.70073859628,264.19738619821,259.29707354488,259.26648809252,259.27803508435,259.28721656425,242.93855571674,242.88477374696,242.89242040856,242.93307185401,264.19738619821,264.18555056628,264.18555056628,222.64720650217,222.64720650217,398.62157832214,398.5346026337,0
0.00023,82896725.706742,6.7675598015238e-05,1.0225704959008,1.0095902528736e-09,-9.9519312780693e-10,1.0018418224119e-09,1.0113386496219e-09,6.8324449155316e-38,-6.67657154406e-38,-6.5907375996612e-38,6.6532060869248e-38,-49.03458364116,51.911294467712,-50.697671012392,49.76624877192,-1.00676756746e-09,6.8782263108629e-38,7.3384766689471e-38,-6.9169926188831e-38,-6.937673223581e-38,3.0732887551378e-25,-3.0376942746728e-25,-3.0639773342313e-25,3.0578128973761e-25,-1.2012421064728,1.2478522831132,-9.9903145053989e-10,-1.2450539655051,1.2333996142375,1.0684100243531e-55,-1.0302604795594e-55,-9.7235208658655e-56,1.0266858668842e-55,-1.2137535719103,1.254826214992,-1.2311683671178,1.2270150400183,-9.680371229085e-143,1.0084879665203e-55,1.2527281343003e-55,-1.1085736490047e-55,-1.1368573825453e-55,3.1281866582152e-25,3.1714396410124e-25,-3.0851132329859e-25,-3.0896524275707e-25,1.3235383906272e-144,-1.9866356153924e-143,-1.2976746863663e-143,9.926078760278e-10,-9.9343220808207e-10,222.70285086792,222.70285086792,222.66826762951,222.66826762951,252.41400139734,252.38774704839,252.39893132477,252.40673201029,200.97092181116,200.88179948914,200.90115863224,200.96416532586,222.62939959717,252.42279671078,252.37983716738,252.39014924093,252.41465591456,242.96522910107,242.94226557792,242.95176064946,242.96130112742,204.66366525469,204.60848844864,222.62939959717,204.62459574569,204.65999074127,259.35234836372,259.32783772586,259.33995855909,259.34259492579,204.68638109482,204.58823175974,204.60198406848,204.68042087277,264.26005758099,259.35585784356,259.32467731544,259.33645489295,259.34576148371,242.98200929358,242.92721864859,242.93500773687,242.9763770872,264.26005758099,264.24796251709,264.24796251709,222.66389744733,222.66389744733,398.49342702256,398.40262256465,0
0.0002305,83229820.123234,6.7824217592647e-05,1.0226601583548,9.9533995523057e-10,-9.8075173695891e-10,9.8728135895233e-10,9.9696325324856e-10,7.3981725257519e-38,-7.2301532445611e-38,-7.1254268627269e-38,7.1697744491736e-38,-49.015053601445,51.950558284764,-50.715337204759,49.750479373086,-9.9229439233066e-10,7.4126872104165e-38,7.9651751212461e-38,-7.4982051807294e-38,-7.4831726246976e-38,3.1290828570544e-25,-3.090301144893e-25,-3.1180886484777e-25,3.1074669069627e-25,-1.1934526504957,1.240844211409,-9.8439671876056e-10,-1.2382872138108,1.2261621452913,1.3334231266222e-55,-1.2913427229199e-55,-1.214428869487e-55,1.2704867536341e-55,-1.2066507766143,1.2477975288788,-1.2238391334067,1.2198670196684,-2.469989527689e-141,1.2421649065671e-55,1.5703552250165e-55,-1.3927538637096e-55,-1.4099939800661e-55,3.1824922728269e-25,3.232668465045e-25,-3.141990602765e-25,-3.1411628404733e-25,3.3911135786109e-143,-4.5997577990796e-142,-3.2138581309233e-142,9.7815570174447e-10,-9.7861949567252e-10,222.72057843836,222.72057843836,222.68528846026,222.68528846026,252.4667552368,252.43998942994,252.45135834427,252.45926981423,200.94001205799,200.84895068695,200.86866392413,200.93297190256,222.64575121991,252.47569442039,252.43192436721,252.4424324821,252.46734898884,243.00863319174,242.98522279338,242.99484094609,243.004535219,204.64363564999,204.58727564365,222.64575121991,204.6036081367,204.63971472478,259.41119867775,259.38620499727,259.3985537032,259.40119959123,204.66675530518,204.56658080993,204.58059487915,204.6605881657,264.32282188621,259.41476522976,259.38298286116,259.39499296759,259.40442787839,243.02569066838,242.96987817591,242.97781107297,243.01990919383,264.32282188621,264.31046544721,264.31046544721,222.68095424014,222.68095424014,398.36608971957,398.27132220019,0
0.000231,83563946.724653,6.7972838340437e-05,1.0227499152194,9.81857313371e-10,-9.6706233116845e-10,9.7347893917828e-10,9.8337397180486e-10,8.0564125767141e-38,-7.8767260849894e-38,-7.7500793337295e-38,7.7669847589642e-38,-48.994908619845,51.990258750778,-50.732850295422,49.733824676499,-9.7859555924894e-10,8.0311826657003e-38,8.6952984790494e-38,-8.1783126987402e-38,-8.1153152555421e-38,3.1940826953233e-25,-3.1519084576791e-25,-3.1814830988698e-25,3.1653023076011e-25,-1.1857654579954,1.2339520642642,-9.7054046617183e-10,-1.2316396936865,1.2190308114167,1.683468799191e-55,-1.6394949982795e-55,-1.5380573451225e-55,1.5898444737789e-55,-1.199667414069,1.2408797503462,-1.2166167740314,1.2128342900346,-5.9985992482315e-140,1.5496390064465e-55,1.992413037307e-55,-1.7745605296293e-55,-1.7713271152972e-55,3.2455431675965e-25,3.3036287519867e-25,-3.2084594002551e-25,-3.2010945395068e-25,8.3034723384605e-142,-1.0627443152799e-140,-7.563928969305e-141,9.6447586250759e-10,-9.6456413850826e-10,222.73867946264,222.73867946264,222.7026733168,222.7026733168,252.51967153418,252.49238838448,252.50394383965,252.5119689389,200.90958315415,200.81655025625,200.83662367647,200.9022576351,222.66245674316,252.52875665225,252.48416615518,252.49487209529,252.52020532626,243.05225938434,243.0283966956,243.03813956393,243.0479907553,204.62408451369,204.56652244057,222.66245674316,204.5830837553,204.61991550647,259.47017014074,259.44468822429,259.45726681684,259.45992388764,204.64761382986,204.5453829024,204.55966287045,204.64123866102,264.38567817002,259.47379458011,259.44140357612,259.45364817629,259.46321466917,243.06959814326,243.01275053801,243.02082866112,243.06366652052,264.38567817002,264.37305842614,264.37305842614,222.69837453597,222.69837453597,398.23958074516,398.14071261443,0
0.0002315,83899077.113174,6.8121459954066e-05,1.0228397583742,9.6913488252657e-10,-9.5411565161595e-10,9.6042544159227e-10,9.7056515400692e-10,8.8262327053015e-38,-8.6362201991368e-38,-8.4843231690816e-38,8.4609374094073e-38,-48.97413166121,52.030414235903,-50.750195598273,49.716299966999,-9.6566315412489e-10,8.7510433991202e-38,9.550619381693e-38,-8.9788882446554e-38,-8.8520825174871e-38,3.2693161868722e-25,-3.2235423175649e-25,-3.2552491062643e-25,3.2321728573966e-25,-1.1781811108721,1.2271768447243,-9.5745579537082e-10,-1.2251125023737,1.2120068471809,2.1508075894587e-55,-2.109355266013e-55,-1.9766999994754e-55,2.012832379523e-55,-1.1928040979503,1.2340738724235,-1.2095018880364,1.205918208322,-1.3869839410711e-138,1.9597548419418e-55,2.5597082180751e-55,-2.2942371247231e-55,-2.2556249990923e-55,3.3182971819121e-25,3.3854260061288e-25,-3.2856449147826e-25,-3.2703588809572e-25,1.9402580282035e-140,-2.3999345291906e-139,-1.6908494745243e-139,9.5156068390357e-10,-9.5125780290303e-10,222.75715173296,222.75715173296,222.72042000809,222.72042000809,252.57274888243,252.54494247343,252.55668644602,252.56482805909,200.87963320639,200.78459591247,200.80503589352,200.87202080379,222.67951381167,252.58198203369,252.53656109532,252.54746667982,252.57322359738,243.09610591036,243.07178548278,243.08165481087,243.09166608058,204.60500980345,204.54622659028,222.67951381167,204.5630206049,204.60059123516,259.52926161818,259.50328625052,259.51609678411,259.51876673316,204.62895470183,204.52463578391,204.53918595676,204.62237049324,264.44862549216,259.53294477379,259.49993830494,259.51241938883,259.52212077248,243.11373001527,243.05583393786,243.06405874074,243.10764740347,264.44862549216,264.4357405212,264.4357405212,222.71615597255,222.71615597255,398.11391415407,398.01080459873,0
0.000232,84235182.82684,6.8270082137135e-05,1.0229296797606,9.5716681416729e-10,-9.4190389452623e-10,9.4811316271972e-10,9.5853289280196e-10,9.7313316145816e-38,-9.5336343355875e-38,-9.3529227655154e-38,9.2715817020194e-38,-48.952705148457,52.071042593768,-50.767358999588,49.697921759168,-9.5349089371191e-10,9.5939539519704e-38,1.0558369504062e-37,-9.9270523604822e-38,-9.7159503307632e-38,3.3559849807027e-25,-3.3064094997339e-25,-3.3406700762653e-25,3.3090749958799e-25,-1.1707001270651,1.2205194851393,-9.4513745807489e-10,-1.2187066919318,1.205091433909,2.7814667548517e-55,-2.7510838543367e-55,-2.5794422364912e-55,2.5793866480713e-55,-1.186061364181,1.2273808336285,-1.2024950079168,1.1991200738323,-3.0538356324397e-137,2.5143593850914e-55,3.3310717830813e-55,-3.0106511019332e-55,-2.9132752885608e-55,3.4018784835143e-25,3.4793572389222e-25,-3.3748693663208e-25,-3.3500241541926e-25,4.325013541124e-139,-5.2393845523472e-138,-3.5898906668621e-138,9.3940408201974e-10,-9.3869371172933e-10,222.77599301888,222.77599301888,222.73852631705,222.73852631705,252.62598587679,252.59765025674,252.60958479676,252.61784584254,200.85016028444,200.75308532865,200.77389853924,200.84225963369,222.69692005143,252.63536919289,252.58910774933,252.60021483484,252.62640246666,243.1401710002,243.11538734947,243.12538498759,243.13555952786,204.58640944353,204.52638580659,222.69692005143,204.54341664713,204.58174000827,259.58847197939,259.56199791865,259.57504249061,259.57772704151,204.61077591564,204.50433716291,204.51916201587,204.60398174641,264.51166291643,259.59221469323,259.558585891,259.57130547711,259.58114510072,243.1580845775,243.09912657324,243.10749954712,243.15185016924,264.51166291643,264.49851079787,264.49851079787,222.73429617193,222.73429617193,397.98910371297,397.88160865483,0
0.0002325,84572235.385782,6.8418704601449e-05,1.0230196713963,9.4594891344663e-10,-9.3042075230918e-10,9.3653585563274e-10,9.4727510037284e-10,1.0801280820343e-37,-1.0600462959022e-37,-1.0387274583692e-37,1.0223739590564e-37,-48.930611122246,52.11216105871,-50.784327120334,49.678707613624,-9.4207419246974e-10,1.0587181911134e-37,1.1752765772785e-37,-1.1057039204089e-37,-1.073513605705e-37,3.4554945054697e-25,-3.4019304244319e-25,-3.4392608981769e-25,3.397172040312e-25,-1.1633229607088,1.2139808439303,-9.335819136401e-10,-1.2124232667353,1.1982856928781,3.6416367853263e-55,-3.6379181327956e-55,-3.4189355352541e-55,3.3467975159877e-55,-1.1794396708749,1.2208015150731,-1.1955965983751,1.1924411220689,-6.4039265502249e-136,3.2747428422325e-55,4.3920716212042e-55,-4.0105914013913e-55,-3.8179186044147e-55,3.4976076786791e-25,3.5869457168637e-25,-3.4776873260543e-25,-3.4413431687574e-25,9.1954104875545e-138,-1.1000991935533e-136,-7.239294119538e-137,9.2800161624148e-10,-9.2686670297928e-10,222.79520106882,222.79520106882,222.75699000154,222.75699000154,252.67938111578,252.65051029386,252.66263752399,252.67102095055,200.82116242301,200.72201613748,200.74320953808,200.81297229548,222.71467307111,252.68891675969,252.64180467752,252.65311515994,252.67974059314,243.18445288445,243.15920048785,243.16932838826,243.17966941959,204.56828132691,204.50699776845,222.71467307111,204.52426980251,204.5633598726,259.64780009825,259.6208220712,259.63410282391,259.63680372258,204.59307542936,204.48448471143,204.49958889005,204.58607045539,264.57478951118,259.6516032248,259.61734517711,259.63030531568,259.64028656287,243.20266012019,243.1426266378,243.1511493122,243.19627313582,264.57478951118,264.56136832036,264.56136832036,222.75279274246,222.75279274246,397.86516288585,397.75313498496,0
0.000233,84910206.348252,6.8567327067068e-05,1.0231097253927,9.3547870065161e-10,-9.1966146132918e-10,9.2568877184742e-10,9.3679159357003e-10,1.2073123253663e-37,-1.1876553895344e-37,-1.1627370803215e-37,1.1348422099392e-37,-48.907831478844,52.15378627727,-50.801087384445,49.658675898155,-9.314102379821e-10,1.1765182069409e-37,1.3176997649178e-37,-1.2412232615187e-37,-1.1945215017939e-37,3.5694897311819e-25,-3.5117787422195e-25,-3.5528119708555e-25,3.4978229140124e-25,-1.1560500038693,1.2075617049988,-9.2278739434143e-10,-1.2062631778657,1.1915906773918,4.8272282804884e-55,-4.8776232981939e-55,-4.6036177654044e-55,4.3979089080577e-55,-1.1729393992097,1.2143367396079,-1.1888070538505,1.1858825180035,-1.2792190270264e-134,4.3314770964514e-55,5.8682272748178e-55,-5.4229491203083e-55,-5.078019663609e-55,3.6070379409942e-25,3.709982714036e-25,-3.5959280505186e-25,-3.5457861901752e-25,1.8644022574077e-136,-2.2164573226885e-135,-1.3866694430163e-135,9.1735054978638e-10,-9.1577329483096e-10,222.81477361179,222.81477361179,222.77580879554,222.77580879554,252.73293320218,252.70352114468,252.71584325918,252.72435203868,200.79263762383,200.69138593354,200.71296677587,200.78415690648,222.73277046348,252.74262336659,252.69465043956,252.70616625575,252.73323663123,243.22894979518,243.20322308899,243.21348330127,243.2239940685,204.55062331758,204.48806012236,222.73277046348,204.50557795141,204.54544882544,259.70724485391,259.67975755121,259.69327667403,259.69599568293,204.57585116645,204.46507606704,204.48046438723,204.5686346073,264.63800434976,259.7111092595,259.67621500621,259.68941778223,259.69954406505,243.24745493193,243.18633232211,243.19500626548,243.24091461357,264.63800434976,264.62431215211,264.62431215211,222.77164328079,222.77164328079,397.74210481626,397.62539347919,0
0.0002335,85249067.37706,6.8715949262365e-05,1.0231998339737,9.2575548590951e-10,-9.0962285472103e-10,9.1556871074372e-10,9.2708418947116e-10,1.3593435868888e-37,-1.341253242649e-37,-1.3124383781435e-37,1.2684526019871e-37,-48.884348177536,52.195934216339,-50.817628119626,49.637845570574,-9.2149807613436e-10,1.3171695958191e-37,1.4885822041642e-37,-1.4047818528751e-37,-1.3391220107401e-37,3.6998977362954e-25,-3.6379289171953e-25,-3.6834423420093e-25,3.612616295519e-25,-1.1488815882186,1.2012627752815,-9.127539801127e-10,-1.2002273198699,1.185007365412,6.478219549379e-55,-6.629931846309e-55,-6.2966059326679e-55,5.8534209137298e-55,-1.1665608541807,1.2079872676711,-1.182126696766,1.1794453503611,-2.4345332705482e-133,5.8195216042251e-55,7.9451698270415e-55,-7.440434331845e-55,-6.8544773058524e-55,3.7319985011495e-25,3.850577701294e-25,-3.7317461406631e-25,-3.6650802234084e-25,3.6041930446081e-135,-4.2809114414561e-134,-2.5230727779942e-134,9.074499169942e-10,-9.0541176097277e-10,222.83470835919,222.83470835919,222.79498041047,222.79498041047,252.78664074389,252.75668137058,252.76920063377,252.77783775753,200.76458385784,200.66119227556,200.68316810093,200.75581153218,222.75120980698,252.79648764959,252.74764359549,252.75936672464,252.78688923168,243.27365996723,243.24745334418,243.25784801008,243.26853177864,204.53343325269,204.4695704846,222.75120980698,204.4873389352,204.52800481602,259.76680513149,259.73880320308,259.75256293397,259.75530182658,204.55910101796,204.44610883492,204.46178628235,204.55167214328,264.70130651111,259.77073169367,259.73519422213,259.74864175813,259.75891651131,243.29246730087,243.2302418148,243.23906863488,243.28577290649,264.70130651111,264.6873413565,264.6873413565,222.79084537377,222.79084537377,397.61994230982,397.49839370288,0
0.000234,85588790.314093,6.8864570924046e-05,1.0232899894961,9.1678045164758e-10,-9.003034225762e-10,9.0617407417768e-10,9.1815681474115e-10,1.5420996789053e-37,-1.5272971744748e-37,-1.494407597667e-37,1.4281025266549e-37,-48.860143459549,52.238620171086,-50.83393859696,49.616236015303,-9.1233870502372e-10,1.4862506388208e-37,1.6948960946489e-37,-1.6034246551675e-37,-1.5130373954338e-37,3.8489784446801e-25,-3.7827134607315e-25,-3.8336639307162e-25,3.7434112213368e-25,-1.1418179862755,1.1950846836061,-9.0348368305362e-10,-1.1943165259248,1.1785366534794,8.8002912863465e-55,-9.1332201139676e-55,-8.7450348320794e-55,7.890427654864e-55,-1.160304266244,1.2017537966203,-1.1755557757218,1.173130627934,-4.4150872067215e-132,7.9415250917639e-55,1.0899561893288e-54,-1.0352955013686e-54,-9.3875189596968e-55,3.8746469604312e-25,4.011218752682e-25,-3.8876821651966e-25,-3.8012559329304e-25,6.6416137695405e-134,-7.9229671318733e-133,-4.3609155597853e-133,8.98300600243e-10,-8.9578221413137e-10,222.85500300669,222.85500300669,222.81450253677,222.81450253677,252.84050235493,252.80998953539,252.82270827991,252.83147675368,200.73699906729,200.63143268878,200.65381132545,200.7279341879,222.76998866737,252.8505082491,252.80078270658,252.81271517145,252.84069704245,243.31858163935,243.29188944616,243.30242079417,243.31328084644,204.51670894483,204.45152644372,222.76998866737,204.46955055764,204.51102574724,259.8264798228,259.79795787337,259.81196050026,259.81472105569,204.54282284456,204.42758059004,204.44355231894,204.53518096048,264.76469508015,259.83046942966,259.79428167041,259.80797612897,259.81840280443,243.3376955159,243.27435330371,243.28333464776,243.33084631338,264.76469508015,264.75045499745,264.75045499745,222.81039660047,222.81039660047,397.4986878159,397.37214488248,0
0.0002345,85929347.262068,6.9013191797175e-05,1.0233801844711,9.0855674320266e-10,-8.9170337957939e-10,8.9750492866156e-10,9.1001562727661e-10,1.7630240795513e-37,-1.754054836887e-37,-1.7171308803783e-37,1.619980646662e-37,-48.835200063199,52.281858779408,-50.850009129181,49.593866810635,-9.0393518228827e-10,1.6909059782076e-37,1.9455561797449e-37,-1.8461754963016e-37,-1.7235649931444e-37,4.0193851126047e-25,-3.9488918382469e-25,-4.0064591819588e-25,3.892385397764e-25,-1.1348594137863,1.1890279798814,-8.9498054040614e-10,-1.1885315656973,1.1721793504921,1.209757879266e-54,-1.2745476457367e-54,-1.2325800096257e-54,1.0770458177836e-54,-1.1541697919356,1.1956369581149,-1.1690944648546,1.1669392731851,-7.6314064394258e-131,1.1003920305737e-54,1.5146754712677e-54,-1.4599084948469e-54,-1.3037898855661e-54,4.0375322933107e-25,4.1948453632006e-25,-4.0667352465335e-25,-3.9567037075496e-25,1.1663072649556e-132,-1.4049190876195e-131,-7.1600716136456e-132,8.8990541499913e-10,-8.8688670096961e-10,222.87565523623,222.87565523623,222.83437284565,222.83437284565,252.89451665625,252.86344420639,252.87636483122,252.8852676707,200.70988116792,200.60210466747,200.62489422699,200.70052284092,222.78910459941,252.90468381088,252.85406633635,252.86621020423,252.89465870985,243.36371305546,243.33652959043,243.34719993012,243.35823956198,204.50044818422,204.433925563,222.78910459941,204.45221058654,204.49450947774,259.88626782696,259.85722041159,259.87146827357,259.87425227146,204.52701447879,204.40948887946,204.42576021081,204.51915891428,264.82816914836,259.89032137653,259.85347619904,259.8674197852,259.87800184673,243.38313786787,243.3186649771,243.32780253192,243.37613312924,264.82816914836,264.81365214023,264.81365214023,222.83029453411,222.83029453411,397.37835340911,397.24665589194,0
0.000235,86270710.67181,6.9161811635171e-05,1.023470411587,9.0108957317675e-10,-8.8382473898066e-10,8.8956307441227e-10,9.0266915219155e-10,2.0315744153183e-37,-2.0321498815233e-37,-1.9916016642567e-37,1.8519344264085e-37,-48.8095013126,52.325664005928,-50.865831034537,49.570757472664,-8.9629274231895e-10,1.9403239811109e-37,2.2520066025233e-37,-2.1446294626396e-37,-1.9800419462508e-37,4.2142364870758e-25,-4.1397334798264e-25,-4.2053750417113e-25,4.062092703858e-25,-1.1280060300253,1.1830931335545,-8.8725072010453e-10,-1.1828731397837,1.1659361706447,1.6822430106869e-54,-1.8007441738647e-54,-1.7617134377895e-54,1.4882035178811e-54,-1.1481575128465,1.1896373166575,-1.1627428624172,1.1608721173603,-1.2575077383455e-129,1.5473044023688e-54,2.1314569956003e-54,-2.0845644361889e-54,-1.8350168862986e-54,4.2236708100031e-25,4.4049362318714e-25,-4.2724500263111e-25,-4.1342406258983e-25,1.9510942893623e-131,-2.3867936386493e-130,-1.1166968906175e-130,8.8226920547251e-10,-8.787293081375e-10,222.89666271804,222.89666271804,222.85458899095,222.85458899095,252.94868227666,252.91704395538,252.93016892366,252.93920915024,200.68322805115,200.57320567738,200.59641455027,200.67357541271,222.8085551487,252.95901298691,252.90749305155,252.91985043504,252.94877287965,243.4090524658,243.38137197653,243.39218369276,243.4034062104,204.48464874096,204.41676538284,222.8085551487,204.43531675563,204.47845382416,259.94616805113,259.91658967116,259.93108515934,259.93389437509,204.51167372733,204.39183122466,204.40840764392,204.50360382075,264.89172781426,259.9502864507,259.9127766594,259.9269716227,259.93771254106,243.42879265089,243.36317502487,243.37247051671,243.42163164664,264.89172781426,264.87693185218,264.87693185218,222.85053674395,222.85053674395,397.25895076652,397.12193523459,0
0.0002355,86612853.433319,6.931043019981e-05,1.023560663731,8.9438633823808e-10,-8.7667139711068e-10,8.8235212296765e-10,8.9612843438765e-10,2.3598054705868e-37,-2.3752797933114e-37,-2.3321136113509e-37,2.1339472064665e-37,-48.783031320702,52.370049114807,-50.881396719752,49.546927398404,-8.8941892871578e-10,2.2463669931072e-37,2.6289948236204e-37,-2.5137293588736e-37,-2.2944524344586e-37,4.4372029267085e-25,-4.3591178533513e-25,-4.4346367349831e-25,4.2555316456824e-25,-1.1212579390069,1.177280532514,-8.8030263797054e-10,-1.1773418793679,1.1598077310236,2.3651235310778e-54,-2.5740231707996e-54,-2.5510962260775e-54,2.0805457443698e-54,-1.1422674384205,1.1837553668522,-1.1565009903782,1.1549298996289,-1.9759136584234e-128,2.2062678729541e-54,3.0357989089881e-54,-3.0111039878684e-54,-2.6150054699788e-54,4.4366377747086e-25,4.6456152795521e-25,-4.5090208506524e-25,-4.3371905001662e-25,3.1080701925224e-130,-3.8850128191292e-129,-1.6542375454868e-129,8.753989506021e-10,-8.7131627925279e-10,222.91802311284,222.91802311284,222.87514861129,222.87514861129,253.00299785356,252.97078735961,252.98411919632,252.99329983324,200.65703758633,200.54473315835,200.56837000909,200.64708978164,222.82833785345,253.01349443628,252.96106142314,252.97363448077,253.00303819823,243.45459812802,243.42641480924,243.43737035633,243.44877907328,204.46930836724,204.40004342334,222.82833785345,204.4188667667,204.46285656379,260.00617941102,259.97606451012,259.99081006842,259.99364626865,204.49679837335,204.37460512397,204.39149227841,204.48851345932,264.95537018391,260.01036357659,259.97218190703,259.98663054341,259.99753379174,243.47465816347,243.40788163979,243.41733683407,243.46734015719,264.95537018391,264.94029320352,264.94029320352,222.8711207972,222.8711207972,397.14049115262,396.9979910322,0
0.000236,86955748.968401,6.9459047261187e-05,1.0236509340115,8.8845674782201e-10,-8.7024922576116e-10,8.7587758301168e-10,8.9040720765063e-10,2.7631281461346e-37,-2.8011616348753e-37,-2.757314746967e-37,2.4787582646129e-37,-48.75577511963,52.415026735259,-50.896699659108,49.522395619001,-8.8332373996153e-10,2.6244048209229e-37,3.0955940851394e-37,-2.9727845738799e-37,-2.6822218468736e-37,4.6926092286105e-25,-4.6116551683008e-25,-4.699285599477e-25,4.4762268850567e-25,-1.114615192534,1.171590484084,-8.7414708772579e-10,-1.1719383427121,1.1537945466791,3.3600298948854e-54,-3.7196692827033e-54,-3.738975945194e-54,2.9411657333056e-54,-1.1364995059519,1.1779915334357,-1.1503687952005,1.1491132628687,-2.9614149800836e-127,3.1870999102847e-54,4.3738067699658e-54,-4.3956804419456e-54,-3.7694578158751e-54,4.6806779536014e-25,4.9217796634418e-25,-4.7814166387872e-25,-4.5694795419121e-25,4.7122897040304e-129,-6.0591731379438e-128,-2.3272503469762e-128,8.6930388311425e-10,-8.6465614801641e-10,222.93973407392,222.93973407392,222.89604933217,222.89604933217,253.0574620338,253.02467300277,253.03821429238,253.04753836108,200.63130762302,200.51668452694,200.54075828848,200.62106378574,222.84845024643,253.068126826,253.01477002729,253.02756096394,253.05745331377,243.50034830829,243.47165629983,243.4827581958,243.49435643019,204.45442479966,204.38375718679,222.84845024643,204.40285829176,204.44771543733,260.06630083157,260.03564379208,260.05064191768,260.05350685616,204.48238617892,204.35780805513,204.37501175074,204.47388557562,265.01909537133,260.07055168725,260.03169080254,260.04639545595,260.05746450553,243.52073270981,243.45278301873,243.46239971972,243.51325695304,265.01909537133,265.00373526814,265.00373526814,222.89204426087,222.89204426087,397.02298540089,396.87483101125,0
0.0002365,87299371.322853,6.9607662597683e-05,1.0237412157789,8.8331296707395e-10,-8.645661748052e-10,8.7014695640499e-10,8.8552208023738e-10,3.2612986851323e-37,-3.3327798592386e-37,-3.291610772043e-37,2.9026695817909e-37,-48.72771873784,52.460608879049,-50.911734426169,49.497180664811,-8.7801979151544e-10,3.0944185779293e-37,3.6765567758649e-37,-3.5468091984262e-37,-3.1632562215262e-37,4.9855574260637e-25,-4.9028320501471e-25,-5.005346090318e-25,4.7283263492352e-25,-1.1080777908765,1.1660232139753,-8.6879738528458e-10,-1.1666630142743,1.1478970273021,4.8203307576438e-54,-5.4296638720542e-54,-5.5405621222755e-54,4.2013370748601e-54,-1.1308535815239,1.1723461709855,-1.1443461489543,1.1434227519826,-4.2348736622621e-126,4.6595329598254e-54,6.3701923113502e-54,-6.4785522545091e-54,-5.4903802297303e-54,4.9608390810905e-25,5.2392545606907e-25,-5.0955305479164e-25,-4.8357506965862e-25,6.7956217951365e-128,-9.0556270253944e-127,-3.1086302545253e-127,8.6399561886965e-10,-8.5875988441313e-10,222.96179324944,222.96179324944,222.91728876827,222.91728876827,253.11207347436,253.07869947601,253.09245286002,253.10192337689,200.60603599321,200.48905717908,200.51357704693,200.59549522575,222.86888985681,253.12290883191,253.06861744639,253.08162851354,253.11201687754,243.54630128234,243.51709466721,243.52834548814,243.54013656026,204.43999576134,204.3679041602,222.86888985681,204.38728897558,204.43302815188,260.12653124745,260.09532638702,260.1105796307,260.11347504456,204.46843488741,204.34143747773,204.35896367599,204.45971788445,265.08290249902,260.13084972495,260.0913022124,260.1062652762,260.1175035927,243.56701460097,243.49787736392,243.50765741424,243.55938032838,265.08290249902,265.06725712444,265.06725712444,222.91330470362,222.91330470362,396.90644389831,396.75246249081,0
0.000237,87643695.257024,6.9756275995914e-05,1.0238315026453,8.7896977673782e-10,-8.5963238456034e-10,8.6516984230958e-10,8.8149274287152e-10,3.8797093978937e-37,-4.0000346530324e-37,-3.9670354878746e-37,3.4265964463062e-37,-48.698849230642,52.506806911765,-50.92649665096,49.471300468683,-8.7352249410887e-10,3.6824643753726e-37,4.4041085141432e-37,-4.2682806808583e-37,-3.7633034586497e-37,5.3220734891358e-25,-5.2391873936579e-25,-5.3600282544207e-25,5.0167168723562e-25,-1.1016456834047,1.1605788669143,-8.6426952692522e-10,-1.161516303399,1.1421154767538,6.9783653506079e-54,-7.9993211412284e-54,-8.2921515589085e-54,6.0596691618646e-54,-1.1253294595623,1.1668195615578,-1.1384328494929,1.1378588134678,-5.7801744304862e-125,6.886961611502e-54,9.3722089773933e-54,-9.6304802397593e-54,-8.0718919413348e-54,5.2831330403977e-25,5.6049803584206e-25,-5.458359366632e-25,-5.1415002746234e-25,9.3139842209322e-127,-1.2970583724317e-125,-3.9410995987688e-126,8.5948830203026e-10,-8.536410555137e-10,222.98419828461,222.98419828461,222.93886452586,222.93886452586,253.16683084313,253.13286537882,253.14683355334,253.15645352685,200.58122051366,200.46184849269,200.48682391879,200.57038186832,222.88965421214,253.17783913946,253.12260227002,253.13583576586,253.16672754509,243.5924553364,243.56272813915,243.5741305137,243.58611774381,204.42601896423,204.35248181775,222.88965421214,204.37215643819,204.41879238411,260.18686960364,260.15511117212,260.17062213844,260.17354974484,204.454942226,204.32549083583,204.34334565015,204.44600807291,265.14679069838,260.19125664175,260.15101500986,260.16623892798,260.17764996803,243.61350215612,243.54316288417,243.55310816425,243.60570858103,265.14679069838,265.13085785617,265.13085785617,222.93489969749,222.93489969749,396.79087656961,396.63089237121,0
0.0002375,87988696.331859,6.9904887250654e-05,1.0239217885027,8.7544474808109e-10,-8.5546031088835e-10,8.6095805317908e-10,8.7834219371858e-10,4.6510742498266e-37,-4.8419217343844e-37,-4.825746095763e-37,4.0774365537301e-37,-48.669154775235,52.553631596943,-50.940983005023,49.444772217671,-8.698502507538e-10,4.4226161152377e-37,5.3203297829409e-37,-5.1794524679826e-37,-4.5157365886649e-37,5.7092825798167e-25,-5.6285247700973e-25,-5.7719731107299e-25,5.3471619523725e-25,-1.0953187712105,1.1552575069551,-8.6058236472525e-10,-1.1564985436399,1.1364500906648,1.0187295745407e-53,-1.1884445219402e-53,-1.252101625129e-53,8.8176219367371e-54,-1.1199268652999,1.1614119155121,-1.1326286221029,1.1324217953092,-7.5329297960968e-124,1.027956216842e-53,1.3918755888211e-53,-1.4425048259359e-53,-1.1965589602858e-53,5.6547305210022e-25,6.0272391631021e-25,-5.8782185430253e-25,-5.4932412095579e-25,1.2119898205811e-125,-1.7807324205549e-124,-4.7396859661723e-125,8.5579876284841e-10,-8.4931600570841e-10,223.00694682393,223.00694682393,222.96077420512,222.96077420512,253.2217328195,253.18716931997,253.20135503326,253.21112746142,200.5568589882,200.4350558304,200.46049651675,200.54572144931,222.9107408402,253.23291644446,253.17672309587,253.19018136527,253.22158397752,243.63880876825,243.60855495331,243.62011155747,243.63229826397,204.41249211131,204.33748762336,222.9107408402,204.35745827756,204.40500578352,260.2473148559,260.21499703255,260.2307683798,260.23372987299,204.44190590818,204.3099655605,204.32815525256,204.43275380363,265.21075911009,260.25177140004,260.21082807569,260.22631534355,260.23790255183,243.66019370365,243.58863779603,243.59875022349,243.65224001395,265.21075911009,265.19453655317,265.19453655317,222.9568268197,222.9568268197,396.67629286519,396.51012712521,0
0.000238,88334350.98921,7.005349616475e-05,1.0240120675386,8.7275843644478e-10,-8.5206486097885e-10,8.5752574266298e-10,8.7609698791346e-10,5.6176317209229e-37,-5.9094175130741e-37,-5.9233550617086e-37,4.8898550224183e-37,-48.638624701693,52.601093141295,-50.955191240027,49.417612326358,-8.6702467416735e-10,5.3595463609416e-37,6.4803212553814e-37,-6.3353962407109e-37,-5.4638903850025e-37,6.1556184609479e-25,-6.0801690151262e-25,-6.2515502098654e-25,5.7264657824424e-25,-1.0890969089591,1.1500591194467,-8.5775779850392e-10,-1.1516099944504,1.1309009580009,1.4985503902432e-53,-1.7790628590883e-53,-1.9056249245295e-53,1.2934028441173e-53,-1.1146454559827,1.156123372648,-1.126933123621,1.1271119483756,-9.3774851293446e-123,1.5478015658986e-53,2.0849278079004e-53,-2.1751454677324e-53,-1.7866170905301e-53,6.0841961725469e-25,6.5159289720972e-25,-6.3649998782687e-25,-5.8986980510442e-25,1.4952558740618e-124,-2.343740260565e-123,-5.4027118692653e-124,8.5294669252727e-10,-8.4580405485715e-10,223.03003651342,223.03003651342,222.98301540262,222.98301540262,253.27677809502,253.24160991832,253.25601596842,253.26594383666,200.53294921002,200.40867654214,200.43459243437,200.52151167723,222.93214727092,253.28813945383,253.23097853068,253.244663965,253.27658484267,243.68535988799,243.65457335832,243.66628691047,243.67867640823,204.39941289875,204.32291903309,222.93214727092,204.34319207231,204.39166597579,260.30786597117,260.27498286223,260.29101730227,260.29401435106,204.42932363625,204.29485907239,204.31339004835,204.41995271796,265.27480688452,260.31239297302,260.27074029897,260.28649346423,260.29826027091,243.70708758227,243.63430032499,243.64458185391,243.69897293674,265.27480688452,265.25829231219,265.25829231219,222.97908365429,222.97908365429,396.56270175482,396.39017279485,0
0.0002385,88680636.624921,7.0202102549027e-05,1.0241023342493,8.7093459209607e-10,-8.4946354104112e-10,8.5488954271676e-10,8.7478750938687e-10,6.8340251949645e-37,-7.2693008280396e-37,-7.333381450393e-37,5.9086124404658e-37,-48.607249412651,52.64920112437,-50.969120051831,49.389836300701,-8.6507082381259e-10,6.5519568434068e-37,7.9564149339282e-37,-7.808004778163e-37,-6.664123061502e-37,6.6710736827691e-25,-6.6052762875447e-25,-6.8112183243824e-25,6.1626685287964e-25,-1.0829799054162,1.1449836105754,-8.558209846988e-10,-1.146850839913,1.1254680604765,2.219576140619e-53,-2.681292091297e-53,-2.9204756688609e-53,1.910884947015e-53,-1.1094848198024,1.1509540005795,-1.1213459413198,1.1219294266448,-1.1155754783916e-121,2.3485594202585e-53,3.1475649031537e-53,-3.2990465197574e-53,-2.6843851045233e-53,6.5817726098964e-25,7.0828956558407e-25,-6.930480294563e-25,-6.3670397836516e-25,1.7456385013553e-123,-2.9578572846474e-122,-5.8301794410078e-123,8.5095483314064e-10,-8.4312771539592e-10,223.05346500279,223.05346500279,223.00558571367,223.00558571367,253.33196537398,253.29618580368,253.31081503609,253.32090131546,200.50948896393,200.3827079678,200.40910924866,200.49775023667,222.95387103826,253.34350688635,253.28536719113,253.29928222791,253.33172881634,243.73210701901,243.70078161484,243.71265487101,243.72525047017,204.38677901807,204.30877349761,222.95387103826,204.32935538452,204.37877056613,260.36852192806,260.33506756457,260.35136786254,260.35440210815,204.4171931038,204.28016878424,204.29904759091,204.40760243931,265.33893318208,260.37312034518,260.33075057791,260.34677224091,260.35872205962,243.7541821422,243.68014870657,243.69060132679,243.74590566714,265.33893318208,265.32212423762,265.32212423762,223.00166779376,223.00166779376,396.45011171337,396.27103498065,0
0.000239,89027531.653643,7.0350706222163e-05,1.0241925834511,8.700003939646e-10,-8.4767661977171e-10,8.5306871741115e-10,8.7444826691259e-10,8.371070759962e-37,-9.0092182546787e-37,-9.1532005227919e-37,7.1916015726812e-37,-48.575020450356,52.697964607088,-50.982769154064,49.361458769865,-8.6401746843818e-10,8.0771403372682e-37,9.8437810985917e-37,-9.6912591380284e-37,-8.1898275249107e-37,7.2674984577385e-25,-7.2172087743901e-25,-7.4659626186658e-25,6.6652787673482e-25,-1.0769675261092,1.1400308109348,-8.5480056690912e-10,-1.1422211922418,1.1201512762171,3.307802847574e-53,-4.0654458176186e-53,-4.5030895323604e-53,2.8411870075295e-53,-1.1044444803118,1.1459037981487,-1.1158665990972,1.1168742918365,-1.2688361824676e-120,3.5876683517229e-53,4.7853786555578e-53,-5.0288882455481e-53,-4.0549079259536e-53,7.1597234367742e-25,7.7423349614014e-25,-7.5886917370388e-25,-6.9091577009232e-25,1.9232447971349e-122,-3.5801339796307e-121,-5.9454530745169e-122,8.498491865193e-10,-8.4131293339845e-10,223.07722994754,223.07722994754,223.02848273471,223.02848273471,253.38729337388,253.35089561757,253.36575092294,253.37599856869,200.48647602868,200.35714743983,200.38404452274,200.47443479181,222.97590968196,253.3990174732,253.33988770461,253.35403482719,253.38701458337,243.77904849868,243.74717799642,243.75921374596,243.77201875082,204.37458815832,204.29504846455,222.97590968196,204.31594576242,204.36631714271,260.42928171717,260.39525005309,260.41181902695,260.41489208134,204.4055119982,204.2658921034,204.28512542436,204.3957005764,265.40313717348,260.4339525127,260.39085782044,260.40715063451,260.41928686068,243.80147574606,243.72618118741,243.73680692368,243.79303653241,265.40313717348,265.38603144217,265.38603144217,223.02457684063,223.02457684063,396.33853072306,396.15271884608,0
0.0002395,89375015.563291,7.0499307010562e-05,1.0242828102876,8.699867011199e-10,-8.4672730331313e-10,8.5208532552512e-10,8.751182164238e-10,1.0320687016812e-36,-1.1244400981413e-36,-1.1511997929325e-36,8.8138083212126e-37,-48.541930421995,52.747392078331,-50.996139181637,49.332493380834,-8.6389737193071e-10,1.0037048317455e-36,1.2267898610837e-36,-1.2108158785224e-36,-1.0136685026379e-36,7.9589576733804e-25,-7.9319876019633e-25,-8.233824433032e-25,7.2455499607348e-25,-1.0710594955752,1.1352004761207,-8.5472892481351e-10,-1.1377210909137,1.1149503802586,4.9564936836395e-53,-6.1968876101905e-53,-6.9800999531772e-53,4.2480450590569e-53,-1.0995238958562,1.1409726958134,-1.1104945592387,1.1119465143393,-1.3804569338073e-119,5.512608308756e-53,7.3213240296373e-53,-7.6987548671024e-53,-6.1528844646245e-53,7.8327473792987e-25,8.5112794158289e-25,-8.3563641071408e-25,-7.5379968425724e-25,1.9916379245182e-121,-4.1570527518637e-120,-5.7141703955615e-121,8.4965924091572e-10,-8.4038935214323e-10,223.10132901105,223.10132901105,223.05170406561,223.05170406561,253.44276082597,253.40573801391,253.42082232588,253.43123427642,200.46390817918,200.33199228571,200.35939580831,200.4515629898,222.99826074934,253.45466995866,253.39453871007,253.40892044698,253.44244083878,243.82618267912,243.7937607905,243.80596185195,243.81897956029,204.36283800811,204.28174138083,222.99826074934,204.30296074322,204.35430327998,260.49014434143,260.45552925213,260.47236977207,260.47548321662,204.39427800303,204.2520264343,204.27162108596,204.38424472649,265.46741804003,260.49488848383,260.45106094493,260.46762761647,260.47995362611,243.84896676994,243.77239602626,243.78319693744,243.84036387077,265.46741804003,265.45001304759,265.45001304759,223.04780840899,223.04780840899,396.22796626673,396.03522911378,0
0.00024,89723068.959511,7.0647904748209e-05,1.0243730102358,8.709283297583e-10,-8.4664192665973e-10,8.5196440148168e-10,8.7684111107217e-10,1.2802345778428e-36,-1.4126574585285e-36,-1.4581404768316e-36,1.0872477353344e-36,-48.507972965359,52.797491520147,-51.009231690732,49.302952841568,-8.6474760587354e-10,1.2566361928473e-36,1.5394512207859e-36,-1.5219837657308e-36,-1.2629542870507e-36,8.762157211661e-25,-8.7688402468118e-25,-9.1365430276704e-25,7.9168092231062e-25,-1.065255499034,1.130492290683,-8.5564244538126e-10,-1.1333505084374,1.1098650497371,7.462467658727e-53,-9.4896738510324e-53,-1.0869015451401e-52,6.3823294007155e-53,-1.0947224626483,1.1361605572831,-1.1052292251063,1.107145977844,-1.4374068826927e-118,8.5129056879222e-53,1.1263698819643e-52,-1.182883630301e-52,-9.3714985460098e-53,8.618478166261e-25,9.4101879749927e-25,-9.2534554861647e-25,-8.2689510687837e-25,1.926493881793e-120,-4.6318920336993e-119,-5.1544112879765e-120,8.5041821814275e-10,-8.4039060110152e-10,223.12575986657,223.12575986657,223.07524731188,223.07524731188,253.49836647565,253.46071165971,253.47602795276,253.48660712897,200.44178318868,200.30723983051,200.33516064829,200.42913246423,223.02092179695,253.51046310057,253.44931885868,253.46393778306,253.49800628873,243.87350792791,243.84052829915,243.85289751651,243.86613121911,204.35152625768,204.26884969496,223.02092179695,204.29039785577,204.342726542,260.55110881636,260.51590409737,260.53301908512,260.53617446967,204.38348880047,204.23856918077,204.25853210851,204.37323247858,265.5317749739,260.55592727921,260.51135888081,260.52820216916,260.54072131803,243.89665360426,243.81879149496,243.8297696731,243.88788603261,265.5317749739,265.5140681852,265.5140681852,223.07136012586,223.07136012586,396.11842533059,395.9185700698,0
0.0002405,90071673.599558,7.0796499276509e-05,1.0244631791073,8.7286435214325e-10,-8.4745015933183e-10,8.5273414675921e-10,8.7966587909521e-10,1.5971512619577e-36,-1.7855780360984e-36,-1.8589715839662e-36,1.3493846432407e-36,-48.47314267982,52.848270357569,-51.022049091348,49.272848889796,-8.6660989183398e-10,1.5843226341921e-36,1.9442908884478e-36,-1.9237551164548e-36,-1.5831412878304e-36,9.6969529083505e-25,-9.7508622098501e-25,-1.0200332576021e-24,8.6948479840601e-25,-1.0595551846477,1.1259058688662,-8.5758181760499e-10,-1.129109349028,1.1048948662059,1.1282003476578e-52,-1.4590593322324e-52,-1.6990582753117e-52,9.6286801245622e-53,-1.0900395158613,1.1314671820644,-1.1000699456225,1.1024724833459,-1.4332315735084e-117,1.3202242082594e-52,1.7413741636156e-52,-1.8229290114508e-52,-1.4317721988659e-52,9.5380875948491e-25,1.0463660112836e-24,-1.030378651715e-24,-9.1203336775528e-25,1.7226374670865e-119,-4.9539653312982e-118,-4.3345537507983e-119,8.5216334121524e-10,-8.4135461365551e-10,223.15052019908,223.15052019908,223.09911008687,223.09911008687,253.55410908285,253.51581523566,253.53136652309,253.54211582791,200.42009883095,200.2828873992,200.31133657927,200.40714083841,223.04389039222,253.56639567093,253.50422681455,253.51908554338,253.55370965154,243.9210226287,243.88747883993,243.90001907917,243.91347205961,204.34065060089,204.25637085916,223.04389039222,204.27825462319,204.33158448563,260.61217417036,260.57637353641,260.59376596439,260.59696480674,204.37314207364,204.22551774842,204.24585602267,204.36266141647,265.59620717827,260.61706793219,260.57175056909,260.5888732862,260.60158890944,243.94453465464,243.86536587931,243.87652344875,243.93560138178,265.59620717827,265.57819599651,265.57819599651,223.09522963263,223.09522963263,396.00991440508,395.80274556675,0
0.000241,90420812.415074,7.0945090444113e-05,1.0245533130488,8.7583842238305e-10,-8.4918522769118e-10,8.5442614117655e-10,8.8364703211545e-10,2.0030688764919e-36,-2.269606117545e-36,-2.3840894145451e-36,1.684192145931e-36,-48.437435136721,52.899735492945,-51.03459458766,49.242192324403,-8.6953097305374e-10,2.0103523245579e-36,2.4703621960186e-36,-2.4438430585263e-36,-1.9955235951014e-36,1.0786957903714e-24,-1.0905816711356e-24,-1.1456822490928e-24,9.5983859133115e-25,-1.0539581663926,1.1214407592098,-8.6059235038211e-10,-1.1249974534584,1.1000393198655,1.711691106195e-52,-2.2510800521842e-52,-2.6647361191257e-52,1.4577044837672e-52,-1.0854743339322,1.1268923069323,-1.0950160172482,1.0979257540329,-1.3692527132574e-116,2.0548024242555e-52,2.703592597437e-52,-2.816178931344e-52,-2.1928289480403e-52,1.0617012710496e-24,1.1701300402342e-24,-1.1535799026001e-24,-1.0113937540023e-24,1.397106288963e-118,-5.0876417451526e-117,-3.359126985935e-118,8.5493612600583e-10,-8.4332397389264e-10,223.17560770711,223.17560770711,223.12329001372,223.12329001372,253.60998742239,253.57104743671,253.58683676864,253.59775908703,200.39885288235,200.25893231903,200.28792113392,200.3855857286,223.06716411496,253.62246645625,253.55926125531,253.57436244854,253.6095496585,243.96872518176,243.93461074655,243.94732489244,243.96100042711,204.3302087371,204.24430233153,223.06716411496,204.26652856546,204.32087466364,260.67333944487,260.63693652918,260.65460941962,260.6578532053,204.36323550884,204.21286954682,204.23359035924,204.35252912178,265.66071386749,260.67830948905,260.63223496287,260.64963997285,260.66255538486,243.99260834268,243.9121174799,243.9234565963,243.98350829669,265.66071386749,265.64239563371,265.64239563371,223.11941458629,223.11941458629,395.90243949156,395.68775903177,0
0.0002415,90770469.52375,7.1093678106731e-05,1.0246434085386,8.7989912473537e-10,-8.5188415392052e-10,8.5707556659116e-10,8.8884510656704e-10,2.524385205394e-36,-2.8996275368728e-36,-3.073996285955e-36,2.11299036005e-36,-48.400846706778,52.951893328776,-51.046872196947,49.210992983783,-8.735630217146e-10,2.5659839423284e-36,3.1562039599255e-36,-3.1186176044874e-36,-2.5279249624965e-36,1.2060267140415e-24,-1.2267101200248e-24,-1.2944194638194e-24,1.0649621398652e-24,-1.0484640261112,1.117096446025,-8.647243168462e-10,-1.1210146019824,1.0952978148499,2.6046943154944e-52,-3.4831908385389e-52,-4.1907356970302e-52,2.2132299871982e-52,-1.081026138155,1.1224356104382,-1.0900666899325,1.0935054380608,-1.254128146918e-115,3.2075688762816e-52,4.2127390980161e-52,-4.359046425802e-52,-3.3648041823316e-52,1.1885832095689e-24,1.3158765178285e-24,-1.2983462681545e-24,-1.1275701244655e-24,9.8695132737874e-118,-5.0189004844929e-116,-2.3468046261313e-117,8.5878269369132e-10,-8.4634629778986e-10,223.20102010443,223.20102010443,223.14778472736,223.14778472736,253.66600028424,253.62640697252,253.642437434,253.6535356332,200.37804312381,200.23537192178,200.26491184338,200.36446474713,223.0907405588,253.67867425799,253.61442087267,253.62976723236,253.66552505473,244.01661400451,243.98192236954,243.99481332276,244.00871468116,204.32019837302,204.23264157803,223.0907405588,204.25521720186,204.31059462772,260.73460369457,260.69759204845,260.71554847232,260.71883865469,204.35376679767,204.20062199168,204.22173265131,204.3428331768,265.72529426726,260.73965100918,260.69281102781,260.71050124625,260.72361974104,244.04087310662,243.9590446129,243.97056746226,244.03160517134,265.72529426726,265.70666626008,265.70666626008,223.14391266065,223.14391266065,395.79600610799,395.57361347347,0
0.000242,91120630.231131,7.1242262126954e-05,1.0247334623812,8.8510035444369e-10,-8.555880126114e-10,8.6072144784821e-10,8.9532713425013e-10,3.1955335020336e-36,-3.7217712026519e-36,-3.9826913180411e-36,2.6635058416022e-36,-48.363374609639,53.004749738366,-51.058886649753,49.179259810596,-8.78764079579e-10,3.2926661033449e-36,4.0529881363859e-36,-3.9958216673307e-36,-3.2167042657446e-36,1.3550321110901e-24,-1.3874915171377e-24,-1.4708557604566e-24,1.1874884182122e-24,-1.0430723168905,1.1128723537128,-8.7003332536164e-10,-1.1171605164392,1.0906696732289,3.9733285965389e-52,-5.4028455335354e-52,-6.6054154349779e-52,3.3682013263462e-52,-1.0766940981326,1.1180967130396,-1.0852211683842,1.0892111155273,-1.1019463931667e-114,5.0190513932854e-52,6.5843963423562e-52,-6.7571111435596e-52,-5.1703710036176e-52,1.3381321052892e-24,1.4879029043213e-24,-1.4687357926789e-24,-1.263650053405e-24,5.4211940355728e-117,-4.7577352417444e-115,-1.4069470164162e-116,8.6375410973037e-10,-8.5047464741919e-10,223.22675512157,223.22675512157,223.17259187626,223.17259187626,253.72214647377,253.68189256794,253.69816727711,253.70944420711,200.35766734278,200.21220354582,200.24230623942,200.34377550531,223.11461733256,253.73501789287,253.66970437294,253.68529864215,253.72163459986,244.06468753196,244.02941207682,244.04248275134,244.0566131965,204.31061722445,204.22138607444,223.11461733256,204.24431805333,204.30074193129,260.79596598745,260.75833908014,260.77658215602,260.77992015675,204.34473363914,204.18877250688,204.21028043632,204.33357116722,265.78994761463,260.80109156529,260.75347774247,260.77145613565,260.78478098742,244.08932740205,244.0061456107,244.01785440838,244.07989041629,265.78994761463,265.77100705045,265.77100705045,223.16872154749,223.16872154749,395.69061929885,395.46031149256,0
0.0002425,91471281.022238,7.1390842374009e-05,1.0248234716996,8.9150172486307e-10,-8.6034220386576e-10,8.6540691411893e-10,9.0316715095123e-10,4.061449081546e-36,-4.7970723188138e-36,-5.1821955106104e-36,3.371804700706e-36,-48.325016725072,53.058310142653,-51.070643334647,49.147000891464,-8.8519853537253e-10,4.2453812564282e-36,5.2287152621593e-36,-5.138132858849e-36,-4.1093696832568e-36,1.5296935253235e-24,-1.5777671025906e-24,-1.6805606361126e-24,1.3305408542254e-24,-1.0377825630766,1.1087678518007,-8.7658072009123e-10,-1.1134348642439,1.0861541395371,6.0730899613082e-52,-8.3972045893171e-52,-1.04300534361e-51,5.1352805264118e-52,-1.0724773327795,1.1138751836288,-1.0804786160394,1.085042303161,-9.2942887407702e-114,7.8683880808656e-52,1.0317320977379e-51,-1.0485381065897e-51,-7.9523419777306e-52,1.5147721264017e-24,1.6913916801815e-24,-1.6695968408696e-24,-1.4233087604255e-24,1.1535366690676e-116,-4.3358453874915e-114,-6.2100043443939e-116,8.6990675206919e-10,-8.5576798314728e-10,223.25281050733,223.25281050733,223.19770912413,223.19770912413,253.77842481196,253.73750296336,253.75402506971,253.76548356402,200.33772333508,200.18942453824,200.22010185665,200.32351561632,223.13879206149,253.79149619316,253.72511047743,253.7409554392,253.77787706868,244.1129442171,244.07707825425,244.09033157493,244.10469436414,204.30146301797,204.21053330817,223.13879206149,204.23382864471,204.29131413225,260.85742540495,260.81917662363,260.83770951651,260.84109672628,204.3361337416,204.17731852638,204.19923125809,204.32474068472,265.8546731581,260.86263024349,260.81423409873,260.83250368263,260.84603814671,244.13796970239,244.05341882259,244.06531581222,244.12836245952,265.8546731581,265.83541719147,265.83541719147,223.19383895755,223.19383895755,395.58628364658,395.34785529465,0
0.000243,91822409.544647,7.1539418723589e-05,1.0249134339259,8.991690023887e-10,-8.6619674560991e-10,8.7117947306267e-10,9.1244673909896e-10,5.1807900301782e-36,-6.2063304915551e-36,-6.7685856918097e-36,4.2848031403493e-36,-48.285771664196,53.112579392763,-51.082148316513,49.114223431632,-8.9293764799869e-10,5.4970799067899e-36,6.7738043281567e-36,-6.6278302251573e-36,-5.2679823462152e-36,1.7347525664709e-24,-1.8033698385175e-24,-1.9302624680511e-24,1.4978248046223e-24,-1.0325942670441,1.1047822543221,-8.8443400873959e-10,-1.1098372613684,1.081750386535,9.2967252713563e-52,-1.3071873604226e-51,-1.6491838887998e-51,7.840143185052e-52,-1.0683749144299,1.1097705390332,-1.0758381597728,1.08099845748,-7.5299594260191e-113,1.2352851389241e-51,1.6199662224538e-51,-1.6281419022976e-51,-1.2237815315024e-51,1.7238267034173e-24,1.9325956100608e-24,-1.9067222570485e-24,-1.6109204837711e-24,-2.4804480940774e-115,-3.800334914637e-113,-3.2848927567085e-116,8.7730269906859e-10,-8.6229166060182e-10,223.27918403009,223.27918403009,223.22313415149,223.22313415149,253.83483413552,253.79323691505,253.81000959768,253.82165247435,200.31820890662,200.16703225671,200.19829623448,200.30368269782,223.16326238845,253.84810800691,253.78063792282,253.796736399,253.83425125171,244.16138253126,244.12491930604,244.13835820651,244.15295659211,204.29273349251,204.20008077997,223.16326238845,204.22374650684,204.28230879548,260.91898104196,260.88010369207,260.89892961204,260.90236739152,204.3279648246,204.16625749607,204.18858266861,204.31633932942,265.91947015764,260.92426614338,260.87507910199,260.89364294124,260.90739025524,244.18679849943,244.10086261525,244.11295006774,244.17701974717,265.91947015764,265.89989588192,265.89989588192,223.21926262152,223.21926262152,395.48300328188,395.23624669994,0
0.0002435,92174004.582773,7.16879910576e-05,1.0250033467898,9.0817457726338e-10,-8.7320658596895e-10,8.7809130740503e-10,9.2325560611746e-10,6.630139784072e-36,-8.0565500898967e-36,-8.8700327351069e-36,5.46352445679e-36,-48.245638643676,53.16756195838,-51.09340825123,49.080933855282,-9.0206010913366e-10,7.1445547801646e-36,8.8085361985693e-36,-8.5729022285733e-36,-6.7735820332832e-36,1.9758568234953e-24,-2.071330216143e-24,-2.2280898488259e-24,1.6937357125688e-24,-1.0275069100644,1.1009148285543,-8.936673260616e-10,-1.1063672760566,1.0774575197557,1.4247493517011e-51,-2.0373737760442e-51,-2.6102514801617e-51,1.1981028193374e-51,-1.0643858718416,1.105782250835,-1.0712988931941,1.0770789814576,-5.8637997132007e-112,1.9412552546027e-51,2.5476375340093e-51,-2.52889573173e-51,-1.8836042600893e-51,1.9717018451729e-24,2.2190616016651e-24,-2.1870330773325e-24,-1.8316903850778e-24,-5.1786537283421e-114,-3.2051403780175e-112,3.5101957562625e-114,8.8601015488124e-10,-8.7011796883929e-10,223.30587347899,223.30587347899,223.24886465703,223.24886465703,253.89137329701,253.84909319542,253.86611966143,253.8779497242,200.29912187502,200.14502407133,200.1768869191,200.28427437447,223.18802597496,253.90485219811,253.83628546153,253.85264031153,253.89075595567,244.21000096436,244.17293365517,244.18656107588,244.2013983063,204.28442640077,204.19002600558,223.18802597496,204.21406917855,204.27372349525,260.98063200685,260.94111931256,260.96024151344,260.96373119449,204.32022462059,204.15558687552,204.17833222989,204.30836471215,265.98433788464,260.98599837805,260.93601177144,260.9548729781,260.96883636335,244.23581230372,244.1484753733,244.16075558572,244.22586074422,265.98433788464,265.96444233295,265.96444233295,223.24499029085,223.24499029085,395.38078190113,395.12548716147,0
0.000244,92526056.025183,7.1836559263945e-05,1.0250932083061,9.1859796173576e-10,-8.8143192769802e-10,8.8619958712242e-10,9.3569220183077e-10,8.5094860370701e-36,-1.048947504111e-35,-1.1657499287902e-35,6.9873187916412e-36,-48.204617423926,53.223261749228,-51.104430317621,49.047137786518,-9.126526501649e-10,9.3162136302366e-36,1.1492959024127e-35,-1.1115032516847e-35,-8.7319332981741e-36,2.2597333700783e-24,-2.3901247450405e-24,-2.5838622310621e-24,1.9234867908184e-24,-1.0225199538996,1.0971647945342,-9.0436192432279e-10,-1.1030244311609,1.0732745812215,2.1851080959837e-51,-3.178234020713e-51,-4.1340352287637e-51,1.8319226221554e-51,-1.0605091930971,1.1019097452551,-1.0668598776167,1.0732832287109,-4.3920778396926e-111,3.0525622689586e-51,4.0112694216872e-51,-3.9278881116554e-51,-2.8987390677369e-51,2.2661060580023e-24,2.5599010992058e-24,-2.5187972819349e-24,-2.0918104988947e-24,-6.8235227049055e-113,-2.6023215027641e-111,5.5360645381979e-113,8.9610389912165e-10,-8.7932671675495e-10,223.33287666508,223.33287666508,223.27489835899,223.27489835899,253.94804116493,253.90507059325,253.92235407617,253.93437411588,200.28046007115,200.12339736631,200.15587146517,200.26528828029,223.2130805022,253.96172764682,253.89205186196,253.90866598151,253.94739000392,244.25879802516,244.22111974373,244.23493863029,244.25001795116,204.27653951064,204.18036651717,223.2130805022,204.20479420851,204.26555581745,261.04237742148,261.00222252635,261.02164430426,261.02518719137,204.31291087655,204.14530413951,204.16847751551,204.30081445657,266.04927562194,261.04782607418,260.99703114031,261.01619287253,261.03037553569,244.28500964494,244.1962554997,244.20873079425,244.27488393511,266.04927562194,266.02905576825,266.02905576825,223.27101973858,223.27101973858,395.27962277546,395.01557777393,0
0.0002445,92878554.826452,7.1985123236283e-05,1.0251830167609,9.3052632467784e-10,-8.9093858439329e-10,8.9556680389581e-10,9.4986437375173e-10,1.0949358097955e-35,-1.3692893650322e-35,-1.5358959693283e-35,8.9593236095075e-36,-48.162708261047,53.279682233528,-51.115222206347,49.012840130109,-9.2481070569293e-10,1.2182351610323e-35,1.5040060091069e-35,-1.4440027956096e-35,-1.1280976505661e-35,2.5943950328081e-24,-2.7699758751081e-24,-3.0094394804635e-24,2.1932596583018e-24,-1.0176328452353,1.0935313310141,-9.1660670653043e-10,-1.0998082082428,1.0692005555016,3.3526245660382e-51,-4.9607626434123e-51,-6.5494403812059e-51,2.8016281328725e-51,-1.056743828475,1.0981524090031,-1.0625201481424,1.0696105076573,-3.1663802053048e-110,4.8013061813858e-51,6.3208087616107e-51,-6.0988442437926e-51,-4.458951221251e-51,2.616313926455e-24,2.9661164966663e-24,-2.911890089898e-24,-2.3986441428798e-24,-7.470494681952e-112,-2.0350893049198e-110,6.1549498014936e-112,9.0766577218121e-10,-8.9000587297344e-10,223.36019142226,223.36019142226,223.30123299627,223.30123299627,254.00483662367,253.96116791384,253.97871167211,253.99092446823,200.26222134053,200.10214954156,200.13524743758,200.24672206079,223.23842367188,254.01873324928,253.94793590868,253.96481222851,254.00415223678,244.30777224138,244.26947603317,244.28348933478,244.29881399023,204.26907060641,204.1710998648,223.23842367188,204.195919157,204.25780336168,261.10421642106,261.06341238893,261.08313708081,261.0867344527,204.30602135544,204.13540677955,204.15901611224,204.29368620116,266.11428266367,261.10974837189,261.0581362559,261.07760171653,261.09200685146,244.33438907216,244.2442014161,244.25687413898,244.32408782416,266.11428266367,266.09373542419,266.09373542419,223.29734875997,223.29734875997,395.17952877003,394.90651929304,0
0.000245,93231492.96351,7.2133682873794e-05,1.0252727706972,9.4405505929098e-10,-9.0179834340695e-10,9.0626112109441e-10,9.658900638604e-10,1.4120115068209e-35,-1.7915605206686e-35,-2.0278278187639e-35,1.1513518668771e-35,-48.119911909607,53.33682650874,-51.125792101053,48.978045090748,-9.3863912273585e-10,1.5968708352776e-35,1.973326620204e-35,-1.8791419082783e-35,-1.4600471199141e-35,2.989385331687e-24,-3.2232139242538e-24,-3.5191418490965e-24,2.5103817323516e-24,-1.012845018347,1.0900135802768,-9.3049879021606e-10,-1.0967180507382,1.0652343734005,5.1444482336749e-51,-7.7452460940206e-51,-1.0376302002836e-50,4.284152642316e-51,-1.053088695089,1.0945095930171,-1.0582787161155,1.066060087177,-2.1986645593457e-109,7.5513794259463e-51,9.96454503011e-51,-9.46406604964e-51,-6.8539823329109e-51,3.0334816122201e-24,3.450994862775e-24,-3.3781033543612e-24,-2.7609432661523e-24,-7.3022333558559e-111,-1.5337055728981e-109,5.8280869373218e-111,9.2078519161122e-10,-9.0225226231457e-10,223.38781560808,223.38781560808,223.32786632954,223.32786632954,254.06175857355,254.01738397915,254.03519129464,254.04759961698,200.24440354465,200.08127801421,200.11501241297,200.22857337504,223.264053207,254.07586791785,254.00393640265,254.02107788711,254.06104151177,244.35692215987,244.3180010045,244.33221167266,244.34778490666,204.26201748991,204.16222361766,223.264053207,204.18744159745,204.25046374309,261.16614815415,261.12468797011,261.14471895218,261.14837206358,204.29955383758,204.1258923053,204.14994562141,204.28697760098,266.17935831523,261.17176442472,261.11932617974,261.13909861483,261.15372940454,244.383949154,244.29231156315,244.3051840835,244.37347093604,266.17935831523,266.15848054988,266.15848054988,223.32397517311,223.32397517311,395.08050236134,394.79831215207,0
0.0002455,93584863.387729,7.2282238080928e-05,1.0253624688996,9.59288384156e-10,-9.1408935232304e-10,9.1835674533409e-10,9.8389804387279e-10,1.8244021660861e-35,-2.3487223988774e-35,-2.6820237385853e-35,1.4823828048292e-35,-48.07622951215,53.39469718429,-51.136148559457,48.942756178427,-9.5425292849336e-10,2.097433410667e-35,2.5949673891058e-35,-2.4488174767811e-35,-1.8924459521665e-35,3.4560692016028e-24,-3.7647137021586e-24,-4.1302539315288e-24,2.8835349600208e-24,-1.0081558966366,1.0866106495805,-9.4614410964847e-10,-1.0937533663225,1.0613749163753,7.8924312169059e-51,-1.2092992880579e-50,-1.6434976795963e-50,6.5485230181972e-51,-1.0495426784374,1.0909806137878,-1.0541345703038,1.0626311985078,-1.471500912724e-108,1.18723160462e-50,1.5710717532882e-50,-1.4673751988303e-50,-1.0525269395427e-50,3.5310240779068e-24,4.0305825964624e-24,-3.9315130226781e-24,-3.1891046622896e-24,-6.5669050730554e-110,-1.1144756092469e-108,4.9783502574066e-110,9.3555970353953e-10,-9.1617232063229e-10,223.41574710459,223.41574710459,223.35479614215,223.35479614215,254.11880593078,254.07371762784,254.09179180455,254.10439841503,200.22700456211,200.06078021983,200.09516398115,200.21083989751,223.28996685262,254.13313058112,254.0600521613,254.07746180699,254.11805670392,244.40624634662,244.36669315845,244.38110414587,244.39692920371,204.25537798159,204.15373536519,223.28996685262,204.17935911797,204.24353459425,261.22817178252,261.18604835411,261.20638904031,261.2100991239,204.29350612187,204.11675824572,204.14126366023,204.28068632939,266.24450189316,261.23387339961,261.18059998769,261.2006826849,261.21554230372,244.43368847891,244.34058440076,244.35365910955,244.42303181608,266.24450189316,266.2232904073,266.2232904073,223.3508968194,223.3508968194,394.98254564844,394.69095647311,0
0.000246,93938659.974712,7.2430788767174e-05,1.0254521103791,9.7633998467803e-10,-9.2789652775943e-10,9.3193431639712e-10,1.0040286950913e-09,2.3610931227297e-35,-3.0844369361503e-35,-3.5523672152704e-35,1.9115843286259e-35,-48.031662595814,53.453296477536,-51.146300549027,48.906976291013,-9.7177816086147e-10,2.7595098280783e-35,3.4190854701904e-35,-3.1947743937491e-35,-2.4557344352077e-35,4.0079777308977e-24,-4.4124211130037e-24,-4.8636286486563e-24,3.3230009916628e-24,-1.003564895682,1.0833216158116,-9.6365806220222e-10,-1.0909135300764,1.0576210207622,1.2102865951752e-50,-1.8877386743389e-50,-2.6017883406966e-50,1.0002985300986e-50,-1.0461046364737,1.0875647580137,-1.0500866816433,1.05932304163,-9.4988640309605e-108,1.8653796430337e-50,2.4766205145593e-50,-2.2726796673612e-50,-1.6143823319001e-50,4.1250655484991e-24,4.7242572379291e-24,-4.5889151909492e-24,-3.6954713874037e-24,-5.5189100167079e-109,-7.8128435452153e-108,3.9355983268795e-109,9.5209557125704e-10,-9.3188291858449e-10,223.4439838189,223.4439838189,223.382020241,223.382020241,254.1759776273,254.13016771534,254.14851207801,254.16131973261,200.21002228969,200.04065361377,200.07569974644,200.19351931976,223.31616237639,254.19052018379,254.11628201863,254.133962853,254.17519670581,244.45574338681,244.41555101558,244.43016527519,244.44624540503,204.24914992137,204.14563271814,223.31616237639,204.17166932271,204.23701356669,261.29028648102,261.2474926395,261.26814647991,261.27191474835,204.28787602686,204.10800215026,204.132967863,204.27481007954,266.30971272501,261.29607447665,261.24195676988,261.26235305688,261.27744467269,244.48360565514,244.38901840826,244.40229771721,244.47276903056,266.30971272501,266.28816427124,266.28816427124,223.378111564,223.378111564,394.88566037303,394.58445208618,0
0.0002465,94292877.47151,7.2579334846816e-05,1.0255416943574,9.9533368450605e-10,-9.4331197703235e-10,9.4708131731995e-10,1.0264348268145e-09,3.0598631895074e-35,-4.0565281615588e-35,-4.7105264750656e-35,2.4681898672798e-35,-47.986213089204,53.512626206614,-51.156257383006,48.870707691911,-9.9135275873654e-10,3.6354569823024e-35,4.5123661132383e-35,-4.1715983424376e-35,-3.1894593268846e-35,4.6612166182293e-24,-5.1879881131941e-24,-5.7444100613483e-24,3.8409488888653e-24,-0.99907142762033,1.0801455284817,-9.8316619202862e-10,-1.0881978874292,1.0539714814673,1.8546784391081e-50,-2.9455514668807e-50,-4.1157342790142e-50,1.5265731521536e-50,-1.042773403219,1.0842612854806,-1.0461340058395,1.0561347873127,-5.9182955980121e-107,2.9282702096748e-50,3.9023805342351e-50,-3.5154237418577e-50,-2.4727151521239e-50,4.8349765964428e-24,5.555415727568e-24,-5.370342994701e-24,-4.2946868170953e-24,-4.3751089396169e-108,-5.2869187976454e-107,2.919500476812e-108,9.7050839596637e-10,-9.4951225642616e-10,223.47252368371,223.47252368371,223.40953645728,223.40953645728,254.23327261072,254.18673311378,254.20535100672,254.21836245745,200.19345464332,200.02089567218,200.05661732885,200.17660935205,223.34263756913,254.24803568658,254.17262482519,254.19057990515,254.23246042775,244.50541188474,244.4645731163,244.47939360049,244.49573205496,204.24333116948,204.13791330952,223.34263756913,204.16436983308,204.2308983324,261.3524914374,261.30901993917,261.32999041842,261.33381806653,204.28266139182,204.09962158988,204.12505588219,204.26934656572,266.37499014917,261.35836684904,261.30339563072,261.3241088735,261.33943565012,244.53369931082,244.43761208454,244.45109842508,244.52268116685,266.37499014917,266.35310142931,266.35310142931,223.4056172961,223.4056172961,394.78984793617,394.4787985456,0
0.000247,94647511.443605,7.2727876238648e-05,1.0256312202513,1.0164041590152e-09,-9.6043544368877e-10,9.6389250677461e-10,1.0512825370569e-09,3.9699212806673e-35,-5.3415546066916e-35,-6.2517338212787e-35,3.1900420486065e-35,-47.939883158628,53.572687882057,-51.166028631283,48.833952058844,-1.0131275200444e-09,4.7944512915882e-35,5.9634219703489e-35,-5.4505974739798e-35,-4.1449350397491e-35,5.4349499111689e-24,-6.1175380223114e-24,-6.8028972861266e-24,4.4517721423914e-24,-0.99467489824244,1.0770814160729,-1.0048049212507e-09,-1.0856057572237,1.0504250543371,2.8396128291766e-50,-4.5932925116115e-50,-6.5042690583191e-50,2.3270741121736e-50,-1.0395477898667,1.0810694335466,-1.0422754836133,1.0530655799331,-3.5615531109464e-106,4.5916106012343e-50,6.1446643017528e-50,-5.4297021011279e-50,-3.7814264747607e-50,5.684013820791e-24,6.5523022627108e-24,-6.2996788618568e-24,-5.0041100372275e-24,-3.291812924708e-107,-3.4554156073864e-106,2.0495575883711e-107,9.9092379121137e-10,-9.6920082979087e-10,223.50136465777,223.50136465777,223.43734264707,223.43734264707,254.29068984413,254.24341271199,254.26230749788,254.27552549491,200.17729955885,200.00150389305,200.03791436524,200.16010772469,223.3693902453,254.30567606612,254.22907944818,254.24731185864,254.28984679777,244.55525046376,244.51375802087,244.52878768094,244.54538771878,204.23791960716,204.13057479534,223.3693902453,204.15745828891,204.22518658516,261.41478585214,261.37062938034,261.39192001599,261.39580822296,204.27786007749,204.09161415794,204.11752538946,204.26429352457,266.44033351478,261.42074972286,261.36491568889,261.38594929006,261.40151438966,244.58396809393,244.48636394815,244.50005977034,244.57276683358,266.44033351478,266.41810118189,266.41810118189,223.43341192923,223.43341192923,394.69510941113,394.37399514242,0
0.0002475,95002558.218023,7.2876412865787e-05,1.0257206876576,1.0396976839323e-09,-9.7937476509749e-10,9.8247035809962e-10,1.0787521238205e-09,5.1553193292024e-35,-7.0408458943646e-35,-8.3023990744913e-35,4.1260718403246e-35,-47.89267534915,53.633482630602,-51.175624193658,48.796710511965,-1.0372671355052e-09,6.3277895059197e-35,7.8899290995111e-35,-7.1248293664303e-35,-5.3886574128099e-35,6.3519721722043e-24,-7.2325880029289e-24,-8.0755756067005e-24,5.1724828307457e-24,-0.99037471566455,1.0741282851552,-1.0287223255465e-09,-1.0831364328001,1.0469804621764,4.3428599122686e-50,-7.1571298666116e-50,-1.0266807333726e-49,3.5425707010447e-50,-1.0364265894855,1.0779884179911,-1.0385100466598,1.0501145423414,-2.0715858382588e-105,7.1900922148871e-50,9.6664282033622e-50,-8.3725317407753e-50,-5.7726799944562e-50,6.7000804436181e-24,7.7490033484382e-24,-7.4053789417374e-24,-5.8443022509761e-24,-2.3609112433022e-106,-2.1825030452669e-105,1.3694089474026e-106,1.0134780803694e-09,-9.9110249009671e-10,223.53050472619,223.53050472619,223.46543669195,223.46543669195,254.34822830592,254.30020541534,254.31938047424,254.33280776796,200.16155499284,199.98247579701,200.01958851028,200.14401218941,223.39641824327,254.3634403148,254.28564477125,254.30415762379,254.34735476167,244.60525776615,244.56310430931,244.57834609506,244.59521098287,204.23291313721,204.12361485533,223.39641824327,204.15093234947,204.21987604178,261.47716893826,261.43232010432,261.45393444531,261.45788437706,204.27346996694,204.08397747097,204.1103740765,204.25964871628,266.50574218143,261.4832223169,261.42651607719,261.44787347426,261.46368005989,244.63441067225,244.53527253728,244.54918030883,244.62302466069,266.50574218143,266.48316284205,266.48316284205,223.46149340134,223.46149340134,394.60144556375,394.27004092397,0
0.000248,95358014.831775,7.3024944655397e-05,1.0258100963382,1.0653729248266e-09,-1.0002463511803e-09,1.0029255328474e-09,1.1090390293907e-09,6.6993648104218e-35,-9.2884674351002e-35,-1.1030121288511e-34,5.3394689449062e-35,-47.844592466023,53.695011281731,-51.185054184094,48.758983619977,-1.0639512985869e-09,8.3558141743899e-35,1.0448046321667e-34,-9.3156015904042e-35,-7.0066743453082e-35,7.4393848418163e-24,-8.5711604181295e-24,-9.6063452635431e-24,6.023172111837e-24,-0.98617028875374,1.0712851263039,-1.055078959148e-09,-1.0807891852281,1.0436363958766,6.6335063663817e-50,-1.1141499760611e-49,-1.6183563980525e-49,5.3846956310915e-50,-1.0334085790043,1.0750174374818,-1.0348366173103,1.047280777023,-1.1654362575044e-104,1.1241699119933e-49,1.5189474904208e-49,-1.2886956771545e-49,-8.7957384195585e-50,7.9166295155174e-24,9.1866427200289e-24,-8.7213295731881e-24,-6.8395955978521e-24,-1.6193395648584e-105,-1.3329743111208e-104,8.7437738776324e-106,1.0383190466955e-09,-1.0153855866496e-09,223.55994190074,223.55994190074,223.49381649942,223.49381649942,254.40588698958,254.35711014567,254.37656887403,254.39020821727,200.1462189231,199.96380892813,200.00163743733,200.12832052049,223.42371942571,254.4213274406,254.34231969458,254.36111612599,254.40498328295,244.65543245293,244.61261058134,244.62806744088,244.6452004548,204.22830968451,204.11703119352,223.42371942571,204.14478969441,204.21496444317,261.53963992108,261.49409126653,261.51603289159,261.52004570312,204.26948896614,204.07670916938,204.10359965587,204.25540992547,266.57121551912,261.54578386246,261.48819594252,261.50988060614,261.52593184427,244.68502573324,244.58433640982,244.59845861507,244.67345329945,266.57121551912,266.54828573545,266.54828573545,223.48985967497,223.48985967497,394.50885686558,394.16693470645,0
0.0002485,95713878.977239,7.3173471538462e-05,1.0258994462055,1.0936017571349e-09,-1.023175679434e-09,1.0253773618367e-09,1.1423548333422e-09,8.7103194741703e-35,-1.2261723557226e-34,-1.4656829624453e-34,6.9117281153231e-35,-47.795637589464,53.757274367563,-51.194328918446,48.720771419767,-1.0933758951572e-09,1.1036944519066e-34,1.3844833935624e-34,-1.2180864874488e-34,-9.1101700488711e-35,8.729395247614e-24,-1.0179121643672e-23,-1.1447983616722e-23,7.0275471365606e-24,-0.98206102925245,1.0685509158086,-1.0840487300907e-09,-1.0785632645467,1.0403915180773,1.0117972236464e-49,-1.7325222205529e-49,-2.5470449802956e-49,8.1707807165266e-50,-1.0304925217893,1.0721556759871,-1.0312541115536,1.0445633684871,-6.3459317444777e-104,1.7545941851976e-49,2.3836693204203e-49,-1.9796720771406e-49,-1.3374534461223e-49,9.3737347378855e-24,1.0914815322534e-23,-1.0287858802267e-23,-8.0187572565516e-24,-1.0649332546113e-104,-7.8769594786998e-104,5.3517997552662e-105,1.065606726476e-09,-1.0422342079667e-09,223.58967421996,223.58967421996,223.52248000334,223.52248000334,254.46366490346,254.41412584113,254.4338716509,254.44772580116,200.13128934922,199.94550085453,199.98405883929,200.11303051578,223.4512916798,254.47933646683,254.39910313466,254.41818630563,254.46273134276,244.70577320367,244.66227545622,244.67795033594,244.69535476343,204.22410719635,204.11082153867,223.4512916798,204.13902802457,204.21044955533,261.60219803803,261.55594203627,261.57821455237,261.58229139021,204.26591500451,204.06980691801,204.09719986167,204.25157496206,266.63675290796,261.60843360312,261.54995444567,261.5719698779,261.58826894104,244.73581198389,244.63355414325,244.64789328224,244.72405142245,266.63675290796,266.61346920023,266.61346920023,223.51850873719,223.51850873719,394.41734350845,394.06467508899,0
0.000249,96070148.94997,7.3321993449546e-05,1.0259887373087,1.1245701351478e-09,-1.0482978012559e-09,1.0499543459569e-09,1.1789282893613e-09,1.1328750484882e-34,-1.6195001005891e-34,-1.9475998543377e-34,8.9478031915774e-35,-47.745814058702,53.820272140005,-51.203458891408,48.682073437903,-1.1257542812681e-09,1.4579428955285e-34,1.8354605389471e-34,-1.5926033858792e-34,-1.1842584904955e-34,1.0260259593403e-23,-1.2111794639666e-23,-1.3663882430292e-23,8.213556169949e-24,-0.97804635443195,1.065924619303,-1.1158198284003e-09,-1.076457902227,1.0372444651525,1.5408723967131e-49,-2.6908676555889e-49,-4.0017502952354e-49,1.2375347958844e-49,-1.0276771696415,1.0694023046729,-1.0277614405418,1.0419613862005,-3.34672570954e-103,2.7333415501442e-49,3.7350898854401e-49,-3.034784893172e-49,-2.0292728440251e-49,1.1119358275738e-23,1.29933065984e-23,-1.2152930133585e-23,-9.4157633462925e-24,-6.7288680581789e-104,-4.5063437519434e-103,3.1477447641074e-104,1.0955142478819e-09,-1.071849533766e-09,223.61969974928,223.61969974928,223.55142516422,223.55142516422,254.52156107051,254.47125145596,254.49128777391,254.50535949553,200.11676429291,199.9275491689,199.9668504293,200.09813999767,223.47913291736,254.53746643195,254.45599402422,254.47536711799,254.52059793977,244.75627871624,244.71209757256,244.72799341729,244.74567255889,204.22030364274,204.10498364471,223.47913291736,204.13364506278,204.20632917025,261.66484253834,261.61787159656,261.64047863743,261.64462064208,204.26274603533,204.06326840665,204.09117245018,204.24814166208,266.70235373802,261.67117079451,261.61179076122,261.63414049381,261.6506905631,244.78676815051,244.6829243346,244.69748292214,244.77481772345,266.70235373802,266.67871258683,266.67871258683,223.54743859958,223.54743859958,394.32690541978,393.96326046869,0
0.0002495,96426823.597859,7.3470510326562e-05,1.0260779698204,1.1584789904291e-09,-1.0757578649524e-09,1.0767946721056e-09,1.2190064027361e-09,1.4737002940608e-34,-2.1398006312299e-34,-2.5875155739343e-34,1.1582658486339e-34,-47.695125469335,53.884004618756,-51.212454726414,48.642888700015,-1.1613186573915e-09,1.9256608059358e-34,2.4340430870996e-34,-2.0817916109553e-34,-1.5388673956926e-34,1.2077395221533e-23,-1.4435900860354e-23,-1.6330108673518e-23,9.6141152185984e-24,-0.97412568769929,1.0634051940001,-1.1505957129891e-09,-1.0744723117234,1.0341938507869,2.3426625704417e-49,-4.1738757854214e-49,-6.2754748655422e-49,1.8705969034313e-49,-1.024961265538,1.0667564852867,-1.0243575128463,1.03947388576,-1.7106304770621e-102,4.2492725579902e-49,5.8430613143706e-49,-4.6419705908718e-49,-3.0718947792979e-49,1.3210849183016e-23,1.5494152562403e-23,-1.4373549951611e-23,-1.1070699423594e-23,-4.0922637573759e-103,-2.4973457112336e-102,1.7826732262777e-103,1.1282287170851e-09,-1.1044512962529e-09,223.650016581,223.650016581,223.58064996946,223.58064996946,254.579574528,254.52848596028,254.54881622733,254.5631082938,200.10264179837,199.90995148898,199.95000994136,200.08364681389,223.50724107495,254.59571638928,254.51299131202,254.53265753311,254.57858209005,244.80694770653,244.76207558807,244.77819534151,244.79615251259,204.21689701656,204.09951529093,223.50724107495,204.12863855446,204.2026011066,261.72757268283,261.67987914396,261.70282436864,261.70703267705,204.25998003607,204.0570913504,204.08551520039,204.24510788825,266.76801740909,261.73399470402,261.67370407736,261.69639166999,261.71319593786,244.83789297851,244.73244560029,244.74722616513,244.82575091732,266.76801740909,266.74401525789,266.74401525789,223.5766472981,223.5766472981,394.23754227617,393.86268905406,0
0.00025,96783902.272081,7.3619022110556e-05,1.0261671440237,1.1955451697401e-09,-1.105711651015e-09,1.106046748993e-09,1.2628555544567e-09,1.9171392059416e-34,-2.8279781323474e-34,-3.4365251023401e-34,1.4989578991817e-34,-47.643575682148,53.948471598224,-51.221327205382,48.603215769434,-1.2003215385443e-09,2.5426694867046e-34,3.2282379038354e-34,-2.7202615813392e-34,-1.9986006867075e-34,1.4234691353818e-23,-1.7231898589276e-23,-1.9537845490998e-23,1.1267951286308e-23,-0.9702984613716,1.0609915910841,-1.1885961560017e-09,-1.0726056911468,1.0312382679492,3.5553023842668e-49,-6.4652126324e-49,-9.8211774271321e-49,2.8214651760127e-49,-1.022343545488,1.0642173721468,-1.0210412361843,1.0370999108942,-8.4799585611195e-102,6.5913608322006e-49,9.1243843997236e-49,-7.0838611910176e-49,-4.6390553650983e-49,1.5716711762682e-23,1.8504105880284e-23,-1.7017425605951e-23,-1.3030806447611e-23,-2.3991173350025e-102,-1.3414719418808e-101,9.7377062153203e-103,1.1639521540417e-09,-1.1402793700536e-09,223.68062283429,223.68062283429,223.61015243357,223.61015243357,254.63770432718,254.58582833986,254.60645601061,254.62097120675,200.0889199324,199.89270545783,199.93353513093,200.06954883825,223.53561411394,254.65408540672,254.57009396269,254.59005653565,254.63668282688,244.85777890815,244.81220817933,244.8285547846,244.84679331715,204.21388533363,204.09441428221,223.53561411394,204.12400626824,204.19926321052,261.79038774359,261.74196388832,261.76525097976,261.76952672783,204.25761500865,204.05127348997,204.08022591444,204.24247153052,266.83374333047,261.79690461059,261.73569359565,261.75872263427,261.77578430704,244.88918523212,244.78211657596,244.79712165997,244.87684973984,266.83374333047,266.80937658801,266.80937658801,223.60613289285,223.60613289285,394.14925351769,393.76295887862,0
0.0002505,97141384.780156,7.3767528745477e-05,1.0262562603008,1.2360024156443e-09,-1.1383261213715e-09,1.1378697521315e-09,1.3107626635034e-09,2.4937880382532e-34,-3.7380315744994e-34,-4.5618896839961e-34,1.9390688922703e-34,-47.591168812203,54.013672666744,-51.230087196978,48.563052676462,-1.2430373363731e-09,3.3558355951087e-34,4.2814563392699e-34,-3.5528512880068e-34,-2.5939535555996e-34,1.6796053046274e-23,-2.0596798489778e-23,-2.3396278281782e-23,1.322057922509e-23,-0.96656411712257,1.058682757777,-1.2300583493401e-09,-1.0708572235212,1.0283762897144,5.3855195171486e-49,-9.9998092058551e-49,-1.5337074667243e-48,4.2460835207878e-49,-1.0198227403214,1.0617841132381,-1.0178115190178,1.0348384935904,-4.0796138530835e-101,1.0200391037854e-48,1.4221207120989e-48,-1.0784235710031e-48,-6.988234361348e-49,1.8718689591341e-23,2.2127586457685e-23,-2.016491727417e-23,-1.535169373451e-23,-1.3576678566358e-101,-6.9886427463901e-101,5.1380350914381e-102,1.202902482468e-09,-1.1795954996724e-09,223.71151665503,223.71151665503,223.63993059829,223.63993059829,254.69594953305,254.64327759589,254.66420613821,254.67894726246,200.07559678452,199.87580874409,199.91742377534,200.05584397123,223.56425002051,254.71257256647,254.62730095654,254.64756312476,254.69489920055,244.90877107206,244.86249404152,244.87907044195,244.8975936863,204.21126663276,204.08967844909,223.56425002051,204.11974599649,204.19631335612,261.85328700375,261.80412505263,261.82775771633,261.83210204144,204.2556489795,204.04581259187,204.07530241803,204.24023050656,266.89953092078,261.85989980438,261.79775853091,261.82113262607,261.83845492659,244.94064369413,244.83193591636,244.84716807377,244.92811294753,266.89953092078,266.87479596361,266.87479596361,223.63589346791,223.63589346791,394.06203835793,393.66406781133,0
0.000251,97499271.340688,7.3916030177973e-05,1.0263453191208,1.2801023801708e-09,-1.1737799707374e-09,1.1724341837592e-09,1.3630363983345e-09,3.243221511767e-34,-4.9412146203652e-34,-6.052005699324e-34,2.5070236496307e-34,-47.537909228544,54.07960721404,-51.238745616679,48.522397038691,-1.2897640498672e-09,4.4263720306636e-34,5.6773674948237e-34,-4.6375713272714e-34,-3.3640005416709e-34,1.9837218238902e-23,-2.4647553406139e-23,-2.8036002279603e-23,1.5525431518401e-23,-0.9629221066805,1.0564776392871,-1.2752380810423e-09,-1.0692260767032,1.0256064740696,8.1419774275544e-49,-1.5443391195442e-48,-2.3896236281246e-48,6.3749081274406e-49,-1.017397577268,1.0594558533617,-1.0146672711282,1.0326886563807,-1.9059632130102e-100,1.5746570918428e-48,2.212032268862e-48,-1.6376601166048e-48,-1.0499805375365e-48,2.2314216813586e-23,2.6490208393863e-23,-2.391133376712e-23,-1.8098742596912e-23,-7.4253945042224e-101,-3.5332255570631e-100,2.6221833554214e-101,1.2453145707156e-09,-1.2226851694417e-09,223.74269621568,223.74269621568,223.66998253268,223.66998253268,254.75430922395,254.70083274466,254.72206563949,254.73703550611,200.06267046701,199.85925904216,199.90167367429,200.04253014061,223.59314680554,254.77117696473,254.68461128928,254.70517631389,254.75323027823,244.95992296628,244.91293188805,244.92974102821,244.94855235481,204.2090389756,204.08530564774,223.59314680554,204.11585555572,204.19374944604,261.91626975716,261.86636187271,261.89034383549,261.89475787895,204.25407999973,204.04070644859,204.07074256071,204.23838276213,266.96537960771,261.92297958653,261.8598981109,261.88362089615,261.90120706637,244.99226716554,244.88190229504,244.89736409178,244.97953931742,266.96537960771,266.94027278273,266.94027278273,223.66592713096,223.66592713096,393.97589579675,393.56601356904,0
0.0002515,97857562.541365,7.4064526357198e-05,1.0264343210307,1.3281156777103e-09,-1.2122641948404e-09,1.2099224437621e-09,1.4200084307114e-09,4.2165770986429e-34,-6.5315083305371e-34,-8.0228470924724e-34,3.2391335222227e-34,-47.483801539401,54.146274474589,-51.247313437736,48.481246012654,-1.3408250875379e-09,5.8340880872496e-34,7.526248749087e-34,-6.049374225004e-34,-4.3587173587243e-34,2.3447895302608e-23,-2.9525139857599e-23,-3.3613038856902e-23,1.8245162532839e-23,-0.95937189407833,1.0543751795717,-1.3244109798269e-09,-1.0677114048488,1.0229273648388,1.2284478621635e-48,-2.381326961948e-48,-3.7142794422509e-48,9.5474481814662e-49,-1.0150667807901,1.0572317342909,-1.0116074063122,1.0306494130278,-8.6528306137959e-100,2.4245622141021e-48,3.4334208693136e-48,-2.4805125052914e-48,-1.573387498197e-48,2.6619297494065e-23,3.1742993769204e-23,-2.8369631336825e-23,-2.134872865196e-23,-3.9292872864123e-100,-1.7345025491569e-99,1.2958935695939e-100,1.2914413290289e-09,-1.2698596417281e-09,223.77415971498,223.77415971498,223.70030633312,223.70030633312,254.81278249124,254.75849281727,254.7800335585,254.79523499978,200.05013911481,199.84305407225,199.88628265013,200.02960530184,223.62230250454,254.82989771132,254.74202397187,254.76289513061,254.81167514361,245.01123337542,244.96352045028,244.98056527716,244.99966807828,204.20720044651,204.08129375993,223.62230250454,204.11233278698,204.19156941186,261.97933530807,261.92867359698,261.95300860577,261.95749351535,204.25290614497,204.03595287861,204.06654421614,204.23692627129,267.0312888278,261.98614326886,261.92211157618,261.94618670642,261.96404001004,245.04405446521,244.93201440418,244.94770841725,245.03112764676,267.0312888278,267.00580645481,267.00580645481,223.69623201296,223.69623201296,393.8908246312,393.46879372729,0
0.000252,98216259.300569,7.4213017234555e-05,1.0265232666428,1.3803329699142e-09,-1.2539826689173e-09,1.250529423876e-09,1.4820347148029e-09,5.4798686272572e-34,-8.6328193047184e-34,-1.0626299989061e-33,4.1817015163061e-34,-47.428850661573,54.213673545956,-51.255801629782,48.439596293594,-1.3965712037513e-09,7.6828496390606e-34,9.9732851109287e-34,-7.8849721491242e-34,-5.641902182985e-34,2.7734276260571e-23,-3.5399471419721e-23,-4.0313560850286e-23,2.1453152262274e-23,-0.95591295407048,1.05237432729,-1.3778738312187e-09,-1.0663123504828,1.0203374899072,1.8496420250944e-48,-3.6661560764703e-48,-5.7587969292193e-48,1.4262282453753e-48,-1.0128290766001,1.0551108986343,-1.0086308412693,1.0287197674032,-3.8196519090114e-99,3.7231785370736e-48,5.3175016304833e-48,-3.7472713455754e-48,-2.3512506159395e-48,3.1771882025566e-23,3.8067402222147e-23,-3.3673583504269e-23,-2.5191693129801e-23,-2.0138364065244e-99,-8.2729390074465e-99,6.2085117930681e-100,1.3415548789815e-09,-1.3214581519781e-09,223.80590537772,223.80590537772,223.73090012333,223.73090012333,254.87136843894,254.81625685935,254.83810895387,254.85354482231,200.03800088536,199.82719158037,199.87124854821,200.01706743847,223.65171517753,254.88873392937,254.79953803017,254.82071861646,254.87023289675,245.06270110033,245.0142584771,245.03154194159,245.05093963297,204.20574915231,204.07764069289,223.65171517753,204.1091755562,204.18977121447,262.04248297087,261.99105948624,262.01575130694,262.02030823929,204.25212551536,204.03154972646,204.06270528234,204.23585903664,267.09725802618,262.04939017355,261.98439817982,262.00882932983,262.02695305475,245.09600442952,244.98227095434,244.99819977124,245.08287675274,267.09725802618,267.07139640048,267.07139640048,223.72680626778,223.72680626778,393.80682346608,393.3724057327,0
0.0002525,98575362.82212,7.4361502763582e-05,1.0266121566279,1.4370660960281e-09,-1.2991527135161e-09,1.2944630871594e-09,1.5494968406683e-09,7.1182315560457e-34,-1.1408446888788e-33,-1.4060921980844e-33,5.3936631512e-34,-47.373061775429,54.281803357157,-51.26422121311,48.397444155059,-1.4573826033912e-09,1.0107578189651e-33,1.3209403985757e-33,-1.0268987405353e-33,-7.2948424288769e-34,3.2821989518544e-23,-4.2475316583675e-23,-4.8359445000759e-23,2.5235235648862e-23,-0.95254477631694,1.050474030062,-1.4359459844032e-09,-1.0650280413766,1.0178353691364,2.7791280403624e-48,-5.6352788749433e-48,-8.9055109943562e-48,2.124922677229e-48,-1.0106831894135,1.0530924874931,-1.0057365005546,1.0268987160174,-1.6405156729165e-98,5.7014679621784e-48,8.2168140892977e-48,-5.6457591310589e-48,-3.503823035942e-48,3.7935820437046e-23,4.5681333562781e-23,-3.9981503705449e-23,-2.9733096611058e-23,-1.000619497832e-98,-3.8360162314899e-98,2.8863929791934e-99,1.3959477580944e-09,-1.3778503251294e-09,223.83793145441,223.83793145441,223.76176205432,223.76176205432,254.93006618336,254.87412393068,254.89629089862,254.91196406907,200.02625395837,199.81166933829,199.8565692371,200.00491456246,223.68138290882,254.94768475498,254.85715250473,254.87864582673,254.92890265374,245.11432495763,245.06514473459,245.08266979313,245.1023658157,204.20468322195,204.07434437902,223.68138290882,204.10638175447,204.18835284436,262.10571206975,262.0535188133,262.07857122982,262.08320135294,204.25173623532,204.02749486257,204.05922368177,204.23517908947,267.16328665643,262.11271963284,262.04675718713,262.07154805011,262.08994551098,245.14811591193,245.03267067414,245.04883689243,245.13478547222,267.16328665643,267.13704205132,267.13704205132,223.75764807167,223.75764807167,393.72389072286,393.27684690997,0
0.000253,98934874.567947,7.450998289973e-05,1.0267009917058,1.4986492352903e-09,-1.3480056849166e-09,1.3419450803929e-09,1.6228034053652e-09,9.2413581566253e-34,-1.5073533089443e-33,-1.8585799987888e-33,6.9498921031478e-34,-47.316440342279,54.350662700308,-51.27258313536,48.354785477107,-1.5236711734742e-09,1.32832023798e-33,1.7485402904854e-33,-1.3361794436386e-33,-9.4209072891011e-34,3.8859568523402e-23,-5.0999423391433e-23,-5.8014783486373e-23,2.9691689448659e-23,-0.94926686318926,1.0486732402344,-1.4989708327137e-09,-1.0638575929786,1.0154195120661,4.166883448131e-48,-8.6484076841011e-48,-1.3734636274732e-47,3.1573088734173e-48,-1.0086278459056,1.0511756434701,-1.002923313669,1.025185247329,-6.8594995920607e-98,8.705922576669e-48,1.2667486333122e-47,-8.4829119882194e-48,-5.2064246635696e-48,4.5305483797045e-23,5.4846283274031e-23,-4.7480612506738e-23,-3.509629566892e-23,-4.824380740701e-98,-1.7301713162756e-97,1.303420034045e-98,1.4549342152051e-09,-1.4394387665112e-09,223.87023622087,223.87023622087,223.79289030427,223.79289030427,254.98887485271,254.93209310495,254.95457847998,254.97049185172,200.01489653554,199.79648514338,199.84224260879,199.9931447144,223.71130380684,255.00674933683,254.91486645054,254.93667583029,254.9876835465,245.16610377932,245.11617800559,245.13394762206,245.15394544352,204.20400080615,204.07140277571,223.71130380684,204.10394929823,204.18731232185,262.16902193839,262.11605086283,262.14146767608,262.14617217173,204.25173645335,204.02378618323,204.05609736149,204.23488448978,267.22937418024,262.17613098873,262.10918787548,262.13434216157,262.15301670224,245.2003877826,245.08321231003,245.09961853688,245.18685266137,267.22937418024,267.20274284968,267.20274284968,223.78875562288,223.78875562288,393.6420246478,393.18211447216,0
0.0002535,99294796.221359,7.465845760019e-05,1.0267897726371,1.5654401033643e-09,-1.4007875582459e-09,1.3932113380813e-09,1.7023914378828e-09,1.199045188716e-33,-1.9911436192524e-33,-2.4538359658635e-33,8.9453285859997e-34,-47.258992139743,54.420250277944,-51.280898323326,48.311615711379,-1.5958828933967e-09,1.7436080485169e-33,2.3130353399891e-33,-1.736950821055e-33,-1.2151285738396e-33,4.6022524101759e-23,-6.1269100903824e-23,-6.9593509223707e-23,3.4939510191158e-23,-0.94607873087216,1.0469709152216,-1.5673173902249e-09,-1.0628001072541,1.0130884201703,6.2343953960791e-48,-1.3252066970247e-47,-2.1123773457406e-47,4.6782298599452e-48,-1.0066617758372,1.0493595115173,-1.0001902184113,1.0235783417467,-2.793956298762e-97,1.3254546850129e-47,1.948274299489e-47,-1.2710698583651e-47,-7.7137954737204e-48,5.4111157326428e-23,6.5875871646845e-23,-5.6392160617353e-23,-4.1425383650398e-23,-2.2589914442927e-97,-7.5951422895954e-97,5.7222224400198e-98,1.5188515569447e-09,-1.5066618943827e-09,223.90281797782,223.90281797782,223.82428307842,223.82428307842,255.04779358675,254.99016346932,255.01297079919,255.02912729801,200.00392684018,199.7816368185,199.82826657887,199.9817559637,223.74147600392,255.06592683582,254.97267893668,254.99480770933,255.04657472239,245.21803641226,245.16735708933,245.18537423717,245.20567735353,204.203700077,204.068813865,223.74147600392,204.10187612947,204.18664769723,262.23241191964,262.17865493098,262.20443995806,262.20922002412,204.25212434163,204.02042161039,204.05332429322,204.23497332625,267.29552006727,262.23962359269,262.171689534,262.19721096897,262.21616596486,245.25281892795,245.13389462596,245.15054347787,245.2390771953,267.29552006727,267.26849824841,267.26849824841,223.82012714114,223.82012714114,393.56122332219,393.08820553092,0
0.000254,99655129.655245,7.4806926823735e-05,1.026878500216,1.6378211859565e-09,-1.4577595102408e-09,1.4485127039469e-09,1.788727861966e-09,1.5547120733075e-33,-2.6295266484465e-33,-3.2357200558383e-33,1.1500122895226e-33,-47.200723264727,54.490564639163,-51.28917760913,48.26792994359,-1.6745004167582e-09,2.2858543568741e-33,3.0575550806712e-33,-2.2556694146655e-33,-1.5652139478777e-33,5.4518124888961e-23,-7.3642555807518e-23,-8.3468309394705e-23,4.1115021221476e-23,-0.94297991005527,1.0453660171454,-1.6413819720815e-09,-1.0618546729606,1.0108405886273,9.3081222860731e-48,-2.0275655902298e-47,-3.2395889573787e-47,6.9121048136792e-48,-1.0047837125401,1.0476432385388,-0.99753616035975,1.0220769711988,-1.1092177033202e-96,2.0119035332971e-47,2.9892998748943e-47,-1.8992698661647e-47,-1.139481501657e-47,6.4625325403446e-23,7.9146002833127e-23,-6.6977436802503e-23,-4.8888444521448e-23,-1.0281167376065e-96,-3.2468974166929e-96,2.4443940440833e-97,1.5880615855258e-09,-1.5799970134729e-09,223.93567505046,223.93567505046,223.85593860891,223.85593860891,255.10682153634,255.04833412418,255.07146697135,255.08786955153,199.9933431168,199.76712221172,199.81463908665,199.97074640869,223.77189765601,255.12521642467,255.03058904614,255.05304055927,255.10557534397,245.27012171778,245.21868080098,245.2369484655,245.25756040266,204.2037792274,204.06657565321,223.77189765601,204.1001602159,204.1863570509,262.29588136522,262.24133032516,262.26748739859,262.27234425139,204.25289809574,204.0173990915,204.05090247336,204.23544371622,267.36172379487,262.30319680528,262.23426146334,262.26015378727,262.27939264769,245.30540825021,245.18471640312,245.20161050561,245.29145796772,267.36172379487,267.33430771067,267.33430771067,223.85176086708,223.85176086708,393.48148466753,392.99511710227,0
0.0002545,100015876.90379,7.4955390530555e-05,1.0269671752636,1.7162010148846e-09,-1.5191985090723e-09,1.5081155509832e-09,1.8823110071748e-09,2.0144745407641e-33,-3.4716216196765e-33,-4.2611310632628e-33,1.4766029942255e-33,-47.141640135951,54.5616042424,-51.297431754331,48.223722879804,-1.76004584212e-09,2.9927370026474e-33,4.0385652743629e-33,-2.926252596879e-33,-2.0133498834652e-33,6.4591005376101e-23,-8.8551345246398e-23,-1.0008103027912e-22,4.8376852203752e-23,-0.93996994515125,1.0438575142131,-1.7215899721452e-09,-1.0610203651141,1.0086745078795,1.3868372178361e-47,-3.097659387521e-47,-4.9538582524298e-47,1.0183098352092e-47,-1.0029923939007,1.0460259748704,-0.99496009467453,1.0206800993333,-4.2947118796439e-96,3.0444944316485e-47,4.575526923908e-47,-2.8300378510611e-47,-1.6781819402942e-47,7.7169984539218e-23,9.5106959778437e-23,-7.954480946056e-23,-5.7681273312349e-23,-4.5515962977904e-96,-1.3524847414414e-95,1.0168751620947e-96,1.6629520832622e-09,-1.6599636528669e-09,223.96880578791,223.96880578791,223.88785515461,223.88785515461,255.16595786311,255.10660418274,255.13006612519,255.14671777142,199.98314363058,199.75293919609,199.80135809524,199.96011417666,223.80256694247,255.18461728757,255.08859587547,255.11137348843,255.16468458864,245.32235857114,245.27014797126,245.28866915219,245.30959346734,204.20423647061,204.06468617051,223.80256694247,204.09879955102,204.1864384934,262.35942963537,262.30407636376,262.3306093308,262.33554420736,204.25405593417,204.01471659925,204.04882992302,204.2362938055,267.42798484788,262.3668499959,262.29690297541,262.32316994145,262.34269611189,245.35815466698,245.23567643961,245.2528184271,245.34399389052,267.42798484788,267.40017070966,267.40017070966,223.88365506171,223.88365506171,393.40280645441,392.90284611647,0
0.000255,100377040.1343,7.5103848682111e-05,1.0270557986212,1.801015464748e-09,-1.5853978983881e-09,1.5723024023786e-09,1.9836721689106e-09,2.6083007473065e-33,-4.5820835812899e-33,-5.603735693775e-33,1.8934339683123e-33,-47.081749537461,54.633367418046,-51.305671365506,48.178988892622,-1.8530836940679e-09,3.9127201485293e-33,5.3299131041414e-33,-3.7921311867571e-33,-2.5860300450658e-33,7.6529747507765e-23,-1.065153822114e-22,-1.1995480258822e-22,5.6909336763868e-23,-0.93704839505969,1.0424443809382,-1.8083977573496e-09,-1.0602962443112,1.0065886648647,2.0620630553409e-47,-4.7259584322824e-47,-7.5527774590191e-47,1.4957868523139e-47,-1.0012865635456,1.04450687331,-0.99246098546934,1.019386680876,-1.6226188086493e-95,4.5926755942589e-47,6.9865529930394e-47,-4.2051960748029e-47,-2.4640397261482e-47,9.212513811501e-23,1.1429779988832e-22,-9.445798014071e-23,-6.8031622118252e-23,-1.9615666894584e-95,-5.4925032172286e-95,4.1229854793197e-96,1.7439384070972e-09,-1.7471271941739e-09,224.00220856275,224.00220856275,223.92003100089,223.92003100089,255.225201739,255.16497277069,255.18876740289,255.20567113217,199.97332666691,199.73908566933,199.78842159163,199.94985742389,223.83348206574,255.24412861972,255.1466985345,255.16980561793,255.22390164835,245.37474586108,245.32175744596,245.34053516022,245.36177544329,204.20507003962,204.06314347056,223.83348206574,204.09779215423,204.18689016547,262.42305609853,262.36689237581,262.3938050979,262.39881925821,204.25559609784,204.0123721313,204.04710468797,204.23752176818,267.4943027184,262.43058254241,262.35961339312,262.38625876635,262.40607573059,245.41105711072,245.28677355016,245.3041660658,245.39668389339,267.4943027184,267.4660867284,267.4660867284,223.91580800586,223.91580800586,393.32518630812,392.81138942404,0
0.0002555,100738621.62306,7.5252301240996e-05,1.0271443711446,1.8927291122638e-09,-1.6566679753836e-09,1.6413725672323e-09,2.0933772108031e-09,3.3746450447823e-33,-6.0460095330274e-33,-7.3587177264555e-33,2.4245690799871e-33,-47.021058600138,54.705852387376,-51.313906916622,48.13372200951,-1.9542241162105e-09,5.108015642345e-33,7.028078075473e-33,-4.9088553759563e-33,-3.3166051569883e-33,9.0674598986389e-23,-1.2816101953492e-22,-1.4370814883237e-22,6.6926382710461e-23,-0.93421483280701,1.0411255984542,-1.9022946839261e-09,-1.0596813562049,1.0045815442649,3.0599570586209e-47,-7.200784391963e-47,-1.1480381092478e-46,2.1905918678945e-47,-0.99966497022371,1.04308509009,-0.99003780722319,1.0181956614292,-5.9855567605266e-95,6.906194029342e-47,1.0642370391353e-46,-6.2312267866465e-47,-3.6067809843362e-47,1.0993865241959e-22,1.3736347959431e-22,-1.1214565649151e-22,-8.0204038887211e-23,-8.2351665519626e-95,-2.1758215178583e-94,1.6306506276224e-95,1.8314651439029e-09,-1.842102815834e-09,224.03588177041,224.03588177041,223.95246445939,223.95246445939,255.2845523459,255.22343902589,255.24756995988,255.26472882329,199.96389053074,199.72555955354,199.77582758676,199.93997433557,223.8646412511,255.303749627,255.2048961461,255.22833608145,255.28322572923,245.42728248932,245.37350808555,245.39254537026,245.41410524519,204.20627818652,204.06194562996,223.8646412511,204.0971360709,204.18771023795,262.48676013107,262.42977770078,262.45707405305,262.46216878217,204.25751684962,204.01036371005,204.04572483868,204.23912580644,267.56067690554,262.49439383087,262.42239205012,262.44941960644,262.46953088865,245.46411452827,245.3380065658,245.35565226149,245.44952692338,267.56067690554,267.5320552595,267.5320552595,223.94821799954,223.94821799954,393.248621715,392.72074380288,0
0.000256,101100623.73044,7.5400748170801e-05,1.027232893699,1.9918366090253e-09,-1.7333365730308e-09,1.7156427598202e-09,2.2120282127047e-09,4.3628192567738e-33,-7.9753978262573e-33,-9.6488129036377e-33,3.1002186067936e-33,-46.959574833689,54.77905727474,-51.322148697489,48.087915973004,-2.0641263113392e-09,6.6583199086108e-33,9.2589834625415e-33,-6.3474012660725e-33,-4.2469705131165e-33,1.0742652765903e-22,-1.5424284785297e-22,-1.7207137335394e-22,7.8675870600504e-23,-0.93146884403271,1.0399001553863,-2.0038052553266e-09,-1.0591747303107,1.0026516303128,4.5320649665652e-47,-1.0958356991277e-46,-1.7396914761632e-46,3.198449227342e-47,-0.99812637062593,1.0417597847948,-0.98768954535566,1.0171059773161,-2.156918094342e-94,1.0351827163063e-46,1.6172459591417e-46,-9.2079693863285e-47,-5.2631267483846e-47,1.3113767223936e-22,1.650752214356e-22,-1.3311288738834e-22,-9.4505370303845e-23,-3.3703277075602e-94,-8.412601180946e-94,6.2961952253473e-95,1.9260078703449e-09,-1.9455597594537e-09,224.06982382861,224.06982382861,223.98515386778,223.98515386778,255.34400887522,255.28200209798,255.30647296467,255.32389004907,199.95483354599,199.71235879484,199.76357411556,199.93046312569,223.89604274638,255.36347952549,255.26318784588,255.28696402502,255.34265605125,245.47996737007,245.42539876474,245.44469868035,245.4665818064,204.20785918191,204.06109074782,223.89604274638,204.09682937235,204.18889691172,262.55054111687,262.49273168821,262.52041555911,262.52559216928,204.25981647368,204.0086893823,204.0446884702,204.24110415019,267.62710691525,262.55828325514,262.48523829056,262.51265181565,262.5330609824,245.51732588041,245.38937433355,245.40727586999,245.50252194448,267.62710691525,267.59807580492,267.59807580492,223.98088336139,223.98088336139,393.17311002861,392.6309059654,0
0.0002565,101463048.88005,7.5549189435989e-05,1.0273213671536,2.0988641011656e-09,-1.815749631929e-09,1.7954477395577e-09,2.3402651900676e-09,5.6360220651963e-33,-1.0517655736566e-32,-1.2631960155459e-32,3.9582315972726e-33,-46.897306169608,54.852980093769,-51.330406810359,48.041564253774,-2.183502236712e-09,8.6655190866821e-33,1.2186826454778e-32,-8.1983649530072e-33,-5.429645495698e-33,1.2725784087408e-22,-1.8566997914155e-22,-2.0590557487766e-22,9.2444646767292e-23,-0.92881002916175,1.0387670471137,-2.1134914049231e-09,-1.0587753808655,1.0007974081166,6.7001016488876e-47,-1.6658439187419e-46,-2.6280698947034e-46,4.6557559576635e-47,-0.9966695288323,1.0405301198804,-0.98541519653712,1.0161165543125,-7.5968653081327e-94,1.5466288241753e-46,2.4518286072143e-46,-1.3569750612897e-46,-7.6561504731319e-47,1.5634182483789e-22,1.9835472744939e-22,-1.5795434688951e-22,-1.1129101258976e-22,-1.3455263995823e-93,-3.1763565244814e-93,2.3754216873917e-94,2.028074997863e-09,-2.0582260054395e-09,224.10403317676,224.10403317676,224.01809758948,224.01809758948,255.4035705275,255.34066114808,255.3654755986,255.38315402827,199.94615405489,199.69948136301,199.75165923695,199.92132203692,223.92768482162,255.42331754114,255.32157278191,255.34568860685,255.40219184786,245.53279942953,245.47742837201,245.49699400575,245.51920407863,204.20981131416,204.06057694524,223.92768482162,204.09687015596,204.19044841761,262.61439844709,262.55575369753,262.58382898852,262.58908882114,204.26249327492,204.00734721897,204.04399370215,204.24345505678,267.69359226008,262.62225021663,262.54815146883,262.5759547572,262.59666541931,245.57069014127,245.44087571615,245.45903576297,245.55566793715,267.69359226008,267.66414787573,267.66414787573,224.01380242802,224.01380242802,393.09864847637,392.54187256545,0
0.000257,101825899.53805,7.5697625001788e-05,1.0274097923776,2.2143706995639e-09,-1.9042717691328e-09,1.881140930487e-09,2.4787678407014e-09,7.275209669165e-33,-1.3866809032258e-32,-1.6510980785814e-32,5.0459299912841e-33,-46.834260907506,54.927618714653,-51.338691084106,47.994660044752,-2.3131205601323e-09,1.1259601179529e-32,1.6025519297005e-32,-1.0577281126155e-32,-6.9303301243159e-33,1.5072464198331e-22,-2.2353773805971e-22,-2.4622466728851e-22,1.0856418107791e-22,-0.92623799983908,1.0377252761315,-2.2319549529039e-09,-1.0584823035897,0.9990173638626,9.8881437014953e-47,-2.5298735917573e-46,-3.9576307860325e-46,6.7561986064047e-47,-0.99529321650827,1.0393952600914,-0.98321376819288,1.0152263075021,-2.6165715901171e-93,2.3032144577774e-46,3.7085126485355e-46,-1.9944235840186e-46,-1.1102279088885e-46,1.862784772539e-22,2.3830295875049e-22,-1.8736990593083e-22,-1.309719978107e-22,-5.2433976846214e-93,-1.1718108050449e-92,8.7649598007975e-94,2.1382097197595e-09,-2.1808933073846e-09,224.13850827532,224.13850827532,224.0512940134,224.0512940134,255.46323651204,255.39941534844,255.42457705573,255.44251999387,199.93785041725,199.68692525114,199.74008103387,199.91254934038,223.95956576887,255.48326290931,255.38005011446,255.40450899718,255.46183236567,245.58577760542,245.52959580925,245.5494302787,245.57197103167,204.21213288873,204.06040236479,223.95956576887,204.09725654508,204.1923630162,262.67833151983,262.61884309771,262.64731372309,262.65265815068,204.26554557833,204.00633531475,204.04363867864,204.24617681056,267.76013245895,262.68629412396,262.61113094935,262.63932780343,262.66034361772,245.62420629791,245.49250959175,245.51093082771,245.60896389792,267.76013245895,267.73027099191,267.73027099191,224.04697355345,224.04697355345,393.02523416048,392.4536402001,0
0.0002575,102189178.19458,7.5846054834076e-05,1.0274981702357,2.3389499783462e-09,-1.9992868407864e-09,1.9730950573197e-09,2.628257375769e-09,9.384042139641e-33,-1.8278277513755e-32,-2.1545795961543e-32,6.4223575659994e-33,-46.770447804983,55.00297090079,-51.347011122363,47.947196343414,-2.4538109500998e-09,1.4606067880104e-32,2.1053506234333e-32,-1.3631366704603e-32,-8.8310410548068e-33,1.7848144058641e-22,-2.6916588210736e-22,-2.9422085116241e-22,1.2741696685345e-22,-0.92375238041685,1.0367738529346,-2.3598402116884e-09,-1.0582944771747,0.99730998829963,1.4569557809917e-46,-3.8388015468271e-46,-5.9409332108415e-46,9.7738756035618e-47,-0.99399621515314,1.0383543728103,-0.98108428023107,1.0144341407658,-8.8175729293745e-93,3.4186351971696e-46,5.5966674346375e-46,-2.9236517592317e-46,-1.604882143477e-46,2.2180032949996e-22,2.8623433506111e-22,-2.2218288452054e-22,-1.5402301530372e-22,-1.9957444077747e-92,-4.2262294517403e-92,3.1662464455576e-93,2.2569920679832e-09,-2.3144226755539e-09,224.17324760514,224.17324760514,224.08474155359,224.08474155359,255.52300604644,255.45826388207,255.48377654257,255.50198719275,199.92992100977,199.67468847523,199.72883761333,199.90414333543,223.99168390184,255.54331487437,255.43861901575,255.46342437803,255.52157686402,245.63890084649,245.58189999127,245.60200644818,245.624881653,204.21482222744,204.06056516999,223.99168390184,204.09798668909,204.19463899766,262.7423397398,262.68199926704,262.71086915382,262.71629958183,204.26897172824,204.00565178783,204.04362156824,204.24926772252,267.82672703699,262.75041439261,262.67417610627,262.70277033562,262.72409500657,245.67787334974,245.54427485365,245.5629599669,245.66240883886,267.82672703699,267.79644468208,267.79644468208,224.08039510843,224.08039510843,392.95286406839,392.36620542074,0
0.000258,102552887.3462,7.5994478899292e-05,1.0275865015844,2.4732315192594e-09,-2.1011985017152e-09,2.0717027634255e-09,2.7894983882781e-09,1.209520658549e-32,-2.4088359372782e-32,-2.806881442284e-32,8.1610315702888e-33,-46.705876039951,55.079034292418,-51.355376215235,47.899165927875,-2.6064686375208e-09,1.8915209313572e-32,2.7632944785426e-32,-1.7548072007567e-32,-1.1233949911512e-32,2.1129829403392e-22,-3.2414470612031e-22,-3.5129403050827e-22,1.4944375037741e-22,-0.92135280579594,1.0359117948155,-2.4978367845428e-09,-1.0582108609851,0.99567377571416,2.1435449226862e-46,-5.8208303740381e-46,-8.8896512818257e-46,1.4095357708284e-46,-0.99277731559103,1.0374066271869,-0.97902576432786,1.013738945729,-2.9087041846678e-92,5.0574857537309e-46,8.4276951732368e-46,-4.274912958828e-46,-2.3125944076439e-46,2.6390569353578e-22,3.4371736088399e-22,-2.633614573104e-22,-1.8099147943499e-22,-7.4238827143766e-92,-1.4909263714258e-91,1.1210329626508e-92,2.3850410738303e-09,-2.4597503355525e-09,224.2082496668,224.2082496668,224.11843864897,224.11843864897,255.58287835627,255.51720594248,255.54307327794,255.56155488538,199.92236422525,199.66276907385,199.71792710637,199.89610234938,224.02403755564,255.60347268931,255.49727866968,255.52243394305,255.58142461466,245.69216811197,245.63433984541,245.65472147965,245.67793494753,204.21787766772,204.06106354478,224.02403755564,204.09905876337,204.19727468148,262.80642251803,262.74522159283,262.77449468078,262.78001254931,204.27277008768,204.00529477956,204.04394056388,204.25272612975,267.89337552528,262.81461044465,262.73728632328,262.76628174381,262.78791902507,245.73169030803,245.59617040994,245.61512209843,245.71600178712,267.89337552528,267.86266848327,267.86266848327,224.11406547986,224.11406547986,392.88153507345,392.27956473402,0
0.0002585,102917029.47999,7.6142897164342e-05,1.0276747872688,2.61788251627e-09,-2.2104307504579e-09,2.1773772342778e-09,2.9633008262959e-09,1.5578502902599e-32,-3.1739934151949e-32,-3.6504271504518e-32,1.0353301918061e-32,-46.64055525984,55.155806372959,-51.363795344975,47.85056144258,-2.7720593579027e-09,2.4453683948457e-32,3.6234527619903e-32,-2.256592566526e-32,-1.4266070938618e-32,2.5008091817917e-22,-3.9039065098949e-22,-4.1908574749166e-22,1.7515168470713e-22,-0.91903892158879,1.0351381268856,-2.6466825525542e-09,-1.0582303950993,0.99410722713469,3.1494576847241e-46,-8.8212321266893e-46,-1.3259197986014e-45,2.0263984288851e-46,-0.99163531930735,1.0365511936989,-0.97703726435985,1.0131396020974,-9.3971202878159e-92,7.4572019625465e-46,1.2664034236046e-45,-6.2353194365064e-46,-3.3218404371444e-46,3.137618211151e-22,4.1262287888314e-22,-3.1204376222212e-22,-2.1250776289973e-22,-2.7005102161298e-91,-5.1476769571198e-91,3.8952906160914e-92,2.5230170578866e-09,-2.6178941740079e-09,224.2435129799,224.2435129799,224.15238376301,224.15238376301,255.64285267462,255.57624073331,255.60246649277,255.62122234554,199.91517847182,199.65116510772,199.70734766812,199.88842473719,224.05662508651,255.6637356153,255.55602827159,255.58153689737,255.64137490133,245.74557837119,245.68691431114,245.7075743549,245.73112993719,204.22129756186,204.06189569297,224.05662508651,204.10047096924,204.20026841628,262.87057927154,262.80850947119,262.83818971286,262.84379649833,204.27693903759,204.00526245413,204.04459388279,204.25655039502,267.9600774607,262.87888170838,262.80046099335,262.82986142668,262.85181512241,245.78565619537,245.64819518333,245.6674161552,245.76974178447,267.9600774607,267.92894194071,267.92894194071,224.14798307017,224.14798307017,392.81124394213,392.19371460936,0
0.000259,103281607.05851,7.6291309596518e-05,1.027763028119,2.7736094128238e-09,-2.3274284805195e-09,2.2905528178396e-09,3.1505219983057e-09,2.0051187927627e-32,-4.1816382244198e-32,-4.7392481588656e-32,1.311244314651e-32,-46.574495567883,55.233284506753,-51.372277128283,47.801375386049,-2.9516246374142e-09,3.155895058466e-32,4.74695951999e-32,-2.8988291567682e-32,-1.8084972867001e-32,2.9589428537368e-22,-4.7021339041545e-22,-4.9951826480489e-22,2.0512351214987e-22,-0.9168103819782,1.034451882022,-2.8071668871365e-09,-1.0583519983932,0.99260885041251,4.6219344926568e-46,-1.3362647206943e-45,-1.9712701874472e-45,2.904085038675e-46,-0.99056903830335,1.0357872440691,-0.97511783672984,1.0126349768794,-2.9746776261102e-91,1.095909235426e-45,1.8991455952069e-45,-9.0732358845361e-46,-4.7564204233499e-46,3.7273172198329e-22,4.9518136934794e-22,-3.6956736073025e-22,-2.492967265925e-22,-9.6116052574393e-91,-1.7404830543704e-90,1.33039131437e-91,2.6716240249476e-09,-2.7899607419235e-09,224.27903608241,224.27903608241,224.18657538337,224.18657538337,255.70292824178,255.63536746804,255.66195542992,255.68098886,199.90836217216,199.6398746594,199.69709747778,199.8811088811,224.08944487157,255.72410292129,255.614867028,255.64073245746,255.70142701943,245.799130603,245.73962233964,245.76056407172,245.78446566065,204.22508027621,204.06305983777,224.08944487157,204.10222153398,204.20361857945,262.93480942306,262.87186230674,262.90195366769,262.90765088436,204.28147697606,204.00555299827,204.0455797665,204.26073890617,268.02683238572,262.94322761808,262.86369951854,262.89350879138,262.91578275747,245.83977004519,245.70034811083,245.71984108492,245.82362788681,268.02683238572,267.9952646076,267.9952646076,224.1821462967,224.1821462967,392.74198733707,392.10865148259,0
0.0002595,103646622.5066,7.6439716163428e-05,1.0278512249476,2.9411595921775e-09,-2.4526580154744e-09,2.4116856277608e-09,3.3520686744307e-09,2.5791215073401e-32,-5.5086361111921e-32,-6.1420189010007e-32,1.6578628256783e-32,-46.507707552142,55.311465912037,-51.380829828005,47.751600152114,-3.1462874832894e-09,4.0657218304475e-32,6.2131668908922e-32,-3.7200827989376e-32,-2.2885725054907e-32,3.4999032320236e-22,-5.663967547282e-22,-5.9483952794047e-22,2.4002788877887e-22,-0.91466684978612,1.0338521003104,-2.9801340564948e-09,-1.0585745697038,0.99117716198732,6.7759365524932e-46,-2.0236653066188e-45,-2.921240352816e-45,4.1488482096294e-46,-0.98957729735441,1.035113949554,-0.97326655090248,1.0122239228076,-9.230690315669e-91,1.6052070168096e-45,2.8425667790839e-45,-1.3173041436471e-45,-6.7889806723202e-46,4.4240494861831e-22,5.9405097411377e-22,-4.3750381921297e-22,-2.9219069751384e-22,-3.3490451196291e-90,-5.7662557001946e-90,4.4744299595866e-91,2.8316122141147e-09,-2.9771528331044e-09,224.31481752993,224.31481752993,224.22101202157,224.22101202157,255.76310430482,255.69458536966,255.721539344,255.74085372822,199.90191376265,199.62889583285,199.68717473868,199.87415319026,224.12249530854,255.78457388363,255.67379415642,255.70001985092,255.76158027558,245.8528237954,245.79246289339,245.81368964377,245.83794117293,204.22922419044,204.06455422117,224.12249530854,204.10430871077,204.20732357689,262.99911240077,262.93527951239,262.96578597146,262.9715751728,204.28638231755,204.00616462097,204.04689648073,204.26529007559,268.09363984819,263.00764761365,262.92700130974,262.95722325337,262.97982139854,245.8940309012,245.75262814351,245.77239584994,245.87765916366,268.09363984819,268.06163604488,268.06163604488,224.21655359111,224.21655359111,392.67376182282,392.02437176134,0
0.00026,104012078.19803,7.6588116832936e-05,1.0279393785471,3.121323142796e-09,-2.5866076482359e-09,2.5412541666112e-09,3.5688992889856e-09,3.3154187982303e-32,-7.2562928648344e-32,-7.9458472931569e-32,2.0924961943378e-32,-46.440202270934,55.390347629308,-51.389461267325,47.701228074919,-3.3572584882338e-09,5.2285731477067e-32,8.125015688169e-32,-4.7693655513791e-32,-2.8909326106087e-32,4.1384042596975e-22,-6.8229634136346e-22,-7.0767483122115e-22,2.806309816057e-22,-0.91260799348781,1.0333378296035,-3.1664869031063e-09,-1.0588969841814,0.98981068811638,9.9254263138472e-46,-3.0642941494058e-45,-4.314976384771e-45,5.9085246601146e-46,-0.98865893255712,1.0345304813963,-0.9714824881701,1.0119052795692,-2.8091197254746e-90,2.3434072829726e-45,4.2469441232496e-45,-1.9084672506036e-45,-9.6594834431362e-46,5.2463290451384e-22,7.123982357196e-22,-5.1769932081002e-22,-3.4214405355582e-22,-1.1430196930754e-89,-1.8731013706993e-89,1.4851682442288e-90,3.0037807698579e-09,-3.1807776887451e-09,224.35085589498,224.35085589498,224.25569221267,224.25569221267,255.82338011725,255.75389367045,255.7812175012,255.80081626205,199.89583169256,199.61822675311,199.67757767829,199.86755610035,224.15577481553,255.84514778567,255.73280888509,255.75939831638,255.82183398731,245.906656945,245.84543494585,245.86695010029,245.89155554508,204.23372769674,204.06637710351,224.15577481553,204.10673077866,204.21138184266,263.06348763795,262.99876050908,263.02968605874,263.03556883877,204.29165349211,204.00709555316,204.04854231536,204.27020233964,268.16049940123,263.07214114036,262.99036578651,263.02100423632,263.043930523,245.94843781688,245.80503424625,245.82507942709,245.93183469768,268.16049940123,268.12805582102,268.12805582102,224.25120339875,224.25120339875,392.60656386775,391.94087182738,0
0.0002605,104377976.44422,7.6736511573099e-05,1.0280274896881,3.3149346663438e-09,-2.7297881587092e-09,2.679759916789e-09,3.8020262139924e-09,4.2595081199061e-32,-9.5581625225915e-32,-1.0260998803753e-31,2.6364783417223e-32,-46.371991280727,55.469926526338,-51.398178866138,47.650251470922,-3.5858423740357e-09,6.7120385604506e-32,1.0615978396099e-31,-6.1089519899877e-32,-3.6452910022141e-32,4.8917362491277e-22,-8.2195723234697e-22,-8.4108609876024e-22,3.2780947129231e-22,-0.91063348714577,1.0329081248006,-3.3671907833606e-09,-1.0593180953984,0.98850796659215,1.4529245736298e-45,-4.6401029651607e-45,-6.3530034294282e-45,8.3881254875436e-46,-0.98781279398663,1.034036009729,-0.96976474287778,1.0116778728645,-8.3875099212543e-90,3.4098031849506e-45,6.3344150633118e-45,-2.7594261699384e-45,-1.3700351216258e-45,6.2156929019809e-22,8.5399389485042e-22,-6.1232237459295e-22,-4.002495874604e-22,-3.8231392582207e-89,-5.969960514597e-89,4.8779573579642e-90,3.1889805624449e-09,-3.4022558671778e-09,224.38714976627,224.38714976627,224.29061451489,224.29061451489,255.88375493864,255.81329161158,255.84098917915,255.86087578539,199.89011442322,199.60786556597,199.66830454823,199.86131607311,224.18928183077,255.90582391733,255.7919104528,255.81886710334,255.88218748258,245.96062905661,245.89853748102,245.92034448592,245.94530786381,204.23858919906,204.06852676291,224.18928183077,204.10948604253,204.2157918386,263.12793457275,263.06230472558,263.09365337239,263.0996313668,204.29728894454,204.00834404744,204.05051558444,204.27547415799,268.22741060296,263.13670764852,263.05379237683,263.08485117193,263.10810961699,246.00298985497,245.85756539752,245.87789080748,245.98615358415,268.22741060296,268.19452351177,268.19452351177,224.28609417814,224.28609417814,392.54038985162,391.85814804342,0
0.000261,104744319.48667,7.6884900352124e-05,1.0281155591148,3.5228751423137e-09,-2.8827333557966e-09,2.8277279347395e-09,4.0525181264647e-09,5.469608238008e-32,-1.2590360611004e-31,-1.3226772508996e-31,3.3160487814388e-32,-46.30308664252,55.550199303692,-51.406989574185,47.598662657144,-3.8334450160641e-09,8.6009890324408e-32,1.3859033257395e-31,-7.817959508278e-32,-4.588208101577e-32,5.7802141063604e-22,-9.9025593838216e-22,-9.9863983850222e-22,3.825651140261e-22,-0.90874300856799,1.0325620486399,-3.5832777674516e-09,-1.0598367331575,0.98726754709489,2.1258497381717e-45,-7.0272536735896e-45,-9.3233185830383e-45,1.1871009157402e-45,-0.98703774581028,1.0336297025036,-0.96811242213834,1.0115405133818,-2.4580924154922e-89,4.9451811837212e-45,9.4330915898471e-45,-3.9824929806806e-45,-1.9370584936221e-45,7.3571639468289e-22,1.0233265316973e-21,-7.2391988643361e-22,-4.6775685676081e-22,-1.2538336220187e-88,-1.8683307442012e-88,1.5902322075642e-89,3.3881171661794e-09,-3.6431308306611e-09,224.42369774799,224.42369774799,224.32577750922,224.32577750922,255.94422803427,255.87277844291,255.90085366666,255.92103163388,199.88476042716,199.59781043761,199.65935362433,199.85543159587,224.22301481242,255.96660157473,255.85109810863,255.87842547205,255.94264009945,246.01473914279,245.9517694931,245.97387186042,245.99919723113,204.2438071123,204.07100149482,224.22301481242,204.11257283301,204.22055205398,263.1924526479,263.12591159821,263.15768736335,263.16376225057,204.30328713357,204.00990837785,204.05281462607,204.281104013,268.2943730164,263.20134659321,263.11728051691,263.14876349983,263.17235817516,246.05768608696,245.91022058916,245.93082899635,246.04061493049,268.2943730164,268.26103869997,268.26103869997,224.32122440035,224.32122440035,392.47523606764,391.77619675576,0
0.0002615,105111109.4771,7.7033283138328e-05,1.0282035875463,3.7460738796342e-09,-3.0460005907471e-09,2.9857074572083e-09,4.3215025123746e-09,7.0202296300837e-32,-1.6585185822401e-31,-1.7018795685048e-31,4.1634161106469e-32,-46.233500933687,55.631162476441,-51.415899847913,47.546453984049,-4.1015809560749e-09,1.1001795999337e-31,1.8078260956691e-31,-9.9969030658519e-32,-5.7645790360666e-32,6.8277036034393e-22,-1.1930714861407e-21,-1.1844849493828e-21,4.4604103304813e-22,-0.90693623813789,1.0322986713464,-3.8158511587171e-09,-1.0604517029862,0.98608799320946,3.1095639374588e-45,-1.0645204672294e-44,-1.3638153242226e-44,1.6747541452258e-45,-0.9863326663506,1.0333107248793,-0.96652464570335,1.0114919971277,-7.073424104204e-89,7.1485004221952e-45,1.4027320483066e-44,-5.738074592364e-45,-2.7301908236541e-45,8.6997802705529e-22,1.2257373206381e-21,-8.5548308691636e-22,-5.4609272337682e-22,-4.0339144445827e-88,-5.7461552992352e-88,5.163511151769e-89,3.6021539951553e-09,-3.9050792972473e-09,224.46049845907,224.46049845907,224.36117979914,224.36117979914,256.00479867482,255.93235342272,255.96081026367,255.9812831546,199.87976818728,199.58805955429,199.65072320666,199.84990118107,224.25697223832,256.02748005982,255.9103711118,255.93807269337,256.00319118568,246.06898622344,246.00512998618,246.02753129849,246.05322276398,204.24937986157,204.0737996115,224.25697223832,204.11598950651,204.22566100503,263.25704131043,263.18958057065,263.22178749056,263.22796099262,204.30964653105,204.01178683957,204.05543780247,204.28709040906,268.36138620927,263.266057434,263.180829651,263.21274066746,263.23667570033,246.11252559258,245.96299882617,245.98389301296,246.09521785573,268.36138620927,268.32760097532,268.32760097532,224.35659254846,224.35659254846,392.41109872761,391.69501429799,0
0.000262,105478348.48103,7.7181659900103e-05,1.0282915756747,3.9855105287171e-09,-3.2201712924087e-09,3.1542724767644e-09,4.6101682707454e-09,9.0067554041144e-32,-2.1849110375982e-31,-2.185806194633e-31,5.2180376072814e-32,-46.16324721394,55.712812351264,-51.424915657944,47.493617887958,-4.3918814517517e-09,1.4047533330401e-31,2.3563826679167e-31,-1.2773493677772e-31,-7.2294244026283e-32,8.0622395591977e-22,-1.4374915743179e-21,-1.4034417053921e-21,5.1953991800628e-22,-0.90521285594244,1.0321170702492,-4.0660903347683e-09,-1.0611617857046,0.98496788381368,4.5480409246363e-45,-1.6131505789064e-44,-1.9885593940316e-44,2.3553763612358e-45,-0.98569644954252,1.0330782390298,-0.96500054578513,1.011531105118,-1.9992924525795e-88,1.0300015685273e-44,2.0831731404481e-44,-8.2552598513209e-45,-3.8360976755894e-45,1.0277199833703e-21,1.4675797628242e-21,-1.0105250672564e-21,-6.3688431893761e-22,-1.2737615610138e-87,-1.7384549253986e-87,1.6760466341459e-88,3.832115593033e-09,-4.1899223718155e-09,224.49755053245,224.49755053245,224.39682001014,224.39682001014,256.065466136,255.99201581742,256.02085828101,256.04162970574,199.87513619596,199.57861112203,199.64241161959,199.84472336572,224.29115260585,256.08845867999,255.96972873146,255.99780804866,256.06384009834,246.12336932537,246.05861797386,246.08132188957,246.10738359389,204.25530588142,204.07691944159,224.29115260585,204.11973444508,204.23111723459,263.32170001147,263.25331109374,263.2859532208,263.2922271041,204.31636562109,204.0139777487,204.05838349992,204.29343187189,268.42844975387,263.33083963467,263.24443923122,263.27678212995,263.30106170319,246.16750745928,246.01589912648,246.03708189041,246.14996149006,268.42844975387,268.39420993417,268.39420993417,224.39219711702,224.39219711702,392.34797396612,391.61459699551,0
0.0002625,105846038.46925,7.7330030605896e-05,1.0283795241594,4.2422171822973e-09,-3.4058514831865e-09,3.3340223247877e-09,4.9197684226196e-09,1.155132049623e-31,-2.8786534707204e-31,-2.8022108714322e-31,6.5281558145435e-32,-46.092339078985,55.795145025659,-51.434042444626,47.440146936557,-4.7061030657336e-09,1.7904381237626e-31,3.069133055637e-31,-1.631002612564e-31,-9.05004199977e-32,9.5167517807819e-22,-1.7320608573811e-21,-1.6611034154326e-21,6.0454433077253e-22,-0.90357254078484,1.032016330264,-4.3352559179813e-09,-1.0619657373199,0.98390581412869,6.6524952697204e-45,-2.4455790879385e-44,-2.8901827793917e-44,3.3023395621387e-45,-0.98512800561206,1.0329314028427,-0.96353926675753,1.0116566039886,-5.5522207589369e-88,1.4793236419896e-44,3.0900334530964e-44,-1.1861303187672e-44,-5.3732983689356e-45,1.2128390664792e-21,1.7564089456445e-21,-1.1931720159326e-21,-7.4198470361717e-22,-3.9493561892797e-87,-5.1796378457539e-87,5.4580641851156e-88,4.0790911119504e-09,-4.4996375584191e-09,224.53485261434,224.53485261434,224.43269678942,224.43269678942,256.12622969825,256.05176490133,256.08099704026,256.10207065624,199.87086295431,199.56946336637,199.63441721181,199.83989671089,224.32555443169,256.14953674771,256.02917024654,256.05763082969,256.1245862034,246.1778874819,246.11223247894,246.13524273755,246.16167886658,204.26158361506,204.08035932962,224.32555443169,204.12380605642,204.23691931158,263.38642820594,263.31710262525,263.35018402858,263.35656010448,204.32344289925,204.01647944207,204.06165012872,204.30012694787,268.49556322687,263.39569266296,263.30810871736,263.34088735,263.36551570204,246.22263078178,246.0689205208,246.09039467552,246.20484497425,268.49556322687,268.46086517932,268.46086517932,224.42803661156,224.42803661156,392.28585784569,391.53494116925,0
0.00026275,106030109.881,7.7404219466275e-05,1.0284237675084,4.322131357635e-09,-3.4585420899206e-09,3.3862456649177e-09,5.0203047298867e-09,1.2922573377108e-31,-3.2624522640297e-31,-3.1336383905326e-31,7.217293660656e-32,-46.302525210242,56.23443490294,-51.76485265599,47.678062847815,-4.8147479890762e-09,1.99575223625e-31,3.4591338070962e-31,-1.820635603484e-31,-1.0002534007035e-31,1.020313988295e-21,-1.8758789110731e-21,-1.7832354509229e-21,6.4362066551956e-22,-0.90320960936281,1.0337798788936,-4.4217879916856e-09,-1.0650342273062,0.98445582221503,7.9668261699447e-45,-2.9785400123531e-44,-3.4479279383195e-44,3.8759116117344e-45,-0.9864539323409,1.034887432843,-0.96356937942172,1.0135488769737,-9.3284024148669e-88,1.7545666437745e-44,3.7242034866698e-44,-1.4083454751182e-44,-6.297536025862e-45,1.2994624195157e-21,1.8962132411325e-21,-1.2792740241835e-21,-7.9011218287195e-22,-6.949768859269e-87,-9.0059431904769e-87,9.9260684567793e-88,4.1573702074523e-09,-4.6080283106516e-09,224.55364272326,224.55364272326,224.45076777335,224.45076777335,256.15667026933,256.08169359521,256.11112260737,256.13234915125,199.86894560051,199.56508431453,199.63062141449,199.83769961216,224.34288045162,256.18013625984,256.05894377333,256.0875967347,256.15501866025,246.20522521288,246.1391142074,246.16227954271,246.18890496576,204.2649273578,204.08227040483,224.34288045162,204.12603605013,204.24002313894,263.41883765611,263.34903954712,263.3823426175,263.38877070924,204.32718984145,204.01791718346,204.063474542,204.30368090367,268.52915549463,263.42816520411,263.33998406921,263.3729824783,263.39778735647,246.25027431681,246.09550302507,246.11712425464,246.23236784511,268.52915549463,268.49422653691,268.49422653691,224.4460879386,224.4460879386,392.23455074408,391.4744696696,0
0.000263,106215489.34401,7.7478404143307e-05,1.0284678843071,4.4627429579897e-09,-3.5600490985136e-09,3.4841903220586e-09,5.190872212585e-09,1.4695649386414e-31,-3.7560297645193e-31,-3.5632670735391e-31,8.1147882603127e-32,-46.132684739528,56.111626990814,-51.618436565486,47.512967353519,-4.9866900013997e-09,2.2625990012173e-31,3.9605387606175e-31,-2.0661581394872e-31,-1.1246060859357e-31,1.111609020771e-21,-2.063219452769e-21,-1.9458034019316e-21,6.9673083028306e-22,-0.90008500052814,1.0310603833403,-4.5692060045183e-09,-1.0626315533189,0.98137272466663,9.6974467678113e-45,-3.6847713017879e-44,-4.181672820791e-44,4.6240571554716e-45,-0.98359568408532,1.0321015767688,-0.96034349637406,1.0110189393004,-1.5811592254906e-87,2.1158065814494e-44,4.5596233311775e-44,-1.6998233609751e-44,-7.5048483150465e-45,1.4156475319572e-21,2.0787053314588e-21,-1.3939378397049e-21,-8.5572446260752e-22,-1.2359078917399e-86,-1.5803492754533e-86,1.8292624564438e-87,4.2924374894293e-09,-4.7784267032577e-09,224.57263488848,224.57263488848,224.46902575546,224.46902575546,256.18733137254,256.11183190851,256.14146232481,256.16284554851,199.86714898039,199.56077372196,199.62690765147,199.83561806189,224.3603766622,256.21095997285,256.08892364806,256.11777311922,256.18567227258,246.23277605554,246.16619928716,246.18952365428,246.21634280649,204.2684138084,204.08429383509,224.3603766622,204.12838609832,204.24326590887,263.45147148054,263.38119085691,263.41472037487,263.42120208505,204.33108826292,204.01945763972,204.06541046823,204.30738271576,268.5629723692,263.46086357929,263.3720725103,263.40529531391,263.4302810742,246.27813799636,246.12228258239,246.14405410124,246.26010871465,268.5629723692,268.52780789967,268.52780789967,224.46432460675,224.46432460675,392.19356448677,391.42432758156,0
0.00026325,106400484.82128,7.7552618274976e-05,1.0285119300032,4.6103134015438e-09,-3.6664672816596e-09,3.587070921579e-09,5.3693851824777e-09,1.67039228542e-31,-4.3234135096693e-31,-4.0474267150616e-31,9.1131257007455e-32,-46.027227887752,56.069635941438,-51.545612740603,47.41468451493,-5.1681622571975e-09,2.5625774317907e-31,4.532643558025e-31,-2.3433792189122e-31,-1.2629794975318e-31,1.2108134871523e-21,-2.2692651415403e-21,-2.1219830208944e-21,7.5378614814136e-22,-0.89815102126881,1.0297167510746,-4.7243292782116e-09,-1.0616870023335,0.97958942067197,1.1795211846804e-44,-4.5563166532019e-44,-5.0620866801734e-44,5.5051962035359e-45,-0.98205524614668,1.0307153707909,-0.95838710123127,1.0098420723541,-2.6560419944443e-87,2.5467005247525e-44,5.5770464121747e-44,-2.0490290341821e-44,-8.9261466135712e-45,1.5414991264542e-21,2.2785255017083e-21,-1.5185448034075e-21,-9.262361150862e-22,-2.1810515078908e-86,-2.7517793836799e-86,3.3628616806452e-87,4.4344655070405e-09,-4.9584034388124e-09,224.59162901362,224.59162901362,224.48728469033,224.48728469033,256.21792322422,256.14190019434,256.17173253498,256.19327285101,199.86544032842,199.5565442937,199.623277504,199.83362360039,224.37787225968,256.24171480114,256.11883330508,256.14787963987,256.21625698403,246.26027609111,246.19323283692,246.21671684245,246.24373016253,204.27197152569,204.08638513521,224.37787225968,204.13080485152,204.24657944619,263.48402390171,263.41326008964,263.4470164684,263.45355205772,204.33505835332,204.02106515456,204.06741488336,204.31115574124,268.59669969888,263.49348069846,263.4040788006,263.43752634359,263.46269346567,246.30595156421,246.14901023271,246.17093234612,246.287799479,268.59669969888,268.56129949492,268.56129949492,224.48256166438,224.48256166438,392.157994079,391.3795776441,0
0.0002635,106585332.28953,7.7626854806181e-05,1.028555931747,4.7642545056399e-09,-3.7772410925401e-09,3.6942647614616e-09,5.5553393941475e-09,1.8979042384713e-31,-4.9758625970019e-31,-4.5931079364814e-31,1.0223751910866e-31,-45.953421009422,56.066450432337,-51.508414431315,47.348946021762,-5.3585415532329e-09,2.8997506787654e-31,5.1853230313017e-31,-2.6564304618908e-31,-1.4169694365532e-31,1.3185791952886e-21,-2.4958738607369e-21,-2.312922821228e-21,8.1506743549404e-22,-0.89683838547101,1.0290760624801,-4.8865261253655e-09,-1.0614781185649,0.97847245473846,1.4339103342724e-44,-5.6324019551219e-44,-6.1181611176003e-44,6.5426854860171e-45,-0.98118866795297,1.0300421648985,-0.9570862018342,1.0093539035674,-4.4267838234165e-87,3.0604002854404e-44,6.8160529036614e-44,-2.4674659602372e-44,-1.0598887668026e-44,1.6777752055787e-21,2.4971882145026e-21,-1.6539076326605e-21,-1.0020046969169e-21,-3.8234763979466e-86,-4.7606663104784e-86,6.1757595621478e-87,4.5828483415504e-09,-5.1475562310941e-09,224.61065369872,224.61065369872,224.50557191048,224.50557191048,256.24849080394,256.17194257566,256.20197764843,256.22367575371,199.86381934218,199.55239155092,199.61972741295,199.83171537524,224.3953933357,256.27244599097,256.14871659472,256.17796044027,256.24681776097,246.28776588845,246.22025465847,246.24389911964,246.27110738652,204.2756074167,204.08854877795,224.3953933357,204.13329723843,204.24997018106,263.51654268817,263.44529422924,263.47927821879,263.48586806382,204.33910769981,204.02274339203,204.0694920632,204.31500719957,268.63038689237,263.52606443597,263.43604981577,263.46972278188,263.49507207502,246.33375610251,246.17572525269,246.19779848859,246.31548101401,268.63038689237,268.59475036468,268.59475036468,224.50082647089,224.50082647089,392.1254530557,391.33781930641,0
0.00026375,106770147.28598,7.7701090250629e-05,1.0285999042202,4.9240102855394e-09,-3.8918770777488e-09,3.805270331189e-09,5.7481965610336e-09,2.1555383954958e-31,-5.7258898260644e-31,-5.2077342433803e-31,1.1458482517314e-31,-45.896606334317,56.084325767471,-51.490481138148,47.300662881548,-5.5573046884434e-09,3.278423818425e-31,5.929450922353e-31,-3.0097778947389e-31,-1.5882185707192e-31,1.4355337090941e-21,-2.7449019102118e-21,-2.5196900060105e-21,8.8082437890503e-22,-0.89586593647308,1.0288202375413,-5.0552545182823e-09,-1.0616734443522,0.97771688023041,1.7423783012256e-44,-6.9609767034454e-44,-7.3837699437146e-44,7.7631540287296e-45,-0.98068941740948,1.0297602603114,-0.95614187330175,1.009241944272,-7.3257423284179e-87,3.6721746237319e-44,8.3241903128455e-44,-2.9687020748126e-44,-1.2565721351591e-44,1.825180140676e-21,2.7362120989666e-21,-1.8008127968299e-21,-1.0833436160129e-21,-6.6622224743412e-86,-8.1904843955229e-86,1.1339948548886e-86,4.7370610609109e-09,-5.3454929474882e-09,224.62972267623,224.62972267623,224.52390063442,224.52390063442,256.27905589979,256.20198048602,256.23221923381,256.25407594978,199.86228557883,199.54831324579,199.61625557092,199.82989276082,224.4129525635,256.30317544713,256.17859484096,256.20803697232,256.2773764057,246.31526507542,246.24728406092,246.27108990761,246.29849404703,204.27932460615,204.09078684725,224.4129525635,204.1358655822,204.25344109181,263.54905100011,263.4773161128,263.51152861007,263.51817314195,204.34323972691,204.02449410342,204.07164404638,204.31894039118,268.66405793367,263.55863799831,263.46800834942,263.5019075664,263.52743998412,246.36157146403,246.20244674006,246.22467172578,246.34317309901,268.66405793367,268.62818434581,268.62818434581,224.51913221299,224.51913221299,392.09465396885,391.2977570541,0
0.000264,106954992.28131,7.7775324810177e-05,1.0286438554215,5.0893542266294e-09,-4.0101518782906e-09,3.9198596018808e-09,5.947754177097e-09,2.4472193949785e-31,-6.5879350042336e-31,-5.8996164045381e-31,1.2830405660307e-31,-45.84887291185,56.113652751334,-51.482961000503,47.261684132026,-5.764295542592e-09,3.7034287743449e-31,6.7774822306864e-31,-3.408501315797e-31,-1.7785480375961e-31,1.5623979008479e-21,-3.0184499905465e-21,-2.7434734375386e-21,9.513413849059e-22,-0.89508288310999,1.0287778704707,-5.2303168372332e-09,-1.0620941877324,0.97715859064343,2.1164239505339e-44,-8.6012603239041e-44,-8.8990472908585e-44,9.197542031816e-45,-0.98039239555274,1.0296962877571,-0.95539343759207,1.0093380828666,-1.2043365051004e-86,4.4000208031894e-44,1.0159226463871e-43,-3.5689831257034e-44,-1.487620030049e-44,1.9845150571724e-21,2.997329823586e-21,-1.9601634066234e-21,-1.1706090133918e-21,-1.1543113109598e-85,-1.4023533309155e-85,2.083208197321e-86,4.896902611913e-09,-5.5521520106666e-09,224.64884334261,224.64884334261,224.54227797955,224.54227797955,256.30963025255,256.23202547333,256.26246891586,256.28448513643,199.86083881052,199.54430815027,199.61286099685,199.82815543925,224.43055675292,256.3339149765,256.20847953245,256.23812079482,256.30794467453,246.34278422215,246.27433144045,246.29829967013,246.32590069178,204.28312478125,204.09310045727,224.43055675292,204.13851113245,204.25699379898,263.58156132255,263.50933805043,263.54378003296,263.55047971716,204.34745628908,204.02631822133,204.07387192671,204.32295710987,268.69772575494,263.59121389673,263.49996668816,263.53409306166,263.5598096414,246.38940834619,246.22918497662,246.25156239453,246.37088639585,268.69772575494,268.66161429343,268.66161429343,224.53748597903,224.53748597903,392.06490334899,391.25869274589,0
0.00026425,107139901.27756,7.7849558601815e-05,1.0286877897734,5.2602460944062e-09,-4.1319938237826e-09,4.0379577160878e-09,6.1540030928074e-09,2.7774123323e-31,-7.5786383052064e-31,-6.6780499411513e-31,1.4353987135325e-31,-45.805963097135,56.149251155328,-51.481085038957,47.227624292671,-5.9795724237184e-09,4.1801698268204e-31,7.7436402622898e-31,-3.8583596604251e-31,-1.9899721222226e-31,1.6999776095579e-21,-3.3188660566963e-21,-2.9855786771978e-21,1.0269329015188e-21,-0.89440850360151,1.028856873377,-5.4117114457348e-09,-1.0626442803018,0.97670954404713,2.5700154315432e-44,-1.062639577177e-43,-1.0711526999324e-43,1.0881788269295e-44,-0.98020893192916,1.029757085208,-0.95475472222936,1.0095522388713,-1.9675961608832e-86,5.26513157602e-44,1.2391325914521e-43,-4.2877639577992e-44,-1.7587877114845e-44,2.1566679930692e-21,3.2824790507318e-21,-2.1329697204778e-21,-1.2641944276942e-21,-1.9892855882628e-85,-2.3910072060524e-85,3.8301579216053e-86,5.0623542866673e-09,-5.7676675211571e-09,224.66801965259,224.66801965259,224.56070775146,224.56070775146,256.34022016446,256.26208373575,256.29273293832,256.31490960094,199.85947889981,199.5403755676,199.60954313755,199.82650323619,224.44820953191,256.36467091966,256.23837683594,256.2682181133,256.3385288861,246.37032899282,246.30140236687,246.32553402084,246.35333298358,204.28700882777,204.09549017725,224.44820953191,204.14123453987,204.26062916802,263.6140803642,263.54136665733,263.57603914736,263.5827944722,204.35175836762,204.02821621705,204.07617626886,204.3270583123,268.73139730995,263.62379885515,263.53193143478,263.56628591239,263.59218774205,246.41727248701,246.25594547149,246.27847603505,246.398626628,268.73139730995,268.6950471226,268.6950471226,224.55589154536,224.55589154536,392.03582750306,391.22024992129,0
0.0002645,107324893.03136,7.7923791695788e-05,1.0287317097806,5.4367511602013e-09,-4.2574161447623e-09,4.1595753486343e-09,6.3670450066498e-09,3.1511873598518e-31,-8.717156735919e-31,-7.5534188819458e-31,1.6045183042891e-31,-45.765584089083,56.188324171174,-51.482280614702,47.196122478802,-6.2033205905202e-09,4.7146767780844e-31,8.8441379944951e-31,-4.3658692847499e-31,-2.2247139122498e-31,1.8491608322355e-21,-3.6487549780323e-21,-3.2474255777886e-21,1.1079404916536e-21,-0.89379966224532,1.029007818565,-5.599549308576e-09,-1.0632721107658,0.97632257501363,3.1201220376422e-44,-1.3126722467707e-43,-1.287746878328e-43,1.2857612451033e-44,-0.98009145924681,1.0298926044452,-0.95417956492899,1.0098362258475,-3.1954309875818e-86,6.2924403071791e-44,1.5105696288279e-43,-5.1483476646341e-44,-2.0767552316839e-44,2.3426089144371e-21,3.5938022827899e-21,-2.3203459315728e-21,-1.3645273754686e-21,-3.4106709353615e-85,-4.0618065016823e-85,7.0492924254949e-86,5.2335008911643e-09,-5.9922919392594e-09,224.68725369829,224.68725369829,224.57919196359,224.57919196359,256.3708290054,256.29215858724,256.32301464374,256.34535271348,199.85820574407,199.53651507495,199.60630165785,199.82493604073,224.465912807,256.3954466697,256.26829004914,256.29833224733,256.36913242696,246.39790240477,246.32849980628,246.35279595673,246.38079394947,204.29097718675,204.09795627086,224.465912807,204.14403612049,204.26434764462,263.64661172044,263.57340547945,263.60830952449,263.61512099467,204.35614646036,204.0301883017,204.07855734057,204.33124449087,268.765076331,263.65639647817,263.56390612877,263.59848968068,263.62457788016,246.44516694851,246.28273115923,246.3054156,246.42639685417,268.765076331,268.72848654752,268.72848654752,224.57435089635,224.57435089635,392.00722504462,391.18222550851,0
0.00026475,107509978.11836,7.7998024136298e-05,1.0287756169156,5.6189940570311e-09,-4.3864789346853e-09,4.2847704174184e-09,6.587044496084e-09,3.5742952493388e-31,-1.0025529208941e-30,-8.5373102751494e-31,1.7921565522904e-31,-45.726501447086,56.229360199938,-51.485158815118,47.165907994326,-6.4358016920182e-09,5.3136660896407e-31,1.0097434911879e-30,-4.938395409961e-31,-2.4852227744124e-31,2.0109183804037e-21,-4.0109934990223e-21,-3.5305487553281e-21,1.1947313112501e-21,-0.89323338908845,1.0292042368167,-5.7940066224225e-09,-1.0639499839342,0.97597248904453,3.7873613426996e-44,-1.6213812065239e-43,-1.5463407581199e-43,1.5173410095707e-44,-0.98001452871008,1.0300759938001,-0.95364329898287,1.0101643548833,-5.1594949940436e-86,7.5112566850355e-44,1.8405800984934e-43,-6.178654302835e-44,-2.4492701612171e-44,2.5433881709094e-21,3.9336529206639e-21,-2.5235111418177e-21,-1.4720675518146e-21,-5.818761759182e-85,-6.8784933013101e-85,1.2987874533457e-85,5.4104861902335e-09,-6.226351181378e-09,224.70654656155,224.70654656155,224.59773165765,224.59773165765,256.40145856221,256.32225178493,256.35331580871,256.37581626931,199.85701924964,199.53272638906,199.60313633189,199.82345376642,224.48366755178,256.42624402841,256.29822092118,256.32846495875,256.39975710048,246.42550604524,246.35562531827,246.38008706118,246.40828519232,204.29503005038,204.10049882896,224.48366755178,204.14691600181,204.26814943922,263.67915730668,263.6054564067,263.6405930691,263.64746120195,204.36062079523,204.03223453845,204.08101524174,204.33551587845,268.79876481265,263.68900868714,263.59589265693,263.63070626545,263.6569819763,246.47309334673,246.30954358386,246.33238264449,246.45419869305,268.79876481265,268.76193455569,268.76193455569,224.59286504473,224.59286504473,391.97898744969,391.14450992328,0
0.000265,107695162.7074,7.807225595279e-05,1.0288195120901,5.8071328853094e-09,-4.5192678252601e-09,4.4136266923214e-09,6.8142018055886e-09,4.0532547934371e-31,-1.1529097866511e-30,-9.6426420507861e-31,2.0002464179526e-31,-45.688051150531,56.271541350675,-51.488969222342,47.136297398822,-6.6773250278638e-09,5.9846105667185e-31,1.1524532961226e-30,-5.5842578472335e-31,-2.7741940611295e-31,2.1863070328137e-21,-4.4087500214715e-21,-3.836600704195e-21,1.287697660042e-21,-0.89269752338344,1.0294320078083,-5.9952982799079e-09,-1.0646630662065,0.97564588857576,4.5967866346381e-44,-2.0025445543236e-43,-1.8547966111075e-43,1.7885278423449e-44,-0.97996458638881,1.030292880029,-0.95313279826785,1.0105230036796,-8.2836140939867e-86,8.9560079193551e-44,2.2417258926276e-43,-7.4121460260469e-44,-2.8853112351564e-44,2.7601375608005e-21,4.3046062159621e-21,-2.7437934295984e-21,-1.5873063192518e-21,-9.8795375820992e-85,-1.1617494856683e-84,2.3953125942e-85,5.5934880590812e-09,-6.4702190691413e-09,224.725898775,224.725898775,224.61632734753,224.61632734753,256.43210976644,256.35236424507,256.38363736394,256.40630121274,199.85591932061,199.52900929629,199.60004698707,199.82205633303,224.50147423337,256.45706393768,256.32817036488,256.35861716821,256.43040385454,246.45314072811,246.38277970196,246.40740815335,246.43580754476,204.29916747012,204.10311784356,224.50147423337,204.14987420419,204.27203462908,263.71171813121,263.637520435,263.6728907863,263.67981610947,204.36518144788,204.03435490536,204.0835499764,204.3398725613,268.83246381152,263.72163649446,263.62789201383,263.66293666781,263.68940104736,246.50105251541,246.33638353775,246.35937796822,246.48203298425,268.83246381152,268.79539220262,268.79539220262,224.61143447538,224.61143447538,391.95105623261,391.10704398864,0
0.00026525,107880450.57539,7.8146487166151e-05,1.0288633959077,6.0013449354036e-09,-4.6558822211445e-09,4.5462420101479e-09,7.0487377637905e-09,4.5954530843008e-31,-1.3256993556764e-30,-1.0883805727184e-30,2.2309123941815e-31,-45.649876670125,56.314424423094,-51.493305993064,47.106923550653,-6.9282315044307e-09,6.7358179185861e-31,1.3149315673438e-30,-6.3128522367569e-31,-3.0945911580888e-31,2.3764744950677e-21,-4.8455086553173e-21,-4.1673569943968e-21,1.3872572816967e-21,-0.89218568709715,1.0296836442766,-6.2036632416959e-09,-1.0654034325826,0.97533569716304,5.578844915538e-44,-2.473175009356e-43,-2.2223975379347e-43,2.1058192874832e-44,-0.97993446485692,1.0305355966162,-0.95264112306673,1.0109050062328,-1.322491533352e-85,1.0667102367609e-43,2.7292577323261e-43,-8.8889408781018e-44,-3.395276053859e-44,2.994073258955e-21,4.7094740744157e-21,-2.9826362022852e-21,-1.7107671141753e-21,-1.6696158076879e-84,-1.9578456697241e-84,4.421254839635e-85,5.7827048321702e-09,-6.7243031191154e-09,224.74531057188,224.74531057188,224.63497925968,224.63497925968,256.46278308723,256.38249642944,256.4139797831,256.43680802805,199.85490585438,199.52536361647,199.59703347543,199.82074365843,224.5193330435,256.48790687441,256.35813884118,256.38878934184,256.46107317443,246.48080684848,246.4099633449,246.43475963884,246.46336142243,204.30338941662,204.1058132492,224.5193330435,204.15291068621,204.27600321505,263.74429471227,263.66959807742,263.70520319536,263.71218624548,204.36982840684,204.03654933083,204.08616149314,204.34431454167,268.86617387789,263.75428042147,263.65990471224,263.69518140406,263.72183562195,246.52904486467,246.36325140668,246.38640196226,246.50990014551,268.86617387789,268.82886004064,268.82886004064,224.63005938566,224.63005938566,391.9233998571,391.06979570111,0
0.0002655,108065844.18277,7.8220717792123e-05,1.0289072687978,6.2018189754012e-09,-4.7964289284179e-09,4.6827218877537e-09,7.290885643209e-09,5.2092599625886e-31,-1.5242694266472e-30,-1.2276825188294e-30,2.4864879697581e-31,-45.61178722012,56.357768714551,-51.497949310331,47.077589581083,-7.188884883853e-09,7.576518585946e-31,1.4998935198909e-30,-7.1347883187533e-31,-3.4496699185328e-31,2.5826657189598e-21,-5.3250971379046e-21,-4.5247230445171e-21,1.4938541680406e-21,-0.89169458602153,1.0299552133604,-6.4193566442475e-09,-1.0661668611062,0.9750382142461,6.7705421632171e-44,-3.0542763653717e-43,-2.6600954253596e-43,2.4767355874108e-44,-0.97992041615161,1.030800075711,-0.95216464144894,1.0113066373691,-2.0995565024955e-85,1.2691935086969e-43,3.3216894073417e-43,-1.0657154105949e-43,-3.9911962878069e-44,3.2465000629502e-21,5.1513229961926e-21,-3.2416062977791e-21,-1.8430064787668e-21,-2.8088121419575e-84,-3.2937225454639e-84,8.1655501443092e-85,5.9783479469634e-09,-6.9890368855429e-09,224.76478202148,224.76478202148,224.65368746368,224.65368746368,256.49347874346,256.41264855403,256.44434329272,256.46733695059,199.85397874055,199.52178918436,199.59409565933,199.81951565552,224.53724402367,256.51877306379,256.38812656676,256.41898170009,256.49176529502,246.50850457444,246.43717641165,246.46214169929,246.49094701498,204.30769581316,204.10858494631,224.53724402367,204.15602537026,204.28005515327,263.77688730322,263.70168958619,263.73753055314,263.74457187484,204.3745616097,204.03881771362,204.08884970785,204.3488417727,268.89989528856,263.78694072403,263.6919310047,263.72744072865,263.75428596475,246.55707057475,246.39014735635,246.41345479658,246.53780036564,268.89989528856,268.86233835034,268.86233835034,224.64873981573,224.64873981573,391.89600128869,391.03274770005,0
0.00026575,108251345.24796,7.8294947843225e-05,1.0289511310879,6.4087511989026e-09,-4.9410187867587e-09,4.8231761348927e-09,7.5408869220155e-09,5.9041582165076e-31,-1.7524666570312e-30,-1.3839532811991e-30,2.769534816437e-31,-45.573681330413,56.4014430279,-51.502779826568,47.048190202768,-7.4596671782022e-09,8.5169633806454e-31,1.7104252857702e-30,-8.0620470948055e-31,-3.8430055442804e-31,2.806230312724e-21,-5.8517184096488e-21,-4.9107421030542e-21,1.6079597009942e-21,-0.89122256237178,1.0302446795973,-6.6426456796776e-09,-1.066951107751,0.97475153307197,8.2168603532073e-44,-3.771775556418e-43,-3.1808006958702e-43,2.909974210503e-44,-0.97992051494769,1.0310841751425,-0.95170148307971,1.0117259942765,-3.3143634564158e-85,1.5086057835912e-43,4.0414943463359e-43,-1.2774513890685e-43,-4.686984255036e-44,3.5188165987764e-21,5.6334947189001e-21,-3.5224035097558e-21,-1.9846155158678e-21,-4.7043823605307e-84,-5.5338603419305e-84,1.5085431233006e-84,6.1806380896799e-09,-7.2648760471529e-09,224.78431310282,224.78431310282,224.672451943,224.672451943,256.52419681838,256.44282070182,256.47472798565,256.49788808091,199.85313786101,199.51828584036,199.59123340434,199.81837223138,224.5552071332,256.54966259456,256.41813362616,256.44919433061,256.52248031547,246.53623395067,246.46441894576,246.48955439493,246.51856438939,204.31208655435,204.11143281443,224.5552071332,204.15921815701,204.28419037318,263.80949601407,263.73379507252,263.76987297466,263.77697312001,204.37938096347,204.04115993436,204.09161451675,204.3534541781,268.9336281726,263.81961751435,263.72397100305,263.75971475456,263.78675219766,246.58512970092,246.41707143317,246.44053652129,246.56573370908,268.9336281726,268.89582726549,268.89582726549,224.66747571929,224.66747571929,391.86885128578,390.99589051026,0
0.000266,108436955.05541,7.836917732984e-05,1.0289949830425,6.6223431848222e-09,-5.0897649524762e-09,4.9677171140993e-09,7.7989892007004e-09,6.6908914101031e-31,-2.0147101655407e-30,-1.5591764409976e-30,3.0828637717362e-31,-45.535505640435,56.445375430213,-51.507732484822,47.018669320018,-7.7409763763055e-09,9.5685316540819e-31,1.9500339733489e-30,-9.1081590984132e-31,-4.2785220123582e-31,3.0486308963445e-21,-6.429985796833e-21,-5.3276042032353e-21,1.7300740262913e-21,-0.89076881989997,1.0305510142619,-6.8738075675253e-09,-1.0677549791228,0.97447469255206,9.9724801908478e-44,-4.6576706092289e-43,-3.7997206515975e-43,3.4155867696227e-44,-0.97993380048852,1.0313867786527,-0.95125070993534,1.0121621298264,-5.2018717728201e-85,1.7914539579027e-43,4.9159503566448e-43,-1.5310308109956e-43,-5.4987152441985e-44,3.8125212657379e-21,6.1596293362639e-21,-3.8268713591747e-21,-2.1362216370435e-21,-7.8451291943633e-84,-9.2893485009646e-84,2.786920778633e-84,6.3898032687005e-09,-7.5522966113123e-09,224.80390374467,224.80390374467,224.69127263362,224.69127263362,256.5549373216,256.47301288367,256.50513388241,256.52846144645,199.85238309072,199.51485342598,199.5884465761,199.8173132875,224.57322228614,256.58057548131,256.44816003239,256.47942724916,256.55321826125,246.56399495457,246.49169092488,246.51699772002,246.54621354587,204.3165615169,204.11435671983,224.57322228614,204.16248893377,204.28840878767,263.84212087723,263.76591457136,263.80223049831,263.80939002635,204.38428635607,204.04357586214,204.09445580381,204.35815166333,268.96737257924,263.85231082681,263.75602474314,263.7920035183,263.81923436526,246.61322223022,246.4440236188,246.46764712151,246.59370017236,268.96737257924,268.92932684053,268.92932684053,224.68626700208,224.68626700208,391.84194478538,390.95921889893,0
0.00026625,108622674.62184,7.8443406260851e-05,1.0290388248842,6.8428009458583e-09,-5.2427820747801e-09,5.1164588920081e-09,8.0654452850256e-09,7.5816315283648e-31,-2.3160759185866e-30,-1.755557464632e-30,3.4295577181868e-31,-45.497232687788,56.489526096877,-51.512771587866,46.988997208771,-8.0332254707678e-09,1.0743850868895e-30,2.2227044840951e-30,-1.0288406376963e-30,-4.7605241867566e-31,3.3114523360168e-21,-7.0649618796948e-21,-5.7776559539103e-21,1.8607275952304e-21,-0.89033301014133,1.0308737175557,-7.113128674332e-09,-1.0685778348723,0.97420722392046,1.2103874921686e-43,-5.7514438334552e-43,-4.5347542744853e-43,4.0051814361321e-44,-0.97995981658335,1.031707312614,-0.95081187250018,1.0126145900494,-8.1156645977477e-85,2.1253547606241e-43,5.9781637665872e-43,-1.8347730491729e-43,-6.4449505382031e-44,4.1292187942139e-21,6.7336908114306e-21,-4.1570090352928e-21,-2.2984905251689e-21,-1.3027344114726e-83,-1.5585931457451e-83,5.1468509482235e-84,6.6060779351304e-09,-7.8517943056203e-09,224.82355384749,224.82355384749,224.71014944511,224.71014944511,256.58570022258,256.50322507127,256.5355609643,256.55905703492,199.85171429845,199.51149178176,199.58573503886,199.81633872029,224.5912893715,256.61151169819,256.47820575969,256.50968043262,256.58397911769,246.59178752667,246.51899229067,246.54447163298,246.5738944482,204.32112056564,204.11735652002,224.5912893715,204.16583757936,204.29271029913,263.87476188295,263.79804807638,263.83460312105,263.84182259743,204.38927766299,204.04606535849,204.09737344521,204.36293412205,269.00112851452,263.88502065352,263.78809221966,263.8243070151,263.85173247019,246.64134811218,246.47100385968,246.49478654708,246.62169971479,269.00112851452,268.96283708699,268.96283708699,224.70511354285,224.70511354285,391.81527895747,390.92272991234,0
0.0002665,108808504.78738,7.8517634644019e-05,1.0290826568059,7.0703345548865e-09,-5.4001859461368e-09,5.2695168650376e-09,8.3405128862173e-09,8.5901689557606e-31,-2.6623934196137e-30,-1.9755474838038e-30,3.8129964839239e-31,-45.458848939673,56.533872625563,-51.51787733539,46.959158243892,-8.3368422037837e-09,1.2056928604673e-30,2.5329639479761e-30,-1.1620051184863e-30,-5.2937327911928e-31,3.5964118447109e-21,-7.7622012202027e-21,-6.2634111003152e-21,2.0004828380328e-21,-0.8899150123197,1.0312125630406,-7.3609042555637e-09,-1.0694193214343,0.97394890948224,1.4691854382553e-43,-7.1018006867928e-43,-5.4069525765714e-43,4.6921543637534e-44,-0.97999836590659,1.0320454869583,-0.95038477301086,1.0130831685533,-1.2582725686209e-84,2.5192184083157e-43,7.2683107022619e-43,-2.1986708665774e-43,-7.5471067545907e-44,4.4706273525911e-21,7.3599949058066e-21,-4.5149844946818e-21,-2.4721282664466e-21,-2.15430968954e-83,-2.6147730816142e-83,9.4986732936633e-84,6.8297026640653e-09,-8.1638846305884e-09,224.84326329541,224.84326329541,224.72908227215,224.72908227215,256.61648546879,256.53345721499,256.56600919136,256.58967481241,199.85113134759,199.50820074646,199.58309865508,199.81544842183,224.60940826423,256.64247119714,256.5082707613,256.53995383678,256.6147628482,246.61961158706,246.54632296502,246.57197607265,246.60160704017,204.32576355727,204.12043206637,224.60940826423,204.169263967,204.29709480292,263.90741899853,263.83019555884,263.86699081741,263.87427081418,204.39435475117,204.04862827975,204.10036731193,204.36780143997,269.03489596112,263.91774696357,263.82017340505,263.85662521782,263.88424649229,246.66950727561,246.49801208304,246.52195472862,246.64973227513,269.03489596112,268.9963579932,268.9963579932,224.72401520487,224.72401520487,391.78885215869,390.88642181841,0
0.00026675,108994446.26664,7.8591862486227e-05,1.0291264789781,7.3051580700877e-09,-5.5620933969568e-09,5.4270076305589e-09,8.62445463663e-09,9.7321276543992e-31,-3.0603564359562e-30,-2.2218695259928e-30,4.2368839110374e-31,-45.420348346825,56.578402088178,-51.523038549286,46.929144308843,-8.6522692057117e-09,1.3523298168536e-30,2.8859547551553e-30,-1.3122594820222e-30,-5.8833224502369e-31,3.9053699689529e-21,-8.5277971966892e-21,-6.7875618311753e-21,2.1499359492071e-21,-0.88951481694056,1.0315674615544,-7.6174385303101e-09,-1.0702792300734,0.97369965509092,1.7834655084159e-43,-8.7688082728462e-43,-6.441055005098e-43,5.491954102629e-44,-0.98004937948111,1.0324011566984,-0.94996933976344,1.0135677771582,-1.9379741935973e-84,2.983461823807e-43,8.8351410477394e-43,-2.634731368319e-43,-8.8298778665e-44,4.838586177581e-21,8.0432396107004e-21,-4.9031487506761e-21,-2.6578836277991e-21,-3.5480752730261e-83,-4.3877107498094e-83,1.7512426570298e-83,7.0609241294931e-09,-8.4891032786776e-09,224.86303196289,224.86303196289,224.74807100094,224.74807100094,256.64729299553,256.56370925351,256.59647851214,256.62031473312,199.85063409685,199.5049801568,199.58053728545,199.81464228048,224.62757883134,256.67345391782,256.53835497901,256.57024740608,256.64556940405,246.64746704442,246.57368285879,246.59951096716,246.62935125458,204.33049034247,204.12358320584,224.62757883134,204.17276796614,204.30156218954,263.94009217869,263.86235697787,263.89939354982,263.90673464516,204.39951748136,204.05126447858,204.10343727144,204.37275349716,269.06867488901,263.9504897134,263.8522682597,263.88895808726,263.91677639898,246.69769963761,246.52504820562,246.54915158629,246.67779778062,269.06867488901,269.02988953491,269.02988953491,224.74297184232,224.74297184232,391.76266337053,390.85029353764,0
0.000267,109180499.67851,7.8666089793635e-05,1.0291702915523,7.5474896083791e-09,-5.7286223114802e-09,5.5890489810194e-09,8.9175382588557e-09,1.1025208795137e-30,-3.517649740694e-30,-2.4975474320784e-30,4.7052772581036e-31,-45.381728874015,56.623106724205,-51.528248741124,46.898951263718,-8.9799643472985e-09,1.5160179127189e-30,3.2875172921297e-30,-1.4818070508977e-30,-6.5349630336169e-31,4.2403425049996e-21,-9.3684332499554e-21,-7.3529908391186e-21,2.3097187762707e-21,-0.88913246472061,1.0319383892734,-7.8830449310416e-09,-1.0711574217267,0.9734594234075,2.1651692176415e-43,-1.0826523908551e-42,-7.6661140394142e-43,6.4223835089306e-44,-0.9801128479923,1.0327742482414,-0.94956556085521,1.0140683785744,-2.9636307670682e-84,3.5302560622486e-43,1.0737800049508e-42,-3.1573871134252e-43,-1.0321717107717e-43,5.2350637269353e-21,8.7885382211042e-21,-5.3240514152574e-21,-2.856550468621e-21,-5.8202819901006e-83,-7.3667549614205e-83,3.2244524494545e-83,7.29999522937e-09,-8.8280067559226e-09,224.88285971843,224.88285971843,224.76711551274,224.76711551274,256.67812273132,256.5939811191,256.62696886895,256.65097674481,199.85022240088,199.50182984753,199.57805078906,199.8139201815,224.64580093528,256.70445979301,256.56845834841,256.60056107877,256.67639872985,246.67535380087,246.60107187673,246.62707623881,246.65712701808,204.33530076733,204.12680978202,224.64580093528,204.17634944363,204.30611234606,263.97278137121,263.89453228596,263.93181127416,263.93921405223,204.4047657096,204.05397380491,204.10658318874,204.3777901695,269.1024652613,263.98324885249,263.88437673743,263.92130557772,263.94932215084,246.72592510856,246.5521121384,246.57637703459,246.70589615198,269.1024652613,269.06343168106,269.06343168106,224.76198330378,224.76198330378,391.7367118985,390.81434433731,0
0.00026725,109366665.56441,7.8740316571792e-05,1.0292140946649,7.7975514881812e-09,-5.8998916991775e-09,5.7557599554283e-09,9.2200368031513e-09,1.2489466517261e-30,-4.0430941210793e-30,-2.8059377215321e-30,5.2226191202659e-31,-45.342990634796,56.667981603872,-51.533503982626,46.868577058644,-9.3204012067443e-09,1.6986654223493e-30,3.7442836310698e-30,-1.673137475951e-30,-7.2548645657434e-31,4.6035134023427e-21,-1.0291438894613e-20,-7.962784158276e-21,2.4805008089507e-21,-0.88876801501478,1.0323253500936,-8.1580464436993e-09,-1.0720537875548,0.97322819957192,2.6288113296718e-43,-1.3366224265915e-42,-9.1162219851733e-43,7.503944245165e-44,-0.98018878613926,1.0331647204556,-0.94917344966868,1.0145849520491,-4.4968758584413e-84,4.1738133050416e-43,1.304803382076e-42,-3.7839918741199e-43,-1.2055386918585e-43,5.6621663688585e-21,9.6014552228212e-21,-5.7804575761136e-21,-3.0689702838588e-21,-9.5102981358825e-83,-1.2378260005953e-82,5.9274115584549e-83,7.5471752835141e-09,-9.1811731172176e-09,224.90274642667,224.90274642667,224.7862156859,224.7862156859,256.70897460075,256.62427274047,256.65748020071,256.68166079161,199.84989611071,199.4987496517,199.57563902366,199.8132820075,224.66407443586,256.73548875149,256.59858080173,256.63089478985,256.70725076637,246.70327175473,246.62848992001,246.65467180672,246.6849342539,204.34019467428,204.13011163591,224.66407443586,204.18000826445,204.31074515696,264.00548651998,263.92672143201,263.96424394279,263.97170899354,204.4100992882,204.05675610668,204.1098049271,204.38291132971,269.13626703735,264.0160243264,263.91649878859,263.95366764002,263.98188370472,246.75418359489,246.57920378922,246.60363098494,246.73402730609,269.13626703735,269.09698439692,269.09698439692,224.78104943428,224.78104943428,391.71099721154,390.77857366736,0
0.0002675,109552944.4004,7.8814542825713e-05,1.0292578884384,8.0555704004477e-09,-6.0760217879511e-09,5.9272609142331e-09,9.5322289105171e-09,1.4147619964768e-30,-4.6468122128063e-30,-3.1507646926085e-30,5.7937720668711e-31,-45.304134889538,56.713023356684,-51.538801750421,46.83802073112,-9.6740695991132e-09,1.90238642894e-30,4.2637835812963e-30,-1.8890642190907e-30,-8.0498259850092e-31,4.9972487241669e-21,-1.1304850891229e-20,-8.6202448167265e-21,2.6629912696205e-21,-0.88842152983202,1.0327283563222,-8.4427759935411e-09,-1.0729682285752,0.97300597402786,3.192032337524e-43,-1.650036999945e-42,-1.0831356126922e-42,8.7602296286823e-44,-0.98027721458364,1.0335725443329,-0.94879302722177,1.015117476445,-6.7642643575336e-84,4.9307196055992e-43,1.5852858581403e-42,-4.5354185105433e-43,-1.4068586150725e-43,6.1221476309969e-21,1.0488045195664e-20,-6.2753661075704e-21,-3.2960348795082e-21,-1.5480109769059e-82,-2.0819756159562e-82,1.0875699166945e-82,7.8027302646056e-09,-9.5492027669722e-09,224.92269194963,224.92269194963,224.80537139702,224.80537139702,256.73984852615,256.65458404435,256.68801244461,256.71236681567,199.84965507427,199.4957394008,199.57330184598,199.81272763893,224.68239919136,256.76654071972,256.6287222694,256.66124847258,256.73812545223,246.73122080193,246.65593688778,246.68229758826,246.71277288336,204.34517190269,204.13348860641,224.68239919136,204.18374429233,204.3154605048,264.03820756668,263.95892436298,263.99669150623,264.00421942524,204.41551806639,204.05961123026,204.11310234854,204.38811684794,269.17008017444,264.04881607844,263.9486343616,263.98604422312,264.01446101535,246.78247500057,246.60632306422,246.63091334715,246.76219115755,269.17008017444,269.13054764574,269.13054764574,224.80017007643,224.80017007643,391.6855188569,390.74298107265,0
0.00026775,109739336.60563,7.8888768559941e-05,1.0293016729836,8.3217775882449e-09,-6.2571341229375e-09,6.1036736213054e-09,9.8543990796809e-09,1.6025406272795e-30,-5.3404180683391e-30,-3.53615907148e-30,6.4240562164345e-31,-45.265163508724,56.758229477302,-51.544140297543,46.807281876624,-1.0041476139485e-08,2.1295222937805e-30,4.8545646858793e-30,-2.1327669484755e-30,-8.9272880664129e-31,5.4241117437666e-21,-1.241748001618e-20,-9.328907346603e-21,2.8579413086769e-21,-0.88809306605988,1.0331474190991,-8.7375768541827e-09,-1.0739006454381,0.97279273434695,3.8762684427525e-43,-2.0367470447996e-42,-1.2858360865423e-42,1.0218372339095e-43,-0.98037815120939,1.0339976925622,-0.94842431342704,1.0156659223984,-1.0074769613711e-83,5.820320524323e-43,1.9257789739033e-42,-5.4367800122718e-43,-1.6404664961442e-43,6.617418039766e-21,1.1454894955727e-20,-6.8120295275391e-21,-3.5386891853876e-21,-2.5102286863147e-82,-3.5057936674521e-82,1.9912551132295e-82,8.0669330426099e-09,-9.9327192993356e-09,224.9426961474,224.9426961474,224.82458252167,224.82458252167,256.77074442842,256.68491495635,256.71856553691,256.74309475804,199.84949913668,199.49279892508,199.57103911194,199.81225695441,224.7007750592,256.79761562268,256.65888268091,256.69162205937,256.76902272476,246.75920083695,246.68341267794,246.70995349994,246.74064282667,204.35023228932,204.13694053072,224.7007750592,204.18755739008,204.32025827067,264.07094445168,263.99114102472,264.02915391402,264.03674530239,204.42102189079,204.0625390209,204.11647531427,204.39340659228,269.20390462878,264.08162405061,263.98078340391,264.01843527507,264.04705403629,246.81079922795,246.63346986865,246.65822403023,246.79038761952,269.20390462878,269.16412138973,269.16412138973,224.81934507115,224.81934507115,391.66027641542,390.70756614629,0
0.000268,109925842.54881,7.8962993778598e-05,1.0293454484004,8.5964090250934e-09,-6.443351662456e-09,6.2851213242678e-09,1.0186837929831e-08,1.8151979762956e-30,-6.1372337592923e-30,-3.9667005555465e-30,7.1192899817352e-31,-45.226078685528,56.803597944697,-51.549518309678,46.776360373001,-1.0423144825495e-08,2.3826652982129e-30,5.5263279438304e-30,-2.4078394835112e-30,-9.8953908405728e-31,5.8868792628907e-21,-1.3638983905945e-20,-1.0092553203141e-20,3.0661463083068e-21,-0.88778267195884,1.0335825439019,-9.0428030683399e-09,-1.0748509335378,0.97258846174109,4.7075636372943e-43,-2.5138049024154e-42,-1.5252088308125e-42,1.1909554325386e-43,-0.98049160722794,1.0344401343761,-0.94806732302362,1.0162302491719,-1.4833846412291e-83,6.8651678807577e-43,2.3390746436067e-42,-6.5182990684026e-43,-1.9113439164641e-43,7.1505555829842e-21,1.250916918298e-20,-7.3939755238513e-21,-3.7979342100407e-21,-4.0554608967965e-82,-5.9105373020046e-82,3.6373081482916e-82,8.3400636319619e-09,-1.0332370365486e-08,224.96275887864,224.96275887864,224.84384893476,224.84384893476,256.8016622276,256.71526540145,256.74913941346,256.77384455916,199.84942814055,199.48992805377,199.56885067695,199.81186983104,224.71920189635,256.82871338442,256.6890619653,256.72201548227,256.79994252049,246.78721175323,246.71091718764,246.73763945783,246.76854400341,204.35537566875,204.14046724469,224.71920189635,204.19144741995,204.32513833454,264.10369711457,264.02337136257,264.06163111524,264.06928657943,204.42661060578,204.06553932297,204.11992368494,204.39878042912,269.23774035592,264.11444818409,264.01294586246,264.05084074345,264.07966272046,246.83915617832,246.66064410732,246.68556294288,246.8186166042,269.23774035592,269.19770559052,269.19770559052,224.83857425811,224.83857425811,391.63526947849,390.67232850493,0
0.00026825,110112462.55341,7.903721848542e-05,1.0293892147788,8.879705588858e-09,-6.6347988687303e-09,6.4717288306901e-09,1.0529842455316e-08,2.0560363264413e-30,-7.0525367567641e-30,-4.4474646277667e-30,7.8858342415732e-31,-45.186882783071,56.849127011093,-51.554934715523,46.745256239501,-1.0819617632661e-08,2.6646846734149e-30,6.2900812572289e-30,-2.7183440080321e-30,-1.0963035876177e-30,6.3885592466691e-21,-1.4979946494294e-20,-1.0915227146528e-20,3.2884483006811e-21,-0.88749038583718,1.0340337287111,-9.358819875376e-09,-1.0758189808989,0.97239312993061,5.7175535347326e-43,-3.1021953626934e-42,-1.8076722031024e-42,1.3869587207844e-43,-0.98061758579138,1.034899833148,-0.94772206392245,1.0168104038474,-2.1543164148537e-83,8.0915371147452e-43,2.8406770555604e-42,-7.8163567037352e-43,-2.2252117345224e-43,7.7243168345827e-21,1.3658659801424e-20,-8.0250302845147e-21,-4.0748301455304e-21,-6.5280285199016e-82,-9.9771292929315e-82,6.6272540555593e-82,8.6224094382928e-09,-1.0748828561481e-08,224.98288000085,224.98288000085,224.86317051091,224.86317051091,256.8326018431,256.74563530429,256.77973400998,256.80461615914,199.84944192632,199.48712661528,199.56673639608,199.81156614467,224.73767955959,256.85983392833,256.71926005144,256.75242867322,256.83088477548,246.81525344352,246.73845031357,246.7653553779,246.79647633288,204.36060187354,204.14406858303,224.73767955959,204.19541424385,204.33010057549,264.13646549444,264.05561532156,264.09412305879,264.10184321049,204.43228405379,204.06861198023,204.12344732092,204.40423822341,269.27158731112,264.14728841953,264.04512168399,264.0832605757,264.11228702036,246.86754575214,246.68784568493,246.71292999371,246.84687802315,269.27158731112,269.23130020946,269.23130020946,224.85785747597,224.85785747597,391.61049763641,390.63726777591,0
0.0002685,110299196.90198,7.9111442683794e-05,1.0294329722003,9.171913230235e-09,-6.8316017920343e-09,6.6636225784374e-09,1.0883716272233e-08,2.3287958208718e-30,-8.1038423322577e-30,-4.9840740544161e-30,8.7306402111594e-31,-45.147578253417,56.894815083873,-51.560388581446,46.713969567062,-1.1231455118394e-08,2.9787552529749e-30,7.1583128446324e-30,-3.0688723619206e-30,-1.213995381481e-30,6.9324098763732e-21,-1.645196460258e-20,-1.1801254644843e-20,3.5257385055376e-21,-0.88721623581691,1.0345009635132,-9.6860041439586e-09,-1.0768046675017,0.97220670516892,6.9446566465138e-43,-3.8277309400868e-42,-2.1407312463532e-42,1.613957252254e-43,-0.98075608183367,1.0353767454306,-0.94738853676793,1.0174063216411,-3.0763092253322e-83,9.5300261953542e-43,3.4493727120312e-42,-9.3747567404091e-43,-2.5886355735143e-43,8.341648781208e-21,1.4911839396612e-20,-8.7093437788951e-21,-4.37049962885e-21,-1.0470440688449e-81,-1.686180456396e-81,1.2042448852491e-81,8.914265502754e-09,-1.1182792333662e-08,225.00305937058,225.00305937058,224.88254712455,224.88254712455,256.8635631939,256.77602458936,256.81034926219,256.83540949793,199.8495403324,199.48439443741,199.56469612427,199.81134577007,224.75620790572,256.89097717732,256.74947686819,256.78286156425,256.86184942545,246.84332580001,246.76601195214,246.7931011761,246.82443973418,204.36591073457,204.14774437953,224.75620790572,204.19945772356,204.33514487197,264.16924953001,264.0878728466,264.12662969357,264.13441514954,204.43804207549,204.07175683601,204.12704608245,204.40977983889,269.30544544945,264.18014469723,264.0773108152,264.11569471923,264.1449268883,246.89596784922,246.7150745062,246.74032509148,246.87517178744,269.30544544945,269.26490520781,269.26490520781,224.87719456268,224.87719456268,391.58596047299,390.60238359072,0
0.00026875,110486045.83984,7.9185666376786e-05,1.029476720738,9.4732831356672e-09,-7.033888149165e-09,6.8609307007637e-09,1.1248769857692e-08,2.6377120966566e-30,-9.311225785085e-30,-5.5827555173209e-30,9.6613013066723e-31,-45.108167594614,56.940660658422,-51.565879051367,46.682500486475,-1.1659237033756e-08,3.3283890064536e-30,8.1451871358351e-30,-3.4646153226684e-30,-1.3436777583898e-30,7.5219601288243e-21,-1.8067742289254e-20,-1.2755260360259e-20,3.7789599936015e-21,-0.88696024008933,1.0349842304582,-1.0024744809484e-08,-1.0778078652917,0.972029146805,8.4355160489075e-43,-4.7221475338571e-42,-2.5331556626333e-42,1.8766652351558e-43,-0.98090708250359,1.0358708207313,-0.94706673507918,1.0180179267154,-4.2992453969487e-83,1.1216248688684e-42,4.1879186445501e-42,-1.1246250301941e-42,-3.0091457789286e-43,9.0057013937275e-21,1.62779189791e-20,-9.451417146945e-21,-4.6861311688352e-21,-1.6734557446491e-81,-2.8528537356159e-81,2.1820302709584e-81,9.2159347437053e-09,-1.1634986900868e-08,225.02329684358,225.02329684358,224.90197865011,224.90197865011,256.89454619866,256.80643318106,256.84098510597,256.86622451543,199.84972319538,199.48173134752,199.56272971652,199.81120858118,224.77478679171,256.92214305391,256.77971234449,256.81331408754,256.8928364059,246.87142871451,246.79360199956,246.82087676856,246.85243412639,204.37130208115,204.15149446725,224.77478679171,204.20357772091,204.34027110193,264.20204915979,264.12014388261,264.15915096851,264.1670023505,204.44388451002,204.07497373342,204.13071982989,204.41540513827,269.33931472592,264.21301695722,264.1095132028,264.14814312155,264.17758227642,246.92442236891,246.74233047597,246.76774814517,246.90349780777,269.33931472592,269.29852054678,269.29852054678,224.89658535553,224.89658535553,391.56165756323,390.56767558175,0
0.000269,110673009.57835,7.9259889567164e-05,1.0295204604579,9.7840718858365e-09,-7.2417873963156e-09,7.0637830863902e-09,1.1625320783254e-08,2.9875813808041e-30,-1.0697689935473e-29,-6.2504018727861e-30,1.0686109319384e-30,-45.068653328224,56.986662278726,-51.571405312322,46.650849155524,-1.2103562942328e-08,3.7174697366416e-30,9.2667659640834e-30,-3.9114409034705e-30,-1.486512173977e-30,8.161031999156e-21,-1.9841193611706e-20,-1.3782187783459e-20,4.049110481698e-21,-0.88672240740785,1.0354835043015,-1.037544331632e-08,-1.0788284385426,0.97186040804291,1.0246743065175e-42,-5.8244443859899e-42,-2.9951859848998e-42,2.1804862211733e-43,-0.98107056782266,1.0363820016348,-0.94675664565877,1.0186451331561,-5.8378660702383e-83,1.3191635514582e-42,5.0838728292399e-42,-1.3494373528281e-42,-3.4953737540161e-43,9.7198409893005e-21,1.7766910421998e-20,-1.025613236646e-20,-5.0229827462081e-21,-2.6653500080552e-81,-4.8313352890696e-81,3.9420085866247e-81,9.5277281960893e-09,-1.2106165193012e-08,225.04359227489,225.04359227489,224.92146496209,224.92146496209,256.92555077578,256.8368610038,256.87164147737,256.89706115154,199.84999035023,199.47913717268,199.56083702796,199.81115445122,224.79341607478,256.95333148032,256.80996640947,256.84378617553,256.92384565215,246.89956207846,246.82122035199,246.84868207162,246.88045942861,204.37677574122,204.15531867867,224.79341607478,204.2077740979,204.345479143,264.2348643221,264.15242837453,264.19168683269,264.19960476728,204.4498111951,204.07826251546,204.13446842375,204.42111398339,269.3731950955,264.24590513935,264.14172879364,264.18060573033,264.21025313684,246.9529092101,246.76961349933,246.79519906404,246.93185599455,269.3731950955,269.3321461876,269.3321461876,224.91602969134,224.91602969134,391.53758847264,390.53314338093,0
0.00026925,110860088.29776,7.9334112257421e-05,1.0295641914192,1.0104541610323e-08,-7.455430797764e-09,7.2723114353181e-09,1.2013693944003e-08,3.3838339893759e-30,-1.2289584037335e-29,-6.994640575856e-30,1.1814115242204e-30,-45.029037987667,57.032818513657,-51.576966573648,46.619015756205,-1.2565052846072e-08,4.1502912505547e-30,1.0541258208027e-29,-4.4159828228051e-30,-1.6437668433352e-30,8.8537644925002e-21,-2.1787554505724e-20,-1.4887320086085e-20,4.3372452665924e-21,-0.8865027376327,1.0359987529647,-1.0738514066179e-08,-1.0798662443347,0.97170043675099,1.2447024974053e-42,-7.1825216361522e-42,-3.538772271095e-42,2.5316099585596e-43,-0.9812465114275,1.0369102240902,-0.94645824909877,1.019287845977,-7.6096702131794e-83,1.5504362135715e-42,6.1705955850981e-42,-1.6195662393268e-42,-4.0572068250148e-43,1.0487664432033e-20,1.9389693923327e-20,-1.1128784381962e-20,-5.3823855963072e-21,-4.2306646043047e-81,-8.1881085043441e-81,7.0996897457823e-81,9.8499652495274e-09,-1.2597108806444e-08,225.06394551897,225.06394551897,224.94100593518,224.94100593518,256.95657684345,256.86730798205,256.90231831266,256.9279193462,199.8503416304,199.47661173983,199.55901791408,199.8111832528,224.81209561248,256.98454237851,256.84023899246,256.87427776093,256.95487709943,246.92772578308,246.84886690554,246.87651700185,246.90851556002,204.38233154145,204.15921684585,224.81209561248,204.2120467168,204.35076887257,264.26769495513,264.18472626738,264.22423723535,264.23222235382,204.4558219672,204.08162302518,204.13829172492,204.42690623528,269.40708651319,264.27880918327,264.17395753468,264.2130824934,264.24293942162,246.98142827131,246.79692348165,246.82267775773,246.96024625797,269.40708651319,269.36578209157,269.36578209157,224.93552740652,224.93552740652,391.51375275744,390.49878661909,0
0.0002695,111047282.14978,7.9408334449793e-05,1.0296079136748,1.0434960139933e-08,-7.6749514903256e-09,7.4866493111654e-09,1.2414221784339e-08,3.8326172837704e-30,-1.411708106466e-29,-7.8239088575791e-30,1.305519511293e-30,-44.989324111964,57.079127942199,-51.582562054221,46.587000496189,-1.3044347818957e-08,4.6315993440313e-30,1.1989301411937e-29,-4.9857404437525e-30,-1.8168260523283e-30,9.6046395173849e-21,-2.3923504539913e-20,-1.6076302263588e-20,4.6444803039959e-21,-0.88630122227755,1.0365299381076,-1.1114384872327e-08,-1.0809211330901,0.97154917623655,1.5119671164253e-42,-8.8551801032892e-42,-4.1778502871672e-42,2.9371223143782e-43,-0.98143488128117,1.0374554177581,-0.94617152029799,1.0199459620569,-9.3102830270264e-83,1.8210420465825e-42,7.4884564109902e-42,-1.9442321358128e-42,-4.7059640588099e-43,1.1313014223881e-20,2.115809086999e-20,-1.2075115890683e-20,-5.7657481828809e-21,-6.6926809023142e-81,-1.388450113731e-80,1.2746402413966e-80,1.0182973885064e-08,-1.3108628976267e-08,225.08435642971,225.08435642971,224.96060144427,224.96060144427,256.9876243197,256.89777404037,256.93301554838,256.95879903941,199.85077686796,199.47415487589,199.55727223075,199.81129485807,224.83082526281,257.01577567019,256.87053002302,256.90478877676,256.98593068287,246.95591971933,246.87654155635,246.90438147614,246.93660243989,204.38796930741,204.16318880049,224.83082526281,204.21639544032,204.35614016793,264.30054099696,264.21703750629,264.25680212593,264.26485506411,204.46191666163,204.08505510578,204.14218959471,204.43278175436,269.440988934,264.31172902854,264.20619937308,264.24557335883,264.2756410828,247.00997945074,246.82426032861,246.85018413626,246.98866850799,269.440988934,269.39942822007,269.39942822007,224.95507833717,224.95507833717,391.49014996509,390.46460492599,0
0.00026975,111234591.25984,7.9482556146273e-05,1.0296516272718,1.0775601156423e-08,-7.9004845456401e-09,7.706932190331e-09,1.2827244521688e-08,4.3408892662171e-30,-1.6214721230172e-29,-8.7475362961576e-30,1.442012126885e-30,-44.949514242504,57.125589143387,-51.588190974211,46.554803612999,-1.3542110647401e-08,5.166637970929e-30,1.3634279324231e-29,-5.62919164289e-30,-2.0072002407912e-30,1.0418509824787e-20,-2.6267299362802e-20,-1.7355164644683e-20,4.9719954398723e-21,-0.88611784502593,1.0370770156722,-1.150349742174e-08,-1.0819929490865,0.97140656596615,1.8365686977577e-42,-1.0914561598474e-41,-4.9286608794192e-42,3.4051299603645e-43,-0.98163564034386,1.0380175063651,-0.94589642895659,1.0206193710135,-1.0173585445127e-82,2.1374857704523e-42,9.0862874647185e-42,-2.334543796244e-42,-5.4545957624266e-43,1.2199994537444e-20,2.3084942499576e-20,-1.3101354998435e-20,-6.1745603738481e-21,-1.0552392928409e-80,-2.355036780236e-80,2.281025911974e-80,1.0527090911549e-08,-1.3641567566029e-08,225.10482486052,225.10482486052,224.98025136451,224.98025136451,257.01869312242,256.92825910342,256.96373312134,256.98970017127,199.85129589374,199.47176640786,199.5555998344,199.81148913881,224.84960488426,257.04703127691,256.90083943102,256.93531915636,257.01700633751,246.98414377803,246.90424420064,246.93227541171,246.96471998764,204.39368886365,204.1672343741,224.84960488426,204.22082013163,204.36159290628,264.33340238558,264.24936203653,264.28938145404,264.2975028522,204.46809511263,204.08855860075,204.14616189499,204.43874040044,269.47490231301,264.34466461459,264.23845425617,264.27807827488,264.30835807244,247.03856264631,246.85162394627,246.8777181101,247.01712265444,269.47490231301,269.43308453456,269.43308453456,224.97468231913,224.97468231913,391.46677963501,390.43059793043,0
0.00027,111422015.72912,7.9556777348633e-05,1.0296953322525,1.1126744340957e-08,-8.1321670296061e-09,7.9332975090363e-09,1.3253110369586e-08,4.916524137159e-30,-1.862203060548e-29,-9.7758354844313e-30,1.5920639437314e-30,-44.909610921033,57.172200689489,-51.59385254967,46.522425378241,-1.4059026478336e-08,5.7612000050608e-30,1.550267975983e-29,-6.3559202483395e-30,-2.216536918457e-30,1.1300629144371e-20,-2.8838914720031e-20,-1.8730347850754e-20,5.3210378018658e-21,-0.88595258219146,1.0376399363877,-1.1906307744326e-08,-1.0830815309571,0.97127254221008,2.2307482160061e-42,-1.3449124549454e-41,-5.8101190795308e-42,3.9449017279669e-43,-0.98184874717063,1.0385964080443,-0.94563294002746,1.0213079559636,-8.5234075142289e-83,2.5073207679739e-42,1.102313291823e-41,-2.80388538338e-42,-6.3179097352632e-43,1.3152988248843e-20,2.5184194788347e-20,-1.4214255971254e-20,-6.6103978279807e-21,-1.6583744176717e-80,-3.9945604012294e-80,4.0685599705293e-80,1.0882662201657e-08,-1.4196798075058e-08,225.12535066438,225.12535066438,224.99995557138,224.99995557138,257.04978316938,256.95876309602,256.99447096864,257.02062268198,199.85189853734,199.46944616293,199.55400058202,199.81176596645,224.86843433583,257.07830912,256.93116714657,256.96586883345,257.04810399837,247.01239784984,246.93197473472,246.96019872612,246.99286812285,204.39949003378,204.17135339804,224.86843433583,204.22532065446,204.3671269649,264.36627905891,264.28169980351,264.32197516955,264.33016567222,204.47435715349,204.09213335387,204.15020848823,204.44478203281,269.50882660534,264.37761588076,264.27072213151,264.31059719007,264.34109034261,247.06717775566,246.87901424106,246.90527959018,247.04560860698,269.50882660534,269.4667509966,269.4667509966,224.99433918806,224.99433918806,391.44364129927,390.39676526056,0
0.00027025,111609555.6364,7.9630998058429e-05,1.0297390286537,1.1488675521837e-08,-8.3701380601321e-09,8.1658847081807e-09,1.3692175760141e-08,5.5684312962259e-30,-2.1384224849292e-29,-1.0920201555881e-29,1.756955211524e-30,-44.869616687963,57.218961141032,-51.599545988642,46.489866102661,-1.4595803475105e-08,6.4216830405723e-30,1.7624497702266e-29,-7.1767598875902e-30,-2.4466324793825e-30,1.2256684682381e-20,-3.1660202986098e-20,-2.0208729287637e-20,5.6929253579488e-21,-0.88580540312789,1.0382186462221,-1.232328669078e-08,-1.0841867121429,0.97114703861229,2.7093341918601e-42,-1.6567269557634e-41,-6.8442404427099e-42,4.5670287736679e-43,-0.98207415643754,1.0391920356616,-0.94538101412569,1.0220115942351,-9.5382832215277e-84,2.9393144142778e-42,1.3370352960208e-41,-3.3683824547321e-42,-7.3128277288059e-43,1.4176675029928e-20,2.7470990018934e-20,-1.5421143326805e-20,-7.0749266034262e-21,-2.5978609307592e-80,-6.7736635176286e-80,7.2326538895316e-80,1.1250042928544e-08,-1.4775226663698e-08,225.14593369387,225.14593369387,225.01971394069,225.01971394069,257.08089437826,256.98928594316,257.02522902768,257.05156651184,199.85258462733,199.46719396858,199.55247433131,199.81212521222,224.88731347713,257.10960912066,256.96151310015,256.9964377421,257.07922360039,247.04068182531,246.95973305502,246.98815133729,247.02104676526,204.40537264058,204.17554570366,224.88731347713,204.22989687317,204.37274222111,264.39917095482,264.31405075281,264.3545832225,264.36284347839,204.48070261656,204.09577920942,204.1543292376,204.45090651036,269.54276176621,264.41058276629,264.30300294685,264.34313005318,264.3738378454,247.09582467619,246.90643111985,246.93286848788,247.07412627512,269.54276176621,269.50042756788,269.50042756788,225.0140487795,225.0140487795,391.42073448341,390.36310654409,0
0.0002705,111797211.03972,7.970521827702e-05,1.0297827165081,1.1861686821681e-08,-8.6145388636608e-09,8.4048352765956e-09,1.4144805566743e-08,6.3066894425733e-30,-2.4553009325042e-29,-1.2193221404072e-29,1.9380808727827e-30,-44.829534081598,57.265869043032,-51.605270488308,46.457126140375,-1.5153173480472e-08,7.155150718471e-30,2.0033689125082e-29,-8.1039563115182e-30,-2.6994449858214e-30,1.3292832153562e-20,-3.4755063223892e-20,-2.179765126112e-20,6.0890506506947e-21,-0.8856762705994,1.0388130867908,-1.2754920419397e-08,-1.0853083213036,0.9710299866981,3.2902813666586e-42,-2.0401753376077e-41,-8.0566332192223e-42,5.2836059613517e-43,-0.98231181941014,1.039804297098,-0.94514060789461,1.0227301579692,1.9144120402884e-82,3.4436389907446e-42,1.6214152529371e-41,-4.0474626988476e-42,-8.4586760005277e-43,1.5276050562169e-20,2.9961765507163e-20,-1.6729959527547e-20,-7.5699079993223e-21,-4.0566839834194e-80,-1.1479962323209e-79,1.2813978422278e-79,1.1629597802688e-08,-1.5377793196346e-08,225.16657380118,225.16657380118,225.03952634862,225.03952634862,257.11202666667,257.01982756999,257.05600723619,257.08253160126,199.85335399121,199.46500965265,199.5510209407,199.8125667471,224.90624216838,257.14093119992,256.99187722252,257.02702581676,257.1103650785,247.0689955949,246.98751905813,247.0161331635,247.04925583478,204.41133650604,204.17981112233,224.90624216838,204.23454865279,204.37843855237,264.43207801114,264.34641483016,264.38720556321,264.39553622501,204.48713133339,204.09949601213,204.15852400702,204.45711369152,269.57670775089,264.44356521038,264.33529665019,264.37567681322,264.40660053292,247.12450330508,246.93387448996,246.96048471511,247.1026755683,269.57670775089,269.53411421017,269.53411421017,225.03381092889,225.03381092889,391.39805870704,390.3296214087,0
0.00027075,111984981.97786,7.9779438005573e-05,1.0298263958442,1.2246076804218e-08,-8.8655128307862e-09,8.6502927932677e-09,1.4611373328696e-08,7.1426976271172e-30,-2.8187488320073e-29,-1.3608793506724e-29,2.1369603092626e-30,-44.78936563675,57.312922921654,-51.611025233603,46.424205893137,-1.5731892687341e-08,7.9694001128328e-30,2.2768681645515e-29,-9.1513505112313e-30,-2.9771079975334e-30,1.4415733534397e-20,-3.8149625863593e-20,-2.3504950813382e-20,6.5108847156691e-21,-0.88556514110531,1.0394231957082,-1.3201710891562e-08,-1.0864461827261,0.97092131632033,3.9953192396837e-42,-2.511505847828e-41,-9.4770662135861e-42,6.1084371648386e-43,-0.98256168434397,1.0404330955136,-0.94491167432804,1.0234635146728,6.4193932567762e-82,4.0320920836541e-42,1.9658618283491e-41,-4.8645304139084e-42,-9.7775143292985e-43,1.6456446937733e-20,3.2674360004162e-20,-1.8149316554822e-20,-8.0972036418202e-21,-6.3149247282815e-80,-1.9440191130734e-79,2.2624880283943e-79,1.2021701309661e-08,-1.6005472302914e-08,225.18727083819,225.18727083819,225.05939267171,225.05939267171,257.14317995216,257.05038790188,257.08680553221,257.11351789079,199.85420645556,199.46289304342,199.54964026941,199.81309044196,224.92522027048,257.17227527869,257.02225944483,257.05763299227,257.14152836758,247.09733904903,247.01533264084,247.04414412344,247.0774952515,204.41738145147,204.18414948554,224.92522027048,204.2392758591,204.38421583628,264.46500016566,264.37879198148,264.41984214221,264.42824386645,204.49364313473,204.10328360734,204.16279266122,204.4634034344,269.61066451472,264.47656315213,264.36760318976,264.40823741949,264.4393783573,247.15321353931,246.96134425915,246.98812818429,247.1312563958,269.61066451472,269.5678108854,269.5678108854,225.05362547163,225.05362547163,391.37561348456,390.29630948223,0
0.000271,112172868.47168,7.985365724508e-05,1.0298700666865,1.26421506214e-08,-9.1232055710561e-09,8.9024029684025e-09,1.5092261475873e-08,8.0893453246266e-30,-3.2355197673263e-29,-1.5182259343349e-29,2.3552478751734e-30,-44.749113883756,57.360121282033,-51.616809395143,46.391105814028,-1.6332742316134e-08,8.8730357619552e-30,2.5872948811943e-29,-1.0334585226354e-29,-3.2819455284509e-30,1.5632597734048e-20,-4.1872453166108e-20,-2.5338991375735e-20,6.9599811924454e-21,-0.88547196516353,1.0400489069126,-1.3664176377303e-08,-1.0876001166472,0.97082095604717,4.8507323092037e-42,-3.0905919813666e-41,-1.114012361282e-41,7.0572675238012e-43,-0.98282369683623,1.0410783295869,-0.94469416305525,1.0242115276973,1.5700911026297e-81,4.7183509561309e-42,2.3829363187967e-41,-5.8477774489325e-42,-1.1294508401068e-42,1.772355431928e-20,3.5628128314758e-20,-1.9688551666531e-20,-8.6587808264888e-21,-9.8000014421283e-80,-3.2884337771018e-79,3.9810212546711e-79,1.2426737948663e-08,-1.6659274457926e-08,225.20802465642,225.20802465642,225.07931278691,225.07931278691,257.17435415222,257.0809668644,257.11762385408,257.14452532107,199.85514184605,199.46084396966,199.54833217754,199.81369616752,224.94424764502,257.20364127773,257.05265969854,257.08825920388,257.17271340249,247.12571207805,247.04317370012,247.07218413617,247.1057649357,204.4235072975,204.18856062494,224.94424764502,204.24407835861,204.39007395064,264.49793735616,264.41118215291,264.45249291027,264.46096635718,204.50023785058,204.10714184099,204.1671350658,204.46977559675,269.64463201317,264.50957653062,264.39992251404,264.44081182154,264.47217127073,247.18195527567,246.98884033568,247.01579880837,247.15986866684,269.64463201317,269.60151755557,269.60151755557,225.07349224314,225.07349224314,391.35339832569,390.263170393,0
0.00027125,112360870.52541,7.9927875996363e-05,1.0299137290559,1.3050220160833e-08,-9.3877649677643e-09,9.1613136837456e-09,1.5587861556557e-08,9.1612038365763e-30,-3.7133276915425e-29,-1.6930547491291e-29,2.5947442779806e-30,-44.708781346794,57.407462605988,-51.622622128978,46.357826411008,-1.6956529299697e-08,9.8755509819906e-30,2.9395655599999e-29,-1.1671337753842e-29,-3.6164882187745e-30,1.6951224395591e-20,-4.5954756728277e-20,-2.7308696348659e-20,7.4379806374503e-21,-0.88539668755435,1.0406901509433,-1.4142851970345e-08,-1.0887699396038,0.97072883350912,5.8882980714979e-42,-3.801725164832e-41,-1.3085959702563e-41,8.148046058913e-43,-0.98309780012706,1.0417398937249,-0.94448802059342,1.0249740566851,3.3873034152764e-81,5.5182660555524e-42,2.8877896901151e-41,-7.0311577661207e-42,-1.3038351077289e-42,1.9083443930098e-20,3.8844064714938e-20,-2.1357787658263e-20,-9.2567181300284e-21,-1.5162255579599e-79,-5.5551699954851e-79,6.9807377938797e-79,1.2845102472133e-08,-1.7340247078029e-08,225.22883510712,225.22883510712,225.09928657158,225.09928657158,257.20554918432,257.11156438334,257.14846214049,257.17555383286,199.85615998751,199.4588622607,199.54709652604,199.81438379439,224.96332415429,257.23502911771,257.08307791551,257.11890438723,257.20392011805,247.15411457232,247.07104213317,247.10025312116,247.13406480787,204.4297138642,204.1930443724,224.96332415429,204.24895601864,204.39601277345,264.53088952038,264.44358529074,264.48515781842,264.49370365177,204.50691531026,204.11107055972,204.17155108722,204.47623003605,269.67861020176,264.54260528486,264.43225457177,264.47339996922,264.50497922539,247.21072841077,247.01636262829,247.04349650084,247.18851229052,269.67861020176,269.63523418283,269.63523418283,225.09341107885,225.09341107885,391.33141273607,390.23020377005,0
0.0002715,112548988.12772,8.0002094260082e-05,1.0299573829699,1.3470604193722e-08,-9.6593412323878e-09,9.4271750325084e-09,1.609857446681e-08,1.0374741600005e-29,-4.2609799023641e-29,-1.8872331577059e-29,2.8574088719912e-30,-44.668370543027,57.45494535042,-51.628462575737,46.324368249777,-1.7604086974428e-08,1.0987417161681e-29,3.3392383531323e-29,-1.3181582318546e-29,-3.9834908174009e-30,1.8380051050038e-20,-5.0430633371108e-20,-2.9423584717227e-20,7.9466150486195e-21,-0.885339247558,1.0413468551856,-1.4638290113445e-08,-1.089955464717,0.97064487570077,7.1464138261998e-42,-4.674576686267e-41,-1.5361168248216e-41,9.4012224653063e-43,-0.98338393535673,1.042417678255,-0.94429319056822,1.0257509579368,6.8247498589819e-81,6.4501995938687e-42,3.4986862322413e-41,-8.4555580688373e-42,-1.5041738738271e-42,2.0542592452706e-20,4.2344935776269e-20,-2.3167997975474e-20,-9.8932113044043e-21,-2.3388344827869e-79,-9.3696533578144e-79,1.2198373130109e-78,1.3277200126168e-08,-1.8049475637134e-08,225.24970204124,225.24970204124,225.11931390349,225.11931390349,257.23676496593,257.14218038473,257.17932033046,257.20660336705,199.85726070397,199.45694774649,199.54593317681,199.81515319313,224.98244966134,257.26643871918,257.11351402797,257.14956847838,257.23514844905,247.18254642216,247.09893783743,247.12835099825,247.16239478864,204.43600097106,204.19760056008,224.98244966134,204.25390870735,204.40203218295,264.56385659609,264.4760013415,264.51783681792,264.52645570485,204.51367534243,204.1150696109,204.17604059292,204.48276660947,269.71259903611,264.57564935383,264.46459931193,264.50600181263,264.5378021735,247.23953284104,247.04391104627,247.07122117573,247.21718717586,269.71259903611,269.66896072944,269.66896072944,225.11338181427,225.11338181427,391.30965621771,390.19740924333,0
0.00027175,112737221.25277,8.0076312036748e-05,1.0300010284431,1.3903628523457e-08,-9.9380869591966e-09,9.7001393588051e-09,1.6624810681884e-08,1.1748566277833e-29,-4.8885278132554e-29,-2.1028203367057e-29,3.1453729344787e-30,-44.627883980411,57.502567945714,-51.634329860487,46.290731956999,-1.8276275777912e-08,1.2220181802161e-29,3.7925944775621e-29,-1.4887885651087e-29,-4.3859510761625e-30,1.9928203865027e-20,-5.5337320852635e-20,-3.1693808819095e-20,8.4877126113637e-21,-0.88529957912505,1.0420189441009,-1.5151061133747e-08,-1.0911565019725,0.97056900924265,8.6714492596808e-42,-5.7453640304783e-41,-1.8019783441843e-41,1.084008236607e-42,-0.98368204178812,1.0431115695925,-0.94410961391296,1.0265420847899,1.3166288197261e-80,7.5354160297184e-42,4.2376304880488e-41,-1.0170203217627e-41,-1.7341909646476e-42,2.2107907917602e-20,4.6155423254169e-20,-2.5131077043823e-20,-1.0570579467013e-20,-3.5970876164862e-79,-1.5775154603095e-78,2.1241905526418e-78,1.372344689253e-08,-1.878808479922e-08,225.27062530945,225.27062530945,225.1393946608,225.1393946608,257.26800141447,257.17281479486,257.21019836332,257.23767386463,199.85844381871,199.45510025766,199.54484199272,199.81600423421,225.00162402998,257.2978700026,257.14396796851,257.1802514138,257.26639833027,247.21100751795,247.12686071061,247.15647768769,247.19075479884,204.44236843712,204.20222902045,225.00162402998,204.25893629371,204.40813205757,264.59683852104,264.50843025191,264.55052986028,264.55922247113,204.52051777514,204.11913884266,204.18060345128,204.48938517391,269.74659847196,264.60870867646,264.4969566838,264.53861730217,264.57064006732,247.26836846277,247.07148549938,247.09897274766,247.24589323177,269.74659847196,269.7026971578,269.7026971578,225.13340428501,225.13340428501,391.28812826946,390.16478644395,0
0.000272,112925569.86117,8.0150529326726e-05,1.0300446654868,1.4349626134826e-08,-1.0224157180212e-08,9.9803612969329e-09,1.7166990490969e-08,1.330369683205e-29,-5.607437804595e-29,-2.3420862399596e-29,3.4609539995718e-30,-44.58732415675,57.550328794647,-51.640223092794,46.256918222098,-1.8973983952589e-08,1.3586576133854e-29,4.3067295613409e-29,-1.681573985616e-29,-4.8271301659577e-30,2.1605552240442e-20,-6.0715474949897e-20,-3.4130194392e-20,9.0632026766109e-21,-0.88527761107319,1.0427063394137,-1.5681753788794e-08,-1.0923728584798,0.97050116060861,1.0519368787171e-41,-7.0582638622373e-41,-2.1124431738585e-41,1.249112582585e-42,-0.98399205699354,1.0438214503972,-0.94393722903872,1.0273472878996,2.4643140993146e-80,8.7985322989562e-42,5.1311172000129e-41,-1.2234342624954e-41,-1.9981252128913e-42,2.3786757166393e-20,5.030227772355e-20,-2.725991621573e-20,-1.129127160207e-20,-5.516146984062e-79,-2.6507075222425e-78,3.6861669227513e-78,1.4184269731214e-08,-1.9557239569347e-08,225.29160476216,225.29160476216,225.15952872211,225.15952872211,257.2992584474,257.20346754026,257.24109617874,257.26876526669,199.85970915429,199.45331962552,199.54382283758,199.81693678804,225.02084712481,257.32932288833,257.17443967015,257.21095313037,257.29766969644,247.23949775007,247.15481065066,247.18463311013,247.21914475951,204.44881608089,204.20692958638,225.02084712481,204.26403864757,204.41431227601,264.62983523299,264.54087196893,264.58323689724,264.59200390543,204.52744243581,204.12327810396,204.18523953167,204.496085586,269.78060846513,264.64178319167,264.5293266369,264.57124638851,264.60349285913,247.29723517209,247.09908589795,247.12675113178,247.2746303671,269.78060846513,269.73644343041,269.73644343041,225.15347832682,225.15347832682,391.26682838745,390.13233500432,0
0.00027225,113114033.90084,8.0224746130248e-05,1.03008829411,1.4808937344354e-08,-1.051770942061e-08,1.0267997810623e-08,1.7725544234488e-08,1.5063869145885e-29,-6.4307847171795e-29,-2.6075323679479e-29,3.8066713306093e-30,-44.54669355773,57.598226271208,-51.646141366923,46.222927799989,-1.9698128254541e-08,1.5100633223546e-29,4.8896560785172e-29,-1.8993937129096e-29,-5.3105747321698e-30,2.3422767523009e-20,-6.6609469554387e-20,-3.6744283028221e-20,9.675120982079e-21,-0.88527326722805,1.0434089602904,-1.6230975823222e-08,-1.0936043387088,0.9704412563359,1.2757675923048e-41,-8.6671223581961e-41,-2.474765665605e-41,1.4384494501985e-42,-0.9843139170108,1.0445471997073,-0.94377597198503,1.0281664155348,4.5098406656044e-80,1.0268036817161e-41,6.2110276569853e-41,-1.4719272669831e-41,-2.3007991319821e-42,2.5586994981657e-20,5.4814483695487e-20,-2.956848575332e-20,-1.2057873388008e-20,-8.4347256826329e-79,-4.4443725725638e-78,6.3745129601922e-78,1.4660106824508e-08,-2.035814646099e-08,225.31264024952,225.31264024952,225.17971596642,225.17971596642,257.33053598218,257.23413854774,257.27201371671,257.29987751444,199.86105653259,199.45160568216,199.54287557624,199.81795072496,225.04011881123,257.36079729664,257.20492906628,257.24167356541,257.32896248226,247.26801700896,247.18278755586,247.2128171866,247.2475645918,204.45534372052,204.2117020911,225.04011881123,204.26921563966,204.42057271719,264.66284666972,264.57332643971,264.61595788082,264.6247999626,204.53444915133,204.12748724459,204.18994870447,204.50286770215,269.81462897155,264.67487283834,264.56170912102,264.60388902261,264.6363605012,247.32613286498,247.12671215285,247.15455624383,247.30339849058,269.81462897155,269.77019950989,269.77019950989,225.17360377558,225.17360377558,391.24575606543,390.10005455831,0
0.0002725,113302613.30782,8.0298962447414e-05,1.0301319143187,1.5281909951316e-08,-1.0818903754635e-08,1.0563208232298e-08,1.8300912543958e-08,1.7055879163853e-29,-7.3734708631339e-29,-2.9019145094441e-29,4.1852626175267e-30,-44.505994654873,57.646258720106,-51.652083762169,46.188761512912,-2.0449654667737e-08,1.6777817564049e-29,5.5504181490376e-29,-2.1454991424068e-29,-5.8401407159033e-30,2.5391386126809e-20,-7.3067721554697e-20,-3.9548377173045e-20,1.0325615128041e-20,-0.88528646654998,1.0441267234926,-1.679935453608e-08,-1.0948507447071,0.97038922319548,1.5467741745615e-41,-1.0637523688024e-40,-2.8973441751957e-41,1.655445345626e-42,-0.98464755647479,1.0452886930738,-0.94362577655672,1.0289993138385,8.1099238376698e-80,1.197688761773e-41,7.5157000975708e-41,-1.7710760692584e-41,-2.647696426569e-42,2.751699497603e-20,5.972343698512e-20,-3.2071923304703e-20,-1.2873114366764e-20,-1.2860950521815e-78,-7.4344700497093e-78,1.0985285104026e-77,1.5151407821889e-08,-2.1192054681181e-08,225.33373162142,225.33373162142,225.19995627312,225.19995627312,257.36183393628,257.26482774438,257.30295091753,257.33101054917,199.86248577483,199.44995826044,199.54200007456,199.81904591528,225.05943895543,257.39229314773,257.23543609071,257.27241265665,257.3602766224,247.2965651851,247.21079132475,247.24102983852,247.27601421708,204.46195117374,204.21654636832,225.05943895543,204.27446714156,204.42691326025,264.69587276902,264.60579361165,264.64869276324,264.6576105976,204.54153774802,204.13176611522,204.1947308411,204.50973137848,269.84865994723,264.70797755534,264.59410408625,264.63654515571,264.66924294586,247.3550614373,247.1543641755,247.18238800012,247.33219751085,269.84865994723,269.803965359,269.803965359,225.19378046737,225.19378046737,391.22491079513,390.06794474144,0
0.00027275,113491308.00704,8.0373178278205e-05,1.030175526117,1.5768899390157e-08,-1.1127902862205e-08,1.0866154302361e-08,1.8893546585931e-08,1.9309967964779e-29,-8.4524737745608e-29,-3.2282676365456e-29,4.5997019918739e-30,-44.465229904325,57.694424455608,-51.65804934345,46.154420252168,-2.1229539122957e-08,1.8635167233889e-29,6.2992201184896e-29,-2.423561275563e-29,-6.4200190778061e-30,2.7523877366427e-20,-8.0143042391943e-20,-4.2555587817895e-20,1.1016950319347e-20,-0.88531712327777,1.044859543509,-1.7387537358712e-08,-1.0961118763107,0.97034498834782,1.8747591086269e-41,-1.30492894799e-40,-3.3898960575479e-41,1.9039934366471e-42,-0.98499290872216,1.046045802658,-0.94348657444186,1.0298458270465,1.4378793572505e-79,1.3963201534416e-41,9.0912068537387e-41,-2.1311948557175e-41,-3.0450494385662e-42,2.9585682342776e-20,6.5063135150346e-20,-3.4786629349289e-20,-1.3739875472521e-20,-1.9555027495441e-78,-1.2405626142694e-77,1.8865612814764e-77,1.5658634086182e-08,-2.2060257332279e-08,225.35487872753,225.35487872753,225.22024952201,225.22024952201,257.39315222723,257.29553505755,257.33390772184,257.36216431227,199.8639967016,199.44837719408,199.54119619942,199.8202222292,225.07880742445,257.4238103617,257.26596067765,257.30317034222,257.39161205148,247.32514216906,247.23882185622,247.2692709877,247.30449355685,204.46863825793,204.22146225222,225.07880742445,204.27979302577,204.43333378457,264.72891346873,264.63827343238,264.68144149701,264.69043576543,204.54870805167,204.13611456744,204.19958581402,204.51667647086,269.88270134833,264.7410972815,264.62651148295,264.66921473934,264.70214014543,247.38402078477,247.18204187788,247.21024631753,247.36102733647,269.88270134833,269.8377409406,269.8377409406,225.21400823847,225.21400823847,391.20429206658,390.03600519098,0
0.000273,113680117.91301,8.0447393622485e-05,1.0302191295063,1.6270268882966e-08,-1.1444872086815e-08,1.1177000209352e-08,1.950390830829e-08,2.186025367457e-29,-9.6871262968495e-29,-3.5899331486947e-29,5.0532194601436e-30,-44.424401744592,57.742721761096,-51.664037162587,46.119904979668,-2.2038788219768e-08,2.0691449808707e-29,7.1475704814282e-29,-2.7377240500293e-29,-7.0547635696382e-30,2.9833716327095e-20,-8.7893018304443e-20,-4.5779885031458e-20,1.1751515387844e-20,-0.88536514701766,1.0456073326915,-1.7996192444867e-08,-1.0973875313608,0.97030847947303,2.2715233707658e-41,-1.5999496445244e-40,-3.9636586430034e-41,2.1885147688742e-42,-0.98534990588762,1.0468183973429,-0.94335829530127,1.0307057977001,2.51946702983e-79,1.627104810141e-41,1.0992876808855e-40,-2.5646828538165e-41,-3.4999377587685e-42,3.1802568568442e-20,7.0870381856769e-20,-3.7730370141096e-20,-1.4661196936554e-20,-2.9651248900578e-78,-2.0647240493393e-77,3.2287146551508e-77,1.6182258940672e-08,-2.2964092629642e-08,225.37608141724,225.37608141724,225.24059559328,225.24059559328,257.42449077257,257.3262604149,257.36488407059,257.39333874519,199.86558913291,199.44686231761,199.54046381876,199.82147953688,225.09822408614,257.45534885862,257.29650276174,257.33394656072,257.42296870408,247.35374785151,247.26687904948,247.29754055631,247.33300253277,204.47540479013,204.2264495775,225.09822408614,204.28519316564,204.43983416974,264.7619687067,264.67076584976,264.71420403483,264.72327542115,204.55595988758,204.14053245376,204.20451349673,204.52370283494,269.91675313107,264.77423195568,264.65893126176,264.7018977253,264.73505205224,247.41301080298,247.20974517253,247.23813111353,247.3898878759,269.91675313107,269.87152621769,269.87152621769,225.23428692537,225.23428692537,391.18389936842,390.00423554606,0
0.00027325,113869042.93051,8.0521608480011e-05,1.0302627244864,1.6786389594144e-08,-1.1769979493348e-08,1.149591262951e-08,2.0132470689907e-08,2.4745215666582e-29,-1.1099433063523e-28,-3.9905886803804e-29,5.5493218608333e-30,-44.383512594733,57.791148888936,-51.670046258352,46.08521672925,-2.2878439953658e-08,2.2967333319724e-29,8.1084428812284e-29,-3.0926642766562e-29,-7.7493207118416e-30,3.2335462114322e-20,-9.6380421422415e-20,-4.9236151496246e-20,1.2531829105395e-20,-0.88543044284557,1.046370001358,-1.8626009269661e-08,-1.0986775058575,0.97027962488334,2.7512643794613e-41,-1.9606116396453e-40,-4.631619943505e-41,2.514027220262e-42,-0.98571847895922,1.0476063428217,-0.94324086687731,1.0315790668388,4.3704647684028e-79,1.8951363873835e-41,1.3287108663709e-40,-3.0864401681732e-41,-4.0203993840008e-42,3.4177788223005e-20,7.7185006094402e-20,-4.0922388685346e-20,-1.5640286586969e-20,-4.4837598803252e-78,-3.4271441579465e-77,5.506711191872e-77,1.6722767916675e-08,-2.3904945136075e-08,225.39733953973,225.39733953973,225.26099436747,225.26099436747,257.45584948992,257.35700374439,257.39587990502,257.42453378948,199.86726288819,199.44541346649,199.53980280156,199.82281770838,225.1176888092,257.48690855845,257.32706227802,257.36474125112,257.45434651473,247.38238212318,247.29496280405,247.3258384669,247.36154106661,204.48225058711,204.23150817938,225.1176888092,204.29066743543,204.44641429552,264.79503842082,264.70327081187,264.74698032968,264.75612951989,204.56329308055,204.14501962765,204.20951376381,204.53081032605,269.95081525181,264.80738151669,264.6913633736,264.73459406568,264.76797861863,247.4420313874,247.23747397258,247.26604230617,247.41877903747,269.95081525181,269.90532115336,269.90532115336,225.25461636483,225.25461636483,391.16373218814,389.97263544778,0
0.0002735,114058082.95514,8.059582285044e-05,1.0303063110548,1.7317640785816e-08,-1.2103395927932e-08,1.1823060767712e-08,2.0779717994697e-08,2.800823710342e-29,-1.2714427868138e-28,-4.434280705045e-29,6.0918154619715e-30,-44.342564852778,57.839704060003,-51.676075657909,46.050356607941,-2.3749564444667e-08,2.5485573666316e-29,9.1964560955038e-29,-3.4936589749413e-29,-8.5090621456058e-30,3.5044841853303e-20,-1.0567365401728e-19,-5.2940239220341e-20,1.3360546804942e-20,-0.88551291140574,1.0471474578905,-1.9277699241854e-08,-1.0999815941511,0.97025835362407,3.331050999241e-41,-2.4012403175187e-40,-5.4087833613537e-41,2.8862231387924e-42,-0.98609855783705,1.0484095016819,-0.94313421506091,1.0324654741661,7.5152449676035e-79,2.2063005188613e-41,1.6053528579363e-40,-3.7143649436586e-41,-4.6155559629921e-42,3.6722137939989e-20,8.4050097190225e-20,-4.4383524354111e-20,-1.6680528563342e-20,-6.7619472287255e-78,-5.6726819350328e-77,9.3597499536751e-77,1.7280659003019e-08,-2.4884247012e-08,225.41865294392,225.41865294392,225.28144572552,225.28144572552,257.48722829693,257.38776497429,257.4268951667,257.45574938674,199.86901778631,199.44403047709,199.53921301784,199.82423661366,225.13720146318,257.51848938112,257.35763916197,257.39555435285,257.48574541791,247.41104487495,247.32307301983,247.35416464237,247.39010908032,204.48917546535,204.23663789366,225.13720146318,204.29621571026,204.4530740419,264.82812254904,264.73578826707,264.77977033476,264.78899801681,204.57070745491,204.14957594356,204.2145864909,204.53799879931,269.98488766701,264.84054590335,264.72380776969,264.76730371287,264.80091979693,247.4710824334,247.26522819172,247.29397981406,247.44770072945,269.98488766701,269.93912571084,269.93912571084,225.27499639385,225.27499639385,391.14379001232,389.94120453933,0
0.00027375,114247237.87403,8.0670036733332e-05,1.0303498892075,1.7864409973923e-08,-1.2445295078288e-08,1.2158616398195e-08,2.1446146028032e-08,3.1698212529544e-29,-1.4560576977454e-28,-4.9254601876718e-29,6.6848303207299e-30,-44.301560893407,57.888385463368,-51.682124377868,46.015325796946,-2.4653264668885e-08,2.8271220016989e-29,1.0428075120081e-28,-3.9466609856152e-29,-9.3398195405553e-30,3.797884081996e-20,-1.1584722835205e-19,-5.6909029595976e-20,1.4240467320921e-20,-0.88561244897546,1.047939608833,-1.9951996325754e-08,-1.101299589106,0.97024459555231,4.0313900455039e-41,-2.9392175086429e-40,-6.3124712702831e-41,3.3115567177952e-42,-0.98649007136721,1.0492277334782,-0.94303826396271,1.0333648582148,1.2822929133939e-78,2.5673960041325e-41,1.9387555238805e-40,-4.4699473636521e-41,-5.2957538589853e-42,3.9447117706992e-20,9.1512256642026e-20,-4.8136341755545e-20,-1.7785492465303e-20,-1.0170592354107e-77,-9.3625602781472e-77,1.5854462838518e-76,1.7856442895083e-08,-2.5903479279948e-08,225.44002147849,225.44002147849,225.30194954868,225.30194954868,257.51862711134,257.41854403316,257.45792979748,257.48698547862,199.87085364562,199.4427131867,199.53869433868,199.82573612256,225.15676191847,257.55009124648,257.38823334949,257.42638580573,257.51716534802,247.4397359978,247.35120959707,247.382519006,247.4187064959,204.49617924108,204.24183855676,225.15676191847,204.30183786614,204.459813289,264.86122102935,264.76831816393,264.81257400349,264.82188086713,204.57820283451,204.15420125694,204.21973155472,204.54526810951,270.01897033323,264.87372505449,264.75626440153,264.8000266195,264.83387553949,247.50016383621,247.29300774425,247.32194355639,247.47665285994,270.01897033323,269.97293985346,269.97293985346,225.29542684973,225.29542684973,391.12407232688,389.90994246603,0
0.000274,114436507.56627,8.0744250128159e-05,1.0303934589385,1.8427093085681e-08,-1.2795853535482e-08,1.2502753906676e-08,2.2132262397691e-08,3.5870227957541e-29,-1.6670234024202e-28,-5.469021561798e-29,7.3328465387285e-30,-44.260503066462,57.937191256207,-51.688191425299,45.980125552477,-2.5590677191758e-08,3.1351839873791e-29,1.18218356807e-28,-4.4583838411831e-29,-1.0247922253981e-29,4.1155799120005e-20,-1.2698228477229e-19,-6.1160497000637e-20,1.5174540266976e-20,-0.88572894755413,1.0487463589644,-2.0649657674972e-08,-1.1026312822545,0.97023828140498,4.8769013466151e-41,-3.5956170012713e-40,-7.3626730184439e-41,3.7973422888506e-42,-0.98689294736789,1.0500608948032,-0.94295293597195,1.0342770564871,2.1726859739961e-78,2.986274280061e-41,2.3403446414819e-40,-5.3789788647371e-41,-6.0727229635746e-42,4.2364974596134e-20,9.9621867844446e-20,-5.2205269534591e-20,-1.8958942957658e-20,-1.5257396210737e-77,-1.5407089084665e-76,2.6764596472184e-76,1.8450643245611e-08,-2.6964173105614e-08,225.4614449919,225.4614449919,225.32250571855,225.32250571855,257.55004585096,257.44934084992,257.48898373951,257.51824200685,199.87277028398,199.4414614336,199.53824663621,199.82731610479,225.17637004631,257.58171407436,257.41884477691,257.45723555,257.54860623941,247.46845538285,247.3793724364,247.41090148136,247.44733323552,204.50326173033,204.24711000567,225.17637004631,204.30753377993,204.46663191709,264.89433379979,264.80086045127,264.84539128953,264.85477802609,204.58577904279,204.15889542423,204.22494883306,204.55261811118,270.05306320716,264.90691890892,264.78873322092,264.83276273851,264.86684579863,247.52927549098,247.32081254501,247.34993345294,247.50563533698,270.05306320716,270.00676354465,270.00676354465,225.31590757008,225.31590757008,391.10457861724,389.8788488754,0
0.00027425,114625891.90356,8.0818463034312e-05,1.0304370202405,1.9006094618606e-08,-1.3155250857004e-08,1.2855650332311e-08,2.2838586777736e-08,4.0586321687119e-29,-1.9080152769954e-28,-6.0703453292844e-29,8.0407225533134e-30,-44.219393694939,57.986119564069,-51.694275799081,45.944757206437,-2.656297290254e-08,3.475776562328e-29,1.3398594737123e-28,-5.0363969845501e-29,-1.1240237950788e-29,4.4595515344133e-20,-1.3916715082075e-19,-6.5713776130813e-20,1.6165873663855e-20,-0.88586229492216,1.0495676113819,-2.1371464277146e-08,-1.1039764639492,0.97023934285749,5.8971214834004e-41,-4.3959684249506e-40,-8.5824436720454e-41,4.3518648489789e-42,-0.98730711264141,1.0509088393496,-0.94287815180875,1.035201905582,3.6579628702156e-78,3.4719998958282e-41,2.8237914012341e-40,-6.4723983293305e-41,-6.959755424624e-42,4.5488749069053e-20,1.0843338482366e-19,-5.6616749816326e-20,-2.0204849854062e-20,-2.282909434138e-77,-2.5277881155079e-76,4.5029667100957e-76,1.9063796915241e-08,-2.8067911092269e-08,225.48292333235,225.48292333235,225.34311411705,225.34311411705,257.58148443367,257.48015535377,257.52005693521,257.54951891315,199.87476751873,199.44027505706,199.53786978361,199.82897642991,225.1960257188,257.6133577845,257.44947338099,257.48810352633,257.58006802637,247.49720292137,247.40756143882,247.4393119924,247.4759892214,204.51042274893,204.25245207807,225.1960257188,204.31330332934,204.47352980659,264.92746079845,264.83341507819,264.87822214677,264.88768944895,204.59343590271,204.16365830293,204.23023820476,204.56004865856,270.08716624559,264.94012740549,264.82121417994,264.8655120231,264.89983052667,247.55841729274,247.34864250947,247.37794942406,247.53464806845,270.08716624559,270.04059674797,270.04059674797,225.33643839281,225.33643839281,391.08530836855,389.84792341726,0
0.0002745,114815390.75064,8.0892675451105e-05,1.0304805731049,1.9601827800069e-08,-1.3523669630771e-08,1.3217485411081e-08,2.3565651176759e-08,4.5916334996116e-29,-2.1832064755086e-28,-6.7353446080551e-29,8.8137256184331e-30,-44.178235073104,58.035168480565,-51.700376491001,45.909222167034,-2.7571357748394e-08,3.8522364554174e-29,1.5181809807928e-28,-5.6892325489424e-29,-1.2324216408314e-29,4.8319357669855e-20,-1.5249794435438e-19,-7.0589233281903e-20,1.7217741937085e-20,-0.88601237470739,1.0504032675639,-2.2118221609961e-08,-1.1053349234943,0.97024771256687,7.1274599197484e-41,-5.371174619617e-40,-9.9983606935474e-41,4.9845042941429e-42,-0.98773249297497,1.0517714179687,-0.94281383056884,1.0361392413237,6.1224965856217e-78,4.0350351086755e-41,3.4054409585407e-40,-7.787301002858e-41,-7.9719067066968e-42,4.8832323992778e-20,1.1800564117016e-19,-6.1399399053963e-20,-2.152739870137e-20,-3.4071018742988e-77,-4.1345988852091e-76,7.5504530341624e-76,1.969645422442e-08,-2.921632858887e-08,225.50445634781,225.50445634781,225.36377462638,225.36377462638,257.61294277746,257.51098747428,257.55114932732,257.58081613932,199.87684516677,199.43915389734,199.53756365509,199.83071696731,225.2157288089,257.64502229663,257.48011909893,257.51898967577,257.61155064309,247.52597850478,247.43577650571,247.46775046336,247.50467437586,204.51766211252,204.25786461227,225.2157288089,204.31914639292,204.48050683799,264.96060196351,264.86598199402,264.91106652932,264.92061509103,204.60117323684,204.16848975156,204.23559954974,204.56755960554,270.12127940541,264.97335048303,264.85370723097,264.89827442675,264.93282967588,247.58758913641,247.37649755368,247.40599139064,247.56369096212,270.12127940541,270.07443942708,270.07443942708,225.35701915618,225.35701915618,391.06626106585,389.81716574373,0
0.00027475,115005003.96581,8.0966887377778e-05,1.0305241175213,2.0214714725547e-08,-1.3901295559802e-08,1.3588441628014e-08,2.4314000196462e-08,5.1938862783677e-29,-2.497332964269e-28,-7.4705159780281e-29,9.6575646461696e-30,-44.137029469636,58.084336065896,-51.706492483895,45.873521917126,-2.8617073441995e-08,4.2682334459813e-29,1.7197850210743e-28,-6.4265050491054e-29,-1.350793677097e-29,5.2350382887924e-20,-1.6707922373273e-19,-7.5808541755093e-20,1.8333594314429e-20,-0.8861790664943,1.0512532275857,-2.2890760323469e-08,-1.1067064493132,0.97026332397969,8.6103354357703e-41,-6.558612342789e-40,-1.164104673906e-40,5.705875007842e-42,-0.98816901349284,1.0526484790078,-0.94275988948388,1.0370888985649,1.0191515044063e-77,4.6874521692286e-41,4.1048199762708e-40,-9.3681405683687e-41,-9.1262217045913e-42,5.2410476456895e-20,1.2840218029632e-19,-6.6584181122028e-20,-2.2931001927456e-20,-5.0720503952923e-77,-6.7418799966488e-76,1.2618020267882e-75,2.0349179208421e-08,-3.0411114994335e-08,225.52604388602,225.52604388602,225.38448712905,225.38448712905,257.64442080039,257.54183714132,257.58226085879,257.61213362713,199.87900304454,199.43809779575,199.53732812588,199.83253758616,225.23547919042,257.67670753042,257.51078186834,257.5498939398,257.6430540237,247.55478202467,247.46401753888,247.49621681882,247.53338862127,204.5249796366,204.2633474473,225.23547919042,204.32506285003,204.48756289188,264.9937572332,264.89856114833,264.94392439149,264.95355490764,204.60899086732,204.1733896297,204.241032749,204.57515080573,270.15540264365,265.00658808039,264.88621232667,264.93104990321,264.96584319855,247.61679091685,247.40437759427,247.43405927417,247.59276392564,270.15540264365,270.10829154575,270.10829154575,225.37764969882,225.37764969882,391.04743619419,389.78657550941,0
0.000275,115194731.40095,8.104109881352e-05,1.0305676534785,2.0845186608872e-08,-1.4288317453257e-08,1.3968704228016e-08,2.5084191357367e-08,5.8742315369273e-29,-2.8557667090788e-28,-8.2829950209261e-29,1.0578425532494e-29,-44.09577910706,58.133620355425,-51.712622766898,45.837658022275,-2.9701398302613e-08,4.7278027428437e-29,1.9476343734587e-28,-7.259045467132e-29,-1.480015838584e-29,5.6713463864366e-20,-1.8302468918013e-19,-8.1394761811739e-20,1.9517063555179e-20,-0.88636224572092,1.0521173895798,-2.3689936857e-08,-1.1080908289868,0.97028611226905,1.0396525721821e-40,-8.0034518157892e-40,-1.3545767891394e-40,6.5279826016544e-42,-0.98861659720451,1.0535398672051,-0.94271624508697,1.0380507124878,1.6877675734098e-77,5.4431774111939e-41,4.9452371623693e-40,-1.1268160304882e-40,-1.0441988846794e-41,5.6238932890985e-20,1.3969160905512e-19,-7.2204593318291e-20,-2.4420310361603e-20,-7.5317789777718e-77,-1.0958955812726e-75,2.1016546513195e-75,2.1022549856631e-08,-3.1654015170506e-08,225.54768579445,225.54768579445,225.40525150781,225.40525150781,257.67591842067,257.57270428514,257.61339147288,257.6434713184,199.88124096803,199.43710659463,199.53716307226,199.83443815545,225.25527673803,257.70841340552,257.54146162731,257.58081626029,257.67457810222,247.58361337281,247.49228444051,247.52471098361,247.56213188008,204.53237513655,204.26890042286,225.25527673803,204.33105258087,204.4946978489,265.02692654582,264.93115249097,264.97679568781,264.98650885408,204.6168886159,204.17835779799,204.24653768455,204.58282211235,270.18953591743,265.03984013645,264.91872942001,264.96383840649,264.99887104691,247.6460225288,247.43228254848,247.46215299669,247.6218668665,270.18953591743,270.14215306783,270.14215306783,225.3983298597,225.3983298597,391.02883323878,389.756152371,0
0.00027525,115384572.90349,8.1115309757453e-05,1.0306111809643,2.1493683817137e-08,-1.4684927409043e-08,1.4358461313518e-08,2.5876795306073e-08,6.642610372805e-29,-3.2645979562065e-28,-9.1806169422978e-29,1.1583009280315e-29,-44.054486188262,58.183019345532,-51.718766314953,45.80163211902,-3.0825647827675e-08,5.2353803769363e-29,2.2050562266368e-28,-8.1990514344988e-29,-1.6210375810929e-29,6.1435426012364e-20,-2.0045793708888e-19,-8.7372424971657e-20,2.0771975245424e-20,-0.88656178395903,1.0529956506857,-2.4516634220207e-08,-1.1094878494834,0.9703160129751,1.2546768680883e-40,-9.7602371025134e-40,-1.5753117910528e-40,7.4643999398363e-42,-0.98907516716236,1.05444542548,-0.94268281150427,1.0390245168756,2.7814316955759e-77,6.3182717774793e-41,5.9544930826371e-40,-1.3551095784518e-40,-1.1941025772408e-41,6.0334426810958e-20,1.5194797429985e-19,-7.8296866702117e-20,-2.6000225687844e-20,-1.1156820635825e-76,-1.7757687114374e-75,3.4889250513183e-75,2.1717158384086e-08,-3.2946830673188e-08,225.56938192035,225.56938192035,225.42606764564,225.42606764564,257.70743555659,257.6035888363,257.64454111307,257.67482915492,199.88355875287,199.43618013741,199.53706837147,199.83641854388,225.27512132724,257.74013984153,257.57215831432,257.61175657949,257.7061228126,247.61247244116,247.52057711324,247.55323288289,247.59090407476,204.53984842762,204.27452337939,225.27512132724,204.33711546638,204.5019115897,265.06010983978,264.96375597205,265.00968037303,265.0194768857,204.62486630393,204.18339411816,204.25211423949,204.59057337832,270.223679184,265.0731065901,264.95125846425,264.99663989086,265.03191317318,247.67528386691,247.46021233414,247.49027248078,247.65099969205,270.223679184,270.1760239573,270.1760239573,225.41905947819,225.41905947819,391.01045168511,389.72589598788,0
0.0002755,115574528.31515,8.1189520208649e-05,1.0306546999651,2.2160656117139e-08,-1.5091320808163e-08,1.475790385635e-08,2.6692396144207e-08,7.5101961867255e-29,-3.7307277261952e-28,-1.0171982760008e-28,1.2678572958902e-29,-44.013152876162,58.232531005048,-51.72492210574,45.765445922901,-3.199117552727e-08,5.7958419616817e-29,2.4957850809085e-28,-9.260255303146e-29,-1.7748877888277e-29,6.654519330775e-20,-2.1951327353144e-19,-9.3767623466258e-20,2.2102357396121e-20,-0.88677754882912,1.0538879065011,-2.5371762633471e-08,-1.1108972972269,0.970352962943,1.5133660798832e-40,-1.189477733128e-39,-1.8309800535817e-40,8.5304646206452e-42,-0.98954464497824,1.0553649938015,-0.94265950166979,1.0400101454264,4.562519294102e-77,7.3312532108905e-41,7.1657184041488e-40,-1.6293199049657e-40,-1.3648000090552e-41,6.4714760429251e-20,1.6525116619213e-19,-8.4900181064841e-20,-2.7675913158075e-20,-1.6486378890172e-76,-2.8682950869138e-75,5.7728534121494e-75,2.2433611472042e-08,-3.4291421191332e-08,225.59113211072,225.59113211072,225.44693542577,225.44693542577,257.73897212657,257.63449072575,257.67570972312,257.70620707849,199.88595621424,199.43531826856,199.53704390179,199.83847861993,225.2950128344,257.77188675805,257.60287186834,257.64271484006,257.73768808867,247.64135912189,247.5488954601,247.58178244208,247.61970512781,204.54739932501,204.2802161581,225.2950128344,204.3432513883,204.50920399495,265.09330705354,264.99637154194,265.04257840209,265.05245895781,204.6329237524,204.18849845299,204.25776229793,204.59840445613,270.25783240072,265.10638738026,264.98379941295,265.02945431087,265.0649695295,247.70457482575,247.48816686966,247.51841764958,247.68016230952,270.25783240072,270.20990417822,270.20990417822,225.43983839409,225.43983839409,390.99229101909,389.69580602182,0
0.00027575,115764597.47302,8.1263730166138e-05,1.0306982104667,2.2846562822145e-08,-1.5507696404845e-08,1.5167225754263e-08,2.7531591705936e-08,8.4895421324618e-29,-4.2619716927451e-28,-1.1266531528487e-28,1.3872973833002e-29,-43.97178129693,58.282153272389,-51.731089116549,45.729101226236,-3.3199373624732e-08,6.4145450692236e-29,2.8240104185379e-28,-1.0458112189795e-28,-1.9426811501369e-29,7.2073944485154e-20,-2.4033658924778e-19,-1.0060810472953e-19,2.351245057401e-20,-0.88700940409456,1.0547940512843,-2.6256260252917e-08,-1.1123189581986,0.97039690009424,1.8243905680743e-40,-1.4486407769613e-39,-2.1269523518526e-40,9.7435005362122e-42,-0.99002495115643,1.0562984095239,-0.94264622703413,1.0410074315119,7.4508297099381e-77,8.5034670000776e-41,8.6183627564425e-40,-1.9585643215236e-40,-1.5590789626429e-41,6.9398869545752e-20,1.7968734802587e-19,-9.2056896068412e-20,-2.945281511239e-20,-2.4303278832994e-76,-4.6182228950959e-75,9.5206513285578e-75,2.3172530523359e-08,-3.5689705900456e-08,225.61293621231,225.61293621231,225.46785473162,225.46785473162,257.77052804917,257.66540988476,257.706897247,257.73760503089,199.88843316696,199.43452083367,199.53708954244,199.84061825176,225.31495113674,257.80365407462,257.63360222873,257.67369098505,257.76927386417,247.67027330736,247.57723938457,247.61035958685,247.64853496176,204.55502764383,204.28597860091,225.31495113674,204.3494602291,204.51657494529,265.12651812567,265.02899915124,265.07548973012,265.08545502571,204.64106078189,204.19367066638,204.26348174499,204.60631519795,270.29199552505,265.13968244586,265.01635221995,265.06228162131,265.09804006802,247.73389529983,247.51614607407,247.54658842677,247.70935462597,270.29199552505,270.24379369474,270.24379369474,225.46066644758,225.46066644758,390.97435072712,389.66588213701,0
0.000276,115954780.21002,8.1337939628908e-05,1.0307417124539,2.3551872957557e-08,-1.5934256399936e-08,1.5586623880106e-08,2.8394993848723e-08,9.5947454408763e-29,-4.8671767924886e-28,-1.2474619136245e-28,1.5174716847427e-29,-43.930373538547,58.331884056053,-51.737266325919,45.692599897713,-3.4451673778436e-08,7.0973755690642e-29,3.1944296485673e-28,-1.1810010249539e-28,-2.1256250246915e-29,7.8055280047175e-20,-2.6308630115387e-19,-1.0792337133971e-19,2.5006718505459e-20,-0.8872572097119,1.0557139779986,-2.7171093894171e-08,-1.1137526180475,0.97044776341803,2.1980975041288e-40,-1.7630690711785e-39,-2.4694019905897e-40,1.1123066317724e-41,-0.99051600506826,1.0572455074273,-0.94264289758696,1.0420162082465,1.2115423508885e-76,9.8595111108408e-41,1.0359360153825e-39,-2.3537376813811e-40,-1.7800886785716e-41,7.4406892182933e-20,1.9534941485847e-19,-9.9812799477917e-20,-3.133666513555e-20,-3.5741421867833e-76,-7.4119933001013e-75,1.5650522324929e-74,2.3934551915204e-08,-3.7143664846836e-08,225.63479407164,225.63479407164,225.48882544677,225.48882544677,257.80210324309,257.69634624499,257.73810362892,257.76902295385,199.89098942551,199.43378767943,199.53720517362,199.84283730721,225.3349361123,257.83544171081,257.66434933531,257.70468495787,257.80088007272,247.69921489017,247.60560879057,247.63896424312,247.67739349912,204.56273319915,204.29181055055,225.3349361123,204.35574187198,204.52402432129,265.15974299481,265.06163875087,265.10841431245,265.11846504471,204.64927721267,204.1989106233,204.26927246682,204.6143054555,270.32616851459,265.1729917259,265.04891683939,265.09512177722,265.13112474079,247.76324518355,247.54414986699,247.57478473658,247.73857654829,270.32616851459,270.27769247113,270.27769247113,225.48154347929,225.48154347929,390.9566302962,389.63612400011,0
0.00027625,116145076.35526,8.1412148595918e-05,1.0307852059109,2.4277065428973e-08,-1.6371206515835e-08,1.6016298132151e-08,2.9283228748567e-08,1.0841630445303e-28,-5.5563520461824e-28,-1.380760425278e-28,1.6593005722756e-29,-43.888931649609,58.381721234816,-51.743452715053,45.655943881946,-3.574954779978e-08,7.8507982838521e-29,3.6123068673669e-28,-1.3335505690036e-28,-2.3250268408692e-29,8.452540076501e-20,-2.8793436484303e-19,-1.1574478669185e-19,2.6589859189835e-20,-0.8875208218915,1.0566475783557,-2.8117259765008e-08,-1.1151980621946,0.97050549296573,2.6468255037799e-40,-2.144263884873e-39,-2.8654214206125e-40,1.269123383217e-41,-0.99101772491967,1.0582061197437,-0.94264942187131,1.0430363085472,1.9618543303993e-76,1.142772452393e-40,1.2444501126996e-39,-2.827850940296e-40,-2.0313852297742e-41,7.9760241130537e-20,2.1233748249257e-19,-1.0821737366868e-19,-3.3333502913423e-20,-5.2439496878635e-76,-1.1857726054633e-74,2.5644014210613e-74,2.4720327251728e-08,-3.8655340341783e-08,225.65670553498,225.65670553498,225.50984745499,225.50984745499,257.83369762716,257.72729973846,257.76932881329,257.80046078908,199.89362480399,199.43311865366,199.53739067646,199.84513565378,225.35496763995,257.86724958613,257.69511312836,257.73569670231,257.83250664784,247.72818376314,247.63400358247,247.66759633706,247.7062806624,204.57051580601,204.29771185052,225.35496763995,204.36209620083,204.53155200346,265.19298159975,265.09429029198,265.14135210461,265.15148897007,204.65757286462,204.20421818984,204.27513435056,204.6223750801,270.36035132704,265.20631515939,265.08149322572,265.12797473391,265.16422349985,247.79262437127,247.57217816862,247.60300650375,247.76782798322,270.36035132704,270.31160047172,270.31160047172,225.50246933029,225.50246933029,390.93912921397,389.60653128024,0
0.0002765,116335485.73444,8.1486357066097e-05,1.0308286908212,2.5022629190646e-08,-1.6818756073555e-08,1.6456451485492e-08,3.0196937199992e-08,1.2247952323626e-28,-6.3408152376462e-28,-1.5277942051415e-28,1.8137797926585e-29,-43.847457638127,58.431662658571,-51.749647269059,45.619135199123,-3.709450836439e-08,8.6819123460301e-29,4.0835380297986e-28,-1.5056585309287e-28,-2.5423020635539e-29,9.1523298383559e-20,-3.1506736300576e-19,-1.2410568671821e-19,2.8266816545081e-20,-0.88780009315344,1.0575947428592,-2.9095784209959e-08,-1.116655075916,0.97057002984316,3.1852763214121e-40,-2.6060558773292e-39,-3.3231553443508e-40,1.4472900251274e-41,-0.99153002771676,1.0591800761981,-0.9426657069946,1.0440675651866,3.1640318952364e-76,1.324074773706e-40,1.4940046616486e-39,-3.3964324226508e-40,-2.3169824201954e-41,8.5481680586465e-20,2.3075940854883e-19,-1.1732408166633e-19,-3.5449689827655e-20,-7.676037647539e-76,-1.8909185389673e-74,4.1883914043203e-74,2.5530523616002e-08,-4.0226838367221e-08,225.67867044832,225.67867044832,225.53092064015,225.53092064015,257.86531112037,257.75827029754,257.80057274475,257.83191847824,199.89633911621,199.43251360529,199.53764593303,199.84751315861,225.37504559941,257.89907762012,257.72589354855,257.76672616254,257.86415352292,247.75717981935,247.66242366509,247.69625579503,247.73519637409,204.57837527945,204.30368234515,225.37504559941,204.36852310022,204.53915787217,265.22623387932,265.12695372599,265.17430306229,265.18452675703,204.66594755731,204.20959323317,204.28106728433,204.63052392264,270.39454392021,265.23965268537,265.11408133366,265.1608404469,265.19733629715,247.82203275727,247.60023089976,247.63125365355,247.79710883735,270.39454392021,270.34551766096,270.34551766096,225.52344384212,225.52344384212,390.9218469688,389.57710364897,0
0.00027675,116526008.17027,8.1560565038355e-05,1.0308721671678,2.578906341569e-08,-1.7277118070582e-08,1.690729004497e-08,3.1136774919703e-08,1.3833623773716e-28,-7.2333572754352e-28,-1.6899286383636e-28,1.9819863807948e-29,-43.805953470299,58.481706148814,-51.7558489784,45.582175944059,-3.8488109719001e-08,9.5985116763409e-29,4.6147231816867e-28,-1.6997959633863e-28,-2.7789827746498e-29,9.9090959288184e-20,-3.4468767494207e-19,-1.3304149797e-19,3.0042792613636e-20,-0.88809487238326,1.0585553608434,-3.0107724464896e-08,-1.1181234444432,0.97064131618841,3.8309535674457e-40,-3.165062985381e-39,-3.8519525790905e-40,1.6496137618426e-41,-0.99205282923088,1.060167204036,-0.94269165864437,1.0451098108459,5.0828313307031e-76,1.5336165900468e-40,1.7924624324356e-39,-4.0780030376959e-40,-2.6414088610572e-41,9.1595407119461e-20,2.507313474797e-19,-1.2719067403458e-19,-3.7691925319212e-20,-1.1210358703951e-75,-3.0057256624886e-74,6.8190172149129e-74,2.6365823822215e-08,-4.1860329991742e-08,225.70068865745,225.70068865745,225.55204488628,225.55204488628,257.8969436419,257.78925785501,257.83183536813,257.86339596291,199.89913217563,199.43197238439,199.53797082629,199.84996968842,225.39516987122,257.9309257323,257.75669053705,257.79777328308,257.89582063122,247.7862029521,247.69086894372,247.72494254363,247.76414055663,204.58631143454,204.30972187958,225.39516987122,204.37502245539,204.54684180767,265.25949977252,265.15962900459,265.20726714137,265.21757836079,204.67440110996,204.21503562159,204.28707115721,204.63875183357,270.42874625203,265.27300424296,265.14668111825,265.19371887198,265.2304630846,247.85147023576,247.62830798181,247.65952611176,247.82641901709,270.42874625203,270.37944400334,270.37944400334,225.54446685679,225.54446685679,390.90478304987,389.54784078028,0
0.000277,116716643.48282,8.1634772511588e-05,1.0309156349332,2.6576877666739e-08,-1.7746509261618e-08,1.7369023099165e-08,3.2103412854042e-08,1.5620967059591e-28,-8.2484262612515e-28,-1.8686601141202e-28,2.1650850195587e-29,-43.764421069798,58.531849499019,-51.762056840069,45.545068285524,-3.993194838004e-08,1.0609151035979e-28,5.2132464641504e-28,-1.9187390061531e-28,-3.036726912467e-29,1.0727358191497e-19,-3.7701473266733e-19,-1.4258986241091e-19,3.1923260350735e-20,-0.88840500490007,1.0595293205114,-3.1154169422696e-08,-1.1196029530413,0.97071929515469,4.6046800780012e-40,-3.8412354341672e-39,-4.4625392519554e-40,1.87925842764e-41,-0.99258604396953,1.0611673280537,-0.942727181094,1.046162878152,8.1339287905046e-76,1.7757246523937e-40,2.1491454719991e-39,-4.8946386355823e-40,-3.0097719539952e-41,9.8127135162447e-20,2.7237834142251e-19,-1.3787951801917e-19,-4.0067264063442e-20,-1.633493819925e-75,-4.762470041626e-74,1.1066719266761e-73,2.7226926666778e-08,-4.3558052794404e-08,225.72276000789,225.72276000789,225.57322007746,225.57322007746,257.92859511106,257.820262344,257.86311662846,257.89489318464,199.90200379545,199.4314948422,199.53836524009,199.85250510953,225.4153403367,257.96279384219,257.78750403541,257.8288380088,257.92750790588,247.81525305499,247.71933932413,247.75365650963,247.79311313239,204.59432408636,204.31583029977,225.4153403367,204.38159415217,204.55460369003,265.29277921842,265.19231607976,265.24024429789,265.2506437365,204.68293334147,204.22054522448,204.29314585922,204.64705866286,270.46295828056,265.3063697713,265.17929253479,265.22660996518,265.26360381402,247.88093670091,247.65640933674,247.68782380469,247.85575842865,270.46295828056,270.41337946349,270.41337946349,225.56553821681,225.56553821681,390.88793694717,389.5187423506,0
0.00027725,116907391.4899,8.1708979484682e-05,1.0309590940997,2.7386592068163e-08,-1.8227150240481e-08,1.7841863176597e-08,3.3097537491849e-08,1.7634994114059e-28,-9.4023335093116e-28,-2.0656281600149e-28,2.3643348794168e-29,-43.722862316755,58.582090475471,-51.768269858905,45.507814465303,-4.1427663824829e-08,1.1723218147053e-28,5.8873646652783e-28,-2.1656053767697e-28,-3.3173282192608e-29,1.1611980875823e-19,-4.1228636951921e-19,-1.5279076927995e-19,3.3913977029559e-20,-0.88873033251354,1.0605165089776,-3.2236240409202e-08,-1.1210933870883,0.97080391088696,5.5312075023417e-40,-4.658503876125e-39,-5.1672162425994e-40,2.1397883027568e-41,-0.99312958514103,1.0621802706276,-0.94277217721531,1.0472265997175,1.2967586419958e-75,2.0553785389305e-40,2.5750961370703e-39,-5.8726349594224e-40,-3.4278295944549e-41,1.0510418728187e-19,2.9583494888461e-19,-1.4945795042689e-19,-4.2583133993962e-20,-2.3748850743873e-75,-7.5218365920155e-74,1.7903913695607e-73,2.8114547179594e-08,-4.5322312300044e-08,225.7448843449,225.7448843449,225.59444609786,225.59444609786,257.96026544735,257.85128369804,257.89441647095,257.92641008486,199.90495378858,199.43108083111,199.53882905911,199.8551192878,225.43555687803,257.99468186932,257.81833398565,257.85992028494,257.95921527991,247.84433002187,247.74783471254,247.78239761999,247.82211402371,204.60241305006,204.32200745253,225.43555687803,204.38823807702,204.56244339912,265.32607215623,265.22501490374,265.27323448806,265.28372283927,204.69154407047,204.22612191236,204.29929128131,204.65544426003,270.49717996395,265.33974920958,265.21191553892,265.25951368272,265.29675843717,247.91043204681,247.68453488713,247.71614665912,247.88512697809,270.49717996395,270.44732400608,270.44732400608,225.58665776518,225.58665776518,390.87130815156,389.48980803875,0
0.0002775,117098252.00747,8.1783185956521e-05,1.0310025446491,2.821873747904e-08,-1.8719265524322e-08,1.8326026102309e-08,3.4119851180066e-08,1.9903717639351e-28,-1.0713483999421e-27,-2.2826286610712e-28,2.5810969720851e-29,-43.681279047136,58.632426817787,-51.774487048745,45.47041679722,-4.2976939174295e-08,1.2951012411702e-28,6.6463051666923e-28,-2.4438950530625e-28,-3.6227269496083e-29,1.2568197383422e-19,-4.5076026741606e-19,-1.6368669440165e-19,3.6020998283633e-20,-0.8890706935918,1.0615168123007,-3.3355091969866e-08,-1.122594532153,0.97089510849776,6.6399339103031e-40,-5.645549493285e-39,-5.9800841800188e-40,2.4352171429191e-41,-0.99368336462954,1.0632058517451,-0.94282654848284,1.0483008081737,2.0597397626283e-75,2.3783076199285e-40,3.0833828871021e-39,-7.0432932917603e-40,-3.9020705013626e-41,1.1255558945069e-19,3.2124591337582e-19,-1.6199865582197e-19,-4.5247355217109e-20,-3.4451343838859e-75,-1.184206609719e-73,2.8874768903215e-73,2.9029416873876e-08,-4.7155483420878e-08,225.76706151351,225.76706151351,225.6157228317,225.6157228317,257.99195457047,257.88232185103,257.92573484097,257.95794660494,199.90798196767,199.43073020467,199.53936216891,199.85781208859,225.45581937814,258.02658973324,257.84918033023,257.89102005707,257.99094268617,247.87343374689,247.7763550157,247.81116580184,247.85114315283,204.61057814085,204.32825318555,225.45581937814,204.39495411695,204.57036081457,265.35937852529,265.25772542903,265.30623766825,265.31681562417,204.70023311524,204.23176555682,204.30550731534,204.66390847407,270.5314112605,265.37314249707,265.24455008653,265.2924299811,265.32992690576,247.93995616753,247.71268455614,247.74449460234,247.91452457129,270.5314112605,270.48127759589,270.48127759589,225.6078253454,225.6078253454,390.85489615485,389.46103752591,0
0.00027775,117289224.84993,8.185739192599e-05,1.031045986563,2.9073855667347e-08,-1.9223083639405e-08,1.8821731057139e-08,3.5171072444907e-08,2.2458496445492e-28,-1.2202634014741e-27,-2.5216282564366e-28,2.8168420566397e-29,-43.63967305216,58.682856239473,-51.780707433455,45.432877665945,-4.4581501867117e-08,1.430383080844e-28,7.5003742069597e-28,-2.7575356061365e-28,-3.9550213966055e-29,1.3601636654675e-19,-4.9271550941748e-19,-1.753227473401e-19,3.8250692826082e-20,-0.88942592312944,1.0625301155228,-3.4511912666278e-08,-1.1241061740568,0.97099283403508,7.9657478192965e-40,-6.8367182113261e-39,-6.917299735511e-40,2.7700630256711e-41,-0.99424729296521,1.0642438890281,-0.94289019498744,1.0493853362014,3.2597696808016e-75,2.7511021675325e-40,3.6894581493663e-39,-8.443847968773e-40,-4.4398041839196e-41,1.2051217158536e-19,3.4876687414747e-19,-1.7558007170829e-19,-4.8068159861236e-20,-4.9867703429471e-75,-1.8584335490994e-73,4.6423734954725e-73,2.9972283996304e-08,-4.9060011908796e-08,225.7892913585,225.7892913585,225.63705016323,225.63705016323,258.02366240029,257.91337673728,257.95707168405,257.98950268614,199.91108814512,199.4304428176,199.53996445583,199.86058337681,225.47612772078,258.0585173535,257.88004301203,257.92213727108,258.02269005738,247.90256412446,247.8049001408,247.83996098246,247.8802004419,204.61881917405,204.33456734737,225.47612772078,204.40174215952,204.57835581576,265.39269826507,265.29044760842,265.33925379499,265.34992204617,204.7090002938,204.23747603058,204.31179385407,204.6724511535,270.56565212859,265.40654957307,265.27719613383,265.325358817,265.36310917137,247.96950895709,247.7408582675,247.77286756211,247.94395111393,270.56565212859,270.51524019774,270.51524019774,225.62904080154,225.62904080154,390.83870044975,389.43243049561,0
0.000278,117480309.83056,8.1931597391987e-05,1.0310894198231,2.9952499485575e-08,-1.9738837209244e-08,1.932920063785e-08,3.6251936317167e-08,2.5334418572082e-28,-1.3893179003991e-27,-2.7847800150962e-28,3.0731591376427e-29,-43.598046077606,58.733376428958,-51.786930048306,45.395199525625,-4.6243124323225e-08,1.5794061592062e-28,8.4610764687254e-28,-3.1109326897331e-28,-4.3164802967647e-29,1.4718351290709e-19,-5.3845424450024e-19,-1.8774682681817e-19,4.0609757869617e-20,-0.88979585281549,1.0635563027062,-3.5707925883463e-08,-1.1256280989667,0.97109703445967,9.5500200357493e-40,-8.2731050441347e-39,-7.9973674515257e-40,3.1494096826843e-41,-0.99482127929573,1.0652941977683,-0.94296301544017,1.0504800165394,5.140518802566e-75,3.1813406283338e-40,4.4115767012603e-39,-1.0118560510588e-39,-5.0492616712149e-41,1.290066736171e-19,3.78565121346e-19,-1.9028682246935e-19,-5.1054212907382e-20,-7.2026645165548e-75,-2.9072827802237e-73,7.4408455662693e-73,3.0943913775215e-08,-5.1038415812841e-08,225.8115737244,225.8115737244,225.6584279767,225.6584279767,258.05538885691,257.94444829148,257.9884269459,258.02107826964,199.91427213312,199.43021852583,199.54063580702,199.86343301679,225.49648179047,258.09046464969,257.91092197437,257.95327187321,258.05445732613,247.93172104934,247.83346999557,247.86878308925,247.90928581297,204.62713596508,204.34094978741,225.49648179047,204.40860209283,204.58642828179,265.42603131515,265.32318139498,265.37228282495,265.38304206021,204.71784542389,204.24325320748,204.3181507911,204.68107214628,270.59990252674,265.43997037698,265.3098536373,265.35830014735,265.39630518554,247.99909030946,247.76905594553,247.80126546667,247.97340651149,270.59990252674,270.54921177657,270.54921177657,225.65030397817,225.65030397817,390.82272052995,389.40398663372,0
0.00027825,117671506.76178,8.2005802353419e-05,1.0311328444108,3.0855233046723e-08,-2.0266763044627e-08,1.9848660919338e-08,3.736319466064e-08,2.8570726091242e-28,-1.5811475034811e-27,-3.0744404995767e-28,3.3517645990439e-29,-43.556399823947,58.783985049605,-51.793153940581,45.357384898912,-4.7963624596214e-08,1.7435286468988e-28,9.5412470823171e-28,-3.5090262438198e-28,-4.7095561789022e-29,1.5924847515097e-19,-5.8830347205401e-19,-2.0100978482205e-19,4.3105235287422e-20,-0.89018031111216,1.064595256965,-3.6944390646312e-08,-1.1271600934178,0.97120765760806,1.1441768174258e-39,-1.000383911389e-38,-9.2414719016173e-40,3.5789750639931e-41,-0.99540523138086,1.0663565909428,-0.94304490718334,1.0515846820262,8.0778200108054e-75,3.6777353540393e-40,5.2712843070885e-39,-1.2120009272272e-39,-5.7397082592263e-41,1.3807385735379e-19,4.1082039792064e-19,-2.0621018393212e-19,-5.4214634047378e-20,-1.0380981946847e-74,-4.5337076953323e-73,1.1889808335761e-72,3.1945088668816e-08,-5.3093286946377e-08,225.83390845548,225.83390845548,225.67985615633,225.67985615633,258.08713386061,257.97553644872,258.01980057234,258.05267329648,199.91753374362,199.43005718643,199.54137611037,199.86636087232,225.51688147251,258.12243154141,257.941817161,257.98442381002,258.08624442483,247.96090441657,247.86206448822,247.89763204976,247.93839918796,204.63552832947,204.34740035599,225.51688147251,204.41553380543,204.59457809143,265.45937761528,265.35592674205,265.40532471494,265.41617562114,204.72676832299,204.24909696245,204.3245780209,204.68977129988,270.63416241359,265.47340484823,265.34252255372,265.39125392928,265.4295148997,248.02870011859,247.79727751513,247.82968824473,248.00289066929,270.63416241359,270.58319229736,270.58319229736,225.67161472044,225.67161472044,390.80695589011,389.37570562836,0
0.0002785,117862815.45558,8.2080006809216e-05,1.0311762603077,3.1782631901838e-08,-2.0807102235707e-08,2.0380341518718e-08,3.8505616506833e-08,3.2211285856675e-28,-1.7987197549969e-27,-3.393188336629e-28,3.6545120196801e-29,-43.514735945699,58.834679741115,-51.799378170553,45.319436375307,-4.9744867015519e-08,1.9242391983107e-28,1.0755197238566e-27,-3.9573530274435e-28,-5.1368997273628e-29,1.7228117081859e-19,-6.4261695383037e-19,-2.1516559988271e-19,4.5744528545734e-20,-0.89057912332334,1.0656468605065,-3.8222602447161e-08,-1.1287019443948,0.97132465216445,1.3699022714543e-39,-1.2087605161558e-38,-1.0673855610799e-39,4.065187962162e-41,-0.99599905556069,1.0674308792569,-0.94313576619682,1.0526991656022,1.2649350980322e-74,4.2502994049777e-40,6.2939878311693e-39,-1.4510608343124e-39,-6.5215696725086e-41,1.4775062443846e-19,4.4572575081799e-19,-2.2344858055626e-19,-5.7559020622257e-20,-1.4930204611535e-74,-7.0477680738872e-73,1.8941201567159e-72,3.2976608612605e-08,-5.5227292359323e-08,225.85629539579,225.85629539579,225.70133458633,225.70133458633,258.11889733188,258.0066411445,258.05119250935,258.08428770758,199.92087278841,199.4299586577,199.54218525453,199.86936680664,225.53732665294,258.1544179483,257.97272851611,258.01559302836,258.11805128577,247.99011412151,247.89068352748,247.92650779165,247.96754048867,204.64399608294,204.35391890432,225.53732665294,204.42253718636,204.60280512311,265.49273710535,265.38868360324,265.43837942191,265.44932268374,204.7357688083,204.25500717151,204.33107543877,204.69854846118,270.66843174786,265.50685292635,265.37520284018,265.42422012011,265.4627382652,248.05833827839,247.82552290177,247.85813582545,248.03240349243,270.66843174786,270.61718172519,270.61718172519,225.69297287404,225.69297287404,390.79140602588,389.34758716991,0
0.00027875,118054235.72381,8.2154210758334e-05,1.0312196674953,3.27352832184e-08,-2.1360100246238e-08,2.0924475660925e-08,3.9679988393109e-08,3.6305110869377e-28,-2.0453741536756e-27,-3.7438444221784e-28,3.983402720206e-29,-43.473056051557,58.885458119658,-51.805601812666,45.281356609683,-5.1588762815831e-08,2.1231690899611e-28,1.2118874703788e-27,-4.4621161578479e-28,-5.6013752346467e-29,1.863567124192e-19,-7.0177726178482e-19,-2.3027155998029e-19,4.8535420446683e-20,-0.89099211168384,1.0667109946578,-3.9543894081787e-08,-1.1302534393902,0.9714479676279,1.6390428064454e-39,-1.4594443525253e-38,-1.2322248870523e-39,4.615273618163e-41,-0.99660265675466,1.0685168711598,-0.94323548710921,1.0538233003215,1.9739996982152e-74,4.9105373973725e-40,7.5096197388474e-39,-1.7364395018157e-39,-7.4065731964883e-41,1.5807614069337e-19,4.8348843401696e-19,-2.4210811732688e-19,-6.1097471691286e-20,-2.1428197521977e-74,-1.0921639762457e-72,3.0083621920172e-72,3.4039291264647e-08,-5.7443175819532e-08,225.87873438912,225.87873438912,225.72286315083,225.72286315083,258.15067919147,258.0377623147,258.08260270302,258.11592144376,199.92428907908,199.42992279912,199.54306312886,199.87245068234,225.55781721857,258.18642379005,258.0036559843,258.04677947543,258.14987784106,248.01935005987,247.91932702259,247.95541024266,247.99670963677,204.65253904132,204.36050528453,225.55781721857,204.42961212508,204.61110925487,265.52610972538,265.42145193245,265.47144690294,265.48248320269,204.74484669681,204.26098371181,204.33764294078,204.70740347652,270.70271048844,265.54031455093,265.40789445402,265.45719867739,265.4959752333,248.08800468277,247.85379203149,247.88660813843,248.06194488582,270.70271048844,270.65118002518,270.65118002518,225.71437828526,225.71437828526,390.77607043392,389.31963095094,0
0.000279,118245767.37853,8.2228414199756e-05,1.0312630659555,3.3713785960212e-08,-2.19260070101e-08,2.1481300246407e-08,4.0887114705639e-08,4.0906937385331e-28,-2.3248667635615e-27,-4.1294938997744e-28,4.3405970943215e-29,-43.431361704408,58.936317778856,-51.811823955829,45.243148320866,-5.3497270752723e-08,2.3421054441274e-28,1.3650040642545e-27,-5.0302624014798e-28,-6.1060772247823e-29,2.015557688894e-19,-7.6619797048723e-19,-2.4638845560951e-19,5.148609171943e-20,-0.89141909543374,1.0677875399074,-4.0909636496071e-08,-1.131814366434,0.97157755428162,1.9597117420803e-39,-1.7607877721844e-38,-1.421835838973e-39,5.2373493321809e-41,-0.99721593844755,1.0696143728784,-0.94334396320735,1.0549569193665,3.0700616779255e-74,5.6716637724771e-40,8.953411829654e-39,-2.0769131648674e-39,-8.4079055140333e-41,1.6909196716589e-19,5.2433086609075e-19,-2.6230314858823e-19,-6.484061329106e-20,-3.0690813977427e-74,-1.6872092927818e-72,4.7637889221483e-72,3.5133972251055e-08,-5.9743759297035e-08,225.90122527902,225.90122527902,225.7444417339,225.7444417339,258.18247936032,258.06889989562,258.11403109957,258.14757444566,199.92778242706,199.42994947137,199.54400962339,199.87561236141,225.57835305696,258.21844898637,258.03459951064,258.07798309869,258.18172402267,248.04861212768,247.9479948833,247.98433933063,248.02590655375,204.66115702067,204.36715934966,225.57835305696,204.43675851145,204.61949036438,265.55949541556,265.45423168385,265.50452711524,265.51565713261,204.75400180525,204.26702646156,204.34428042382,204.71633619166,270.73699859428,265.57378966164,265.44059735289,265.49018955887,265.52922575516,248.11769922558,247.88208483089,247.91510511372,248.09151475417,270.73699859428,270.68518716253,270.68518716253,225.73583080095,225.73583080095,390.76094861187,389.29183666622,0
0.00027925,118437410.23231,8.2302617132504e-05,1.0313064556703,3.4718751067978e-08,-2.2505077030084e-08,2.2051055920743e-08,4.2127818026382e-08,4.6077863353952e-28,-2.6414199192277e-27,-4.5535100615005e-28,4.7284267814433e-29,-43.38965442132,58.987256290578,-51.818043704437,45.204814289798,-5.5472397707302e-08,2.5830056299478e-28,1.5368464275917e-27,-5.6695680370659e-28,-6.6543483337828e-29,2.1796495007114e-19,-8.363260035483e-19,-2.6358078350639e-19,5.4605140500666e-20,-0.89185989090456,1.0688763759336,-4.2321239641272e-08,-1.1333845141631,0.97171336315842,2.3414906319661e-39,-2.1227427119848e-38,-1.6398422618373e-39,5.9405312177778e-41,-0.99783880269011,1.0707231884499,-0.94346108644892,1.0560998560469,4.758646116737e-74,6.5488523247429e-40,1.0666795250635e-38,-2.4828775189935e-39,-9.5403891744613e-41,1.8084219820134e-19,5.6849164516375e-19,-2.8415688615476e-19,-6.8799624940041e-20,-4.3867636275325e-74,-2.5983760251473e-72,7.5211561707607e-72,3.6261505409779e-08,-6.2131944457568e-08,225.92376790878,225.92376790878,225.76607021948,225.76607021948,258.21429775963,258.10005382398,258.1454776453,258.17924665381,199.93135264363,199.43003853633,199.54502462882,199.87885170518,225.59893405639,258.25049345703,258.06555904057,258.10920384591,258.21358976239,248.07790022133,247.97668701991,248.01329498347,248.05513116096,204.66984983721,204.37388095368,225.59893405639,204.44397623573,204.62794832886,265.59289411624,265.48702281191,265.53762001615,265.54884442801,204.76323395012,204.27313530011,204.35098778552,204.72534645177,270.7712960245,265.60727819826,265.47331149473,265.52319272248,265.56248978183,248.14742180072,247.91040122715,247.94362668181,248.12111300199,270.7712960245,270.71920310253,270.71920310253,225.75733026858,225.75733026858,390.7460400584,389.2642040126,0
0.0002795,118629164.0986,8.237681955564e-05,1.031349836622,3.5750801641174e-08,-2.3097569478547e-08,2.2633987146621e-08,4.3402939485881e-08,5.1886054307068e-28,-2.9997775763331e-27,-5.0195803341105e-28,5.1494077418348e-29,-43.347935674214,59.038271205217,-51.824260179049,45.166357357843,-5.7516199273813e-08,2.8480129414841e-28,1.729613702802e-27,-6.3887341934049e-28,-7.2497985400835e-29,2.3567721551541e-19,-9.1264414383221e-19,-2.8191696163101e-19,5.7901602748567e-20,-0.89231431162267,1.0699773816439,-4.3780153339515e-08,-1.134963671858,0.97185534600659,2.7956856805217e-39,-2.5571571888818e-38,-1.8903842603982e-39,6.7350533633639e-41,-0.99847115010247,1.0718431197401,-0.94358674747681,1.0572519438026,7.3513988162278e-74,7.5595213447108e-40,1.2698446342909e-38,-2.9666376454315e-39,-1.0820679841673e-40,1.9337360688357e-19,6.1622662410539e-19,-3.0780204920587e-19,-7.2986267448182e-20,-6.2575330816374e-74,-3.9892783814207e-72,1.1839582078875e-71,3.7422763033634e-08,-6.461071415934e-08,225.9463621215,225.9463621215,225.78774849143,225.78774849143,258.24613431082,258.1312240369,258.17694228664,258.21093800859,199.93499953994,199.43018985708,199.54610803649,199.8821685743,225.61956010585,258.28255712185,258.09653451999,258.14044166515,258.24547499184,248.10721423755,248.00540334323,248.04227712916,248.08438337958,204.67861730739,204.38066995149,225.61956010585,204.4512651885,204.63648302507,265.62630576792,265.51982527136,265.57072556309,265.58204504331,204.77254294773,204.27931010785,204.35776492425,204.73443410142,270.80560273831,265.64078010061,265.50603683776,265.55620812634,265.59576726429,248.17717230202,247.938741148,247.97217277357,248.15073953359,270.80560273831,270.7532278105,270.7532278105,225.77887653621,225.77887653621,390.73134427317,389.23673268904,0
0.00027975,118821028.79202,8.2451021468272e-05,1.0313932087933,3.6810573121169e-08,-2.3703748301272e-08,2.323034227721e-08,4.4713339118953e-08,5.8407523394486e-28,-3.4052669155325e-27,-5.531734524135e-28,5.6062542989977e-29,-43.306206889713,59.089360052926,-51.830472516475,45.127780425274,-5.9630780333773e-08,3.1394736600079e-28,1.9457507955998e-27,-7.197492651912e-28,-7.896325845975e-29,2.5479230900087e-19,-9.9567371796951e-19,-3.0146955594183e-19,6.1384973629352e-20,-0.89278216837554,1.0710904352003,-4.5287868157164e-08,-1.1365516294713,0.97200345526529,3.3356272232162e-39,-3.0781248694433e-38,-2.1781898375518e-39,7.6324008043815e-41,-0.99911287987869,1.0729739664889,-0.94372083562814,1.058413016212,1.1319306233933e-73,8.72365931806e-40,1.5105500729756e-38,-3.5427481110373e-39,-1.2267486712783e-40,2.0673579819163e-19,6.6781004905693e-19,-3.3338155854313e-19,-7.741291210429e-20,-8.9083046636803e-74,-6.1059553870296e-72,1.8583084946045e-71,3.861863611128e-08,-6.7183133956204e-08,225.96900775998,225.96900775998,225.80947643345,225.80947643345,258.27798893557,258.16241047189,258.20842497008,258.24264845018,199.93872292704,199.43040329793,199.54725973835,199.88556282874,225.64023109505,258.31463990071,258.12752589522,258.17169650473,258.27737964251,248.13655407346,248.03414376461,248.0712856957,248.11366313057,204.68745924789,204.38752619894,225.64023109505,204.45862526067,204.6450943293,265.65973031128,265.55263901721,265.60384371364,265.61525893283,204.78192861418,204.28555076628,204.36461173909,204.74359898458,270.83991869502,265.67429530865,265.53877334048,265.58923572876,265.62905815338,248.20695062334,247.96710452171,248.00074332031,248.18039425306,270.83991869502,270.78726125185,270.78726125185,225.80046945252,225.80046945252,390.71686075682,389.20942239653,0
0.00028,119013004.12864,8.252522286956e-05,1.0314365721674,3.7898713475117e-08,-2.4323882322873e-08,2.3840373632632e-08,4.6059896226795e-08,6.5726992855843e-28,-3.8638668688564e-27,-6.0943755123934e-28,6.101894219986e-29,-43.264469450031,59.140520344073,-51.836679870515,45.089086449294,-6.181829561476e-08,3.4599556164556e-28,2.1879742407308e-27,-8.1067232044519e-28,-8.5981385156486e-29,2.7541722018297e-19,-1.085977466151e-18,-3.2231551963306e-19,6.506522993046e-20,-0.89326326932609,1.0722154140602,-4.6845916288742e-08,-1.1381481776716,0.97215764402818,3.9770191967014e-39,-3.7023968695618e-38,-2.5086562149196e-39,8.6454578662844e-41,-0.999763889802,1.0741155263357,-0.94386323895279,1.059582906984,1.737180691463e-73,1.0064196785388e-39,1.7954961297227e-38,-4.2284116083681e-39,-1.390181876272e-40,2.2098137024556e-19,7.2353576445725e-19,-3.6104927803463e-19,-8.2092571296351e-20,-1.2656968989845e-73,-9.3172494537597e-72,2.9082984215322e-71,3.985003456852e-08,-6.985235360533e-08,225.99170466683,225.99170466683,225.83125392907,225.83125392907,258.30986155581,258.19361306692,258.23992564221,258.27437791864,199.94252261585,199.43067872437,199.54847962691,199.88903432772,225.66094691441,258.34674171355,258.15853311299,258.20296831327,258.30930364568,248.16591962653,248.06290819592,248.10032061116,248.14297033474,204.69637547563,204.3944495528,225.66094691441,204.46605634344,204.65378211732,265.69316768717,265.58546400477,265.63697442543,265.64848605077,204.79139076535,204.29185715796,204.37152812982,204.75284094458,270.87424385408,265.7078237624,265.57152096168,265.62227548824,265.66236239986,248.23675665856,247.99549127712,248.02933825374,248.21007706429,270.87424385408,270.82130339203,270.82130339203,225.82210886682,225.82210886682,390.70258901101,389.18227283806,0
0.00028025,119205089.92633,8.2599423758717e-05,1.031479926728,3.901588338162e-08,-2.4958245354602e-08,2.4464337578072e-08,4.7443509743125e-08,7.3938844908824e-28,-4.3822843063695e-27,-6.7123126010079e-28,6.6394849084622e-29,-43.222724693281,59.191749570032,-51.842881412396,45.050278442096,-6.4080950233254e-08,3.8122683789314e-28,2.4593006005112e-27,-9.1285837605596e-28,-9.3597789858538e-29,2.9766667489506e-19,-1.1841626089688e-18,-3.4453644543483e-19,6.895285354528e-20,-0.89375742010381,1.0733521950013,-4.8455872447037e-08,-1.1397531078853,0.97231786601741,4.7383465906628e-39,-4.4498664609917e-38,-2.8879421086438e-39,9.7886736101172e-41,-1.0004240762533,1.0752675948499,-0.94401384423798,1.0607614499493,2.6573995982617e-73,1.1607430712699e-39,2.1325329393864e-38,-5.0439458385556e-39,-1.5747259773524e-40,2.3616608402906e-19,7.8371848781983e-19,-3.9097080611484e-19,-8.7038930643635e-20,-1.794802853531e-73,-1.4174400801301e-71,4.5384746909963e-71,4.1117887506845e-08,-7.2621608579579e-08,226.0144526844,226.0144526844,225.85308086167,225.85308086167,258.34175209375,258.22483176035,258.2714442497,258.30612635385,199.94639841721,199.43101600311,199.54976759526,199.89258292973,225.68170745501,258.37886248037,258.18955612045,258.23425703962,258.34124693248,248.19531079462,248.09169654961,248.1293818036,248.17230491267,204.70536580779,204.40143987082,225.68170745501,204.47355832827,204.66254626439,265.72661783659,265.61830018963,265.67011765623,265.68172635125,204.80092921697,204.29822916655,204.37851399686,204.76215982413,270.90857817505,265.74136540199,265.60427966043,265.65532736343,265.69567995438,248.26659030152,248.02390134362,248.05795750596,248.23978787098,270.90857817505,270.85535419658,270.85535419658,225.84379462904,225.84379462904,390.68852853838,389.15528371856,0
0.0002805,119397286.00507,8.2673624135019e-05,1.0315232724593,4.0162756417226e-08,-2.560711630583e-08,2.5102494604325e-08,4.8865098605146e-08,8.3148170738699e-28,-4.9680386940556e-27,-7.390797734038e-28,7.2224307902988e-29,-43.180973914403,59.243045203712,-51.84907633094,45.011359469098,-6.6421000219321e-08,4.1994851996941e-28,2.763077623846e-27,-1.0276654517966e-27,-1.0186149573237e-28,3.2166365566577e-19,-1.2908841236094e-18,-3.6821883167438e-19,7.3058856079588e-20,-0.89426442390783,1.074500654159,-5.0119354765354e-08,-1.1413662123183,0.97248407555106,5.6413500895412e-39,-5.3441391212091e-38,-3.3230723971283e-39,1.1078246301146e-40,-1.0010933342464,1.0764299655704,-0.94417253701474,1.0619484790648,4.0519684328943e-73,1.3383508564192e-39,2.5308492753987e-38,-6.013329885223e-39,-1.7830275439571e-40,2.5234904198122e-19,8.4869515770253e-19,-4.2332432050141e-19,-9.2266382718604e-20,-2.540186941344e-73,-2.14987315902e-71,7.062212405554e-71,4.2423143441799e-08,-7.5494221584974e-08,226.03725165483,226.03725165483,225.87495711443,225.87495711443,258.37366047184,258.25606649095,258.30298073924,258.33789369549,199.95035014189,199.43141500208,199.55112353701,199.89620849252,225.70251260864,258.41100212125,258.22059486515,258.26556263291,258.37320943387,248.22472747596,248.12050873863,248.15846920112,248.20166678472,204.71443006182,204.40849701169,225.70251260864,204.48113110688,204.67138664518,265.76008070076,265.65114752763,265.70327336388,265.71497978826,204.81054378457,204.30466667674,204.38556924132,204.7715554653,270.9429216176,265.77492016765,265.63704939607,265.68839131317,265.72901076746,248.29645144613,248.05233465112,248.08660100944,248.2695265766,270.9429216176,270.88941363107,270.88941363107,225.86552658977,225.86552658977,390.67467884254,389.12845474489,0
0.00028075,119589592.18717,8.2747823997805e-05,1.0315666093461,4.1340019244293e-08,-2.6270779296817e-08,2.5755109410797e-08,5.0325602128272e-08,9.3471927075624e-28,-5.6295561157399e-27,-8.1355648289539e-28,7.8544019784093e-29,-43.139218365682,59.294404700593,-51.855263832655,44.972332647061,-6.8840753025641e-08,4.6249668665768e-28,3.1030184115074e-27,-1.1566097632807e-27,-1.1082540109265e-28,3.4753995412346e-19,-1.4068482424497e-18,-3.934543627765e-19,7.7394804636788e-20,-0.89478408160396,1.0756606670564,-5.1838025704745e-08,-1.1429872839805,0.97265622752166,6.7115785081648e-39,-6.4132024055003e-38,-3.8220567996328e-39,1.2532329035408e-40,-1.0017715574423,1.0776024300411,-0.94433920158835,1.0631438283991,6.1586079032503e-73,1.5426980216757e-39,3.0011908372476e-38,-7.164843103025e-39,-2.0180556202876e-40,2.6959287587823e-19,9.1882635841103e-19,-4.5830147930258e-19,-9.7790062425741e-20,-3.5882764510144e-73,-3.2510265544453e-71,1.0958262082165e-70,4.3766770539593e-08,-7.8473604081522e-08,226.06010142001,226.06010142001,225.8968825703,225.8968825703,258.4055866128,258.28731719792,258.33453505763,258.36967988308,199.95437760061,199.43187559038,199.55254734627,199.89991087301,225.72336226773,258.44316055635,258.25164929509,258.29688504251,258.40519108063,248.2541695692,248.14934467652,248.18758273181,248.23105587105,204.72356805547,204.41562083506,225.72336226773,204.48877457116,204.68030313382,265.79355622105,265.68400597493,265.73644150633,265.74824631567,204.82023428355,204.3111695743,204.3926937649,204.78102770951,270.97727414152,265.80848799972,265.66983012824,265.72146729646,265.76235478952,248.32633998627,248.08079113008,248.11526869703,248.29929308442,270.97727414152,270.92348166114,270.92348166114,225.88730460023,225.88730460023,390.66103942809,389.10178562576,0
0.000281,119782008.29764,8.2822023346484e-05,1.0316099373739,4.2548371800387e-08,-2.6949523774349e-08,2.6422450991399e-08,5.1825980388576e-08,1.0504021066861e-27,-6.3762736405993e-27,-8.9528724782231e-28,8.5393543094808e-29,-43.097459257873,59.345825499187,-51.861443142081,44.933201141982,-7.1342568019519e-08,5.092387614864e-28,3.4832388534453e-27,-1.3013833968433e-27,-1.205465764553e-28,3.7543675699581e-19,-1.5328161878959e-18,-4.2034020502325e-19,8.1972848841612e-20,-0.89531619184108,1.0768321086379,-5.3613592971062e-08,-1.144616116718,0.9728342773612,7.9790312167497e-39,-7.6902124818774e-38,-4.3940243923136e-39,1.4171258893115e-40,-1.0024586381868,1.0787847778463,-0.94451372106549,1.0643473321314,9.3307335340095e-73,1.7777426922891e-39,3.5561123907665e-38,-8.5318115944429e-39,-2.2831399886856e-40,2.8796394443808e-19,9.9449782516333e-19,-4.9610838201324e-19,-1.0362588412502e-19,-5.0592563383823e-73,-4.9015821695114e-71,1.6955976713937e-70,4.5149756853323e-08,-8.1563257808359e-08,226.08300182162,226.08300182162,225.91885711201,225.91885711201,258.43753043964,258.3185838209,258.36610715168,258.40148485594,199.95848060403,199.43239763837,199.55403891762,199.90368992737,225.74425632537,258.4753377059,258.28271935863,258.32822421804,258.43719180337,248.28363697336,248.17820427734,248.21672232374,248.26047209158,204.73277960678,204.42281120155,225.74425632537,204.49648861322,204.68929560379,265.82704433902,265.71687548797,265.76962204159,265.78152588724,204.83000052912,204.31773774603,204.39988746989,204.79057639752,271.01163570671,265.84206883865,265.70262181683,265.75455527247,265.79571197089,248.35625581588,248.10927071149,248.14396050195,248.3290872975,271.01163570671,270.95755825249,270.95755825249,225.90912851231,225.90912851231,390.64760980058,389.07527607171,0
0.00028125,119974534.16439,8.2896222180538e-05,1.0316532565292,4.3788527488183e-08,-2.7643644630591e-08,2.7104792721645e-08,5.3367214606551e-08,1.179976619183e-27,-7.2187551157324e-27,-9.8495502947756e-28,9.2815508492101e-29,-43.055697760608,59.397305021967,-51.86761350175,44.893968167337,-7.3928856952693e-08,5.6057632673734e-28,3.90829862432e-27,-1.4638738650997e-27,-1.3108658383136e-28,4.0550526753323e-19,-1.6696081581003e-18,-4.4897931822758e-19,8.6805749147297e-20,-0.89586055114546,1.078014853295,-5.5447810439953e-08,-1.1462525052345,0.97301818102871,9.478904577558e-39,-9.2144169044583e-38,-5.0493760155067e-39,1.6017812240502e-40,-1.0031544675367,1.0799767966564,-0.94469597737146,1.0655588245394,1.4092064787691e-72,2.0480177728364e-39,4.2102687227934e-38,-1.0153479702776e-38,-2.5820138653456e-40,3.075325410905e-19,1.0761220334111e-18,-5.3696659401781e-19,-1.0979058059221e-19,-7.1199546617117e-73,-7.3683255481194e-71,2.6163410607513e-70,4.6573110556295e-08,-8.4766776312941e-08,226.10595270111,226.10595270111,225.94088062207,225.94088062207,258.46949187565,258.34986629992,258.39769696825,258.43330855322,199.96265896277,199.43298101756,199.5555981461,199.9075455109,225.7651946753,258.50753349022,258.31380500458,258.35958010935,258.46921153251,248.31312958788,248.20708745572,248.24588790498,248.28991536599,204.7420645341,204.43006797274,225.7651946753,204.5042731253,204.69836392798,265.86054499644,265.74975602345,265.80281492776,265.81481845662,204.83984233635,204.3243710798,204.40715025918,204.80020136941,271.0460062732,265.87566262498,265.73542442204,265.78765520051,265.82908226175,248.3861988289,248.13777332686,248.17267635778,248.35890911869,271.0460062732,270.99164337088,270.99164337088,225.93099817856,225.93099817856,390.63438946654,389.04892579508,0
0.0002815,120167169.61857,8.297042049952e-05,1.0316965667989,4.506121332805e-08,-2.8353442350164e-08,2.7802412463104e-08,5.4950307530605e-08,1.3250500987897e-27,-8.1688195612724e-27,-1.0833049203073e-27,1.0085584983227e-28,-43.013935002272,59.448840680036,-51.87377416537,44.854636985285,-7.6602084361799e-08,6.1694817794066e-28,4.3832460439641e-27,-1.6461857330624e-27,-1.4251181997098e-28,4.3790736425935e-19,-1.8181075775755e-18,-4.794807841982e-19,9.1906906572875e-20,-0.89641695399233,1.0792087751035,-5.7342479128458e-08,-1.1478962450154,0.9732078949505,1.1252458487185e-38,-1.103223634551e-37,-5.7999568896279e-39,1.8097489120158e-40,-1.0038589354951,1.0811782725622,-0.94488585095446,1.0667781398155,2.1216193461782e-72,2.3587125089574e-39,4.9807500514656e-38,-1.2076026658415e-38,-2.9188615316406e-40,3.283731121345e-19,1.1641398756215e-18,-5.8111423871873e-19,-1.1630174398943e-19,-1.000153380721e-72,-1.1044010885361e-70,4.0259329509021e-70,4.8037860181559e-08,-8.8087846437299e-08,226.1289538997,226.1289538997,225.96295298269,225.96295298269,258.5014708444,258.38116457546,258.42930445424,258.46515091383,199.96691248743,199.43362560071,199.55722492718,199.91147747809,225.78617721188,258.53974782971,258.34490618213,258.39095266652,258.50125019832,248.34264731261,248.23599412683,248.27507940354,248.31938561371,204.75142265612,204.43739101118,225.78617721188,204.51212799978,204.70750797862,265.89405813524,265.78264753836,265.83602012301,265.84812397731,204.8497595202,204.33106946449,204.4144820362,204.8099024646,271.0803858011,265.90926929937,265.76823790431,265.82076704006,265.8624656122,248.41616891932,248.16629890825,248.20141619842,248.38875845064,271.0803858011,271.02573698211,271.02573698211,225.95291345219,225.95291345219,390.62137793346,389.02273450993,0
0.00028175,120359914.49475,8.3044618303077e-05,1.031739868171,4.6367170312472e-08,-2.9079223029608e-08,2.8515592603529e-08,5.6576283865911e-08,1.4874077198545e-27,-9.2396835105956e-27,-1.1911496006773e-27,1.0956405158667e-28,-42.972172077131,59.500429857205,-51.879924425997,44.815210890744,-7.9364768228033e-08,6.7883364083709e-28,4.9136671556547e-27,-1.8506645172286e-27,-1.5489388476697e-28,4.7281629893533e-19,-1.9792656367679e-18,-5.1196015324749e-19,9.7290393556545e-20,-0.89698519312148,1.0804137470214,-5.9299447976706e-08,-1.1495471327554,0.97340337612023,1.3348021510511e-38,-1.319853173477e-37,-6.6592520502332e-39,2.0438829857781e-40,-1.0045719302702,1.0823889888995,-0.94508322215744,1.0680051127465,3.1842136781832e-72,2.7157653040584e-39,5.8874683304676e-38,-1.4353751591498e-38,-3.2983714525252e-40,3.5056448735778e-19,1.2590224346306e-18,-6.2880715937404e-19,-1.2317786838207e-19,-1.4023738642951e-72,-1.6505139137753e-70,6.1780240373912e-70,4.9545054831955e-08,-9.1530250044648e-08,226.15200525842,226.15200525842,225.98507407584,225.98507407584,258.53346726974,258.4124785884,258.46092955657,258.49701187653,199.97124098862,199.43433126174,199.55891915672,199.91548568257,225.8072038301,258.57198064488,258.37602284087,258.42234183986,258.53330773087,248.37219004782,248.26492420641,248.30429674742,248.34888275393,204.76085379185,204.44478018038,225.8072038301,204.52005312915,204.71672762727,265.92758369756,265.81554998999,265.8692375856,265.8814424027,204.85975189548,204.33783279001,204.4218827049,204.81967952182,271.11477425065,265.94288880263,265.80106222437,265.85389075073,265.89586197218,248.44616598116,248.19484738819,248.23017995813,248.41863519577,271.11477425065,271.05983905205,271.05983905205,225.97487418709,225.97487418709,390.60857470974,388.99670193206,0
0.000282,120552768.63136,8.311881559093e-05,1.0317831606343,4.7707153358941e-08,-2.98212986631e-08,2.924462023526e-08,5.8246190626523e-08,1.6690312286907e-27,-1.0446118624417e-26,-1.3093752554953e-27,1.1899341510122e-28,-42.930410036887,59.55206993653,-51.88606357185,44.775693230685,-8.2219480047498e-08,7.4675616534806e-28,5.5057393310493e-27,-2.0799230960693e-27,-1.6830997809175e-28,5.1041743605363e-19,-2.1541061184622e-18,-5.4653980844687e-19,1.0297098689454e-19,-0.89756505933005,1.0816296422065,-6.1320615036047e-08,-1.1512049657154,0.97360458188982,1.5822155748175e-38,-1.5778087242181e-37,-7.6426075218699e-39,2.3073767706988e-40,-1.0052933395154,1.0836087281788,-0.94528796920126,1.0692395776549,4.7641595143928e-72,3.1259692695011e-39,6.953601667386e-38,-1.7050453790286e-38,-3.7257955209052e-40,3.7419011966214e-19,1.3612728448994e-18,-6.8032015981523e-19,-1.3043839531675e-19,-1.9628076092423e-72,-2.4595452016142e-70,9.4548312066286e-70,5.1095764444701e-08,-9.509786526664e-08,226.17510661806,226.17510661806,226.00724378317,226.00724378317,258.56548107584,258.44380828005,258.49257222216,258.52889137982,199.97564427692,199.4350978758,199.56068073096,199.91956997708,225.82827442554,258.60423185631,258.40715493079,258.45374757988,258.56538406006,248.40175769419,248.29387761076,248.33353986455,248.37840670556,204.77035776066,204.45223534485,225.82827442554,204.52804840598,204.72602274481,265.96112162574,265.84846333588,265.90246727381,265.91477368605,204.86981927688,204.3446609473,204.42935216977,204.82953237911,271.14917158223,265.97652107564,265.83389734322,265.88702629229,265.92927129155,248.4761899085,248.22341869976,248.2589675715,248.44853925632,271.14917158223,271.09394954661,271.09394954661,225.99688023783,225.99688023783,390.59597930474,388.97082777893,0
0.00028225,120745731.87074,8.319301236289e-05,1.0318264441788,4.9081931665718e-08,-3.0579987165726e-08,2.9989787197399e-08,5.9961097572017e-08,1.8721194811208e-27,-1.1804626278835e-26,-1.4389479918475e-27,1.2920134355843e-28,-42.888649898151,59.603758282847,-51.892190917345,44.736087387781,-8.5168845458507e-08,8.2128722718071e-28,6.1662898562864e-27,-2.3368708638131e-27,-1.8284332523962e-28,5.5090903569465e-19,-2.3437305550097e-18,-5.8334935019093e-19,1.089642016547e-19,-0.89815634180895,1.0828563331477,-6.3407928261348e-08,-1.1528695422314,0.97381147009161,1.874100573376e-38,-1.8847344764399e-37,-8.7674805489505e-39,2.603802121163e-40,-1.0060230495653,1.0848372708348,-0.9454999696125,1.0704813691035,7.1060253794379e-72,3.5970922206417e-39,8.2061051966361e-38,-2.0241039008154e-38,-4.2070150935611e-40,3.9933833942457e-19,1.4714282635287e-18,-7.3594832190427e-19,-1.3810376067476e-19,-2.742314079977e-72,-3.6546236043662e-70,1.4430765408141e-69,5.2691079998491e-08,-9.8794668245675e-08,226.1982578192,226.1982578192,226.02946198605,226.02946198605,258.59751218714,258.47515359215,258.52423239798,258.56078936204,199.98012216295,199.43592531922,199.56250954647,199.92373021348,225.84938889441,258.63650138472,258.43830240227,258.48516983731,258.59747911563,248.43135015283,248.32285425673,248.36280868281,248.40795738727,204.77993438227,204.45975637004,225.84938889441,204.5361137229,204.7353932014,265.99467186232,265.88138753388,265.93570914603,265.94811778049,204.87996147899,204.3515538283,204.43689033574,204.83946087383,271.18357775628,266.01016605943,265.86674322214,265.92017362463,265.96269352005,248.50624059543,248.25201277653,248.28777897342,248.47847053429,271.18357775628,271.12806843176,271.12806843176,226.01893145966,226.01893145966,390.58359122879,388.94511176962,0
0.0002825,120938804.05951,8.3267208618861e-05,1.0318697187951,5.0492288873049e-08,-3.135561253237e-08,3.0751390191984e-08,6.1722097611609e-08,2.0991109989953e-27,-1.3333630748559e-26,-1.5809207955437e-27,1.4024964807962e-28,-42.846892642076,59.655492248792,-51.898305793959,44.696396781964,-8.8215544558127e-08,9.0305055525972e-28,6.9028598643951e-27,-2.6247459100408e-27,-1.9858363452224e-28,5.9450308225479e-19,-2.5493237161772e-18,-6.225260008769e-19,1.1528632701693e-19,-0.89875882820368,1.0840936919407,-6.5563386512445e-08,-1.1545406615671,0.97402399897717,2.2181859082408e-38,-2.2496430817142e-37,-1.0053722580747e-38,2.9371530900376e-40,-1.0067609456893,1.0860743956193,-0.94571909990932,1.0717303217013,1.0566475984284e-71,4.1380130042144e-39,9.6762977018056e-38,-2.4013387468746e-38,-4.7486146024355e-40,4.2610262035316e-19,1.5900619424529e-18,-7.9600840940438e-19,-1.4619544432696e-19,-3.8246432157435e-72,-5.4149163565492e-70,2.1966791904072e-69,5.4332113748104e-08,-1.026247346318e-07,226.22145870222,226.22145870222,226.05172856553,226.05172856553,258.62956052839,258.50651446688,258.55591003098,258.59270576129,199.98467445733,199.4368134695,199.56440550019,199.92796624274,225.87054713346,258.66878915088,258.46946520611,258.51660856308,258.62959282711,248.46096732528,248.35185406173,248.39210312999,248.43753471744,204.78958347678,204.46734312238,225.87054713346,204.54424897254,204.7448388665,266.02823435003,265.91432254211,265.96896316067,265.98147463901,204.8901783163,204.35851132594,204.44449710823,204.84946484261,271.21799273339,266.04382369514,265.89959982264,265.9533327078,265.99612860729,248.53631793614,248.28062955258,248.31661409911,248.50842893151,271.21799273339,271.16219567351,271.16219567351,226.04102770853,226.04102770853,390.57140999316,388.91955362485,0
0.00028275,121131985.04873,8.3341404358839e-05,1.0319129844752,5.1939023261522e-08,-3.2148504973947e-08,3.1529730889097e-08,6.3530307220616e-08,2.3527087314439e-27,-1.5053692907127e-26,-1.736441071182e-27,1.5220487607806e-28,-42.805139215428,59.707269175197,-51.904407550484,44.656624868362,-9.1362312257381e-08,9.9272671307016e-28,7.7237740825877e-27,-2.9471505160714e-27,-2.1562758879018e-28,6.4142616134529e-19,-2.7721594553704e-18,-6.6421503118601e-19,1.2195446378199e-19,-0.89937230473637,1.0853415903095,-6.7789040523648e-08,-1.1562181239453,0.97424212720942,2.6234950640039e-38,-2.6831523390204e-37,-1.152389918531e-38,3.3118945129112e-40,-1.0075069121403,1.0873198796502,-0.94594523564244,1.0729862700893,1.5664001070703e-71,4.7588763057987e-39,1.1400534602837e-37,-2.8470524485288e-38,-5.3579635849336e-40,4.5458185884931e-19,1.7177854119111e-18,-8.6084036123785e-19,-1.5473602213992e-19,-5.3248527172557e-72,-8.0003901444302e-70,3.3350003073356e-69,5.6019999453506e-08,-1.0659224113085e-07,226.2447091073,226.2447091073,226.07404340231,226.07404340231,258.66162602465,258.5378908468,258.58760506809,258.62464051547,199.98930097073,199.43776220534,199.56636848931,199.93227791489,225.89174904006,258.70109507572,258.50064329345,258.54806370831,258.66172512387,248.49060911351,248.38087694374,248.42142313384,248.46713861419,204.79930486466,204.47499546929,225.89174904006,204.5524540476,204.75435960879,266.0618090318,265.94726831897,266.00222927621,266.01484421449,204.90046960319,204.36553333415,204.4521723931,204.85954412139,271.25241647424,266.07749392405,265.93246710653,265.98650350195,266.02957650275,248.56642182482,248.30926896247,248.34547288408,248.53841434957,271.25241647424,271.19633123795,271.19633123795,226.06316884106,226.06316884106,390.55943511005,388.8941530669,0
0.000283,121325274.69419,8.3415599582918e-05,1.0319562412119,5.3422947954107e-08,-3.2959001056845e-08,3.2325116034823e-08,6.5386866862902e-08,2.635907221425e-27,-1.6987746507366e-26,-1.9067588127961e-27,1.6513866351528e-28,-42.763390531786,59.759086391755,-51.910495552487,44.616775135475,-9.4611938610351e-08,1.0910580612949e-27,8.6382168696153e-27,-3.3080902916543e-27,-2.340793734861e-28,6.9192038728098e-19,-3.0136069347252e-18,-7.0857020901697e-19,1.2898656368303e-19,-0.89999655631804,1.0865998996341,-7.0086993878029e-08,-1.1579017305444,0.97446581384579,3.1005546384366e-38,-3.1977613694668e-37,-1.3203651579594e-38,3.7330160495039e-40,-1.0082608322174,1.0885734984682,-0.94617825143473,1.0742490489494,2.3149951907754e-71,5.4712683465451e-39,1.3420979273384e-37,-3.3733140774791e-38,-6.0433080801662e-40,4.8488066726242e-19,1.8552507788882e-18,-9.3080887962602e-19,-1.6374922055553e-19,-7.4007512041534e-72,-1.1787182116695e-69,5.0499536347045e-69,5.7755892606617e-08,-1.1070146705959e-07,226.2680088744,226.2680088744,226.09640637678,226.09640637678,258.69370860128,258.56928267492,258.61931745628,258.65659356223,199.99400151383,199.43877140664,199.56839841135,199.93666507902,225.9129945121,258.73341908025,258.53183661584,258.57953522434,258.69387593512,248.52027541993,248.40992282129,248.45076862199,248.49676899534,204.80909836675,204.48271327914,225.9129945121,204.56072884071,204.76395529623,266.09539585079,265.98022482313,266.03550745117,266.04822645963,204.91083515396,204.37261974784,204.45991609662,204.86969854542,271.28684893962,266.11117668755,265.96534503588,266.01968596738,266.06303715583,248.59655215576,248.33793094126,248.37435526415,248.56842668988,271.28684893962,271.23047509118,271.23047509118,226.08535471459,226.08535471459,390.5476660926,388.86890981958,0
0.00028325,121518672.85663,8.3489794291293e-05,1.0319994889996,5.4944891119239e-08,-3.3787443844475e-08,3.3137857562992e-08,6.7292941417805e-08,2.9520223955695e-27,-1.9161359299908e-26,-2.0932354554776e-27,1.7912811277225e-28,-42.721647472633,59.810941218085,-51.916569182206,44.576851102817,-9.7967269129015e-08,1.1988541315444e-27,9.6563150634135e-27,-3.7120173043993e-27,-2.5405124387813e-28,7.4624438379841e-19,-3.2751372510479e-18,-7.5575427214466e-19,1.3640147058683e-19,-0.90063136667369,1.0878684909805,-7.245940398812e-08,-1.1595912835254,0.97469501833013,3.6616348463769e-38,-3.8081726256834e-37,-1.5122105035594e-38,4.2060922822698e-40,-1.0090225883066,1.0898350260964,-0.94641802103227,1.0755184929658,3.4109680067526e-71,6.2884161808555e-39,1.578648622261e-37,-3.9942516556171e-38,-6.8138724394042e-40,5.1710968164648e-19,2.0031531461238e-18,-1.006305118646e-18,-1.7325997385653e-19,-1.0268430612934e-71,-1.7317984963279e-69,7.6269600796019e-69,5.9540970658336e-08,-1.1495679589989e-07,226.29135784331,226.29135784331,226.11881736895,226.11881736895,258.72580818394,258.60068989469,258.65104714247,258.68856483905,199.99877589741,199.43984095443,199.57049516404,199.94112758331,225.93428344805,258.76576108559,258.56304512522,258.61102306264,258.72604518988,248.54996614739,248.43899161349,248.48013952201,248.52642577844,204.8189638043,204.49049642127,225.93428344805,204.56907324451,204.77362579599,266.12899475035,266.01319201356,266.06879764412,266.08162132705,204.92127478283,204.37977046287,204.46772812547,204.8799279492,271.32129009045,266.14487192717,265.998233573,266.0528800645,266.09651051578,248.6267088233,248.36661542449,248.40326117541,248.59846585363,271.32129009045,271.26462719937,271.26462719937,226.10758518712,226.10758518712,390.53610245494,388.84382360825,0
0.0002835,121712179.40191,8.3563988484261e-05,1.0320427278333,5.6505696177411e-08,-3.4634183043087e-08,3.3968272708124e-08,6.9249720613209e-08,3.3047242133929e-27,-2.1603021471961e-26,-2.2973534629586e-27,1.9425619797157e-28,-42.679910888731,59.862830964125,-51.922627838129,44.536856319169,-1.0143120507249e-07,1.3169974430712e-27,1.0789228190129e-26,-4.1638775861268e-27,-2.7566413437723e-28,8.0467432068146e-19,-3.5583304868499e-18,-8.0593942587989e-19,1.4421896366952e-19,-0.90127651846511,1.0891472351299,-7.4908483083311e-08,-1.1612865860344,0.97492970048179,4.3210268580235e-38,-4.5316670657808e-37,-1.7312330076283e-38,4.7373495376247e-40,-1.009792061945,1.0911042350955,-0.94666441735316,1.0767944368415,5.0106057787063e-71,7.225413641335e-39,1.8553611399281e-37,-4.7263911527584e-38,-7.6799727170723e-40,5.5138588467304e-19,2.1622331564537e-18,-1.0877484789326e-18,-1.8329448426802e-19,-1.4223316573923e-71,-2.5373618281761e-69,1.1489428481056e-68,6.1376433244909e-08,-1.1936271685985e-07,226.3147558536,226.3147558536,226.14127625849,226.14127625849,258.75792469861,258.63211244993,258.68279407357,258.72055428314,200.00362393225,199.44097073092,199.57265864538,199.94566527494,225.95561574692,258.79812101299,258.59426877389,258.6425271749,258.75823281698,248.57968119917,248.46808323998,248.50953576134,248.55610888074,204.82890099895,204.49834476599,225.95561574692,204.57748715156,204.78337097443,266.16260567403,266.04616984947,266.10209981365,266.11502876918,204.93178830395,204.38698537609,204.4756083867,204.89023216654,271.35573988773,266.17857958457,266.03113268049,266.08608575385,266.12999653174,248.65689172184,248.3953223482,248.43219055423,248.62853174182,271.35573988773,271.29878752875,271.29878752875,226.12986011737,226.12986011737,390.52474371213,388.81889415974,0
0.00028375,121905794.20129,8.3638182162221e-05,1.0320859577097,5.8106221993071e-08,-3.5499575160268e-08,3.4816684123861e-08,7.1258419472473e-08,3.698072429996e-27,-2.4344464112062e-26,-2.5207267101354e-27,2.1061219976181e-28,-42.638181599149,59.9147529335,-51.928670931931,44.496794363131,-1.0500670369135e-07,1.4464497962976e-27,1.2049246627706e-26,-4.669163436946e-27,-2.9904831300918e-28,8.6750500888988e-19,-3.864883210732e-18,-8.5930786705039e-19,1.5245980269371e-19,-0.90193179336999,1.090436002667,-7.7436499224685e-08,-1.1629874421395,0.97516982052441,5.0953623480333e-38,-5.3885409466455e-37,-1.9811863094884e-38,5.3337401677389e-40,-1.0105691338987,1.0923808966959,-0.94691731238067,1.0780767152833,7.338246276649e-71,8.299477351263e-39,2.1787766825755e-37,-5.5890491986715e-38,-8.6531429340395e-40,5.8783294419934e-19,2.3332796675744e-18,-1.1755885149917e-18,-1.9388028505165e-19,-1.9668653606771e-71,-3.707441265883e-69,1.7263885497483e-68,6.3263502412498e-08,-1.2392382642575e-07,226.33820274465,226.33820274465,226.16378292469,226.16378292469,258.79005807158,258.66355028494,258.71455819648,258.75256183153,200.00854542924,199.44216061951,199.57488875355,199.95027800014,225.97699130823,258.83049878382,258.62550751452,258.67404751298,258.79043874511,248.60942047902,248.49719762099,248.53895726732,248.58581821921,204.83890977276,204.50625818457,225.97699130823,204.58597045435,204.79319069714,266.1962285656,266.07915829039,266.13541391842,266.14844873834,204.9423755314,204.39426438527,204.48355678771,204.9006110305,271.39019829257,266.21229960153,266.06404232118,266.11930299607,266.16349515274,248.68710074586,248.42405164886,248.46114333726,248.65862425525,271.39019829257,271.33295604557,271.33295604557,226.15217936478,226.15217936478,390.51358938017,388.79412120245,0
0.000284,122099517.13171,8.3712375325684e-05,1.0321291786264,5.9747343147017e-08,-3.638398361813e-08,3.5683420004294e-08,7.3320278722731e-08,4.1365557552005e-27,-2.7421010692316e-26,-2.7651117217952e-27,2.2829217160472e-28,-42.596460401449,59.966704412756,-51.934697899546,44.456668830649,-1.0869677857014e-07,1.5882590819309e-27,1.3449898380419e-26,-5.2339709703485e-27,-3.2434408430593e-28,9.3505105817456e-19,-4.1966164568698e-18,-9.1605233493924e-19,1.6114577544112e-19,-0.90259697236298,1.0917346637393,-8.0045777213764e-08,-1.164693657117,0.97541533892429,6.0039813896806e-38,-6.4026139936618e-37,-2.2663293821673e-38,6.0030251077506e-40,-1.0113536841519,1.0936647805773,-0.94717657782918,1.0793651630151,1.0714890881243e-70,9.5302366566987e-39,2.5564538984623e-37,-6.6047876534348e-38,-9.7462756559116e-40,6.2658156910026e-19,2.517132566131e-18,-1.2703069588571e-18,-2.0504630657889e-19,-2.7153993142002e-71,-5.4023429688774e-69,2.5875105420316e-68,6.5203422845035e-08,-1.2864482998041e-07,226.36169835567,226.36169835567,226.18633724647,226.18633724647,258.82220822947,258.69500334439,258.74633945805,258.78458742098,200.01354019932,199.4434105047,199.57718538696,199.95496560416,225.99841003203,258.86289431955,258.65676130016,258.70558402889,258.82266290275,248.6391838911,248.52633467729,248.56840396721,248.61555371051,204.84898994819,204.51423654923,225.99841003203,204.59452304528,204.80308482888,266.22986336903,266.11215729609,266.16873991709,266.18188118672,204.95303627919,204.40160738913,204.49157323626,204.91106437345,271.42466526621,266.24603191999,266.09696245816,266.15253175192,266.19700632768,248.71733578991,248.45280326344,248.49011946142,248.68874329452,271.42466526621,271.36713271614,271.36713271614,226.17454278944,226.17454278944,390.50263897616,388.76950446598,0
0.00028425,122293348.07556,8.3786567975266e-05,1.0321723905827,6.1429950051813e-08,-3.7287778968918e-08,3.6568814208684e-08,7.5436565302479e-08,4.6251346939257e-27,-3.0871964753472e-26,-3.0324198413135e-27,2.4739943992908e-28,-42.554748058973,60.018682691079,-51.940708182689,44.416483348705,-1.125044997072e-07,1.7435666395904e-27,1.5006065100609e-26,-5.8650634299336e-27,-3.5170254432825e-28,1.0076480977613e-18,-4.5554842028797e-18,-9.763766923505e-19,1.7029974747463e-19,-0.90327183560232,1.0930430885037,-8.2738699731098e-08,-1.1664050370311,0.97566621661877,7.0693556416748e-38,-7.6018201695535e-37,-2.5914928031333e-38,6.7538656155149e-40,-1.0121455920535,1.0949556553907,-0.94744208428701,1.0806596147222,1.559840241144e-70,1.0940061757868e-38,2.9971192682539e-37,-7.7999394425145e-38,-1.0973778465579e-39,6.6776988081015e-19,2.7146857185373e-18,-1.372419873451e-18,-2.1682294596838e-19,-3.7427120079105e-71,-7.8508229211883e-69,3.8684719527468e-68,6.7197462086997e-08,-1.3353054329246e-07,226.38524252568,226.38524252568,226.20893910232,226.20893910232,258.85437509919,258.72647157338,258.7781378051,258.81663098805,200.01860805352,199.44472027218,199.57954844416,199.95972793126,226.01987181888,258.8953075418,258.68803008423,258.7371366748,258.85490521825,248.66897134003,248.55549433021,248.5978757881,248.64531527101,204.85914134811,204.52227973316,226.01987181888,204.60314481664,204.81305323357,266.26351002852,266.14516682663,266.20207776838,266.21532606634,204.9637703613,204.4090142873,204.49965764039,204.921592027,271.45914076996,266.279776482,266.12989305478,266.18577198225,266.23053000536,248.7475967486,248.48157712936,248.51911886385,248.71888876004,271.45914076996,271.40131750682,271.40131750682,226.19695025218,226.19695025218,390.49189201807,388.74504368158,0
0.0002845,122487286.9214,8.3860760111696e-05,1.0322155935788,6.3154949233997e-08,-3.8211339013222e-08,3.7473206388382e-08,7.7608572776065e-08,5.169288410019e-27,-3.4741037424327e-26,-3.324730395272e-27,2.6804514046248e-28,-42.513045311576,60.070685047047,-51.946701241208,44.37624156302,-1.1643299381659e-07,1.9136152150627e-27,1.6734108151649e-26,-6.5699407751008e-27,-3.8128639135738e-28,1.085654066484e-18,-4.9435823872954e-18,-1.0404965357772e-18,1.7994571426239e-19,-0.90395616270241,1.0943611468632,-8.5517708256159e-08,-1.1681213890394,0.97592241486153,8.3175747752031e-38,-9.0188940017125e-37,-2.9621534787707e-38,7.5959251932226e-40,-1.0129447363159,1.096253288506,-0.94771370187895,1.0819599050993,2.2639788020966e-70,1.2554434906892e-38,3.5108385035953e-37,-9.2052162926885e-38,-1.2351748116088e-39,7.1154380439449e-19,2.9268900757109e-18,-1.4824799338324e-18,-2.2924213985046e-19,-5.1504007819111e-71,-1.1378434864114e-68,5.7692690491781e-68,6.9246910769131e-08,-1.3858589414863e-07,226.4088350935,226.4088350935,226.23158837039,226.23158837039,258.88655860797,258.75795491745,258.80995318443,258.84869246908,200.02374880295,199.44608980875,199.58197782385,199.9645648247,226.04137656982,258.9277383723,258.71931382049,258.76870540305,258.88716561975,248.69878273091,248.58467650163,248.62737265699,248.67510281679,204.86936379582,204.53038761048,226.04137656982,204.61183566058,204.82309577431,266.29716848847,266.17818684234,266.235427431,266.24878332912,204.97457759163,204.41648498034,204.50780990848,204.93219382208,271.49362476526,266.31353322975,266.16283407464,266.21902364804,266.26406613445,248.77788351665,248.51037318451,248.54814148197,248.74906055201,271.49362476526,271.43551038402,271.43551038402,226.21940161451,226.21940161451,390.48134802495,388.72073858187,0
0.00028475,122681333.56388,8.3934951735815e-05,1.0322587876165,6.4923263533245e-08,-3.9155048972745e-08,3.839694211843e-08,7.9837621807436e-08,5.7750659495766e-27,-3.9076818592516e-26,-3.6443049389207e-27,2.90348793425e-28,-42.471352874153,60.122708753608,-51.952676549126,44.335947138672,-1.2048544448514e-07,2.0997575557994e-27,1.8652005448443e-26,-7.356916156169e-27,-4.1327079658143e-28,1.1694505733376e-18,-5.3631584885622e-18,-1.1086398381355e-18,1.9010885584376e-19,-0.9046497328167,1.0956887085694,-8.8385304101558e-08,-1.1698425213107,0.97618389525474,9.7789051199659e-38,-1.0692167346623e-36,-3.3845188760687e-38,8.5399828025214e-40,-1.0137509950816,1.0975574461744,-0.94799130018312,1.0832658688317,3.2761735319031e-70,1.4402370053249e-38,4.1092117039185e-37,-1.0856410661077e-37,-1.3898164315878e-39,7.5805747759606e-19,3.1547569294046e-18,-1.601078850142e-18,-2.4233744089597e-19,-7.0762925785419e-71,-1.6447251771992e-68,8.5829465121843e-68,7.1353082834352e-08,-1.4381592392076e-07,226.4324758978,226.4324758978,226.25428492839,226.25428492839,258.91875868338,258.78945332251,258.84178554279,258.88077180017,200.02896225881,199.44751900234,199.58447342487,199.96947612672,226.06292418639,258.96018673291,258.75061246308,258.80029016612,258.91944403525,248.72861796924,248.613881114,248.65689450074,248.70491626361,204.87965711505,204.53856005628,226.06292418639,204.6205954691,204.83321231333,266.33083869348,266.21121730381,266.26878886372,266.2822529268,204.98545778405,204.42401936971,204.51602994915,204.94286958884,271.52811721364,266.34730210558,266.19578548159,266.25228671036,266.29761466351,248.80819598883,248.53919136719,248.57718725344,248.77925857045,271.52811721364,271.46971131418,271.46971131418,226.24189673865,226.24189673865,390.47100651682,388.69658890084,0
0.000285,122875487.90399,8.4009142848577e-05,1.032301972699,6.6735832322741e-08,-4.0119301658003e-08,3.9340373033723e-08,8.2125060626576e-08,6.4491422071441e-27,-4.393329598627e-26,-3.9936026651241e-27,3.1443892035813e-28,-42.429671438118,60.174751078511,-51.95863359438,44.295603758152,-1.2466509233213e-07,2.3034656948458e-27,2.0779499932921e-26,-8.2351999084092e-27,-4.4784433906758e-28,1.2594443328459e-18,-5.8166217015196e-18,-1.1810476248045e-18,2.0081559414649e-19,-0.90535232476103,1.0970256432518,-9.1344049434639e-08,-1.1715682430386,0.97645061974389,1.1488430749113e-37,-1.266649372323e-36,-3.865621934826e-38,9.5980586022377e-40,-1.0145642459874,1.0988678936014,-0.94827474828508,1.0845773405964,4.7267824497638e-70,1.6516887004158e-38,4.8055953668429e-37,-1.2795205834309e-37,-1.5633105328217e-39,8.0747367960967e-19,3.3993613299853e-18,-1.7288499376417e-18,-2.561440981092e-19,-9.707085908407e-71,-2.3711376064968e-68,1.2737861795815e-67,7.3517315762585e-08,-1.4922578914717e-07,226.45616477707,226.45616477707,226.27702865363,226.27702865363,258.95097525328,258.82096673493,258.87363482686,258.91286891719,200.03424823239,199.44900774201,199.58703514616,199.97446167856,226.0845145706,258.99265254561,258.78192596648,258.83189091664,258.95174039258,248.75847696099,248.6431080903,248.68644124609,248.73475552693,204.89002112996,204.54679694657,226.0845145706,204.62942413403,204.84340271202,266.36452058838,266.24425817192,266.3021620253,266.31573481101,204.99641075239,204.43161735775,204.52431767131,204.95361915674,271.56261807673,266.38108305195,266.22874723971,266.28556113035,266.33117554099,248.83853406003,248.56803161619,248.60625611613,248.80948271521,271.56261807673,271.50392026379,271.50392026379,226.26443548751,226.26443548751,390.4608670148,388.67259437386,0
0.00028525,123069749.84916,8.4083333451052e-05,1.0323451488308,6.8593611731928e-08,-4.1104497637558e-08,4.0303856967422e-08,8.4472265506062e-08,7.1988790423558e-27,-4.9370426794179e-26,-4.3752970691153e-27,3.4045370555542e-28,-42.38800167262,60.226809284857,-51.96457187834,44.255215119452,-1.2897523514458e-07,2.5263409744138e-27,2.3138260575941e-26,-9.2149917614835e-27,-4.8521000970372e-28,1.3560686787589e-18,-6.3065537453828e-18,-1.2579746848853e-18,2.1209365307351e-19,-0.90606371714455,1.0983718204403,-9.4396568298276e-08,-1.1732983644398,0.97672255062167,1.3486788585194e-37,-1.4994319901629e-36,-4.4134279770163e-38,1.0783553569079e-39,-1.0153843662158,1.1001843950226,-0.94856391484154,1.0858941550604,6.7993872406542e-70,1.8935546874593e-38,5.6153547175477e-37,-1.5070110178119e-37,-1.757898780018e-39,8.5996428029485e-19,3.6618456714854e-18,-1.8664708420671e-18,-2.7069914107951e-19,-1.3295309806462e-70,-3.4094309824238e-68,1.8858684349784e-67,7.5740970798594e-08,-1.5482076312147e-07,226.47990156962,226.47990156962,226.29981942299,226.29981942299,258.98320824587,258.85249510143,258.9055009833,258.94498375579,200.0396065351,199.45055591793,199.58966288677,199.97952132043,226.10614762492,259.02513573254,258.81325428553,258.86350760737,258.98405461939,248.78835961259,248.67235735407,248.71601281961,248.76462052193,204.90045566512,204.55509815828,226.10614762492,204.63832154704,204.85366683088,266.3982141182,266.27730940779,266.33554687453,266.34922893324,205.00743631046,204.43927884768,204.53267298409,204.96444235449,271.59712731626,266.41487601147,266.26171931333,266.31884686928,266.36474871522,248.86889762521,248.59689387071,248.63534800816,248.83973288593,271.59712731626,271.53813719941,271.53813719941,226.28701772471,226.28701772471,390.45092904104,388.64875473766,0
0.0002855,123264119.31342,8.4157523544428e-05,1.0323883160181,7.0497574871841e-08,-4.2111045413093e-08,4.1287758095228e-08,8.6880641239017e-08,8.0323919850923e-27,-5.5454766883064e-26,-4.7922939669593e-27,3.685417053357e-28,-42.346344225143,60.278880632425,-51.970490915558,44.214784934034,-1.3341922799594e-07,2.7701248637367e-27,2.5752056861558e-26,-1.0307582023235e-26,-5.2558628922046e-28,1.4597851595781e-18,-6.8357203398561e-18,-1.3396903192484e-18,2.2397212151988e-19,-0.90678368846118,1.099727109594,-9.7545547639837e-08,-1.1750326967725,0.97699965052569,1.582101064451e-37,-1.7736927363041e-36,-5.0369550862031e-38,1.2111404509631e-39,-1.0162112325477,1.1015067137857,-0.94885866815361,1.0872161468842,9.7516926789792e-70,2.1701056399062e-38,6.5561502388645e-37,-1.773753378007e-37,-1.9760833504305e-39,9.1571071062889e-19,3.9434234507647e-18,-2.0146664291235e-18,-2.860414684248e-19,-1.8182042722301e-70,-4.8896511594473e-68,2.7854231384461e-67,7.802543317577e-08,-1.606062374896e-07,226.50368611361,226.50368611361,226.32265711296,226.32265711296,259.01545758965,258.8840383692,258.93738395872,258.97711625139,200.04503697842,199.45216342135,199.59235654579,199.9846548915,226.12782325228,259.05763621594,258.8445973754,258.89514019122,259.01638664319,248.8182658309,248.7016288294,248.74560914776,248.79451116344,204.91096054556,204.5634635693,226.12782325228,204.64728759958,204.86400452954,266.4319192282,266.31037097282,266.36894337022,266.38273524482,205.01853427201,204.44700374358,204.54109579685,204.97533901008,271.63164489407,266.44868092689,266.29470166704,266.35214388849,266.39833413443,248.89928657941,248.62577807037,248.66446286786,248.87000898207,271.63164489407,271.5723620876,271.5723620876,226.30964331453,226.30964331453,390.44119211878,388.62506973035,0
0.00028575,123458596.21759,8.4231713130007e-05,1.0324314742681,7.2448712063477e-08,-4.3139361597341e-08,4.229244708082e-08,8.9351621628177e-08,8.9586230080912e-27,-6.2260163110968e-26,-5.247750974896e-27,3.9886260852167e-28,-42.304699723032,60.330962378039,-51.976390232971,44.174316925273,-1.3800048333921e-07,3.0367106304126e-27,2.8646947781578e-26,-1.1525462557697e-26,-5.6920830565399e-28,1.5710852202794e-18,-7.4070833860526e-18,-1.4264791274602e-18,2.3648151942652e-19,-0.90751201722621,1.1010913801278,-1.0079373834187e-07,-1.1767710523134,0.97728188244216,1.8545488291381e-37,-2.0965869580849e-36,-5.7464096077734e-38,1.3598256129507e-39,-1.0170447214157,1.1028346124323,-0.94915887622739,1.088543150728,1.3944284601898e-69,2.4861949574647e-38,7.6482627503158e-37,-2.0863028279803e-37,-2.2206565964247e-39,9.749044554058e-19,4.2453832080224e-18,-2.1742118467746e-18,-3.0221194060867e-19,-2.4827306534779e-70,-6.9944529895559e-68,4.1043658379783e-67,8.037211234623e-08,-1.6658772384572e-07,226.52751824703,226.52751824703,226.34554159957,226.34554159957,259.04772321346,258.91559648578,258.96928369963,259.00926633918,200.05053937398,199.45383014462,199.59511602239,199.98986222993,226.14954135604,259.09015391821,258.87595519162,258.92678862122,259.04873639132,248.84819552324,248.73092244089,248.77523015683,248.82442736604,204.92153559674,204.57189305841,226.14954135604,204.65632218288,204.87441566674,266.46563586384,266.34344282867,266.40235147117,266.41625369698,205.0297044508,204.4547919504,204.54958601914,204.98630895079,271.66617077209,266.48249774109,266.32769426565,266.3854521494,266.43193174673,248.92970081778,248.65468415525,248.69360063377,248.90031090292,271.66617077209,271.606594895,271.606594895,226.33231212199,226.33231212199,390.43165577239,388.60153909134,0
0.000286,123653180.48939,8.4305902209212e-05,1.0324746235901,7.4448031070764e-08,-4.418987109653e-08,4.3318301228514e-08,9.1886669978159e-08,9.987419874916e-27,-6.9868514784123e-26,-5.7450985622879e-27,4.3158805191829e-28,-42.263068774531,60.383051776262,-51.982269370093,44.133814826323,-1.4272247108125e-07,3.3281559276642e-27,3.185148642249e-26,-1.2882448452018e-26,-6.1632907710574e-28,1.6904919738506e-18,-8.0238138945893e-18,-1.5186418352384e-18,2.4965386707967e-19,-0.90824848208935,1.1024645014367,-1.0414395625824e-07,-1.1785132443909,0.97756920970501,2.1723075303118e-37,-2.4764634918952e-36,-6.5533386133941e-38,1.5262652011616e-39,-1.0178847089601,1.1041678527775,-0.94946440684614,1.089875001258,1.9880058553839e-69,2.8473356082465e-38,8.9149618910261e-37,-2.4522713594495e-37,-2.4947340266001e-39,1.037747569073e-18,4.5690926552761e-18,-2.345935769941e-18,-3.1925347736569e-19,-3.3850674480635e-70,-9.9797253861719e-68,6.0337343736495e-67,8.2782442208801e-08,-1.7277085534242e-07,226.55139780773,226.55139780773,226.36847275844,226.36847275844,259.08000504643,258.94716939914,259.00120015254,259.04143395413,200.05611353349,199.45555598118,199.59794121578,199.99514317281,226.17130184,259.12268876187,258.90732769004,258.95845285053,259.08110379096,248.87814859738,248.76023811372,248.80487577297,248.85436904396,204.93218064454,204.5803865053,226.17130184,204.66542518797,204.88490010035,266.49936397077,266.37652493726,266.43577113623,266.44978424078,205.04094666054,204.46264337391,204.55814356074,204.99735200314,271.70070491234,266.5163263971,266.36069707419,266.41877161353,266.46554150014,248.96014023557,248.68361206582,248.72276124464,248.9306385476,271.70070491234,271.64083558828,271.64083558828,226.35502401275,226.35502401275,390.42231952733,388.57816256141,0
0.00028625,123847872.06356,8.4380090783585e-05,1.0325177639944,7.6496557335429e-08,-4.5263007296751e-08,4.4365704637766e-08,9.4487279596364e-08,1.1129622617736e-26,-7.8370610788966e-26,-6.2880628022907e-27,4.6690249463783e-28,-42.221451969711,60.435146080426,-51.98812787813,44.0932823784,-1.4758871863497e-07,3.6466963645547e-27,3.5396941318122e-26,-1.4393811339434e-26,-6.6722084600394e-28,1.8185620671423e-18,-8.6893057005554e-18,-1.6164961647113e-18,2.6352275776567e-19,-0.90899286194438,1.103846342925,-1.0759908325469e-07,-1.1802590873679,0.97786159600086,2.5426348761158e-37,-2.9230569278152e-36,-7.470801396034e-38,1.7125246544577e-39,-1.0187310710741,1.1055061960039,-0.94977512763867,1.0912115331515,2.8258080027792e-69,3.2597867035678e-38,1.0382923438837e-36,-2.8804918529173e-37,-2.801790971039e-39,1.1044532156764e-18,4.9160030008521e-18,-2.5307238372531e-18,-3.3721115995869e-19,-4.6085454402872e-70,-1.4203043014611e-67,8.8495595294402e-67,8.5257881338412e-08,-1.7916138829677e-07,226.57532463337,226.57532463337,226.39145046475,226.39145046475,259.11230301803,258.97875705764,259.03313326384,259.07361903099,200.06175926879,199.45734082553,199.60083202516,200.00049755621,226.19310460838,259.15524066959,258.93871482684,258.99013283242,259.11348876915,248.90812496152,248.78957577358,248.83454592217,248.88433611115,204.9428955153,204.58894379059,226.19310460838,204.67459650562,204.89545768731,266.5331034949,266.40961726077,266.4692023242,266.48332682717,205.05226071493,204.47055792071,204.56676833154,205.00846799296,271.73524727695,266.55016683809,266.39371005796,266.45210224247,266.49916334254,248.99060472812,248.71256174296,248.75194463941,248.96099181505,271.73524727695,271.67508413416,271.67508413416,226.3777788532,226.3777788532,390.41318291026,388.55493988265,0
0.0002865,124042670.882,8.4454278854785e-05,1.0325608954931,7.8595334214463e-08,-4.6359212254074e-08,4.5435048363136e-08,9.7154974300735e-08,1.2397157738836e-26,-8.7867049588694e-26,-6.8806899510818e-27,5.0500415556658e-28,-42.179849881516,60.487242543257,-51.99396531986,44.052723328884,-1.5260281094986e-07,3.9947601307739e-27,3.9317535802288e-26,-1.6076425428947e-26,-7.2217651155467e-28,1.9558876454133e-18,-9.4071900123722e-18,-1.7203777494154e-18,2.7812343397975e-19,-0.90974493604204,1.105236774029,-1.1116206824877e-07,-1.1820083966515,0.97815900537205,2.9739049239611e-37,-3.4477097633507e-36,-8.5135623014477e-38,1.9209040067687e-39,-1.0195836834541,1.1068494027421,-0.95009090615062,1.0925525811037,4.0046882998992e-69,3.7306509818316e-38,1.2082701522176e-36,-3.3812065988956e-37,-3.1457033364853e-39,1.1752462339405e-18,5.2876534769731e-18,-2.7295222900949e-18,-3.5613233850237e-19,-6.2650892426986e-70,-2.0162815504353e-67,1.2949784459728e-66,8.7799913218042e-08,-1.8576520381491e-07,226.59929856151,226.59929856151,226.41447459324,226.41447459324,259.14461705804,259.01035941002,259.06508297991,259.10582150429,200.06747639183,199.4591845732,199.60378834977,200.00592521514,226.21494956582,259.18780956416,258.97011655855,259.02182852028,259.14589125275,248.93812452432,248.8189353467,248.86424053029,248.91432848125,204.95368003578,204.59756479575,226.21494956582,204.68383602634,204.90608828368,266.56685438231,266.44271976164,266.50264499394,266.51688140694,205.06364642767,204.47853549822,204.57546024164,205.01965674534,271.76979782812,266.58401900736,266.42673318245,266.48544399788,266.53279722173,249.02109419087,248.74153312798,248.78115075723,248.99137060403,271.76979782812,271.70934049939,271.70934049939,226.40057651037,226.40057651037,390.40424544899,388.53187079844,0
0.00028675,124237576.89387,8.4528466424592e-05,1.0326040180997,8.0745423225287e-08,-4.7478936890601e-08,4.6526730578753e-08,9.9891308933046e-08,1.3803140775228e-26,-9.8469249862369e-26,-7.5273729980797e-27,5.4610601849689e-28,-42.138263066837,60.539338417527,-51.999781269338,44.012141429532,-1.5776839052516e-07,4.3749837526395e-27,4.3650706689021e-26,-1.794892738294e-26,-7.815111676634e-28,2.1030984201e-18,-1.0181350839196e-17,-1.8306410963159e-18,2.9349286736008e-19,-0.91050448410531,1.1066356642487,-1.1483592826005e-07,-1.1837609887032,0.9784614022185,3.4757724526775e-37,-4.0636289263735e-36,-9.6983074770158e-38,2.1539639737676e-39,-1.02044242165,1.1081972331607,-0.95041160991887,1.0938979798431,5.658383995741e-69,4.2679845126478e-38,1.4049262484247e-36,-3.9662837731155e-37,-3.5307929018389e-39,1.2503637286468e-18,5.6856760787207e-18,-2.9433418249948e-18,-3.7606674464869e-19,-8.5048268469865e-70,-2.8552021530141e-67,1.8906836794937e-66,9.0410046472714e-08,-1.9258830941344e-07,226.62331942955,226.62331942955,226.43754501822,226.43754501822,259.17694709655,259.04197640543,259.09704924701,259.13804130832,200.07326471467,199.46108712082,199.6068100888,200.01142598356,226.23683661733,259.22039536853,259.001532842,259.05353986763,259.17831116852,248.96814719488,248.84831675982,248.89395952299,248.9443460676,204.96453403319,204.60624940316,226.23683661733,204.69314364038,204.91679174461,266.6006165793,266.47583240254,266.53609910428,266.55044793078,205.07510361244,204.48657601465,204.58421920122,205.03091808467,271.80435652816,266.61788284837,266.45976641341,266.51879684152,266.56644308542,249.05160851937,248.77052616256,248.81037953743,249.02177481317,271.80435652816,271.74360465078,271.74360465078,226.42341685201,226.42341685201,390.39550667255,388.50895505349,0
0.000287,124432590.05571,8.4602653494906e-05,1.0326471318294,8.2947904289338e-08,-4.8622641193386e-08,4.7641156746571e-08,1.0269786988028e-07,1.5361987917236e-26,-1.1030056031693e-25,-8.2328803397741e-27,5.9043690978477e-28,-42.096692067291,60.591430957144,-52.005575311308,43.971540434796,-1.6308915739861e-07,4.7902290607633e-27,4.8437383686264e-26,-2.0031891275037e-26,-8.4556375389313e-28,2.260863844722e-18,-1.1015941348252e-17,-1.9476605972092e-18,3.096698425281e-19,-0.91127128642732,1.1080428831684,-1.1862374945706e-07,-1.1855166810216,0.97876875130444,4.0593604229651e-37,-4.7861817976655e-36,-1.1043888420484e-37,2.4145548890277e-39,-1.0213071611062,1.1095494470661,-0.9507371065405,1.0952475641403,7.9709347780895e-69,4.8809200802729e-38,1.6322587928411e-36,-4.6494658348629e-37,-3.9618776522027e-39,1.3300556891667e-18,6.1118005220862e-18,-3.1732616702578e-18,-3.970666098438e-19,-1.1528862984457e-69,-4.0331778329057e-67,2.7542328485762e-66,9.3089815103823e-08,-1.9963684065606e-07,226.64738707472,226.64738707472,226.46066161356,226.46066161356,259.20929306397,259.0736079934,259.12903201137,259.17027837717,200.07912404951,199.46304836599,199.60989714145,200.01699969439,226.25876566835,259.25299800579,259.03296363435,259.08526682807,259.21074844302,248.99819288274,248.87771994021,248.9237028258,248.97438878325,204.97545733517,204.61499749608,226.25876566835,204.70251923772,204.92756792432,266.63439003239,266.50895514643,266.56956461405,266.58402634923,205.08663208291,204.49467937899,204.59304512064,205.0422518346,271.83892333948,266.65175830469,266.4928097168,266.55216073518,266.60010088118,249.08214760927,248.79954078879,248.83963091952,249.05220434089,271.83892333948,271.77787655517,271.77787655517,226.44629974649,226.44629974649,390.3869661112,388.4861923938,0
0.00028725,124627710.33148,8.4676840067748e-05,1.032690236699,8.5203875984737e-08,-4.9790794418265e-08,4.8778739790241e-08,1.0557627560556e-07,1.7089537418864e-26,-1.2349747790127e-25,-9.0023867413736e-27,6.3824265378718e-28,-42.055137410463,60.64351741766,-52.011347041108,43.930924099842,-1.6856886912156e-07,5.2436014577013e-27,5.3722291048736e-26,-2.2348019970043e-26,-9.1469882783237e-28,2.4298954036891e-18,-1.1915401201787e-17,-2.0718315919799e-18,3.266950450461e-19,-0.91204512398979,1.1094583004903,-1.2252868821158e-07,-1.187275292163,0.97908101776235,4.7374736064889e-37,-5.633237598233e-36,-1.2571595549185e-37,2.7058487968715e-39,-1.0221777772085,1.110905803983,-0.95106726375214,1.0966011688164,1.1194729500219e-68,5.5798058736137e-38,1.8948355331435e-36,-5.4466543583291e-37,-4.4443277050085e-39,1.4145856366126e-18,6.5678594299346e-18,-3.4204338990703e-18,-4.1918678948053e-19,-1.5606237122659e-69,-5.6831821048307e-67,4.0032971085426e-66,9.5840778728274e-08,-2.0691706279394e-07,226.67150133416,226.67150133416,226.48382425268,226.48382425268,259.24165489103,259.10525412384,259.16103121913,259.20253264471,200.08505420866,199.46506820736,199.61304940683,200.02264617947,226.28073662466,259.28561739915,259.06440889307,259.11700935532,259.24320300271,249.02826149787,248.90714481567,248.95347036408,249.00445654094,204.9864497698,204.62380895861,226.28073662466,204.71196270804,204.93841667615,266.6681746883,266.54208795649,266.6030414821,266.6176166127,205.09823165276,204.50284550101,204.60193791031,205.0536578181,271.87349822456,266.68564532007,266.52586305879,266.58553564075,266.63377055652,249.11271135633,248.82857694914,248.86890484318,249.0826590855,271.87349822456,271.81215617944,271.81215617944,226.4692250629,226.4692250629,390.37862329644,388.46358256665,0
0.0002875,124822937.69273,8.4751026145255e-05,1.0327333327266,8.7514455799523e-08,-5.0983875298597e-08,4.9939900272961e-08,1.0852817718211e-07,1.9003181599615e-26,-1.3821098455079e-25,-9.8415067615527e-27,6.8978731166296e-28,-42.013599610322,60.695595057208,-52.017096064275,43.890296179088,-1.7421134070713e-07,5.7384695768773e-27,5.9554273058496e-26,-2.4922354368685e-26,-9.8930846773231e-28,2.6109490193366e-18,-1.2884474930395e-17,-2.2035714860728e-18,3.4461115369058e-19,-0.91282577855279,1.1108817860532,-1.2655397215345e-07,-1.1890366417334,0.97939816710019,5.5248418557615e-37,-6.6255608521011e-36,-1.4305465384011e-37,3.0313750415011e-39,-1.0230541453237,1.1122660632583,-0.95140194949729,1.097958628769,1.5674676072625e-68,6.3763612892953e-38,2.197870554765e-36,-6.3762364108516e-37,-4.9841274415936e-39,1.5042313005235e-18,7.0557937536471e-18,-3.6860879909365e-18,-4.4248489322908e-19,-2.1096409862123e-69,-7.9887400319003e-67,5.8060434872925e-66,9.8664522816455e-08,-2.1443537241655e-07,226.69566204487,226.69566204487,226.50703280856,226.50703280856,259.27403250874,259.13691474703,259.19304681637,259.2348040446,200.09105500454,199.4671465446,199.61626678404,200.02836526961,226.30274939244,259.31825347199,259.09586857593,259.1487674032,259.27567477389,249.0583529507,248.9365913145,248.98326206303,249.03454925313,204.99751116559,204.63268367572,226.30274939244,204.72147394071,204.94933785251,266.70197049395,266.57523079616,266.63652966726,266.65121867148,205.10990213566,204.51107429123,204.61089748075,205.06513585742,271.90808114598,266.71954383837,266.55892640579,266.61892152017,266.66745205883,249.14329965644,248.85763458646,248.89820124827,249.11313894513,271.90808114598,271.84644349054,271.84644349054,226.49219267096,226.49219267096,390.37047776109,388.44112532062,0
0.00028775,125018272.11859,8.4825211729688e-05,1.0327764199323,8.9880780389328e-08,-5.2202372259365e-08,5.1125066581184e-08,1.1155525883881e-07,2.1122010295278e-26,-1.546080134103e-25,-1.0756330831868e-26,7.4535450956279e-28,-41.972079168684,60.74766113709,-52.022821996439,43.849660424081,-1.8002044456599e-07,6.2784864322029e-27,6.5986645042789e-26,-2.7782502094877e-26,-1.0698143149768e-27,2.8048275827594e-18,-1.3928231398422e-17,-2.3433209252136e-18,3.6346293726732e-19,-0.9136130327684,1.1123132098659,-1.3070290123026e-07,-1.1908005503976,0.97972016519971,6.4383969216504e-37,-7.7872645866905e-36,-1.6272625366954e-37,3.3950597286005e-39,-1.0239361408451,1.1136299841453,-0.95174103200642,1.0993197789712,2.1880431961293e-68,7.2838518592983e-38,2.5473107576454e-36,-7.4594582850158e-37,-5.5879445242448e-39,1.5992853264415e-18,7.5776584402105e-18,-3.9715356550497e-18,-4.670214218725e-19,-2.8479044693024e-69,-1.1202534703642e-66,8.4022943085676e-66,1.0156265893824e-07,-2.2219829911056e-07,226.71986904371,226.71986904371,226.53028715375,226.53028715375,259.30642584846,259.16858981365,259.22507874907,259.26709251027,200.09712624971,199.46928327834,199.61954917206,200.03415679455,226.32480387822,259.35090614782,259.12734264102,259.18054092562,259.30816368273,249.08846715207,248.9660593655,249.01307784767,249.06466683197,205.0086413515,204.64162153321,226.32480387822,204.73105282482,204.96033130488,266.73577739649,266.60838362911,266.67002912836,266.68483247575,205.12164334527,204.51936566092,204.61992374257,205.0766857741,271.94267206642,266.7534538036,266.59199972441,266.65231833546,266.70114533542,249.17391240557,248.88671364397,248.92752007479,249.14364381778,271.94267206642,271.88073845544,271.88073845544,226.51520244106,226.51520244106,390.36252903925,388.41882040554,0
0.000288,125213713.59586,8.4899396823423e-05,1.0328194983374,9.2304005844171e-08,-5.3446783634588e-08,5.2334675112001e-08,1.1465923851291e-07,2.3466966672958e-26,-1.7287305652607e-25,-1.1753464192552e-26,8.0524886261714e-28,-41.930576575559,60.799712922755,-52.028524462675,43.809020582205,-1.8600011042487e-07,6.8676121635674e-27,7.3077571726695e-26,-3.0958887313482e-26,-1.1566697664981e-27,3.012383613498e-18,-1.5052084423617e-17,-2.4915450298918e-18,3.8329735618212e-19,-0.91440667027015,1.1137524421277,-1.3497884876734e-07,-1.1925668398641,0.98004697833101,7.4975872103546e-37,-9.146332027106e-36,-1.8503680788676e-37,3.8012694752398e-39,-1.0248236392237,1.1149973259104,-0.95208437987032,1.100684454503,3.0449189865077e-68,8.317285535947e-38,2.9499332102328e-36,-8.7208531574523e-37,-6.2632065515533e-39,1.7000560157606e-18,8.1356283531965e-18,-4.2781759284288e-18,-4.9285991093535e-19,-3.8393405974877e-69,-1.567163571644e-66,1.2133341954795e-65,1.0453682500747e-07,-2.3021250713304e-07,226.74412216743,226.74412216743,226.55358716035,226.55358716035,259.33883484183,259.20027927472,259.25712696317,259.29939797496,200.10326775685,199.47147831021,199.62289646982,200.04002058298,226.34689998887,259.38357535029,259.15883104673,259.21232987657,259.34066965527,249.11860401326,248.99554889798,249.04291764288,249.09480918932,205.01984015689,204.65062241772,226.34689998887,204.74069924909,204.97139688385,266.76959534325,266.64154641925,266.70353982422,266.71845797553,205.13345509528,204.52771952207,204.6290166064,205.08830738901,271.97727094861,266.78737515991,266.62508298149,266.68572604869,266.7348503335,249.20454949981,248.91581406525,248.95686126294,249.17417360128,271.97727094861,271.91504104115,271.91504104115,226.53825424424,226.53825424424,390.35477666636,388.39666757252,0
0.00028825,125409262.1191,8.4973581428959e-05,1.0328625679652,9.4785307956384e-08,-5.4717617891941e-08,5.356917046973e-08,1.1784186840914e-07,2.606101640382e-26,-1.932099269716e-25,-1.2840068905286e-26,8.6979750178014e-28,-41.889092310025,60.851747685008,-52.034203099874,43.768380395135,-1.921543252202e-07,7.510138489928e-27,8.0890474842647e-26,-3.4485023521967e-26,-1.250362328392e-27,3.2345220544947e-18,-1.6261814612131e-17,-2.64873469277e-18,4.041636690675e-19,-0.91520647575953,1.1151993532725,-1.3938526253086e-07,-1.1943353328989,0.98037857315601,8.7247354192856e-37,-1.0735216772584e-35,-2.1033148829712e-37,4.25485990937e-39,-1.0257165160029,1.1163678479312,-0.9524318621142,1.102052490574,4.2242207422973e-68,9.4936328156857e-38,3.413454658809e-36,-1.0188730126576e-36,-7.0181861897376e-39,1.8068680989748e-18,8.7320044568161e-18,-4.6075005636012e-18,-5.2006708152925e-19,-5.1690418413911e-69,-2.1871625205622e-66,1.7483874161995e-65,1.075886855352e-07,-2.384847970859e-07,226.76842125266,226.76842125266,226.57693270001,226.57693270001,259.37125942082,259.23198308166,259.2891914045,259.33172037171,200.10947933874,199.4737315428,199.62630857612,200.04595646254,226.36903763162,259.41626100322,259.19033375173,259.24413421015,259.37319261743,249.14876344598,249.02505984174,249.07278137336,249.12497623679,205.03110741157,204.65968621671,226.36903763162,204.75041310196,204.98253443907,266.80342428178,266.67471913076,266.73706171366,266.75209512076,205.14533719938,204.53613578737,204.63817598295,205.10000052231,272.01187775541,266.82130785161,266.65817614405,266.71914462198,266.76856700019,249.2352108354,248.94493579424,248.98622475303,249.20472819335,272.01187775541,271.94935121473,271.94935121473,226.56134795217,226.56134795217,390.34722017927,388.374666574,0
0.0002885,125604917.69063,8.5047765548908e-05,1.0329056288401,9.7325882481343e-08,-5.6015393858925e-08,5.4829005657665e-08,1.2110493557368e-07,2.8929331253422e-26,-2.1584368962523e-25,-1.4023909174744e-26,9.3935171071042e-28,-41.84762684198,60.903762698232,-52.039857546,43.727743595458,-1.9848713297923e-07,8.2107149892589e-27,8.9494472039434e-26,-3.8397811298419e-26,-1.3514161418774e-27,3.4722032079688e-18,-1.7563592479986e-17,-2.8154079417399e-18,4.2611354460063e-19,-0.91601223515463,1.1166538139318,-1.4392566580608e-07,-1.1961058533189,0.9807149167136,1.0145444597885e-36,-1.2591532857957e-35,-2.3899945282878e-37,4.7612294274971e-39,-1.0266146468972,1.117741309756,-0.95278334825871,1.1034237224859,5.8419125329336e-68,1.0832073453939e-37,3.9466546088631e-36,-1.1895733060334e-36,-7.8620957006715e-39,1.9200635437121e-18,9.3692202733417e-18,-4.9610997203822e-18,-5.4871299860255e-19,-6.9501379545833e-69,-3.0452650764721e-66,2.5140810771912e-65,1.1071993187138e-07,-2.4702210762526e-07,226.79276613594,226.79276613594,226.60032364396,226.60032364396,259.40369951768,259.26370118622,259.32127201884,259.36405963334,200.11576080832,199.47604287965,199.62978538967,200.0519642598,226.39121671399,259.44896303055,259.22185071498,259.27595388054,259.40573249499,249.17894536237,249.05459212708,249.10266896364,249.15516788567,205.04244294577,204.66881281843,226.39121671399,204.76019427149,204.99374381929,266.83726415982,266.70790172801,266.77059475548,266.78574386124,205.15728947126,204.54461437023,204.64740178292,205.11176499348,272.04649244973,266.85525182313,266.69127917935,266.75257401751,266.80229528255,249.26589630866,248.97407877526,249.01561048554,249.23530749157,272.04649244973,271.98366894329,271.98366894329,226.58448343718,226.58448343718,390.33985911603,388.35281716344,0
0.00028875,125800680.32056,8.5121949186002e-05,1.0329486809887,9.9926945440028e-08,-5.7340640959031e-08,5.6114642294127e-08,1.2445026245944e-07,3.2099488221569e-26,-2.4102277590199e-25,-1.5313400240249e-26,1.0142886810208e-27,-41.806180630915,60.955755246054,-52.045487457939,43.687113908335,-2.0500263469194e-07,8.9743773331344e-27,9.8964849246584e-26,-4.273786314813e-26,-1.4603946955852e-27,3.726445818619e-18,-1.8964002924995e-17,-2.9921113727885e-18,4.4920117898656e-19,-0.91682373557337,1.1181156950795,-1.4860365844184e-07,-1.1978782259826,0.981055976472,1.1789058851945e-36,-1.475884769164e-35,-2.7147930198788e-37,5.326378775662e-39,-1.0275179077322,1.119117471278,-0.95313870842731,1.1047979857573,8.0535157573512e-68,1.2354272821899e-37,4.5595135479492e-36,-1.3879478790035e-36,-8.8051919040356e-39,2.0400023995262e-18,1.0049848622871e-17,-5.3406679768533e-18,-5.788712373339e-19,-9.3328552036777e-69,-4.2301428655911e-66,3.607570980918e-65,1.139322824828e-07,-2.5583151713809e-07,226.81715665369,226.81715665369,226.62375986298,226.62375986298,259.43615506498,259.29543354052,259.35336875186,259.39641569249,200.12211197861,199.47841222522,199.63332680901,200.05804380031,226.41343714386,259.48168135638,259.25338189573,259.30778884198,259.43828921363,249.20914967497,249.08414568478,249.13258033809,249.18538404698,205.05384659014,204.67800211193,226.41343714386,204.77004264542,205.00502487233,266.87111492531,266.74109417563,266.80413890849,266.81940414666,205.16931172463,204.55315518472,204.65669391705,205.12360062132,272.08111499457,266.88920701903,266.72439205482,266.78601419753,266.83603512751,249.29660581606,249.00324295293,249.04501840109,249.26591139338,272.08111499457,272.01799419397,272.01799419397,226.60766057222,226.60766057222,390.33269301632,388.33111909583,0
0.000289,125996550.02685,8.5196132343089e-05,1.0329917244386,1.0258973338185e-07,-5.8693899451007e-08,5.7426550813775e-08,1.2787970752853e-07,3.5601685467397e-26,-2.6902129922783e-25,-1.6717661097651e-26,1.0950133940439e-27,-41.764754128454,61.007722617512,-52.05109249721,43.646495046857,-2.1170498815246e-07,9.8065776101161e-27,1.0938356880755e-25,-4.7549857775235e-26,-1.5779037360446e-27,3.9983303109963e-18,-2.0470071128811e-17,-3.1794216549798e-18,4.7348341914104e-19,-0.91764076551815,1.1195848679481,-1.5342291794569e-07,-1.1996522768173,0.98140172029022,1.3689185680337e-36,-1.7287592683138e-35,-3.0826519354741e-37,5.9569770766878e-39,-1.0284261745664,1.1204960927559,-0.95349781338331,1.1061751160512,1.1066748076874e-67,1.4084691294486e-37,5.2633680489539e-36,-1.6183285435158e-36,-9.8588926969525e-39,2.1670636800157e-18,1.0776608656345e-17,-5.7480106768233e-18,-6.106190576145e-19,-1.2516447248382e-68,-5.8624528624322e-66,5.1659958330315e-65,1.1722748319972e-07,-2.6492024547805e-07,226.84159264222,226.84159264222,226.64724122741,226.64724122741,259.46862599557,259.32718009704,259.38548154919,259.42878848159,200.12853266277,199.48083948491,199.63693273259,200.06419490855,226.43569882939,259.51441590495,259.28492725352,259.33963904882,259.47086269889,249.23937629677,249.11372044608,249.16251542091,249.21562463148,205.06531817573,204.68725398705,226.43569882939,204.77995811113,205.01637744513,266.90497652641,266.77429643848,266.83769413148,266.8530759266,205.18140377322,204.56175814557,204.66605229606,205.13550722398,272.11574535304,266.92317338403,266.75751473812,266.81946512432,266.86978648196,249.32733925416,249.03242827224,249.07444844042,249.2965397961,272.11574535304,272.05232693396,272.05232693396,226.63087923086,226.63087923086,390.32572142116,388.30957212724,0
0.00028925,126192526.8353,8.5270315023132e-05,1.0330347592195,1.0531550368072e-07,-6.0075720672813e-08,5.8765210687292e-08,1.3139516583832e-07,3.946897631264e-26,-3.0014158947361e-25,-1.8246571351736e-26,1.1819606386416e-27,-41.723347778451,61.059662109818,-52.056672333966,43.605890711612,-2.1859840779495e-07,1.0713216882433e-26,1.2083981579426e-25,-5.2882926273397e-26,-1.704594392256e-27,4.2890021871992e-18,-2.2089289965866e-17,-3.3779471117724e-18,4.990198920845e-19,-0.91846311492045,1.1210612041029,-1.5838720054617e-07,-1.2014278327935,0.98175211643674,1.5884287756831e-36,-2.0236108436378e-35,-3.4991369299875e-37,6.660434995246e-39,-1.0293393236849,1.1218769349465,-0.95386053461884,1.1075549492281,1.5157860339436e-67,1.6050930413291e-37,6.0710846741552e-36,-1.8857003037397e-36,-1.1035906402803e-38,2.301646284638e-18,1.1552373191242e-17,-6.1850506293022e-18,-6.4403758737832e-19,-1.6764891160496e-68,-8.1059988363984e-66,7.3825479571553e-65,1.2060730748709e-07,-2.7429565569242e-07,226.86607393778,226.86607393778,226.67076760718,226.67076760718,259.50111224262,259.35894080859,259.41761035635,259.46117793289,200.13502267408,199.48332456501,199.64060305866,200.07041740795,226.45800167907,259.54716660065,259.31648674815,259.37150445545,259.50345287623,249.26962514115,249.14331634271,249.19247413615,249.24588954965,205.07685753404,204.69656833438,226.45800167907,204.78994055563,205.02780138368,266.93884891145,266.80750848162,266.87126038321,266.88675915054,205.19356543076,204.5704231682,204.67547683068,205.14748461893,272.1503834883,266.95715086299,266.79064719708,266.85292676022,266.9035492927,249.35809651969,249.06163467848,249.10390054443,249.32719259693,272.1503834883,272.0866671305,272.0866671305,226.65413928729,226.65413928729,390.318943873,388.28817601501,0
0.0002895,126388610.77954,8.5344497229208e-05,1.0330777853623,1.0810553483034e-07,-6.1486667291952e-08,6.0131110644711e-08,1.3499856964948e-07,4.3737522734565e-26,-3.3471696598889e-25,-1.9910832509667e-26,1.2755971747912e-27,-41.681962017469,61.111571028873,-52.062226646731,43.565304589207,-2.2568716451774e-07,1.1700680129328e-26,1.3343058511985e-25,-5.8791072946333e-26,-1.8411665294654e-27,4.5996755924368e-18,-2.3829648996615e-17,-3.5883293823764e-18,5.2587314077288e-19,-0.91929057522049,1.1225445754597,-1.6350034227176e-07,-1.2032047219166,0.98210713359913,1.8418352921097e-36,-2.3671843703071e-35,-3.970514457583e-37,7.4449858047432e-39,-1.0302572316268,1.1232597591987,-0.95422674442524,1.1089373213754,2.0692615342098e-67,1.8284119979572e-37,6.9972548078001e-36,-2.1957960257269e-36,-1.2350375341497e-38,2.4441699615313e-18,1.2380176362078e-17,-6.6538351789202e-18,-6.7921201509392e-19,-2.2427515043542e-68,-1.1182655422897e-65,1.0528851256899e-64,1.2407355671686e-07,-2.8396525576398e-07,226.8906003765,226.8906003765,226.69433887178,226.69433887178,259.53361373958,259.39071562834,259.44975511879,259.49358397846,200.14158182593,199.48586737272,199.64433768534,200.07671112093,226.48034560165,259.57993336803,259.34806033968,259.40338501635,259.53605967099,249.2998961219,249.17293330687,249.22245640767,249.27617871171,205.08846449695,204.70594504528,226.48034560165,204.79998986556,205.03929653309,266.97273202898,266.84073027036,266.90483762246,266.92045376783,205.20579651103,204.5791501686,204.68496743158,205.15953262299,272.18502936359,266.99113940089,266.82378939974,266.88639906761,266.93732350646,249.38887750945,249.09086211731,249.13337465411,249.35786969298,272.18502936359,272.12101475085,272.12101475085,226.67744061633,226.67744061633,390.31235991577,388.26693051768,0
0.00028975,126584801.90105,8.5418678964505e-05,1.0331208028997,1.1096112674368e-07,-6.2927313562883e-08,6.1524748903858e-08,1.3869188904143e-07,4.8446869854839e-26,-3.7311477083207e-25,-2.1722034052734e-26,1.3764240535239e-27,-41.640597275761,61.163446689775,-52.067755122872,43.524740350334,-2.3297558548837e-07,1.2775873738517e-26,1.472613121606e-25,-6.533363367228e-26,-1.9883723491636e-27,4.9316370558782e-18,-2.56996651367e-17,-3.8112451670315e-18,5.5410876669973e-19,-0.92012293945325,1.1240348543106,-1.6876626003048e-07,-1.2049827732552,0.98246674088309,2.1341652185927e-36,-2.7672729963902e-35,-4.5038376705351e-37,8.3197752015895e-39,-1.0311797752214,1.1246443275417,-0.95459631596096,1.1103220688166,2.8153034046873e-67,2.0819350666701e-37,8.0584127620449e-36,-2.5552042651281e-36,-1.3818035172082e-38,2.595076312929e-18,1.3263221595137e-17,-7.1565436651395e-18,-7.1623179192776e-19,-2.9966078689273e-68,-1.5392278268704e-65,1.4986062920874e-64,1.2762806044652e-07,-2.9393670037108e-07,226.91517179445,226.91517179445,226.71795489025,226.71795489025,259.56613042019,259.42250450979,259.48191578189,259.52600655017,200.14820993182,199.48846781608,199.64813651055,200.08307586884,226.50273050616,259.61271613179,259.37964798845,259.43528068606,259.56868300838,249.33018915324,249.2025712712,249.2524621592,249.30649202762,205.10013889675,204.71538401184,226.50273050616,204.8101059272,205.05086273756,267.00662582773,266.87396177022,266.93842580796,266.95415972774,205.21809682779,204.58793906343,204.6945240094,205.17165105232,272.21968294225,267.02513894288,266.85694131434,266.91988200893,266.97110906988,249.41968212043,249.12011053466,249.1628707106,249.38857098121,272.21968294225,272.15536976234,272.15536976234,226.70078309336,226.70078309336,390.30596909487,388.24583539501,0
0.00029,126781100.24912,8.5492860232326e-05,1.0331638118658,1.1388360106047e-07,-6.4398245589234e-08,6.2946633407256e-08,1.4247713253708e-07,5.3640243022648e-26,-4.1573968542887e-25,-2.3692724648921e-26,1.4849791046493e-27,-41.59925397773,61.215286417896,-52.07325745756,43.484201648791,-2.4046805393795e-07,1.3946265720468e-26,1.6244654980449e-25,-7.2575774947637e-26,-2.1470202531647e-27,5.286249413742e-18,-2.770841508878e-17,-4.0474080604141e-18,5.8379557965972e-19,-0.92096000231402,1.1255319133501,-1.7418895268611e-07,-1.2067618168929,0.98283090782134,2.4711596718001e-36,-3.2328756486983e-35,-5.107042563369e-37,9.2949608027695e-39,-1.032106831608,1.1260304027948,-0.95496912332145,1.1117090281474,3.8171223279917e-67,2.36961572354e-37,9.2732797480521e-36,-2.9714920018634e-36,-1.5456391720495e-38,2.7548298451568e-18,1.4204889919565e-17,-7.6954952890033e-18,-7.5519084403717e-19,-3.9990289862402e-68,-2.1139206759045e-65,2.1288018946801e-64,1.3127267670142e-07,-3.0421779266403e-07,226.93978802762,226.93978802762,226.74161553125,226.74161553125,259.5986622185,259.45430740677,259.51409229093,259.55844557972,200.15490680536,199.49112580402,199.65199943203,200.08951147202,226.52515630192,259.64551481675,259.41124965506,259.46719141921,259.60132281357,249.36050414976,249.2322301688,249.28249131426,249.33682940708,205.11188056613,204.72488512686,226.52515630192,204.82028862644,205.06249984041,267.04053025664,266.90720294693,266.97202489847,266.98787697942,205.23046619486,204.59678976993,204.70414647472,205.18383972247,272.25434418769,267.05914943421,266.89010290927,266.95337554665,267.00490592956,249.45051024971,249.14937987679,249.19238865514,249.41929635852,272.25434418769,272.18973213233,272.18973213233,226.72416659439,226.72416659439,390.29977095723,388.22489040794,0
0.00029025,126977505.88084,8.5567041036081e-05,1.0332068122965,1.1687430147003e-07,-6.5900061586901e-08,6.4397282065621e-08,1.4635634773549e-07,5.9364869233763e-26,-4.6303735600256e-25,-2.5836488892379e-26,1.6018396044008e-27,-41.557932542861,61.267087549418,-52.078733355146,43.443692118496,-2.4816900895605e-07,1.5219928829581e-26,1.7911069500169e-25,-8.058903702215e-26,-2.3179789911924e-27,5.6649559237349e-18,-2.9865569633501e-17,-4.2975704772309e-18,6.1500575500601e-19,-0.92180156023301,1.127035625715,-1.7977250213524e-07,-1.2085416839966,0.98319960436031,2.8593706059088e-36,-3.7743774123352e-35,-5.789055550868e-37,1.038182236189e-38,-1.033038278244,1.1274177486157,-0.95534504162916,1.1130980362434,5.1571776487866e-67,2.695905796724e-37,1.0663036569143e-35,-3.4533442547391e-36,-1.7284917196088e-38,2.923919065079e-18,1.5208748626724e-17,-8.2731574087515e-18,-7.961877954727e-19,-5.3304337333117e-68,-2.8967464123676e-65,3.0180976849274e-64,1.3500929226926e-07,-3.1481648606043e-07,226.96444891191,226.96444891191,226.765320663,226.765320663,259.63120906882,259.48612427344,259.54628459113,259.59090099865,200.16167226028,199.49384124627,199.65592634731,200.09601774978,226.54762289849,259.67832934792,259.44286530034,259.49911717044,259.63397901159,249.39084102648,249.26190993321,249.31254379627,249.36719075957,205.12368933817,204.73444828388,226.54762289849,204.83053784877,205.07420768404,267.07444526482,266.94045376644,267.00563485269,267.02160547195,205.24290442606,204.60570220591,204.71383473805,205.19609844834,272.28901306338,267.09317082031,266.92327415314,266.98687964327,267.03871403201,249.48136179451,249.17867009027,249.2219284291,249.45004572169,272.28901306338,272.22410182822,272.22410182822,226.747590996,226.747590996,390.29376505126,388.20409531863,0
0.0002905,127174018.86104,8.5641221379289e-05,1.033249804229,1.1993459399018e-07,-6.7433372181147e-08,6.587722300097e-08,1.5033162197039e-07,6.5672324701421e-26,-5.1549835513733e-25,-2.816802999133e-26,1.7276251362324e-27,-41.516633385876,61.318847430838,-52.084182522537,43.403215375739,-2.5608294521308e-07,1.6605586782852e-26,1.9738876803147e-25,-8.9451924794417e-26,-2.5021821134618e-27,6.0692845767775e-18,-3.2181429874145e-17,-4.5625256752674e-18,6.4781499879584e-19,-0.92264741147538,1.1285458649406,-1.8552107443988e-07,-1.2103222066456,0.98357280090796,3.3062701261219e-36,-4.403755993355e-35,-6.5599138043468e-37,1.1592883851537e-38,-1.0339739930227,1.1288061297254,-0.95572394699906,1.1144889302875,6.9424375511072e-67,3.0658156511723e-37,1.22516281825e-35,-4.0107227969162e-36,-1.9325267904427e-38,3.1028576237574e-18,1.627856028594e-17,-8.8921542870369e-18,-8.3932620258059e-19,-7.0967797936954e-68,-3.9607406493493e-65,4.2706189225392e-64,1.3883982297703e-07,-3.257408860379e-07,226.98915428319,226.98915428319,226.7890701533,226.7890701533,259.66377090576,259.51795506428,259.57849262763,259.62337273833,200.16850611041,199.49661405342,199.6599171537,200.10259452041,226.57013020569,259.71115965044,259.4744948854,259.5310578945,259.6666515274,249.42119969878,249.29161049843,249.34261952843,249.39757599428,205.13556504636,204.74407337712,226.57013020569,204.84085347931,205.08598610998,267.10837080157,266.97371419491,267.03925562934,267.0553451543,205.25541133525,204.61467628976,204.72358870982,205.20842704423,272.32368953288,267.12720304671,266.95645501473,267.02039426137,267.0725333237,249.5122366522,249.20798112194,249.25148997393,249.48081896741,272.32368953288,272.25847881747,272.25847881747,226.77105617535,226.77105617535,390.28795092685,388.18344989029,0
0.00029075,127370639.26222,8.5715401265578e-05,1.033292787702,1.2306586736725e-07,-6.8998800658679e-08,6.7386994820585e-08,1.5440508295018e-07,7.2618910598847e-26,-5.7366250952589e-25,-3.0703258853853e-26,1.8630006589943e-27,-41.475356916781,61.37056342351,-52.089604687068,43.362775013577,-2.6421441280057e-07,1.8112663795845e-26,2.1742724804171e-25,-9.9250550313993e-26,-2.7006327495096e-27,6.5008526188845e-18,-3.4666965550938e-17,-4.8431098801425e-18,6.8230272140788e-19,-0.92349735610828,1.1300625051254,-1.9143892082536e-07,-1.2121032180886,0.98395046829415,3.8203738236697e-36,-5.1348179134145e-35,-7.4308998217746e-37,1.2942048678163e-38,-1.0349138541079,1.1301953118317,-0.95610571677084,1.1158815478344,9.3108268424378e-67,3.4849813006596e-37,1.4066103603829e-35,-4.6550464674763e-36,-2.1601525792563e-38,3.2921855124033e-18,1.7418292138786e-17,-9.5552763027677e-18,-8.8471479978886e-19,-9.4375280910994e-68,-5.4037410190057e-65,6.0313827395928e-64,1.4276621403441e-07,-3.3699925197307e-07,227.01390397724,227.01390397724,226.81286386956,226.81286386956,259.69634766421,259.54979973409,259.61071634547,259.65586072995,200.17540816969,199.49944413684,199.66397174832,200.10924160118,226.59267813357,259.74400564961,259.50613837157,259.56301354616,259.69934028587,249.45158008247,249.32133179885,249.37271843383,249.4279850202,205.14750752455,204.75376030145,226.59267813357,204.85123540278,205.09783495889,267.14230681641,267.0069841987,267.07288718711,267.08909597535,205.26798673632,204.62371194043,204.73340830037,205.22082532379,272.35837355983,267.16124605909,266.98964546298,267.05391936353,267.10636375104,249.54313472027,249.23731291896,249.28107323121,249.5116159923,272.35837355983,272.29286306756,272.29286306756,226.79456201016,226.79456201016,390.28232813568,388.16295388759,0
0.000291,127567367.16456,8.5789580698677e-05,1.0333357627558,1.262695333436e-07,-7.0596983273486e-08,6.8927146863933e-08,1.5857889943967e-07,8.0266059025503e-26,-6.381236260088e-25,-3.345939003673e-26,2.0086797971478e-27,-41.434103543368,61.422232899013,-52.094999572021,43.322374601596,-2.7256801692832e-07,1.9751337641042e-26,2.3938496835365e-25,-1.1007933130159e-25,-2.9144087374447e-27,6.9613712861254e-18,-3.7333855524359e-17,-5.1402045159349e-18,7.1855221969438e-19,-0.92435119619287,1.1315854207989,-1.9753037885491e-07,-1.2138845525256,0.98433257776796,4.4113798343092e-36,-5.9834685730233e-35,-8.4146918632232e-37,1.4444749434569e-38,-1.035857740148,1.1315850618021,-0.95649022943899,1.1172757267516,1.2439017839389e-66,3.959739202415e-37,1.6136994961946e-35,-5.3993958986805e-36,-2.4140466397527e-38,3.4924703080813e-18,1.8632125871e-17,-1.0265489665537e-17,-9.3246775798118e-19,-1.253604742434e-67,-7.3565269046348e-65,8.5019877558596e-64,1.467904403014e-07,-3.4859999899868e-07,227.0386978298,227.0386978298,226.83670167879,226.83670167879,259.72893927933,259.58165823798,259.64295568964,259.68836490455,200.18237825213,199.50233140869,199.66809002802,200.11595880837,226.61526659243,259.77686727087,259.53779572041,259.59498408026,259.73204521181,249.4819820937,249.35107376932,249.40284043538,249.45841774607,205.15951660696,204.76350895246,226.61526659243,204.86168350349,205.10975407053,267.17625325901,267.04026374436,267.10652948467,267.12285788389,205.28063044318,204.63280907738,204.7432934199,205.23329310013,272.39306510794,267.19529980328,267.02284546703,267.08745491237,267.14020526037,249.57405589635,249.26666542875,249.31067814259,249.54243669288,272.39306510794,272.32725454604,272.32725454604,226.81810837872,226.81810837872,390.27689623069,388.14260707604,0
0.00029125,127764202.65578,8.5863759682422e-05,1.0333787294322,1.2954702703558e-07,-7.2228569541848e-08,7.0498239438289e-08,1.6285528193764e-07,8.8680771498946e-26,-7.095346510695e-25,-3.6455045104298e-26,2.1654283675258e-27,-41.392873671413,61.473853243186,-52.100366913048,43.282017686866,-2.811484176954e-07,2.1532596476704e-26,2.6343407550048e-25,-1.2204175009959e-25,-3.1446681308617e-27,7.4526507677353e-18,-4.0194530546425e-17,-5.4547385494591e-18,7.5665086777757e-19,-0.92520873575352,1.1331144870391,-2.0379987348447e-07,-1.2156660451414,0.98471910103658,5.0903255217381e-36,-6.968020880673e-35,-9.5255320871212e-37,1.6118113724656e-38,-1.0368055302049,1.1329751477608,-0.95687736476361,1.1186713053273,1.6551679784265e-66,4.4972095675743e-37,1.8498739906428e-35,-6.2587458122237e-36,-2.6971856091288e-38,3.7043084756384e-18,1.9924467785474e-17,-1.1025946642577e-17,-9.8270495602616e-19,-1.6633194294781e-67,-9.9935369616254e-65,1.1962183857195e-63,1.509145066646e-07,-3.6055169986049e-07,227.06353567659,227.06353567659,226.86058344758,226.86058344758,259.76154568657,259.61353053136,259.67521060504,259.72088519303,200.18941617188,199.50527578192,199.67227188943,200.12274595725,226.63789549276,259.80974443983,259.56946689374,259.62696945169,259.76476622994,249.51240564902,249.38083634509,249.43298545585,249.48887408043,205.17159212821,204.77331922635,226.63789549276,204.87219766535,205.12174328381,267.21021007923,267.07355279868,267.14018248069,267.15663082865,205.29334226977,204.6419676206,204.75324397853,205.24583018571,272.42776414098,267.22936422524,267.05605499616,267.12100087057,267.174057798,249.60500007823,249.29603859901,249.34030464983,249.57328096563,272.42776414098,272.36165322049,272.36165322049,226.84169515987,226.84169515987,390.27165476654,388.12240922245,0
0.0002915,127961145.83109,8.5937938220748e-05,1.0334216877744,1.3289980725849e-07,-7.3894222536066e-08,7.2100844340502e-08,1.6723648336591e-07,9.793609234889e-26,-7.8861330172616e-25,-3.9710363927499e-26,2.3340681766653e-27,-41.351667699026,61.525421856355,-52.105706453477,43.241707786303,-2.8996032979016e-07,2.3468299684237e-26,2.8976105598119e-25,-1.3525117804892e-25,-3.3926551094173e-27,7.9766053998074e-18,-4.3262218437347e-17,-5.7876909512248e-18,7.9669032223543e-19,-0.9260697808737,1.1346495794574,-2.1025191814949e-07,-1.217447532295,0.98511001021652,5.8697639026256e-36,-8.1095477730019e-35,-1.0779414406654e-36,1.7981147908306e-38,-1.03775710373,1.1343653391604,-0.95726700380498,1.1200681222006,2.1932216541605e-66,5.105389106076e-37,2.1190151975245e-35,-7.2502284398949e-36,-3.0128781777481e-38,3.9283267249263e-18,2.1299959381379e-17,-1.183999632974e-17,-1.0355522658243e-18,-2.2045020541271e-67,-1.3546950854866e-64,1.6799474325793e-63,1.5514044822063e-07,-3.7286308678229e-07,227.08841735324,227.08841735324,226.88450904215,226.88450904215,259.79416682164,259.64541656994,259.7074810365,259.75342152613,200.19652174316,199.50827717019,199.67651722892,200.12960286208,226.6605647453,259.84263708224,259.60115185358,259.65896961538,259.79750326493,249.54285066538,249.41061946181,249.46315341784,249.51935393157,205.18373392327,204.78319101996,226.6605647453,204.88277777186,205.1338024368,267.24417722714,267.10685132861,267.17384613381,267.19041475825,205.30612203007,204.65118749057,204.76325988621,205.25843639246,272.4624706228,267.26343927106,267.08927401984,267.15455720081,267.20792131017,249.63596716382,249.32543237769,249.36995269477,249.60414870693,272.4624706228,272.39605905853,272.39605905853,226.86532223298,226.86532223298,390.26660329928,388.10236009458,0
0.00029175,128158196.79309,8.6012116317691e-05,1.0334646378268,1.3632935691546e-07,-7.55946192156e-08,7.3735544684936e-08,1.7172479978334e-07,1.0811161963911e-25,-8.7614820934666e-25,-4.3247124530131e-26,2.5154810585684e-27,-41.310486029255,61.576936152854,-52.111017944642,43.201448395524,-2.9900852228539e-07,2.5571242991497e-26,3.1856783518053e-25,-1.498317706015e-25,-3.6597063242239e-27,8.5352591118687e-18,-4.6550991809603e-17,-6.1400932802933e-18,8.3876672615117e-19,-0.92693413971045,1.1361905742373,-2.1689111589986e-07,-1.2192288511333,0.98550527789062,6.7639621697414e-36,-9.4322846668066e-35,-1.2194294324438e-36,2.0054940301367e-38,-1.0387123407173,1.135755406875,-0.9576590290162,1.1214660165155,2.8934865674874e-66,5.7932542200905e-37,2.4254943995071e-35,-8.3934320573121e-36,-3.3648016564748e-38,4.1651834284337e-18,2.2763488365043e-17,-1.2711195994249e-17,-1.0911418520998e-18,-2.9185842572297e-67,-1.8325152309215e-64,2.3549671656031e-63,1.5947033083009e-07,-3.8554305341893e-07,227.11334269538,227.11334269538,226.90847832834,226.90847832834,259.82680262052,259.67731630974,259.73976692876,259.78597383445,200.20369478027,199.51133548793,199.68082594257,200.13652933618,226.68327426094,259.875545124,259.63285056217,259.6909845263,259.83025624136,249.57331706006,249.44042305556,249.49334424382,249.54985720759,205.19594182746,204.79312423073,226.68327426094,204.89342370612,205.14593136669,267.27815465296,267.14015930129,267.20752040266,267.22420962126,205.3189695381,204.66046860825,204.77334105276,205.27111153171,272.49718451734,267.29752488696,267.1225025077,267.18812386583,267.24179574311,249.66695705119,249.35484671302,249.39962221935,249.63503981312,272.49718451734,272.43047202784,272.43047202784,226.88898947797,226.88898947797,390.26174138676,388.08245946151,0
0.000292,128355355.65168,8.6086293977383e-05,1.0335075796356,1.3983718333744e-07,-7.7330450724638e-08,7.5402935619478e-08,1.7632257110243e-07,1.1929405628894e-25,-9.7300562065212e-25,-4.7088872122687e-26,2.7106132500085e-27,-41.269329060228,61.628393562892,-52.116301145582,43.161242979308,-3.0829781831665e-07,2.785522814731e-26,3.5007295279667e-25,-1.6591943879967e-25,-3.9472577082511e-27,9.1307511203766e-18,-5.0075818451077e-17,-6.5130323987189e-18,8.829809380248e-19,-0.92780162257962,1.137737348155,-2.2372216046638e-07,-1.2210098399218,0.98590487707468,7.7891249343117e-36,-1.0964088679943e-34,-1.379032325396e-36,2.2362886507374e-38,-1.0396711215954,1.137145123284,-0.95805332426911,1.1228648278403,3.7997767593789e-66,6.570875758136e-37,2.7742310060109e-35,-9.7107391043124e-36,-3.7570425308748e-38,4.4155700987393e-18,2.4320200090121e-17,-1.3643323009881e-17,-1.149612486896e-18,-3.8598268817912e-67,-2.4736886149172e-64,3.2952365850156e-63,1.6390625131763e-07,-3.9860065675633e-07,227.13831153863,227.13831153863,226.93249117158,226.93249117158,259.85945301946,259.70922970705,259.7720682265,259.81854204846,200.21093509761,199.51445065027,199.68519792623,200.14352519187,226.70602395082,259.9084684912,259.66456298199,259.72301413948,259.86302508377,249.60380475072,249.47024706277,249.52355785611,249.58038381639,205.20821567645,204.80311875674,226.70602395082,204.9041353508,205.15812990984,267.31214230709,267.17347668408,267.24120524585,267.25801536616,205.33188460791,204.66981089507,204.78348738785,205.28385541425,272.53190578858,267.33162101931,267.15574042952,267.22170082839,267.27568104298,249.69796963855,249.38428155347,249.42931316557,249.66595418049,272.53190578858,272.46489209614,272.46489209614,226.91269677527,226.91269677527,390.2570685883,388.06270709331,0
0.00029225,128552622.52393,8.6160471204052e-05,1.033550513248,1.4342481866549e-07,-7.9102422729179e-08,7.7103624477763e-08,1.8103218181606e-07,1.3157780440876e-25,-1.0801367045946e-24,-5.1261058006648e-26,2.9204800561438e-27,-41.228197189964,61.679791531941,-52.121555823228,43.121094972834,-3.1783309481814e-07,3.0335137458806e-26,3.84512819766e-25,-1.8366290328823e-25,-4.2568517884491e-27,9.7653418927006e-18,-5.3852614523519e-17,-6.9076533216488e-18,9.2943876305979e-19,-0.92867204200408,1.139289778595,-2.3074983738075e-07,-1.2227903379238,0.98630878120828,8.9636451060809e-36,-1.2736962371509e-34,-1.5590110112523e-36,2.4930938709052e-38,-1.0406333273093,1.1385342623456,-0.95844977490647,1.1242643962192,4.9656188684315e-66,7.4495465595519e-37,3.1707572198203e-35,-1.1227708912916e-35,-4.1941414355014e-38,4.6802129307841e-18,2.597550945517e-17,-1.4640387418491e-17,-1.211109880454e-18,-5.0992249802875e-67,-3.3322799969443e-64,4.6026661177898e-63,1.684503378592e-07,-4.1204511907495e-07,227.16332371854,227.16332371854,226.95654743697,226.95654743697,259.89211795497,259.74115671845,259.80438487432,259.8511260985,200.21824250967,199.51762257304,199.68963307544,200.15059024049,226.72881372621,259.94140711003,259.6962890757,259.75505840997,259.89580971666,249.63431365539,249.5000914203,249.55379417688,249.61093366564,205.22055530629,204.81317449661,226.72881372621,204.91491258816,205.17039790179,267.34614014014,267.20680344448,267.27490062197,267.29183194139,205.34486705358,204.67921427291,204.79369880095,205.29666785031,272.56663440059,267.3657276146,267.18898775524,267.25528805128,267.30957715592,249.72900482426,249.41373684776,249.45902547551,249.69689170526,272.56663440059,272.49931923119,272.49931923119,226.93644400582,226.93644400582,390.25258446479,388.04310276112,0
0.0002925,128749997.53399,8.623464800202e-05,1.0335934387127,1.4709382023469e-07,-8.0911255748591e-08,7.8838231103487e-08,1.8585606175119e-07,1.4506560591958e-25,-1.1985855175516e-24,-5.5791189096986e-26,3.1461708637392e-27,-41.187090815465,61.731127522273,-52.126781752347,43.081007780901,-3.2761928223895e-07,3.3027013500058e-26,4.2214306160818e-25,-2.0322483744553e-25,-4.5901455344991e-27,1.0441419386323e-17,-5.7898300719504e-17,-7.325162210895e-18,9.7825119892606e-19,-0.92954521272599,1.1408477435667,-2.3797902508057e-07,-1.2245701853826,0.98671696417135,1.0308385647372e-35,-1.4787650774037e-34,-1.7619013286094e-36,2.778788174353e-38,-1.0415988393091,1.1399225996882,-0.95884826780327,1.1256645622039,6.4554421266001e-66,8.4419231373293e-37,3.621289839026e-35,-1.297351067288e-35,-4.6811430250079e-38,4.9598744103607e-18,2.7735113265156e-17,-1.5706645145496e-17,-1.2757870286512e-18,-6.7295818038079e-67,-4.4796543343024e-64,6.4174416032522e-63,1.7310475034507e-07,-4.2588582992915e-07,227.18837907069,227.18837907069,226.98064698922,226.98064698922,259.92479736382,259.7730973008,259.83671681677,259.88372591477,200.225616831,199.52085117274,199.69413128545,200.15772429244,226.75164349859,259.97436090688,259.72802880618,259.78711729288,259.92861006447,249.66484369245,249.52995606537,249.58405312817,249.64150666286,205.23296055333,204.82329134956,226.75164349859,204.92575530005,205.18273517724,267.38014810286,267.24013955022,267.30860648962,267.32565929529,205.35791668925,204.68867866405,204.80397520139,205.30954864959,272.6013703175,267.39984461948,267.22224445494,267.2888854973,267.34348402803,249.76006250683,249.44321254485,249.48875909134,249.72785228364,272.6013703175,272.53375340079,272.53375340079,226.96023105107,226.96023105107,390.24828857872,388.02364623712,0
0.00029275,128947480.81291,8.6308824375697e-05,1.0336363560797,1.5084577096759e-07,-8.2757685502682e-08,8.06073881845e-08,1.9079668682697e-07,1.5986923285286e-25,-1.3294976834863e-24,-6.0708988847781e-26,3.3888545201112e-27,-41.146010333884,61.782399012804,-52.131978715606,43.040984776497,-3.3766136427268e-07,3.5948144330155e-26,4.6323995369467e-25,-2.2478310667189e-25,-4.9489187855638e-27,1.116150557777e-17,-6.2230861529933e-17,-7.7668295179568e-18,1.0295346941849e-18,-0.93042095177307,1.1424111217235,-2.4541469602006e-07,-1.2263492235337,0.98712940026888,1.1846995805091e-35,-1.7158321640095e-34,-1.990546640501e-36,3.096563877119e-38,-1.042567539583,1.1413099126828,-0.95924869140666,1.127065166876,8.3453882388435e-66,9.5621829840838e-37,4.1328099278108e-35,-1.4981412936845e-35,-5.2236512741259e-38,5.2553549918764e-18,2.9605003078551e-17,-1.6846611899215e-17,-1.343804578303e-18,-8.8720960907895e-67,-6.0098211701075e-64,8.9320742510928e-63,1.7787168076117e-07,-4.4013234815798e-07,227.21347743063,227.21347743063,227.0047896927,227.0047896927,259.95749118304,259.80505141122,259.86906399829,259.91634142738,200.23305787622,199.52413636654,199.69869245121,200.16492715719,226.77451317958,260.00732980827,259.75978213651,259.81919074332,259.9614260516,249.69539478063,249.55984093555,249.61433463189,249.67210271537,205.24543125426,204.83346921533,226.77451317958,204.93666336789,205.19514157009,267.41416614618,267.27348496917,267.34232280736,267.35949737619,205.37103332909,204.69820399121,204.81431649826,205.32249762129,272.6361135035,267.43397198071,267.25551049888,267.3224931293,267.3774016054,249.79114258492,249.47270859392,249.51851395527,249.75883581178,272.6361135035,272.56819457281,272.56819457281,226.98405779298,226.98405779298,390.24418049413,388.00433729454,0
0.000293,129145072.49854,8.6383000329584e-05,1.0336792654,1.5468227977689e-07,-8.4642463261248e-08,8.2411741595854e-08,1.9585657983143e-07,1.761102308438e-25,-1.4741298507004e-24,-6.6046570439167e-26,3.649785105003e-27,-41.104956142792,61.833603499871,-52.137146503578,43.001029299706,-3.4796437756415e-07,3.9117154578978e-26,5.0810195392506e-25,-2.485321114563e-25,-5.3350832960421e-27,1.1928263290969e-17,-6.6869407785971e-17,-8.2339932846651e-18,1.0834114200797e-18,-0.93129907848919,1.1439797923862,-2.5306191778753e-07,-1.2281272945969,0.98754606422923,1.3606265809696e-35,-1.9897340133289e-34,-2.2481341756705e-36,3.4499609704378e-38,-1.0435393106689,1.1426959805218,-0.95965093578396,1.1284660518638,1.0723344218715e-65,1.0826199133699e-36,4.71315115514e-35,-1.7289336727838e-35,-5.8278907917957e-38,5.5674948483434e-18,3.1591478548271e-17,-1.8065077787066e-17,-1.4153312108733e-18,-1.168490681333e-66,-8.0463702473488e-64,1.2410490295219e-62,1.8275335357651e-07,-4.5479440390849e-07,227.23861863394,227.23861863394,227.02897541141,227.02897541141,259.99019934991,259.8370190071,259.9014263633,259.94897256629,200.24056546003,199.52747807223,199.70331646737,200.17219864324,226.79742268098,260.04031374089,259.79154902994,259.85127871648,259.99425760241,249.725966839,249.58974596881,249.64463860979,249.7027217303,205.2579672461,204.84370799421,226.79742268098,204.94763667268,205.20761691344,267.44819422121,267.30683966939,267.37604953374,267.39334613231,205.3842167873,204.70779017748,204.82472260048,205.33551457407,272.67086392287,267.46810964519,267.28878585745,267.35611091016,267.41132983408,249.82224495737,249.50222494438,249.54829000959,249.78984218583,272.67086392287,272.60264271515,272.60264271515,227.00792411398,227.00792411398,390.24025977665,387.98517570763,0
0.00029325,129342772.73539,8.6457175868267e-05,1.0337221667263,1.58604981977e-07,-8.6566356208206e-08,8.4251950752312e-08,2.0103831121388e-07,1.9392071965406e-25,-1.6338599917591e-24,-7.1838623136436e-26,3.9303081241981e-27,-41.063928640236,61.884738497867,-52.142284914969,42.961144656701,-3.5853341143145e-07,4.2554102773493e-26,5.5705133888485e-25,-2.7468424236953e-25,-5.7506924479513e-27,1.2744503338876e-17,-7.1834242647426e-17,-8.7280626089119e-18,1.1400095563516e-18,-0.9321794145608,1.1455536355514,-2.6092585422272e-07,-1.2299042417797,0.98796693120238,1.5616524476621e-35,-2.3060150656758e-34,-2.5382355580357e-36,3.8429045895963e-38,-1.0445140356643,1.144080584294,-0.96005489266663,1.1298670593681,1.3687582993728e-65,1.2251733768473e-36,5.3710976787085e-35,-1.9940480149835e-35,-6.5007748025379e-38,5.8971756961814e-18,3.3701161278219e-17,-1.9367122681625e-17,-1.4905440459449e-18,-1.5374167870885e-66,-1.0751454104322e-63,1.7213926504572e-62,1.8775202614234e-07,-4.6988190070091e-07,227.26380251616,227.26380251616,227.05320400902,227.05320400902,260.02292180196,259.86900004611,259.93380385612,259.9816192614,200.2481393972,199.53087620824,199.70800322825,200.17953855817,226.8203719147,260.07331263159,259.82332944994,259.88338116754,260.02710464125,249.75655978698,249.61967110346,249.67496498352,249.73336361464,205.2705683662,204.854007587,226.8203719147,204.95867509499,205.22016103958,267.48223227923,267.34020361911,267.4097866273,267.42720551185,205.39746687815,204.71743714634,204.83519341674,205.34859931612,272.70562153993,267.50225755995,267.32207050116,267.38973880275,267.4452686601,249.85336952314,249.53176154584,249.57808719664,249.8208713019,272.70562153993,272.63709779577,272.63709779577,227.03182989696,227.03182989696,390.23652599347,387.96616125161,0
0.0002935,129540581.67444,8.6531350996417e-05,1.033765060112,1.6261553970681e-07,-8.8530147812331e-08,8.6128688972444e-08,2.0634449989299e-07,2.1344425476963e-25,-1.810198618511e-24,-7.8122612806747e-26,4.2318671567204e-27,-41.022928225544,61.935801539234,-52.147393756436,42.921334118679,-3.6937360758456e-07,4.6280585309268e-26,6.1043594972965e-25,-3.0347145574417e-25,-6.1979516777355e-27,1.3613191991112e-17,-7.7146931212328e-17,-9.2505212838886e-18,1.1994635919454e-18,-0.9330617840653,1.1471325319172,-2.6901176654008e-07,-1.2316799092705,0.98839197674817,1.7912084622237e-35,-2.6710280161619e-34,-2.8648519961861e-36,4.279746497354e-38,-1.0454915982534,1.1454635070524,-0.9604604554834,1.1312680321862,1.7343080530533e-65,1.3858652840322e-36,6.1164925316563e-35,-2.2984023341529e-35,-7.2499805139521e-38,6.2453226983428e-18,3.5941009209669e-17,-2.0758132371225e-17,-1.5696290651804e-18,-2.0208390085079e-66,-1.4337398702637e-63,2.3836002319724e-62,1.9286998910585e-07,-4.8540491751532e-07,227.2890289129,227.2890289129,227.07747534888,227.07747534888,260.05565847698,259.90099448615,259.966196421,260.01428144246,200.25577950254,199.5343306936,199.71275262784,200.18694670867,226.84336079281,260.10632640737,259.85512336014,259.91549805173,260.05996709243,249.78717354432,249.64961627814,249.70531367458,249.7640282752,205.2832344522,204.86436789501,226.84336079281,204.96977851498,205.23277378004,267.51628027169,267.37357678672,267.44353404656,267.46107546298,205.41078341593,204.72714482162,204.84572885552,205.36175165511,272.74038631909,267.53641567216,267.35536440069,267.42337677,267.47921802949,249.88451618138,249.56131834815,249.60790545884,249.85192305609,272.74038631909,272.67155978265,272.67155978265,227.05577502531,227.05577502531,390.23297871337,387.9472937027,0
0.00029375,129738499.47298,8.6605525718785e-05,1.0338079456118,1.6671564236664e-07,-9.0534638209502e-08,8.8042643855896e-08,2.1177781408466e-07,2.3483675435995e-25,-2.0048009903409e-24,-8.4938997651521e-26,4.5560109891967e-27,-40.981955299355,61.98679017529,-52.152472842824,42.881600920913,-3.804901598427e-07,5.0319847496428e-26,6.6863105435776e-25,-3.3514697940792e-25,-6.6792296715398e-27,1.4537458779875e-17,-8.2830373938626e-17,-9.8029316197214e-18,1.2619146413966e-18,-0.93394601348913,1.1487163628905,-2.7732501445809e-07,-1.2334541422398,0.9888211768325,2.0531741733898e-35,-3.0920479145323e-34,-3.2324646568939e-36,4.7653110113792e-38,-1.0464718827142,1.1468445338886,-0.96086751940185,1.132668813732,2.1794125862299e-65,1.5669163868651e-36,6.960357557446e-35,-2.6475923649488e-35,-8.0840326708796e-38,6.6129064491619e-18,3.8318331552571e-17,-2.2243815530529e-17,-1.6527815580413e-18,-2.653699948252e-66,-1.9081681410147e-63,3.2950146156294e-62,1.9810956683506e-07,-5.0137371090682e-07,227.31429765974,227.31429765974,227.101789294,227.101789294,260.08840931298,259.93300228538,259.99860400216,260.04695903916,200.26348559094,199.53784144792,199.71756455981,200.19442290049,226.86638922752,260.13935499538,259.88693072436,259.9476293243,260.09284488025,249.81780803112,249.67958143185,249.73568460437,249.79471561864,205.29596534205,204.87478882002,226.86638922752,204.98094681236,205.24545496559,267.55033815018,267.40695914079,267.47729175004,267.49495593379,205.42416621499,204.73691312748,204.85632882503,205.37497139828,272.77515822482,267.57058392913,267.38866752683,267.45702477484,267.51317788825,249.91568483139,249.59089530132,249.63774473862,249.8829973445,272.77515822482,272.70602864385,272.70602864385,227.07975938285,227.07975938285,390.22961750666,387.92857283804,0
0.000294,129936526.29447,8.6679700040201e-05,1.0338508232816,1.7090700705694e-07,-9.2580644592989e-08,8.9994517672355e-08,2.1734097213704e-07,2.5826749625211e-25,-2.2194803997585e-24,-9.2331460274705e-26,4.9044012740955e-27,-40.941010263954,62.03770197661,-52.157521997083,42.841948261783,-3.9188831386727e-07,5.4696902115368e-26,7.3204133300156e-25,-3.6998715860887e-25,-7.1970703851937e-27,1.5520604660021e-17,-8.8908884070846e-17,-1.0386938455435e-17,1.327510777787e-18,-0.9348319317563,1.1503050106051,-2.8587105732954e-07,-1.2352267868373,0.98925450781682,2.3519331929618e-35,-3.5774018632501e-34,-3.6460908034813e-36,5.3049458523482e-38,-1.0474547739325,1.1482234519989,-0.96127598136614,1.1340692480553,2.7131198609787e-65,1.7708079275318e-36,7.9150260377211e-35,-3.0479812069739e-35,-9.0123961799816e-38,7.0009450431273e-18,4.0840804284506e-17,-2.3830221550461e-17,-1.7402065902926e-18,-3.4814332276471e-66,-2.5346215218305e-63,4.5473628299092e-62,2.0347311785866e-07,-5.1779871715599e-07,227.33960859233,227.33960859233,227.12614570707,227.12614570707,260.12117424822,259.96502340219,260.03102654374,260.07965198109,200.27125747731,199.54140839136,199.72243891749,200.2019669385,226.88945713112,260.17239832295,259.91875150657,259.97977494052,260.12573792899,249.84846316776,249.70956650392,249.76607769414,249.82542555148,205.308760874,204.88527026427,226.88945713112,204.99217986645,205.25820442621,267.5844058665,267.44035065003,267.51105969622,267.52884687236,205.43761508975,204.74674198841,204.86699323326,205.38825835238,272.80993722163,267.60476227828,267.42197985054,267.49068278023,267.54714818239,249.94687537262,249.62049235559,249.6676049785,249.91409406323,272.80993722163,272.74050434746,272.74050434746,227.10378285385,227.10378285385,390.22644194521,387.90999843572,0
0.00029425,130134662.30834,8.6753873965572e-05,1.0338936931782,1.7519137904225e-07,-9.4669001618558e-08,9.1985027762849e-08,2.2303674339721e-07,2.8392018973916e-25,-2.4562226267152e-24,-1.0034715732767e-25,5.2788207504202e-27,-40.900093523747,62.088534533211,-52.162541050549,42.802379301952,-4.0357336688097e-07,5.9438655985983e-26,8.0110299439373e-25,-4.0829345288147e-25,-7.7542059511758e-27,1.6566110534807e-17,-9.5408269280341e-17,-1.100427337285e-17,1.3964073831091e-18,-0.93571937025904,1.1518983579321,-2.9465545528535e-07,-1.2369976901979,0.98969194645197,2.6924355869128e-35,-4.1366163797836e-34,-4.1113463459364e-36,5.9045784387784e-38,-1.048440157423,1.1496000507489,-0.96168574012157,1.135469179865,3.3409185193473e-65,2.0003107867169e-36,8.9942892570249e-35,-3.5068003278835e-35,-1.0045578787476e-37,7.4105062332053e-18,4.3516486227775e-17,-2.5523759265048e-17,-1.8321194966611e-18,-4.5630634954324e-66,-3.3602129126176e-63,6.2653882912071e-62,2.0896303531713e-07,-5.3469055444098e-07,227.36496154633,227.36496154633,227.15054445048,227.15054445048,260.15395322122,259.99705779522,260.06346398981,260.11236019777,200.27909497663,199.54503144464,199.72737559383,200.20957862669,226.91256441604,260.20545631756,259.95058567093,260.0119348557,260.15864616293,249.87913887499,249.739571434,249.79649286506,249.8561579801,205.32162088658,204.89581213045,226.91256441604,205.00347755612,205.27102199116,267.61848337257,267.47375128332,267.5448378436,267.56274822672,205.45112985464,204.7566313292,204.87772198794,205.40161232374,272.84472327412,267.63895066717,267.45530134286,267.52435074914,267.5811288579,249.97808770471,249.65010946137,249.69748612103,249.94521310838,272.84472327412,272.77498686164,272.77498686164,227.12784532304,227.12784532304,390.22345160242,387.89157027473,0
0.0002945,130332907.68979,8.6828047499878e-05,1.0339365553596,1.7957053221461e-07,-9.6800561816043e-08,9.4014906961472e-08,2.2886794908757e-07,3.1199412752526e-25,-2.7172016602054e-24,-1.0903698801379e-25,5.6811820709382e-27,-40.859205485295,62.139285455101,-52.167529842802,42.762897163508,-4.155506674145e-07,6.4574045032627e-26,8.7628603046705e-25,-4.5039459544017e-25,-8.3535705372056e-27,1.7677646165866e-17,-1.0235591773571e-16,-1.1656759120453e-17,1.4687675173316e-18,-0.93660816287182,1.1534962884957,-3.0368387036743e-07,-1.2387667004365,0.9901334698643,3.080267600734e-35,-4.7805847532537e-34,-4.6345155180329e-36,6.5707782159729e-38,-1.0494279193393,1.150974121736,-0.96209669625274,1.1368684545501,4.0612742896449e-65,2.2585177301686e-36,1.0213558367352e-34,-4.0322633017903e-35,-1.1195244894476e-37,7.8427096801478e-18,4.6353835730899e-17,-2.7331216614909e-17,-1.9287463987009e-18,-5.9752083489486e-66,-4.4461549951015e-63,8.6184701541577e-62,2.1458174743681e-07,-5.5206002505292e-07,227.39035635745,227.39035635745,227.17498538632,227.17498538632,260.18674617071,260.02910542333,260.0959162844,260.14508361862,200.28699790392,199.54871052899,199.73237448145,200.21725776818,226.93571099481,260.23852890683,259.98243318175,260.04410902514,260.19156950636,249.90983507386,249.76959616206,249.82693003817,249.88691281074,205.33454521862,204.9064143217,226.93571099481,205.01483975981,205.28390748898,267.65257062049,267.50716100968,267.57862615065,267.59665994488,205.46471032417,204.76658107494,204.88851499652,205.41503311823,272.87951634695,267.67314904352,267.48863197499,267.55802864458,267.6151198608,250.00932172746,249.67974656925,249.72738810878,249.97635437608,272.87951634695,272.80947615457,272.80947615457,227.15194667556,227.15194667556,390.22064605324,387.87328813491,0
0.00029475,130531262.6196,8.690222064817e-05,1.0339794098845,1.8404626957857e-07,-9.8976196016947e-08,9.6084904021738e-08,2.3483746320651e-07,3.4270542325719e-25,-3.0047967936456e-24,-1.1845588288025e-25,6.1135372786481e-27,-40.81834655771,62.189952372676,-52.17248822199,42.723504929077,-4.2782561504301e-07,7.0134178396596e-26,9.5809661757194e-25,-4.9664892759722e-25,-8.9983152285941e-27,1.8859079478734e-17,-1.0978088882712e-16,-1.2346314259474e-17,1.544762306656e-18,-0.93749814597631,1.1550986866795,-3.1296206768874e-07,-1.2405336666589,0.99057905554681,3.5217295337075e-35,-5.5217570233374e-34,-5.2226284783731e-36,7.3108256617959e-38,-1.0504179464899,1.1523454588525,-0.96250875220626,1.1382669181948,4.8602867525756e-65,2.548879065955e-36,1.1590043031986e-34,-4.6336938190363e-35,-1.2474341716201e-37,8.2987292981952e-18,4.9361727966713e-17,-2.9259781294091e-17,-2.0303247494537e-18,-7.8172406287218e-66,-5.871828598435e-63,1.1836240086216e-61,2.2033171800563e-07,-5.6991811764001e-07,227.41579286146,227.41579286146,227.1994683764,227.1994683764,260.21955303565,260.06116624562,260.12838337148,260.177822173,200.29496607421,199.55244556618,199.7374354726,200.2250041652,226.95889678004,260.27161601858,260.01429400349,260.0762974042,260.22450788355,249.94055168571,249.79964062838,249.8573891344,249.91768994953,205.34753370921,204.91707674155,226.95889678004,205.02626635555,205.29686074745,267.68666756252,267.5405797983,267.61242457583,267.63058197483,205.4783563129,204.77659115095,204.89937216618,205.42852054133,272.91431640483,267.70735735514,267.52197171825,267.59171642956,267.64912113707,250.04057734084,249.70940362999,249.7573108844,250.00751776246,272.91431640483,272.84397219449,272.84397219449,227.17608679695,227.17608679695,390.21802487412,387.855151797,0
0.000295,130729727.28396,8.6976393415568e-05,1.0340222568126,1.8862042374465e-07,-1.011967937861e-07,9.8195783946552e-08,2.4094821344158e-07,3.7628834061893e-25,-3.321611209308e-24,-1.2866311437732e-25,6.5780879690381e-27,-40.777517152978,62.240532936932,-52.17741604475,42.684205640867,-4.4040366012758e-07,7.6152492169143e-26,1.0470796729099e-24,-5.4744692140015e-25,-9.6918240091376e-27,2.0114486284025e-17,-1.1771400878065e-16,-1.3074958041384e-17,1.6245713495716e-18,-0.9383891584793,1.1567054376912,-3.2249591658257e-07,-1.2422984389106,0.99102868136122,4.0239226643667e-35,-6.3743555447216e-34,-5.883547716167e-36,8.1327886670859e-38,-1.051410126337,1.153713858343,-0.9629218123099,1.1396644175916,5.7036301063455e-65,2.8752420546055e-36,1.3142948465333e-34,-5.3216696780347e-35,-1.3897239117303e-37,8.7797957007178e-18,5.2549472869551e-17,-3.1317062418872e-17,-2.1371039060169e-18,-1.021794250203e-65,-7.739980731918e-63,1.6229540627249e-61,2.2621544694365e-07,-5.8827600946529e-07,227.44127089417,227.44127089417,227.22399328221,227.22399328221,260.25237375523,260.0932402214,260.16086519496,260.21057579023,200.3029993026,199.55623647842,199.74255845916,200.23281761918,226.98212168444,260.30471758075,260.04616810077,260.10849994821,260.2574612188,249.97128863222,249.82970477354,249.88787007458,249.9484893025,205.36058619771,204.92779929394,226.98212168444,205.03775722095,205.30988159369,267.72077415107,267.57400761849,267.6462330776,267.66451426454,205.49206763544,204.78666148285,204.91029340381,205.4420743981,272.94912341256,267.74157554999,267.55532054405,267.62541406711,267.68313263274,250.07185444499,249.73908059454,249.78725439053,250.03870316369,272.94912341256,272.87847494972,272.87847494972,227.20026557319,227.20026557319,390.21558764302,387.83716104251,0
0.00029525,130928301.87422,8.7050565807257e-05,1.0340650962046,1.9329485743144e-07,-1.0346326388902e-07,1.0034832895388e-07,2.4720318211241e-07,4.1299672028462e-25,-3.6704921765771e-24,-1.3972263083849e-25,7.0771962848132e-27,-40.736717685323,62.291024819819,-52.182313176312,42.645002300732,-4.532903036233e-07,8.2664913328634e-26,1.1438215753689e-24,-6.0321390481754e-25,-1.0437730926038e-26,2.1448160428511e-17,-1.2618797143041e-16,-1.3844815530833e-17,1.7083831603849e-18,-0.93928104182739,1.1583164273467,-3.3229139177159e-07,-1.2440608683832,0.99148232544917,4.594846223054e-35,-7.3546194758398e-34,-6.6260642433444e-36,9.0456072331065e-38,-1.0524043470774,1.1550791188655,-0.96333578281951,1.1410608002964,6.5246091983782e-65,3.2418944445747e-36,1.4893692628333e-34,-6.1081846679046e-35,-1.5479884607218e-37,9.2871987489524e-18,5.592683373915e-17,-3.3511113268387e-17,-2.2493457322589e-18,-1.3344076043522e-65,-1.0183353493754e-62,2.2218510974286e-61,2.3223547054128e-07,-6.0714506878727e-07,227.46679029147,227.46679029147,227.24855996503,227.24855996503,260.2852082689,260.12532731019,260.19336169871,260.24334439956,200.31109740418,199.56008318843,199.74774333262,200.24069793066,227.00538562077,260.33783352148,260.07805543834,260.14071661257,260.29042943642,250.00204583535,249.8597885384,249.91837277945,249.97931077555,205.37370252375,204.93858188318,227.00538562077,205.04931223316,205.32296985411,267.7548903387,267.60744443973,267.68005161438,267.69845676194,205.50584410648,204.79679199644,204.92127861602,205.45569449321,272.98393733496,267.77580357616,267.58867842394,267.65912152028,267.71715429384,250.10315294022,249.76877741398,249.81721856989,250.06991047599,272.98393733496,272.91298438859,272.91298438859,227.22448289065,227.22448289065,390.21333393939,387.8193156538,0
0.0002955,131126986.58673,8.7124737828487e-05,1.0341079281218,1.9807146400038e-07,-1.0577653472824e-07,1.0254333817447e-07,2.5360540713161e-07,4.5310551123506e-25,-4.054552997542e-24,-1.5170341559508e-25,7.6133965557851e-27,-40.695948573435,62.34142571456,-52.18717949086,42.605897869025,-4.6649109678187e-07,8.9710034564489e-26,1.2489530598734e-24,-6.6441300473113e-25,-1.1239938520006e-26,2.2864624393166e-17,-1.352374443612e-16,-1.4658122984501e-17,1.796395603466e-18,-0.94017364002437,1.1599315424564,-3.4235457452921e-07,-1.2458208071198,0.99193996635958,5.2435055081816e-35,-8.4810819523539e-34,-7.4600046580222e-36,1.0059186980992e-37,-1.0534004975535,1.1564410415367,-0.9637505719046,1.1424559145857,7.2067077949011e-65,3.6536125445308e-36,1.6866145488152e-34,-7.0068304670116e-35,-1.7239975123779e-37,9.8222902112667e-18,5.9504046510106e-17,-3.5850455143955e-17,-2.3673252317358e-18,-1.7411414153627e-65,-1.337312199014e-62,3.0370169536766e-61,2.3839436247761e-07,-6.2653685710204e-07,227.49235088931,227.49235088931,227.27316828581,227.27316828581,260.31805651627,260.15742747173,260.22587282655,260.27612793016,200.31926019408,199.56398561934,199.75298998409,200.24864489941,227.02868850189,260.37096376906,260.10995598112,260.17294735265,260.32341246076,250.03282321735,249.88989186413,249.94889716964,250.01015427449,205.3868825272,204.94942441394,227.02868850189,205.06093126895,205.33612535442,267.78901607815,267.64089023161,267.71388014463,267.73240941498,205.51968554073,204.80698261778,204.93232770909,205.46938063096,273.01875813695,267.81004138188,267.62204532958,267.69283875214,267.75118606642,250.13447272704,249.79849403955,249.84720336518,250.1011395956,273.01875813695,272.94750047951,272.94750047951,227.24873863608,227.24873863608,390.21126334419,387.80161541399,0
0.00029575,131325781.62256,8.7198909484564e-05,1.0341507526265,2.0295216798307e-07,-1.0813755483833e-07,1.047816286855e-07,2.6015798298741e-07,4.9691241382193e-25,-4.4771968465667e-24,-1.6467987311578e-25,8.1894079808335e-27,-40.65521023832,62.391733336106,-52.19201487142,42.566895263573,-4.8001164098724e-07,9.7329300620138e-26,1.3631522959023e-24,-7.3154832393731e-25,-1.21026376245e-26,2.4368640358062e-17,-1.4489918076207e-16,-1.5517233499939e-17,1.8888163847669e-18,-0.94106679963195,1.1615506705362,-3.5269165385825e-07,-1.2475781082314,0.9924015829133,5.9800323619321e-35,-9.7748841817092e-34,-8.3963502865686e-36,1.1184502985106e-37,-1.0543984673364,1.1577994299933,-0.96416608969058,1.1438496095178,7.5583883154092e-65,4.1157142777752e-36,1.9086892431578e-34,-8.0330009218008e-35,-1.9197147433948e-37,1.038648653349e-17,6.329183973871e-17,-3.8344102392666e-17,-2.4913312144689e-18,-2.2698927759539e-65,-1.75296150991e-62,4.144863235911e-61,2.446947339792e-07,-6.4646313161004e-07,227.51795252374,227.51795252374,227.29781810529,227.29781810529,260.35091843723,260.18954066597,260.25839852225,260.30892631121,200.32748748745,199.56794369474,199.7582983043,200.25665832434,227.05203024071,260.40410825192,260.14186969412,260.20519212384,260.35641021617,250.06362070079,249.92001469217,249.9794431657,250.04101970505,205.40012604819,204.96032679125,227.05203024071,205.07261420465,205.34934791969,267.82315132229,267.67434496389,267.74771862677,267.7663721716,205.53359175301,204.8172332731,204.94344058901,205.48313261529,273.05358578349,267.84428891549,267.65542123274,267.72656572577,267.78522789654,250.16581370612,249.82823042265,249.87720871916,250.13239041883,273.05358578349,272.98202319094,272.98202319094,227.27303269661,227.27303269661,390.2093754398,387.78406010692,0
0.000296,131524687.18734,8.7273080780856e-05,1.0341935697816,2.079389256333e-07,-1.1054729337084e-07,1.0706403589458e-07,2.6686406174612e-07,5.4473964181986e-25,-4.9421426595723e-24,-1.7873224415169e-25,8.8081481607699e-27,-40.614503104271,62.44194542122,-52.196819210222,42.527997359391,-4.9385758754175e-07,1.05567206905e-25,1.487148160218e-24,-8.0516836987917e-25,-1.3030328629539e-26,2.596522175014e-17,-1.5521213722463e-16,-1.6424622946581e-17,1.9858635525966e-18,-0.94196036978315,1.163173699908,-3.6330892768019e-07,-1.2493326258641,0.99286715422853,6.8158193376361e-35,-1.126013122476e-33,-9.4473697394619e-36,1.2433714597161e-37,-1.0553981467218,1.159154090439,-0.96458224826935,1.1452417349361,7.2770645719713e-65,4.6341177095309e-36,2.1585524087927e-34,-9.2041213418682e-35,-2.1373189155316e-37,1.0981271727753e-17,6.730145530465e-17,-4.100158865543e-17,-2.6216669978308e-18,-2.9567019249067e-65,-2.2935911711055e-62,5.6482120660837e-61,2.511392345303e-07,-6.6693584761321e-07,227.54359503088,227.54359503088,227.32250928396,227.32250928396,260.38379397185,260.22166685302,260.29093872953,260.34173947181,200.33577909944,199.57195733862,199.76366818357,200.2647380036,227.07541075017,260.43726689868,260.17379654252,260.23745088157,260.38942262706,250.09443820849,249.95015696423,250.0100106881,250.07190697287,205.41343292709,204.97128892047,227.07541075017,205.08436091617,205.36263737434,267.85729602414,267.70780860643,267.78156701921,267.80034497971,205.54756255817,204.82754388884,204.95461716142,205.49695024978,273.08842023961,267.87854612549,267.68880610529,267.76030240426,267.8192797303,250.19717577831,249.85798651481,249.90723457459,250.16366284202,273.08842023961,273.01655249137,273.01655249137,227.29736495977,227.29736495977,390.20766981008,387.76664951717,0
0.00029625,131723703.49099,8.7347251722784e-05,1.0342363796505,2.1303372549688e-07,-1.1300674060132e-07,1.0939141407944e-07,2.7372685408414e-07,5.9693581176824e-25,-5.4534532426988e-24,-1.9394705208432e-25,9.4727476598935e-27,-40.57382759953,62.492059728782,-52.201592408075,42.489206988558,-5.080346374665e-07,1.1447151113649e-25,1.6217237152276e-24,-8.8586975354545e-25,-1.4027844323331e-26,2.7659645297761e-17,-1.6621759780766e-16,-1.7382896195544e-17,2.0877660290084e-18,-0.94285420219559,1.1648005197079,-3.7421280402008e-07,-1.2510842151534,0.99333665970183,7.7636690363883e-35,-1.2964294827966e-33,-1.0626766367597e-35,1.3820292637628e-37,-1.0563994267515,1.1605048316961,-0.96499896170305,1.1466321414939,5.8980397897152e-65,5.2154055818789e-36,2.4394955026099e-34,-1.0539905736432e-34,-2.3792272633331e-37,1.1608200384503e-17,7.1544669861398e-17,-4.3832994383213e-17,-2.7586511441421e-18,-3.8480939462878e-65,-2.9955052338733e-62,7.685224502544e-61,2.5773055246996e-07,-6.8796716097724e-07,227.56927824695,227.56927824695,227.34724168206,227.34724168206,260.41668306042,260.25380599323,260.32349339209,260.37456734106,200.34413484521,199.57602647536,199.76909951182,200.27288373451,227.09882994329,260.47043963813,260.20573649161,260.26972358124,260.42244961787,250.12527566359,249.98031862228,250.0405996572,250.10281598352,205.42680300449,204.98231070726,227.09882994329,205.096171279,205.37599354213,267.89145013688,267.74128112924,267.81542528037,267.83432778725,205.56159777115,204.83791439156,204.96585733166,205.5108333377,273.12326147039,267.91281296047,267.72219991921,267.79404875074,267.85334151383,250.22855884467,249.8877622677,249.93728087428,250.1949567616,273.12326147039,273.05108834937,273.05108834937,227.32173531342,227.32173531342,390.20614604028,387.74938342999,0
0.0002965,131922830.74751,8.7421422315821e-05,1.0342791822974,2.1823858899792e-07,-1.1551690844736e-07,1.1176463693649e-07,2.8074963034068e-07,6.5387796784369e-25,-6.0155657834542e-24,-2.1041758275829e-25,1.0186565653523e-26,-40.533184155717,62.542074040113,-52.206334375297,42.450526939177,-5.225485413455e-07,1.2409345882311e-25,1.7677199046432e-24,-9.7430117872343e-25,-1.5100374428927e-26,2.9457463604964e-17,-1.7795930468738e-16,-1.8394793660981e-17,2.1947641697079e-18,-0.94374815117515,1.166431019886,-3.8540980221858e-07,-1.2528327322953,0.9938100789936,8.8379602302506e-35,-1.4918669340046e-33,-1.1949842261908e-35,1.5359160252988e-37,-1.0574021992169,1.1618514652497,-0.96541614604464,1.1480206806568,2.722682367904e-65,5.8668964410158e-36,2.7551773995583e-34,-1.2062645249852e-34,-2.6481214145671e-37,1.2268900812824e-17,7.603381705967e-17,-4.684897568546e-17,-2.9026182366774e-18,-5.0040840660683e-65,-3.9051788124784e-62,1.0441280698222e-60,2.6447141559787e-07,-7.0956943064668e-07,227.59500200827,227.59500200827,227.37201515962,227.37201515962,260.44958564345,260.28595804711,260.35606245356,260.40740984802,200.35255453994,199.58015102972,199.77459217857,200.28109531366,227.12228773311,260.50362639921,260.2376895068,260.3020101783,260.45549111308,250.15613298949,250.01049960857,250.07120999331,250.1337466425,205.44023612123,204.99339205758,227.12228773311,205.10804516821,205.38941624624,267.92561361383,267.77476250245,267.84929336867,267.86832054216,205.57569720694,204.84834470801,204.9771610047,205.52478168198,273.15810944099,267.9470893692,267.75560264657,267.82780472832,267.8874131933,250.25996280641,249.91755763311,249.96734756102,250.22627207407,273.15810944099,273.08563073356,273.08563073356,227.34614364578,227.34614364578,390.20480371709,387.73226163126,0
0.00029675,132122069.17475,8.7495592565488e-05,1.0343219777872,2.2355557103696e-07,-1.1807883097999e-07,1.1418459816916e-07,2.8793572160714e-07,7.159737515279e-25,-6.633324960749e-24,-2.2824440032223e-25,1.0953206749596e-26,-40.492573207907,62.591986159229,-52.211045033851,42.411959956206,-5.3740509919124e-07,1.3448802343179e-25,1.9260394789171e-24,-1.0711677428636e-24,-1.6253491970027e-26,3.1364518273168e-17,-1.904835957085e-16,-1.9463198171181e-17,2.3071103550202e-18,-0.94464207362603,1.1680650912064,-3.969065540664e-07,-1.2545780345994,0.99428739202108,1.0054832561906e-34,-1.7158887492491e-33,-1.3433680623453e-35,1.706684892454e-37,-1.0584063566301,1.1631938052679,-0.96583371936528,1.1494072047166,-3.2819228320558e-65,6.5967229942935e-36,3.1096628616662e-34,-1.3797531412822e-34,-2.9469761203371e-37,1.2965078313458e-17,8.0781810570057e-17,-5.0060794560211e-17,-3.0539196964381e-18,-6.5020319115816e-65,-5.0820014219408e-62,1.416476592536e-60,2.7136459181912e-07,-7.3175522120201e-07,227.62076615127,227.62076615127,227.39682957644,227.39682957644,260.48250166166,260.31812297535,260.38864585757,260.44026692173,200.36103799877,199.58433092682,199.78014607289,200.28937253684,227.14578403269,260.53682711103,260.2696555536,260.33431062817,260.48854703724,250.18701010985,250.04069986556,250.10184161667,250.16469885528,205.45373211835,205.00453287767,227.14578403269,205.11998245848,205.40290530919,267.95978640845,267.80825269631,267.8831712425,267.9023231924,205.58986068061,204.85883476505,204.9885280852,205.53879508526,273.1929641166,267.98137530053,267.78901425954,267.86157030015,267.92149471489,250.29138756497,249.94737256295,249.99743457765,250.257608676,273.1929641166,273.12017961262,273.12017961262,227.37058984543,227.37058984543,390.20364242863,387.71528390757,0
0.000297,132321418.99417,8.7569762477355e-05,1.0343647661849,2.2898676060601e-07,-1.2069356505175e-07,1.1665221204858e-07,2.9528852081074e-07,7.8366372554774e-25,-7.3120188670973e-24,-2.4753590172456e-25,1.1776539065651e-26,-40.451995194867,62.641793913438,-52.215724307794,42.373508735527,-5.5261016024186e-07,1.4571416217765e-25,2.0976511627322e-24,-1.1772355725071e-24,-1.7493181559298e-26,3.3386953586624e-17,-2.0383954917569e-16,-2.0591142183089e-17,2.4250696119698e-18,-0.94553582901215,1.1697026252576,-4.0870980535857e-07,-1.2563199802947,0.99476857886855,1.1432391784062e-34,-1.9725503669833e-33,-1.5097348526839e-35,1.8961671253644e-37,-1.0594117923977,1.1645316687779,-0.96625160169371,1.1507915668166,-1.3622327802943e-64,7.4139183954251e-36,3.5074647652864e-34,-1.5773018226406e-34,-3.2790910799941e-37,1.3698518592172e-17,8.5802167908007e-17,-5.348035058598e-17,-3.2129246401229e-18,-8.4415811492484e-65,-6.6017311671566e-62,1.9188018099508e-60,2.7841288978259e-07,-7.5453730533803e-07,227.64657051252,227.64657051252,227.42168479214,227.42168479214,260.51543105595,260.35030073883,260.42124354768,260.47313849124,200.36958503687,199.58856609209,199.78576108348,200.29771519912,227.16931875514,260.57004170287,260.30163459767,260.36662488629,260.52161731494,250.21790694863,250.070919336,250.13249444743,250.19567252725,205.46729083712,205.01573307405,227.16931875514,205.13198302405,205.41646055295,267.99396847437,267.84175168121,267.91705886027,267.93633568592,205.60408800733,204.86938448966,204.99995847742,205.55287334989,273.22782546251,268.01567070348,267.82243473039,267.89534542937,267.95558602488,250.32283302194,249.97720700926,250.02754186699,250.28896646404,273.22782546251,273.15473495527,273.15473495527,227.39507380128,227.39507380128,390.20266176418,387.69845004586,0
0.00029725,132520880.43059,8.7643932057032e-05,1.0344075475564,2.3453428143559e-07,-1.2336219077617e-07,1.1916841410956e-07,3.0281148387594e-07,8.5742386240447e-25,-8.0574179736691e-24,-2.6840891255971e-25,1.2660713678712e-26,-40.411450558959,62.691495153904,-52.220372140788,42.335175933424,-5.6816962295121e-07,1.5783508838115e-25,2.2835940797535e-24,-1.2933368174741e-24,-1.8825869879794e-26,3.5531230791453e-17,-2.1807913631391e-16,-2.1781815352497e-17,2.5489202732679e-18,-0.94642927941533,1.1713435144695,-4.2082641653952e-07,-1.2580584288935,0.99525361991008,1.2990937701216e-34,-2.2664653232446e-33,-1.6962122300413e-35,2.1063912377563e-37,-1.0604184005915,1.1658648754853,-0.96666971511654,1.1521736209527,-3.0471176959597e-64,8.3285112178421e-36,3.9535904312347e-34,-1.8021227539491e-34,-3.6481262478937e-37,1.4471091318186e-17,9.110903514027e-17,-5.7120214090352e-17,-3.3800207876833e-18,-1.0950985783309e-64,-8.5608363217567e-62,2.595508702236e-60,2.8561915961639e-07,-7.7792866665989e-07,227.67241492868,227.67241492868,227.44658066611,227.44658066611,260.54837376746,260.3824912986,260.45385546744,260.50602448557,200.37819546938,199.59285645132,199.79143709859,200.30612309483,227.19289181356,260.60327010418,260.33362660473,260.39895290812,260.55470187086,250.24882343002,250.10115796284,250.16316840568,250.22666756378,205.480912119,205.02699255346,227.19289181356,205.14404673877,205.43008179889,268.02815976533,267.87525942762,267.95095618039,267.97035797072,205.61837900231,204.87999380891,205.0114520853,205.56701627795,273.26269344403,268.04997552718,267.85586403149,267.92913007916,267.98968706953,250.35429907915,250.00706092417,250.05766937188,250.32034533494,273.26269344403,273.18929673029,273.18929673029,227.41959540255,227.41959540255,390.20186131468,387.68175983393,0
0.0002975,132720453.71195,8.7718101310173e-05,1.0344503219676,2.4020029264053e-07,-1.2608581217393e-07,1.2173416173007e-07,3.1050813088609e-07,9.3776820806308e-25,-8.8758173829158e-24,-2.9098932868689e-25,1.3610185525765e-26,-40.370939746236,62.741087751237,-52.224988478928,42.2969641584,-5.8408943482889e-07,1.7091856143211e-25,2.484982447225e-24,-1.4203750303139e-24,-2.0258458338241e-26,3.7804142978713e-17,-2.3325738166735e-16,-2.3038572535731e-17,2.6789546695212e-18,-0.94732228954484,1.172987652031,-4.3326336440675e-07,-1.2597932408404,0.99574249562525,1.4753217186102e-34,-2.6028797505836e-33,-1.9051738148161e-35,2.3396041992206e-37,-1.0614260761402,1.1671932479049,-0.96708798371801,1.1535532219983,-5.6931663881647e-64,9.3516299474268e-36,4.4535924247386e-34,-2.0578402671008e-34,-4.0581409232297e-37,1.5284753834284e-17,9.6717212435289e-17,-6.0993660929825e-17,-3.555615412265e-18,-1.4195207193805e-64,-1.1081942713214e-61,3.5058471393874e-60,2.9298629358738e-07,-8.0194250234832e-07,227.69829923657,227.69829923657,227.47151705758,227.47151705758,260.58132973751,260.41469461588,260.48648156038,260.53892483376,200.38686911143,199.59720193058,199.79717400602,200.31459601756,227.21650312108,260.63651224458,260.36563154063,260.43129464911,260.58780062972,250.27975947849,250.13141568928,250.19386341147,250.2576838702,205.49459580569,205.03831122291,227.21650312108,205.15617347607,205.44376886783,268.06236023524,267.90877590615,267.98486316125,268.00438999481,205.63273348085,204.89066264998,205.02300881239,205.58122367125,273.29756802654,268.0842897209,267.88930213527,267.96292421269,268.02379779521,250.3857856386,250.03693425992,250.08781703519,250.35174518557,273.29756802654,273.22386490654,273.22386490654,227.44415453879,227.44415453879,390.20124067211,387.66521305982,0
0.00029775,132920139.06912,8.7792270242467e-05,1.0344930894851,2.4598698940722e-07,-1.2886555775832e-07,1.243504348385e-07,3.1838204728145e-07,1.0252517327072e-24,-9.7740826384214e-24,-3.1541280334961e-25,1.4629735891513e-26,-40.330463206488,62.790569604981,-52.229573282191,42.258875973142,-6.0037559239492e-07,1.8503719543154e-25,2.7030105567461e-24,-1.559330958258e-24,-2.1798358213265e-26,4.0212830611646e-17,-2.4943253191001e-16,-2.4364942081562e-17,2.8154798618194e-18,-0.94821472664217,1.1746349320429,-4.4602774324412e-07,-1.2615242777969,0.99623518671382,1.6744704889685e-34,-2.9877565238567e-33,-2.1392670413973e-35,2.5982949257467e-37,-1.0624347147758,1.1685166115411,-0.96750633359584,1.1549302257124,-9.7399236556389e-64,1.0495617897554e-35,5.0136242289175e-34,-2.3485415757154e-34,-4.5136370971403e-37,1.6141555025685e-17,1.0264218053067e-16,-6.5114708886867e-17,-3.7401363434263e-18,-1.8386269850372e-64,-1.4320656710539e-61,4.7287673031388e-60,3.0051722687471e-07,-8.2659222569653e-07,227.72422327314,227.72422327314,227.4964938256,227.4964938256,260.61429890761,260.44691065202,260.51912176997,260.57183946485,200.39560577812,199.60160245621,199.80297169316,200.3231337602,227.24015259081,260.66976805386,260.39764937132,260.4636500647,260.62091351634,250.31071501878,250.16169245874,250.22457938478,250.28872135182,205.50834173904,205.04968898959,227.24015259081,205.16836310898,205.45752158003,268.09656983813,267.94230108753,268.01877976125,268.03843170623,205.64715125836,204.90139094007,205.03462856186,205.59549533136,273.33244917551,268.11861323403,267.92274901427,267.99672779315,268.05791814832,250.41729260248,250.06682696885,250.11798479976,250.38316591286,273.33244917551,273.25843945292,273.25843945292,227.46875109989,227.46875109989,390.20079942995,387.64880951224,0
0.000298,133119936.73555,8.786643885964e-05,1.0345358501756,2.5189660367892e-07,-1.317025811462e-07,1.2701823660476e-07,3.2643688503147e-07,1.1204733802162e-24,-1.0759699378394e-23,-3.4182548851245e-25,1.5724496599404e-26,-40.290021392696,62.839938636242,-52.23412651907,42.22091389444,-6.17034141135e-07,2.0026878768377e-25,2.9389580568356e-24,-1.7112687781416e-24,-2.345352840609e-26,4.276479770722e-17,-2.6666623347956e-16,-2.5764634663591e-17,2.9588184147493e-18,-0.94910646055469,1.1762852493903,-4.5912676606488e-07,-1.2632514025178,0.99673167399019,1.8993914499622e-34,-3.427870264039e-33,-2.4014441061169e-35,2.8852203073159e-37,-1.0634442130423,1.1698347947545,-0.96792469286335,1.1563044887554,-1.5805418703055e-63,1.1774159538537e-35,5.6405012264514e-34,-2.6788334922712e-34,-5.0196074862694e-37,1.7043639353532e-17,1.0890012813221e-16,-6.949815579043e-17,-3.9340330218399e-18,-2.3796498166423e-64,-1.8474096476764e-61,6.3693285758336e-60,3.0821493831703e-07,-8.518914690404e-07,227.75018687549,227.75018687549,227.52151082904,227.52151082904,260.64728121949,260.47913936858,260.55177603969,260.60476830791,200.40440528453,199.60605795484,199.80883004697,200.33173611496,227.26384013587,260.70303746198,260.42968006282,260.49601911036,260.65404045561,250.34168997586,250.19198821486,250.25531624554,250.31977991394,205.52214976113,205.06112576092,227.26384013587,205.18061551014,205.47133975523,268.13078852818,267.97583494258,268.05270593881,268.07248305305,205.66163215031,204.91217860648,205.04631123651,205.60983105964,273.36733685642,268.15294601611,267.95620464112,268.03054078375,268.09204807531,250.44881987321,250.09673900339,250.14817260844,250.41460741391,273.36733685642,273.2930203384,273.2930203384,227.493384976,227.493384976,390.20053718287,387.63254898025,0
0.00029825,133319846.94714,8.7940607167449e-05,1.0345786041061,2.579314048841e-07,-1.3459806171426e-07,1.2973859416531e-07,3.3467636394313e-07,1.2240793297806e-24,-1.1840827143637e-23,-3.7038483013754e-25,1.6899976035999e-26,-40.249614760719,62.88919279096,-52.238648168482,42.18308039258,-6.3407117550044e-07,2.1669666824995e-25,3.1941955541744e-24,-1.8773428052012e-24,-2.5232516023512e-26,4.5467928709149e-17,-2.8502371944645e-16,-2.7241552494552e-17,3.1093092123191e-18,-0.9499973636981,1.1779384997878,-4.7256776589088e-07,-1.2649744789183,0.99723193839688,2.1532743707342e-34,-3.9309145598403e-33,-2.6949963349714e-35,3.2034340478668e-37,-1.0644544682893,1.1711476288538,-0.96834299165335,1.1576758686784,-2.4752977986703e-63,1.3202419313771e-35,6.3417674610487e-34,-3.053905800042e-34,-5.5815887721212e-37,1.7993251061999e-17,1.1550798027907e-16,-7.4159619410121e-17,-4.1377776112305e-18,-3.0775424040716e-64,-2.3791540964279e-61,8.5671479874731e-60,3.1608245120986e-07,-8.7785408652737e-07,227.77618988089,227.77618988089,227.54656792664,227.54656792664,260.68027661504,260.51138072723,260.58444431299,260.63771129201,200.41326744572,199.61056835333,199.81474895392,200.34040287334,227.28756566937,260.73632039908,260.46172358127,260.52840174154,260.68718137252,250.37268427495,250.22230290147,250.28607391363,250.35085946185,205.5360197142,205.07262144449,227.28756566937,205.19293055178,205.48522321266,268.16501625972,268.00937744222,268.08664165233,268.10654398341,205.67617597227,204.92302557651,205.05805673874,205.62423065722,273.40223103484,268.18728801678,267.9896689885,268.06436314769,268.12618752273,250.48036735341,250.12667031607,250.17838040411,250.4460695859,273.40223103484,273.32760753199,273.32760753199,227.51805605758,227.51805605758,390.20045352677,387.61643125332,0
0.0002985,133519869.94192,8.801477517168e-05,1.0346213513437,2.6409370066576e-07,-1.3755320526523e-07,1.3251255938869e-07,3.4310427293282e-07,1.3367664830224e-24,-1.3026357673856e-23,-4.0126042326921e-25,1.8162087160237e-26,-40.209243770963,62.938330038471,-52.243138219233,42.145377891639,-6.5149283889637e-07,2.344100718511e-25,3.4701905508581e-24,-2.0588047103919e-24,-2.7144499992972e-26,4.8330506073878e-17,-3.0457400609565e-16,-2.8799799017823e-17,3.2673083203343e-18,-0.9508873110863,1.1795945797793,-4.8635819705555e-07,-1.2666933720491,0.9977359609652,2.4396856327221e-34,-4.5056229308873e-33,-3.0235923650175e-35,3.5563186268605e-37,-1.0654653787289,1.1724549481186,-0.96876116209022,1.1590442239705,-3.7781506153456e-63,1.4797194117761e-35,7.1257686882879e-34,-3.4796020283258e-34,-6.2057206068071e-37,1.8992738564181e-17,1.2248342769685e-16,-7.9115579218971e-17,-4.3518661687265e-18,-3.9771369462239e-64,-3.0587699820306e-61,1.150752302857e-59,3.2412283413921e-07,-9.0449415700286e-07,227.80223212676,227.80223212676,227.57166497698,227.57166497698,260.71328503638,260.54363468981,260.61712653329,260.67066834628,200.42219207671,199.61513357878,199.82072830008,200.34913382618,227.31132910441,260.76961679547,260.49377989285,260.56079791371,260.72033619215,250.40369784152,250.25263646263,250.31685230892,250.38195990084,205.54995144069,205.08417594806,227.31132910441,205.20530810575,205.49917177103,268.19925298719,268.0429285575,268.12058686023,268.14061444545,205.6907825399,204.9339317775,205.06986497057,205.63869392503,273.4371316764,268.22163918584,268.02314202919,268.09819484822,268.16033643717,250.51193494588,250.15662085947,250.2086081296,250.47755232617,273.4371316764,273.36220100279,273.36220100279,227.54276423539,227.54276423539,390.20054805878,387.60045612128,0
0.00029875,133720005.95982,8.8088942878147e-05,1.0346640919558,2.7038583751593e-07,-1.4056924495298e-07,1.3534120966252e-07,3.5172447136205e-07,1.4592861913485e-24,-1.4325978051392e-23,-4.3463493109117e-25,1.9517177652278e-26,-40.168908889435,62.987348374956,-52.247596671382,42.107808770045,-6.693053236003e-07,2.5350453353281e-25,3.7685137367254e-24,-2.2570112818694e-24,-2.9199337972103e-26,5.1361228598557e-17,-3.2539009965709e-16,-3.0443689091382e-17,3.4331898976373e-18,-0.95177618032349,1.1812533867613,-5.0050563646905e-07,-1.2684079481426,0.99824372282298,2.7626105362834e-34,-5.1619052412603e-33,-3.3913205536398e-35,3.9476207238761e-37,-1.0664768435259,1.1737565898354,-0.96917913828066,1.1604094139631,-5.6547043455924e-63,1.6577080718179e-35,8.0017322702796e-34,-3.9624984565314e-34,-6.8988110126844e-37,2.0044559014067e-17,1.2984495717433e-16,-8.4383420090201e-17,-4.5768198840865e-18,-5.1358979155174e-64,-3.9259221483e-61,1.5436056843494e-59,3.3233920182427e-07,-9.3182598686571e-07,227.82831345071,227.82831345071,227.59680183849,227.59680183849,260.74630642579,260.57590121829,260.64982264401,260.70363939985,200.43117899247,199.61975355851,199.82676797104,200.35792876366,227.33513035403,260.80292658163,260.52584896387,260.59320758231,260.75350483966,250.43473060129,250.28298884258,250.3476513512,250.41308113622,205.56394478321,205.09578917958,227.33513035403,205.21774804349,205.51318524857,268.23349866519,268.07648825954,268.15454152092,268.17469438739,205.70545166897,204.94489713677,205.08173583359,205.65322066385,273.47203874678,268.25599947321,268.05662373605,268.13203584856,268.19449476531,250.54352255367,250.18659058628,250.23885572778,250.50905553216,273.47203874678,273.39680071995,273.39680071995,227.56750940045,227.56750940045,390.20082037733,387.58462337434,0
0.000299,133920255.24242,8.8163110292684e-05,1.0347068260098,2.7681020209978e-07,-1.4364744102848e-07,1.3822564868448e-07,3.6054089036621e-07,1.592448238807e-24,-1.5750239085795e-23,-4.7070507269538e-25,2.0972062352743e-26,-40.128610573937,63.036245816496,-52.252023530788,42.070375354203,-6.8751487158085e-07,2.7408230946229e-25,4.090845657617e-24,-2.4734327689978e-24,-3.1407616647206e-26,5.4569230522249e-17,-3.4754921382747e-16,-3.2177759685241e-17,3.6073471561213e-18,-0.95266385141247,1.1829148188614,-5.1501778504199e-07,-1.2701180746321,0.99875520508089,3.1265001165353e-34,-5.911001479693e-33,-3.8027360783072e-35,4.3814904823126e-37,-1.067488762281,1.1750523943549,-0.96959685644445,1.1617712991498,-8.3325884157337e-63,1.8562659494947e-35,8.9798545131856e-34,-4.5099922617318e-34,-7.6684088709825e-37,2.1151283091362e-17,1.3761188309564e-16,-8.9981478006348e-17,-4.813186352303e-18,-6.6274321383619e-64,-5.0305195438162e-61,2.06778644957e-59,3.4073471604294e-07,-9.5986411325988e-07,227.85443369051,227.85443369051,227.6219783695,227.6219783695,260.77934072575,260.60818027479,260.68253258855,260.73662438192,200.44022800795,199.62442822003,199.83286785193,200.36678747533,227.3589693313,260.83624968822,260.55793076069,260.62563070281,260.78668724035,250.4657824802,250.31335998577,250.37847096026,250.4442230733,205.57799958453,205.1074610471,227.3589693313,205.23025023607,205.52726346307,268.26775324844,268.11005651959,268.18850559283,268.20878375748,205.72018317533,204.95592158167,205.09366922901,205.66781067426,273.50695221172,268.29036882895,268.090114082,268.16588611197,268.22866245389,250.57513008003,250.21657944923,250.26912314149,250.54057910149,273.50695221172,273.43140665268,273.43140665268,227.59229144407,227.59229144407,390.20127008153,387.56893280262,0
0.00029925,134120618.03274,8.823727742115e-05,1.0347495535732,2.8336922125234e-07,-1.4678908296887e-07,1.4116700740353e-07,3.6955753430011e-07,1.7371250967922e-24,-1.7310629345306e-23,-5.0968268480206e-25,2.2534058239023e-26,-40.088349299584,63.085020410032,-52.25641882477,42.033079931404,-7.0612777324179e-07,2.9625282461633e-25,4.4389837748897e-24,-2.709661851068e-24,-3.3780706087626e-26,5.7964101424984e-17,-3.7113299829925e-16,-3.4006781127684e-17,3.7901933837312e-18,-0.95355020711778,1.1845787751439,-5.2990246899252e-07,-1.271823620213,0.99927038898263,3.5363229238887e-34,-6.7656550486364e-33,-4.2629132405005e-35,4.8625250462762e-37,-1.0685010357967,1.1763422050831,-0.97001425461698,1.1631297407493,-1.2123276579188e-62,2.0776696061258e-35,1.0071396087297e-33,-5.1303998237012e-34,-8.522884277046e-37,2.2315599959529e-17,1.458043798457e-16,-9.5929087897685e-17,-5.0615409805492e-18,-8.5459609249148e-64,-6.4352572878158e-61,2.7662763884466e-59,3.4931258651299e-07,-9.8862330676398e-07,227.88059268413,227.88059268413,227.64719442822,227.64719442822,260.81238787891,260.64047182155,260.7152563103,260.76962322172,200.44933893804,199.62915749102,199.83902782742,200.37570975009,227.3828459492,260.86958604608,260.59002524973,260.65806723066,260.81988331961,250.49685340444,250.34374983682,250.40931105586,250.47538561745,205.59211568759,205.11919145882,227.3828459492,205.24281455417,205.54140623183,268.3020166918,268.14363330897,268.2224790344,268.24288250405,205.73497687495,204.96700503948,205.10566505761,205.6824637567,273.54187203703,268.32474720324,268.12361304003,268.19974560171,268.26283944976,250.60675742841,250.24658740114,250.29941031356,250.57212293191,273.54187203703,273.46601877026,273.46601877026,227.61711025782,227.61711025782,390.2018967723,387.55338419705,0
0.0002995,134321094.57494,8.8311444269418e-05,1.0347922747133,2.9006536340604e-07,-1.4999548949348e-07,1.4416644479453e-07,3.7877848212449e-07,1.8942564678982e-24,-1.9019655299268e-23,-5.5179586275788e-25,2.4211022016032e-26,-40.048125538654,63.133670225533,-52.26078258064,41.995924737736,-7.2515036871152e-07,3.201331486998e-25,4.8148499462982e-24,-2.9674232724395e-24,-3.633081791347e-26,6.1555906958162e-17,-3.9622777923219e-16,-3.5935768914618e-17,3.9821630131548e-18,-0.95443513262013,1.1862451554138,-5.4516764104312e-07,-1.2735244547173,0.99978925571635,3.9976222673499e-34,-7.7403079675998e-33,-4.7775035409805e-35,5.3958168158198e-37,-1.0695135657199,1.1776258685097,-0.97043127290884,1.1644846010318,-1.7451183072021e-62,2.3244362350496e-35,1.1288786243163e-33,-5.833066302014e-34,-9.4715175930623e-37,2.3540322471875e-17,1.5444351560841e-16,-1.0224663362477e-16,-5.3224884086774e-18,-1.1012014394594e-63,-8.2187634109698e-61,3.6958275403848e-59,3.5807607181758e-07,-1.018118574677e-06,227.90679026975,227.90679026975,227.67244987275,227.67244987275,260.84544782812,260.67277582096,260.74799375265,260.80263584854,200.45851159758,199.63394129933,199.84524778173,200.38469537624,227.4067601207,260.90293558623,260.62213239751,260.69051712131,260.85309300295,250.52794330042,250.37415834054,250.44017155772,250.50656867404,205.60629293552,205.13098032307,227.4067601207,205.25544086811,205.55561337174,268.33628895027,268.1772185991,268.25646180407,268.27699057547,205.74983258392,204.97814743748,205.11772321976,205.69717971149,273.57679818855,268.3591345464,268.15712058321,268.23361428104,268.29702569982,250.6384045025,250.27661439486,250.32971718683,250.60368692133,273.57679818855,273.50063704203,273.50063704203,227.64196573352,227.64196573352,390.20270005124,387.5379773484,0
0.00029975,134521685.11412,8.8385610843379e-05,1.0348349894977,2.969011392463e-07,-1.5326800926239e-07,1.4722514886558e-07,3.8820788887876e-07,2.0648541374741e-24,-2.0890928044567e-23,-5.9729018695291e-25,2.6011390747551e-26,-40.007939763234,63.182193359243,-52.26511483931,41.958911961723,-7.44589047555e-07,3.4584850227643e-25,5.2204983441636e-24,-3.2485841930853e-24,-3.9071067945996e-26,6.5355210455668e-17,-4.2292481193512e-16,-3.7969996124252e-17,4.183712770156e-18,-0.95531851562486,1.1879138603781,-5.608213819666e-07,-1.2752204491658,1.0003117864733,4.516579466382e-34,-8.8513206773771e-33,-5.352800159009e-35,5.987006997647e-37,-1.0705262543334,1.1789032343045,-0.97084785333749,1.1658357431952,-2.4892350339045e-62,2.5993479020687e-35,1.2645736570672e-33,-6.6284877261816e-34,-1.0524598175967e-36,2.4828392581577e-17,1.6355128718506e-16,-1.0895560028968e-16,-5.5966640262298e-18,-1.4179677583474e-63,-1.0479487764615e-60,4.9312798169284e-59,3.6702848057456e-07,-1.0483651640408e-06,227.93302628574,227.93302628574,227.69774456108,227.69774456108,260.87852051641,260.70509223552,260.78074485896,260.83566219175,200.46774580137,199.63877957297,199.85152759859,200.39374414145,227.43071175871,260.93629823987,260.65425217059,260.72298033022,260.88631621602,250.55905209477,250.4045854419,250.47105238556,250.5377721485,205.62053117156,205.14282754824,227.43071175871,205.2681290478,205.56988469926,268.37056997898,268.21081236149,268.29045386031,268.31110792019,205.76475011841,204.98934870287,205.1298436154,205.71195833881,273.61173063222,268.39353080888,268.19063668468,268.26749211327,268.33122115111,250.67007120621,250.30666038333,250.3600437041,250.63527096782,273.61173063222,273.53526143741,273.53526143741,227.66685776324,227.66685776324,390.20367952098,387.52271204754,0
0.0003,134722389.896,8.8459777148933e-05,1.0348776979934,3.0387910268304e-07,-1.5660802184741e-07,1.5034433759574e-07,3.9784998724654e-07,2.2500071520059e-24,-2.2939257154428e-23,-6.4643004104415e-25,2.7944225431888e-26,-39.96779244722,63.230587932751,-52.269415655518,41.922043740663,-7.6445024927525e-07,3.7353279492747e-25,5.6581238394262e-24,-3.5551653019589e-24,-4.2015543611629e-26,6.9373095425608e-17,-4.5132054669925e-16,-4.0115006469478e-17,4.3953228649281e-18,-0.95620024629193,1.1895847914769,-5.7687190185849e-07,-1.2769114760202,1.000837962339,5.1000837088199e-34,-1.0117219461745e-32,-5.9958095345599e-35,6.6423449320032e-37,-1.0715390048664,1.1801741551432,-0.97126393995185,1.1671830314221,-3.522574625616e-62,2.9054781110563e-35,1.4157365126472e-33,-7.5284469599181e-34,-1.1693533819369e-36,2.6182886997363e-17,1.7315065612053e-16,-1.1607862888066e-16,-5.8847355784497e-18,-1.8245805632369e-63,-1.33405003952e-60,6.5712032842787e-59,3.7617317227892e-07,-1.0793785651301e-06,227.95930057068,227.95930057068,227.72307835115,227.72307835115,260.91160588697,260.73742102786,260.81350957264,260.86870218075,200.47704136413,199.64367224007,199.85786716127,200.40285583281,227.4547007761,260.96967393839,260.6863845356,260.75545681282,260.91955288457,250.59017971437,250.43503108605,250.50195345909,250.56899594631,205.63483023914,205.15473304284,227.4547007761,205.2808789628,205.58422003046,268.40485973319,268.24441456774,268.32445516157,268.34523448672,205.77972929474,205.00060876279,205.14202614403,205.72679943875,273.64666933402,268.42793594128,268.22416131762,268.30137906169,268.36542575071,250.70175744367,250.33672531951,250.39038980819,250.66687496965,273.64666933402,273.56989192587,273.56989192587,227.69178623931,227.69178623931,390.20483478511,387.5075880854,0
0.00030025,134923209.16682,8.8533943191991e-05,1.0349204002678,3.1100185168008e-07,-1.6001693859703e-07,1.5352525997183e-07,4.0770908906052e-07,2.4508873446607e-24,-2.5180752177819e-23,-6.9950002867539e-25,3.0019258101065e-26,-39.927684074734,63.278852093532,-52.273685092192,41.885322175258,-7.8474046324293e-07,4.0332919723371e-25,6.1300708719137e-24,-3.8893527486996e-24,-4.517937643062e-26,7.3621188982931e-17,-4.8151690781174e-16,-4.237662800642e-17,4.6174982702117e-18,-0.95708021737816,1.1912578509206,-5.9332754164955e-07,-1.2785974088512,1.0013677644426,5.7558091660327e-34,-1.1558974838259e-32,-6.7143308279029e-35,7.3687539417874e-37,-1.0725517214152,1.1814384869871,-0.97167947866411,1.1685263309316,-4.9501098613157e-62,3.2462209067928e-35,1.5840331806176e-33,-8.5461650528435e-34,-1.299097208272e-36,2.7607023073281e-17,1.8326558597258e-16,-1.2363957343488e-16,-6.1874048559411e-18,-2.3461736134717e-63,-1.6955402614062e-60,8.745262668388e-59,3.8551355837668e-07,-1.111174514291e-06,227.9856129634,227.9856129634,227.7484511008,227.7484511008,260.9447038832,260.76976216072,260.84628783704,260.90175574504,200.48639810054,199.64861922886,199.86426635255,200.41203023683,227.47872708568,261.00306261334,260.71852945922,260.78794652456,260.95280293451,250.6213260863,250.46549521831,250.532874698,250.60023997301,205.64918998183,205.16669671545,227.47872708568,205.29369048231,205.59861918099,268.43915816828,268.27802518954,268.35846566635,268.37937022366,205.79476992934,205.0119275443,205.15427070474,205.74170281131,273.68161425998,268.4623498943,268.2576944553,268.33527508959,268.39963944585,250.73346311923,250.36680915642,250.42075544187,250.69849882523,273.68161425998,273.60452847695,273.60452847695,227.71675105429,227.71675105429,390.20616544849,387.49260525324,0
0.0003005,135124143.17296,8.8608108978472e-05,1.0349630963875,3.1827202922825e-07,-1.6349620343944e-07,1.5676919697665e-07,4.1778958691918e-07,2.6687552306002e-24,-2.7632932431621e-23,-7.5680649636839e-25,3.2246942680053e-26,-39.887615125329,63.326984017831,-52.277923223222,41.848749311236,-8.0546622911715e-07,4.3539074881984e-25,6.6388428400382e-24,-4.253510947115e-24,-4.8578819951979e-26,7.8111686263052e-17,-5.1362158712617e-16,-4.4760987552065e-17,4.8507700784392e-18,-0.9579583240427,1.1929329418103,-6.1019677442674e-07,-1.2802781224802,1.001901173762,6.4923000826476e-34,-1.3200314700276e-32,-7.5170441189637e-35,8.1739044297465e-37,-1.0735643088282,1.1826960889799,-0.9720944172943,1.1698655078834,-6.9128366158946e-62,3.625322747903e-35,1.7712985933653e-33,-9.6964696381822e-34,-1.4430934788283e-36,2.9104164958073e-17,1.9392108098058e-16,-1.316635607298e-16,-6.5054094713078e-18,-3.0148166551182e-63,-2.1515597274e-60,1.1623818365827e-58,3.9505310356431e-07,-1.1437689974962e-06,228.01196330292,228.01196330292,227.77386266781,227.77386266781,260.97781444864,260.80211559696,260.87907959557,260.9348228142,200.4958158252,199.6536204677,199.87072505475,200.42126713946,227.50279060018,261.03646419648,260.75068690819,260.82044942088,260.98606629189,250.65249113786,250.49597778414,250.563816022,250.6315041342,205.66361024333,205.17871847469,227.50279060018,205.30656347517,205.61308196617,268.47346523979,268.31164419866,268.39248533315,268.41351507968,205.80987183876,205.02330497436,205.16657719616,205.75666825642,273.71656537621,268.49677261881,268.29123607102,268.36918016032,268.43386218382,250.7651881375,250.39691184712,250.45114054793,250.73014243318,273.71656537621,273.63917106028,273.63917106028,227.74175210097,227.74175210097,390.20767111666,387.47776334209,0
0.00030075,135325192.16076,8.8682274514295e-05,1.0350057864193,3.2569232490057e-07,-1.6704729379341e-07,1.6007746274152e-07,4.2809595582216e-07,2.9049662943572e-24,-3.0314845714416e-23,-8.1867917028319e-25,3.4638509610457e-26,-39.847586080315,63.374981901594,-52.282130135075,41.812327147706,-8.2663413725668e-07,4.6988100552223e-25,7.1871120341949e-24,-4.6501963130023e-24,-5.2231333638771e-26,8.2857375834343e-17,-5.4774835244052e-16,-4.7274525833788e-17,5.0956969205462e-18,-0.95883446385446,1.194609967987,-6.2748820693949e-07,-1.2819534930773,1.0024381711677,7.3190646196291e-34,-1.5068076411978e-32,-8.4136082971507e-35,9.066294906529e-37,-1.0745766726749,1.1839468233407,-0.97250870558462,1.1712004295541,-9.599545349877e-62,4.0469174062958e-35,1.9795527089389e-33,-1.0995982217336e-33,-1.602896715311e-36,3.0677830077252e-17,2.0514322607443e-16,-1.4017705269148e-16,-6.8395247373177e-18,-3.8714040943661e-63,-2.7259216732772e-60,1.5430428428638e-58,4.0479532680114e-07,-1.1771782536736e-06,228.03835142853,228.03835142853,227.79931290991,227.79931290991,261.01093752703,260.83448129955,260.9118847916,260.96790331789,200.50529435266,199.65867588501,199.87724314967,200.43056632608,227.52689123229,261.06987861975,260.78285684931,260.85296545721,261.01934288289,250.68367479657,250.52647872918,250.59477735076,250.66278833557,205.6780908675,205.19079822927,227.52689123229,205.31949780984,205.62760820093,268.50778090335,268.34527156694,268.42651412049,268.44766900353,205.82503483969,205.03474097982,205.17894551649,205.77169557396,273.75152264888,268.5312040658,268.32478613818,268.40309423721,268.46809391205,250.7969324033,250.42703334471,250.48154506912,250.7618056923,273.75152264888,273.67381964554,273.67381964554,227.76678927236,227.76678927236,390.20935139589,387.46306214272,0
0.000301,135526356.37628,8.8756439805384e-05,1.0350484704295,3.3326547386698e-07,-1.706717214633e-07,1.6345140570161e-07,4.3863275492256e-07,3.1609776935675e-24,-3.3247196642445e-23,-8.8547291595638e-25,3.7206024919177e-26,-39.807597423673,63.42284397668,-52.28630592548,41.776057639627,-8.4825082925681e-07,5.0697472479832e-25,7.777730143392e-24,-5.0821719982957e-24,-5.6155673039359e-26,8.7871666162012e-17,-5.8401737150318e-16,-4.9924013432394e-17,5.3528664833146e-18,-0.95970853688854,1.1962888340994,-6.4521058099714e-07,-1.2836233980587,1.002978737424,8.2466783019095e-34,-1.7192602559426e-32,-9.4147697065642e-35,1.0055341976597e-36,-1.0755887194777,1.1851905556245,-0.97292229518487,1.1725309638392,-1.3262271393518e-61,4.5155641509587e-35,2.2110180301434e-33,-1.2463326354463e-33,-1.78023031021e-36,3.2331695681493e-17,2.1695922823163e-16,-1.4920791155743e-16,-7.1905656404205e-18,-4.9680512784586e-63,-3.4482069461189e-60,2.0458109067575e-58,4.1474380260151e-07,-1.2114187781968e-06,228.06477717976,228.06477717976,227.82480168478,227.82480168478,261.04407306228,260.86685923157,260.94470336855,261.00099718586,200.51483349737,199.66378540928,199.88382051867,200.43992758152,227.55102889462,261.10330581527,260.8150392494,260.88549458897,261.05263263385,250.71487699016,250.55699799918,250.62575860401,250.69409248289,205.69263169833,205.20293588788,227.55102889462,205.33249335444,205.64219769991,268.54210511477,268.37890726632,268.4605519869,268.48183194405,205.84025874894,205.04623548742,205.19137556347,205.78678456376,273.78648604421,268.5656441864,268.35834463019,268.43701728359,268.50233457807,250.8286958217,250.45717360231,250.51196894817,250.7934885016,273.78648604421,273.7084742025,273.7084742025,227.79186246169,227.79186246169,390.2112058936,387.44850144618,0
0.00030125,135727636.06506,8.8830604857657e-05,1.0350911484841,3.4099426091345e-07,-1.7437103381107e-07,1.6689240973018e-07,4.4940462915345e-07,3.4383554064442e-24,-3.6452485361257e-23,-9.5756962933303e-25,3.9962453869791e-26,-39.767649641202,63.470568497364,-52.290450695903,41.739942689,-8.7032299796599e-07,5.4685859748468e-25,8.4137393682203e-24,-5.5524236901578e-24,-6.0371987154643e-26,9.3168613174648e-17,-6.2255555237232e-16,-5.2716567516709e-17,5.6228971090658e-18,-0.96058044556191,1.1979694455705,-6.6337277506959e-07,-1.2852877160095,1.0035228530736,9.286898009495e-34,-1.9608185616717e-32,-1.0532482708578e-34,1.1151480203199e-36,-1.076600356462,1.1864271546123,-0.97333513949259,1.1738569800776,-1.823652622439e-61,5.0362895347214e-35,2.4681386804827e-33,-1.4119359010903e-33,-1.9770048726004e-36,3.4069606036111e-17,2.2939745930135e-16,-1.5878546796512e-16,-7.5593889527604e-18,-6.3711330719474e-63,-4.3551041022548e-60,2.7090459179791e-58,4.2490216223014e-07,-1.2465073262246e-06,228.09124039638,228.09124039638,227.85032885008,227.85032885008,261.07722099845,260.89924935618,260.97753526983,261.03410434795,200.52443307372,199.66894896906,199.89045704257,200.44935069011,227.57520349968,261.13674571536,260.84723407536,260.9180367716,261.08593547128,250.74609764658,250.58753554006,250.65675970145,250.72541648199,205.70723257995,205.21513135927,227.57520349968,205.34554997675,205.65685027737,268.57643782994,268.4125512688,268.49459889095,268.51600385018,205.85554338349,205.05778842376,205.2038672344,205.80193502562,273.82145552849,268.60009293187,268.39191152054,268.47094926284,268.53658412952,250.860478298,250.48733257306,250.5424121278,250.8251907603,273.82145552849,273.74313470097,273.74313470097,227.81697156241,227.81697156241,390.21323421759,387.43408104291,0
0.0003015,135929031.47188,8.8904769677031e-05,1.0351338206486,3.4888151941917e-07,-1.781468143637e-07,1.7040189546898e-07,4.6041631114783e-07,3.7387818475e-24,-3.995515744288e-23,-1.0353802701646e-24,4.2921729713e-26,-39.727743223729,63.51815374516,-52.294564568766,41.70398416069,-8.9285738822042e-07,5.8973202290467e-25,9.0983841726552e-24,-6.064176547007e-24,-6.4901922498892e-26,9.8762948943199e-17,-6.6349690102723e-16,-5.5659669471695e-17,5.9064394998928e-18,-0.96145009475279,1.1996517085616,-6.8198380556971e-07,-1.2869463269331,1.0040704986058,1.045278751795e-33,-2.2353567394947e-32,-1.178004347581e-34,1.2366273003758e-36,-1.0776114916308,1.1876564922402,-0.97374719379238,1.1751783484886,-2.4967729677456e-61,5.6146330949562e-35,2.7536011679594e-33,-1.5987427483395e-33,-2.1953385386404e-36,3.5895579605949e-17,2.4248750032954e-16,-1.689405920169e-16,-7.9468953942359e-18,-8.1651347389727e-63,-5.4920474741722e-60,3.5829072415149e-58,4.3527409505957e-07,-1.2824609164041e-06,228.11774091844,228.11774091844,227.87589426343,227.87589426343,261.11038127981,260.93165163666,261.01038043886,261.06722473413,200.53409289603,199.67416649293,199.89715260174,200.45883543561,227.59941495993,261.17019825253,260.87944129408,260.9505919605,261.11925132183,250.77733669397,250.61809129786,250.68778056282,250.75676023885,205.72189335662,205.2273845522,227.59941495993,205.35866754419,205.67156574732,268.61077900491,268.44620354647,268.52865479122,268.55018467095,205.87088856045,205.06939971526,205.2164204261,205.81714675936,273.85643106807,268.63455025362,268.42548678277,268.50489013834,268.57084251416,250.89227973775,250.51751021015,250.5728745507,250.85691236781,273.85643106807,273.77780111086,273.77780111086,227.84211646818,227.84211646818,390.21543597683,387.41980072358,0
0.00030175,136130542.84054,8.8978934269413e-05,1.0351764869881,3.5693013310579e-07,-1.820006841065e-07,1.7398132154949e-07,4.7167262300626e-07,4.0640639831195e-24,-4.3781765844022e-23,-1.1193470476698e-24,4.6098827816161e-26,-39.687878656463,63.565598030139,-52.298647672545,41.668183864889,-9.1586079741904e-07,6.3580793364812e-25,9.8351237101872e-24,-6.6209133502015e-24,-6.976873587998e-26,1.0467011154729e-16,-7.0698289705044e-16,-5.8761183415748e-17,6.2041785125169e-18,-0.96231739160677,1.2013355300143,-7.0105282857862e-07,-1.2885991120545,1.0046216541958,1.1758855707937e-33,-2.5472499836577e-32,-1.3172238453973e-34,1.3712535782418e-36,-1.0786220336851,1.1888784437298,-0.97415841515374,1.1764949403047,-3.4045667791027e-61,6.2566973225179e-35,3.0703569774909e-33,-1.8093654656776e-33,-2.4375795308325e-36,3.7813816717956e-17,2.562601874568e-16,-1.7970576755354e-16,-8.3540319845663e-18,-1.045752958816e-62,-6.9152164349145e-60,4.7329067849361e-58,4.4586334988759e-07,-1.3192968345414e-06,228.14427858626,228.14427858626,227.90149778244,227.90149778244,261.14355385075,260.96406603639,261.04323881911,261.10035827446,200.54381277853,199.67943790951,199.90390707603,200.46838160132,227.62366318773,261.20366335948,260.91166087254,260.98316011109,261.15258011234,250.80859406068,250.64866521878,250.71882110787,250.78812365951,205.73661387272,205.2396953754,227.62366318773,205.37184592387,205.68634392344,268.64512859585,268.47986407148,268.56271964632,268.58437435548,205.88629409707,205.08106928823,205.22903503497,205.83241956478,273.89141262936,268.66901610319,268.45907039046,268.53883987346,268.60510967989,250.92410004677,250.54770646677,250.60335615955,250.88865322378,273.89141262936,273.81247340216,273.81247340216,227.86729707284,227.86729707284,390.21781078061,387.40566027823,0
0.000302,136332170.41362,8.9053098640703e-05,1.0352191475672,3.6514303717189e-07,-1.8593430249245e-07,1.7763218602029e-07,4.8317847821501e-07,4.4161419771623e-24,-4.7961145838274e-23,-1.2099457703972e-24,4.9509845786118e-26,-39.648056429313,63.612899688954,-52.302700146739,41.632543567942,-9.3934007600694e-07,6.8531367174726e-25,1.0627644958753e-23,-7.2263939490241e-24,-7.4997415396989e-26,1.1090627618539e-16,-7.5316288800844e-16,-6.2029375684364e-17,6.5168350748302e-18,-0.96318224565702,1.2030208176029,-7.2058914132108e-07,-1.2902459538698,1.0051762998413,1.322120865453e-33,-2.9014374454625e-32,-1.472550909602e-34,1.5204472717799e-36,-1.0796318920795,1.1900928875257,-0.97456876240159,1.1778066277934,-4.6249317245449e-61,6.9692022818629e-35,3.4216471439177e-33,-2.0467255544526e-33,-2.7063311584215e-36,3.9828707526161e-17,2.7074765937144e-16,-1.9111516962116e-16,-8.7817944891469e-18,-1.3384953785185e-62,-8.6939718578034e-60,6.2445091828821e-58,4.5667373641575e-07,-1.3570326371621e-06,228.17085324043,228.17085324043,227.92713926472,227.92713926472,261.17673865588,260.99649251883,261.07611035403,261.13350489912,200.55359253534,199.68476314739,199.91072034479,200.47798897002,227.64794809535,261.2371409691,260.94389277771,261.01574117878,261.18592176982,250.83986967528,250.67925724912,250.74988125638,250.81950665017,205.75139397279,205.25206373762,227.64794809535,205.38508498253,205.70118461916,268.67948655907,268.51353281605,268.59679341487,268.61857285302,205.90175981076,205.09279706878,205.2417109569,205.84775324171,273.92640017885,268.70349043227,268.49266231725,268.57279843161,268.63938557472,250.95593913109,250.57792129612,250.63385689699,250.92041322809,273.92640017885,273.84715154492,273.84715154492,227.89251327046,227.89251327046,390.2203582389,387.39165949662,0
0.00030225,136533914.43227,8.9127262796785e-05,1.0352618024501,3.7352321948388e-07,-1.8994936853187e-07,1.813560277482e-07,4.9493888383045e-07,4.7970983968466e-24,-5.2524603951152e-23,-1.3076883734852e-24,5.317208995524e-26,-39.60827703291,63.660057085016,-52.306722139788,41.597064990248,-9.6330212813824e-07,7.3849191970741e-25,1.147987660711e-23,-7.8846760893381e-24,-8.061481077828e-26,1.1748838752516e-16,-8.0219450377718e-16,-6.5472935361985e-17,6.8451682114606e-18,-0.9640445687325,1.2047074797074,-7.4060218371899e-07,-1.2918867360768,1.0057344153426,1.4857716907763e-33,-3.303492859581e-32,-1.6458134656675e-34,1.6857828725463e-36,-1.0806409769619,1.1912997053383,-0.97497819608429,1.179113284272,-6.2605034709546e-61,7.7595452982547e-35,3.8110289713485e-33,-2.3140888410733e-33,-3.0044795496057e-36,4.1944840332275e-17,2.8598340647749e-16,-2.0320474535779e-16,-9.2312300066728e-18,-1.7121019127833e-62,-1.0913820990973e-59,8.2290810476772e-58,4.6770912669377e-07,-1.3956861553675e-06,228.19746472183,228.19746472183,227.95281856788,227.95281856788,261.20993563994,261.02893104752,261.10899498713,261.16666453842,200.56343198052,199.6901421352,199.91759228687,200.487657324,227.67226959497,261.27063101449,260.97613697663,261.04833511897,261.21927622144,250.87116346651,250.70986733531,250.78096092816,250.8509091171,205.76623350144,205.26448954756,227.67226959497,205.39838458662,205.71608764766,268.71385285099,268.54720975247,268.63087605553,268.65278011291,205.91728551911,205.10458298282,205.25444808736,205.86314759003,273.96139368308,268.73797319268,268.52626253682,268.60676577623,268.6736701468,250.98779689702,250.60815465142,250.66437670566,250.95219228084,273.96139368308,273.88183550927,273.88183550927,227.91776495527,227.91776495527,390.22307796219,387.37779816808,0
0.0003025,136735775.13596,8.920142674353e-05,1.0353044517003,3.8207372179865e-07,-1.9404762196104e-07,1.8515442791639e-07,5.0695894159273e-07,5.209168016295e-24,-5.7506121963189e-23,-1.4131256319166e-24,5.7104168825063e-26,-39.568540960327,63.707068619118,-52.310713814739,41.561749805401,-9.8775391232872e-07,7.9560168972284e-25,1.239600372868e-23,-8.6001377158607e-24,-8.664977374987e-26,1.2443419339712e-16,-8.5424409153149e-16,-6.9100995691221e-17,7.1899771950692e-18,-0.96490427496027,1.2063954254804,-7.611015399764e-07,-1.2935213437347,1.0062959800822,1.6688199419416e-33,-3.7597037624087e-32,-1.8390434956419e-34,1.8690058329864e-36,-1.0816491992071,1.1924987821548,-0.97538667849605,1.1804147840858,-8.4461942730245e-61,8.6358661626428e-35,4.2424050747557e-33,-2.615104407716e-33,-3.3352244137602e-36,4.4167010276256e-17,3.0200232173225e-16,-2.1601229838794e-16,-9.7034397035169e-18,-2.188619294265e-62,-1.3680020061764e-59,1.0831576396687e-57,4.7897345664202e-07,-1.4352754985696e-06,228.22411287164,228.22411287164,227.97853554956,227.97853554956,261.24314474785,261.06138158611,261.14189266194,261.19983712278,200.57333092803,199.69557480151,199.92452278062,200.49738644507,227.69662759867,261.30413342895,261.00839343633,261.08094188705,261.25264339459,250.90247536333,250.74049542392,250.81206004306,250.88233096673,205.78113230345,205.27697271389,227.69662759867,205.41174460223,205.73105282187,268.74822742817,268.58089485312,268.66496752701,268.68699608461,205.93287103986,205.1164269561,205.26724632132,205.87860240966,273.99639310866,268.77246433639,268.55987102289,268.64074187073,268.70796334441,251.01967325113,250.6384064859,250.69491552813,250.98399028238,273.99639310866,273.91652526541,273.91652526541,227.9430520217,227.9430520217,390.22596956172,387.36407608173,0
0.00030275,136937752.76229,8.9275590486791e-05,1.0353470953805,3.9079764113678e-07,-1.9823084433354e-07,1.8902901170282e-07,5.1924385133208e-07,5.6547482520437e-24,-6.2942577134168e-23,-1.5268500861114e-24,6.1326094137438e-26,-39.52884869556,63.753932699445,-52.314675340962,41.526599643449,-1.0127024422504e-06,8.5691937524364e-25,1.3380483293321e-23,-9.3775008510484e-24,-9.3133309135638e-26,1.3176227986993e-16,-9.0948717239505e-16,-7.2923156973095e-17,7.5521038415853e-18,-0.96576128062932,1.2080845647516,-7.8209694035914e-07,-1.2951496630835,1.0068609733543,1.8734625673002e-33,-4.2771603172607e-32,-2.0544995460168e-34,2.072051339783e-36,-1.0826564700983,1.1936900060568,-0.97579417351722,1.1817110027432,-1.1358940248609e-60,9.6071183520067e-35,4.7200549385918e-33,-2.9538477401442e-33,-3.7021131637901e-36,4.6500228434011e-17,3.1884075338576e-16,-2.2957757698045e-16,-1.0199581694256e-17,-2.7960285880439e-62,-1.7121945469092e-59,1.4240454027312e-57,4.9047072768207e-07,-1.4758190583625e-06,228.25079753134,228.25079753134,228.0042900674,228.0042900674,261.27636592469,261.0938440983,261.174803322,261.23302258278,200.58328919172,199.70106107489,199.93151170389,200.5071761146,227.72102201844,261.33764814596,261.04066212388,261.11356143841,261.28602321682,250.9338052949,250.7711414616,250.84317852096,250.91377210564,205.7960902237,205.28951314525,227.72102201844,205.42516489516,205.7460799545,268.78261024729,268.61458809042,268.69906778801,268.7212207177,205.94851619093,205.12832891412,205.28010555329,205.89411750059,274.03139842227,268.80696381551,268.59348774924,268.67472667859,268.74226511597,251.05156810025,250.66867675278,250.725473307,251.01580713331,274.03139842227,273.95122078365,273.95122078365,227.96837436437,227.96837436437,390.22903264853,387.35049302556,0
0.000303,137139847.54676,8.93497540324e-05,1.0353897335532,3.9969813101754e-07,-2.025008603819e-07,1.9298144945532e-07,5.3179891231514e-07,6.1364102689144e-24,-6.8873979930132e-23,-1.6494991803344e-24,6.5859389807557e-26,-39.489200739713,63.800647781429,-52.318606899028,41.491616088797,-1.0381547874741e-06,9.2273986713057e-25,1.4438060553119e-23,-1.0221857143056e-23,-1.0009873770519e-25,1.3949210773595e-16,-9.6810892117618e-16,-7.6949510312101e-17,7.9324349065472e-18,-0.96661550437605,1.2097748079679,-8.0359826255479e-07,-1.2967715814945,1.0074293740806,2.1021337733043e-33,-4.8638548807171e-32,-2.2946916900151e-34,2.2970651764426e-36,-1.0836627019108,1.1948732685343,-0.97620064671152,1.1830018167036,-1.523028019572e-60,1.0683146777278e-34,5.2486691969108e-33,-3.3348685265396e-33,-4.1090787757527e-36,4.8949731286374e-17,3.3653655940931e-16,-2.4394236580918e-16,-1.0720874095435e-17,-3.5698227452845e-62,-2.1398389931799e-59,1.870046110024e-57,5.0220500843169e-07,-1.5173355127668e-06,228.27751854272,228.27751854272,228.0300819791,228.0300819791,261.30959911571,261.1263185479,261.2077269109,261.26622084911,200.59330658536,199.70660088382,199.93855893401,200.51702611348,227.74545276613,261.37117509923,261.07294300639,261.14619372844,261.31941561589,250.96515319056,250.80180539513,250.8743162818,250.94523244052,205.81110710718,205.30211075019,227.74545276613,205.43864533088,205.76116885806,268.81700126518,268.64828943686,268.7331767973,268.75545396186,205.9642207904,205.14028878218,205.29302567729,205.90969266291,274.06640959064,268.84147158229,268.62711268968,268.70872016325,268.77657541006,251.08348135145,250.6989654053,250.75604998481,251.04764273446,274.06640959064,273.98592203434,273.98592203434,227.99373187805,227.99373187805,390.23226683472,387.33704878765,0
0.00030325,137342059.72259,8.9423917386164e-05,1.0354323662797,4.0877840277045e-07,-2.0685953919634e-07,1.9701345912893e-07,5.4462952549718e-07,6.6569107979658e-24,-7.5343730525308e-23,-1.7817586397216e-24,7.0727210365241e-26,-39.44959758426,63.847212343479,-52.322508679984,41.456800680995,-1.0641180742132e-06,9.9337774076095e-25,1.5573786358308e-23,-1.1138695207434e-23,-1.0758187150455e-25,1.4764405050537e-16,-1.0303046694408e-15,-8.1190662712259e-17,8.3319047091668e-18,-0.96746686694696,1.2114660662868,-8.2561553354089e-07,-1.2983869876705,1.0080011608646,2.3575294077513e-33,-5.5287935670313e-32,-2.5624092248718e-34,2.5464269462833e-36,-1.0846678072997,1.196048464262,-0.97660606519208,1.1842871035664,-2.0362557952199e-60,1.1874772669325e-34,5.8333868610555e-33,-3.7632435899011e-33,-4.5604817915685e-36,5.1520990643294e-17,3.5512916397106e-16,-2.5915058186872e-16,-1.1268598240049e-17,-4.5549985133644e-62,-2.6703970272886e-59,2.4529093485344e-57,5.1418043637256e-07,-1.5598438298475e-06,228.30427574789,228.30427574789,228.05591114239,228.05591114239,261.34284426634,261.15880489878,261.24066337228,261.29943185263,200.60338292258,199.71219415676,199.94566434779,200.52693622215,227.76991975352,261.40471422265,261.10523605096,261.17883871252,261.35282051975,250.99651897985,250.8324871714,250.90547324556,250.97671187823,205.82618279902,205.31476543721,227.76991975352,205.45218577457,205.77631934487,268.85140043877,268.681998865,268.76729451365,268.78969576692,205.97998465656,205.15230648535,205.30600658689,205.9253276968,274.1014265806,268.87598758913,268.66074581804,268.74272228823,268.81089417538,251.1154129121,250.72927239667,250.78664550408,251.07949698696,274.1014265806,274.02062898793,274.02062898793,228.0191244577,228.0191244577,390.23567173242,387.32374315514,0
0.0003035,137544389.52041,8.9498080553868e-05,1.0354749936208,4.1804172704753e-07,-2.1130879554996e-07,2.0112680751318e-07,5.5774119601317e-07,7.2192047086368e-24,-8.2398895583035e-23,-1.9243661082335e-24,7.5954468424656e-26,-39.410039719968,63.893624886854,-52.32638088036,41.422154911685,-1.0905994863551e-06,1.0691685168697e-24,1.6793035452833e-23,-1.2133929872072e-23,-1.1562120277727e-25,1.5623943393603e-16,-1.0962804340356e-15,-8.5657763655471e-17,8.7514978426094e-18,-0.96831529128641,1.213158251465,-8.481589312667e-07,-1.2999957713801,1.0085763119114,2.6426337240152e-33,-6.2821212199118e-32,-2.8607514151021e-34,2.8227758843638e-36,-1.0856716994821,1.1972154910205,-0.97701039758374,1.1855667419975,-2.7149753888571e-60,1.3193886208327e-34,6.4798357373706e-33,-4.2446354801373e-33,-5.0611569262702e-36,5.4219724017884e-17,3.7465961591143e-16,-2.7524837444124e-16,-1.1844102077413e-17,-5.8085703741225e-62,-3.3276869345303e-59,3.2137767679512e-57,5.264012197145e-07,-1.6033632722322e-06,228.3310689893,228.3310689893,228.08177741506,228.08177741506,261.37610132213,261.19130311489,261.27361264979,261.33265552435,200.61351801693,199.71784082208,199.95282782154,200.53690622064,227.79442289226,261.43826545033,261.13754122472,261.21149634602,261.38623785658,251.0279025925,250.8631867374,250.93664933227,251.00821032578,205.84131714444,205.32747711473,227.79442289226,205.46578609111,205.79153122708,268.88580772514,268.71571634744,268.80142089591,268.82394608284,205.99580760786,205.16438194846,205.31904817515,205.94102240256,274.13644935901,268.91051178859,268.69438710823,268.77673301701,268.84522136081,251.14736268982,250.75959768011,250.81725980729,251.11136979215,274.13644935901,274.05534161495,274.05534161495,228.04455199845,228.04455199845,390.23924695369,387.31057591419,0
0.00030375,137746837.16816,8.9572243541268e-05,1.0355176156366,4.2749143528464e-07,-2.1585059130068e-07,2.0532331241872e-07,5.7113953532641e-07,7.8264583809363e-24,-9.00905068078e-23,-2.078115049215e-24,8.1567973031857e-26,-39.370527644118,63.939883948,-52.330223711643,41.387680234595,-1.1176062663332e-06,1.1504700013053e-24,1.8101525796509e-23,-1.3213933448768e-23,-1.2425810760362e-25,1.6530057718455e-16,-1.1662534713905e-15,-9.0362532739104e-17,9.1922521056099e-18,-0.96916070244705,1.214851275939,-8.7123878636454e-07,-1.3015978236801,1.0091548051638,2.9607487472068e-33,-7.135261354212e-32,-3.1931615745302e-34,3.1290395930923e-36,-1.0866742922927,1.1983742498916,-0.97741361405068,1.1868406117815,-3.610421991882e-60,1.4653547588716e-34,7.1941762928957e-33,-4.7853573034222e-33,-5.6164647941541e-36,5.7051905468375e-17,3.951706492045e-16,-2.9228422929364e-16,-1.2448803770204e-17,-7.4027415409412e-62,-4.1408176960637e-59,4.2059024009418e-57,5.3887163930855e-07,-1.6479134007723e-06,228.35789810971,228.35789810971,228.10768065496,228.10768065496,261.40937022884,261.22381316023,261.30657468715,261.3658917954,200.62371168184,199.72354080805,199.96004923105,200.54693588853,227.81896209389,261.4718287166,261.16985849481,261.24416658433,261.41966755474,251.05930395842,250.8939040402,250.96784446204,251.03972769035,205.85650998878,205.34024569108,227.81896209389,205.47944614506,205.80680431666,268.9202230815,268.74944185687,268.83555590293,268.85820485968,206.01168946298,205.17651509608,205.33215033469,205.95677658062,274.17147789284,268.94504413336,268.72803653417,268.81075231314,268.87955691534,251.17933059252,250.78994120883,250.84789283692,251.14326105171,274.17147789284,274.09005988602,274.09005988602,228.07001439559,228.07001439559,390.24299211127,387.29754685067,0
0.000304,137949402.89081,8.9646406354086e-05,1.0355602323861,4.3713092118886e-07,-2.2048693675774e-07,2.0960484449364e-07,5.8483026362539e-07,8.4820639245809e-24,-9.8473882958257e-23,-2.2438589534011e-24,8.7596579270718e-26,-39.331061850148,63.985988087678,-52.334037390386,41.353378056909,-1.1451457160982e-06,1.2376637084139e-24,1.9505338981263e-23,-1.4385569168656e-23,-1.3353706517707e-25,1.7485083561476e-16,-1.2404528595688e-15,-9.5317289082153e-17,9.6552615986054e-18,-0.97000302753446,1.2165450526737,-8.9486558388261e-07,-1.303193036685,1.0097366181676,3.3155264820317e-33,-8.1010728106887e-32,-3.5634649098419e-34,3.4684660237684e-36,-1.0876755000389,1.1995246451601,-0.97781568613702,1.1881085938372,-4.7890930772985e-60,1.6268097261183e-34,7.9831492572474e-33,-5.392444425859e-33,-6.2323493045167e-36,6.0023776926116e-17,4.1670674565029e-16,-3.1030907736434e-16,-1.3084195483014e-17,-9.4289022202779e-62,-5.1453144826976e-59,5.4981442410104e-57,5.5159605057369e-07,-1.6935140791537e-06,228.38476295225,228.38476295225,228.13362072002,228.13362072002,261.44265093236,261.25633499889,261.33954942811,261.39914059712,200.63396373063,199.72929404286,199.9673284516,200.55702500498,227.84353726984,261.50540395597,261.20218782839,261.2768493828,261.45310954282,251.09072300773,250.92463902701,250.99905855501,251.07126387931,205.87176117751,205.3530710745,227.84353726984,205.49316580072,205.82213842549,268.95464646517,268.783175366,268.86969949361,268.89247204768,206.02763004076,205.18870585252,205.34531295761,205.97259003155,274.2065121491,268.97958457627,268.76169406982,268.84478014015,268.91390078817,251.21131652837,250.82030293601,250.8785445354,251.17517066754,274.2065121491,274.12478377183,274.12478377183,228.09551154456,228.09551154456,390.2469068177,387.28465574931,0
0.00030425,138152086.91024,8.9720568998016e-05,1.0356028439277,4.4696364231964e-07,-2.2521989226394e-07,2.1397332934029e-07,5.988192123412e-07,9.1896542981416e-24,-1.0760897706971e-22,-2.4225158604542e-24,9.4071350338754e-26,-39.291642836499,64.031935891844,-52.337822139309,41.319249748597,-1.1732251983823e-06,1.3311563741521e-24,2.1010941790389e-23,-1.5656226916058e-23,-1.4350589472364e-25,1.8491464537474e-16,-1.3191201087316e-15,-1.0053498217165e-16,1.0141680028538e-17,-0.97084219576739,1.218239495193,-9.1904996519745e-07,-1.3047813035451,1.0103217280466,3.7110042247389e-33,-9.1940250627701e-32,-3.9759104958339e-34,3.8446590868076e-36,-1.0886752375217,1.2006665841945,-0.97821658683018,1.1893705701492,-6.3371288912225e-60,1.805327616837e-34,8.8541272593484e-33,-6.07373374616e-33,-6.9154014105373e-36,6.3141860068068e-17,4.3931419976487e-16,-3.2937640801942e-16,-1.3751847422715e-17,-1.200266830487e-61,-6.3844729428095e-59,7.1794410626898e-57,5.6457888559614e-07,-1.7401854779166e-06,228.41166336039,228.41166336039,228.15959746826,228.15959746826,261.47594337877,261.28886859502,261.37253681648,261.43240186099,200.64427397647,199.73510045458,199.97466535795,200.56717334875,227.86814833141,261.5389911032,261.23452919263,261.30954469681,261.48656374964,251.12215967072,250.95539164507,251.03029153143,251.10281880017,205.88707055617,205.36595317311,227.86814833141,205.50694492211,205.83753336528,268.98907783362,268.81691684764,268.90385162692,268.92674759718,206.04362916028,205.20095414181,205.35853593555,205.98846255609,274.24155209488,269.01413307032,268.79535968917,268.87881646162,268.94825292862,251.24332040583,250.85068281483,250.90921484514,251.20709854185,274.24155209488,274.15951324317,274.15951324317,228.12104334097,228.12104334097,390.25099068562,387.27190239396,0
0.0003045,138354889.44493,8.9794731478714e-05,1.0356454503188,4.5699312172984e-07,-2.3005156963377e-07,2.1843074975535e-07,6.1311232713491e-07,9.953119380049e-24,-1.1756075080981e-22,-2.615073225346e-24,1.0102573319142e-25,-39.252271099943,64.077725981826,-52.341578191287,41.28529662869,-1.2018521373667e-06,1.4313815628719e-24,2.2625208971413e-23,-1.7033861416723e-23,-1.5421601003257e-25,1.9551756976266e-16,-1.4025098018073e-15,-1.060292244081e-16,1.0652724231334e-17,-0.97167813833812,1.2199345176277,-9.4380272971521e-07,-1.3063625185552,1.0109101115642,4.1516432632932e-33,-1.0430394332848e-31,-4.4352178539303e-34,4.2616183179268e-36,-1.089673419999,1.2017999775329,-0.97861629039728,1.1906264239122,-8.3659053232152e-60,2.0026356825172e-34,9.8151708340901e-33,-6.8379513048093e-33,-7.6729298117007e-36,6.6412968700323e-17,4.6304118593268e-16,-3.4954238715463e-16,-1.445341205545e-17,-1.5270228512725e-61,-7.9109866483947e-59,9.3645465409592e-57,5.7782465524314e-07,-1.7879480789348e-06,228.43859917794,228.43859917794,228.18561075777,228.18561075777,261.50924751427,261.32141391283,261.40553679611,261.46567551867,200.65464223244,199.74095997116,199.98205982433,200.57738069818,227.89279518978,261.57259009322,261.26688255469,261.34225248173,261.52003010423,251.15361387786,250.98616184177,251.06154331159,251.13439236065,205.90243797046,205.37889189491,227.89279518978,205.52078337294,205.85298894766,269.02351714443,268.85066627462,268.93801226184,268.96103145869,206.05968664082,205.21325988772,205.37181915967,206.00439395516,274.27659769736,269.04868956867,268.82903336625,268.91286124115,268.98261328619,251.27534213365,250.88108079845,250.93990370853,251.23904457714,274.27659769736,274.19424827089,274.19424827089,228.14660968057,228.14660968057,390.25524332767,387.25928656761,0
0.00030475,138557810.70985,8.9868893801797e-05,1.0356880516157,4.6722294958448e-07,-2.3498413373558e-07,2.2297914794151e-07,6.2771566994479e-07,1.0776623048663e-23,-1.2839957801679e-22,-2.8225931519974e-24,1.0849574880195e-25,-39.212947136022,64.12335700269,-52.345305787269,41.251519980149,-1.2310340203021e-06,1.5388013758304e-24,2.4355447288695e-23,-1.8527033028706e-23,-1.6572269451862e-25,2.0668634750584e-16,-1.4908902667052e-15,-1.1181432523727e-16,1.1189677912456e-17,-0.97251078843042,1.221630034574,-9.6913483674706e-07,-1.3079365770513,1.011501745045,4.6423712736865e-33,-1.1828482919618e-31,-4.9466286338465e-34,4.7237830698653e-36,-1.0906699632018,1.2029247388229,-0.97901477242219,1.1918760394196,-1.1019162895971e-59,2.220628623084e-34,1.0875089152553e-32,-7.694809064191e-33,-8.5130394968852e-36,6.9844221743754e-17,4.8793782810459e-16,-3.7086598018354e-16,-1.5190628602244e-17,-1.9416336143793e-61,-9.7889002464889e-59,1.2201366225548e-56,5.913379514448e-07,-1.8368226799129e-06,228.46557024909,228.46557024909,228.21166044677,228.21166044677,261.54256328526,261.35397091658,261.43854931091,261.49896150198,200.66506831147,199.74687252041,199.98951172446,200.58764683124,227.91747775601,261.60620086122,261.29924788176,261.37497269291,261.55350853585,251.18508555983,251.01694956453,251.09281381588,251.16598446868,205.91786326615,205.39188714779,227.91747775601,205.53468101669,205.86850498416,269.05796435534,268.88442361984,268.97218135741,268.99532358286,206.07580230186,205.2256230137,205.38516252063,206.02038402986,274.31164892378,269.0832540246,268.86271507513,268.94691444236,269.01698181056,251.30738162085,250.91149684001,250.97061106791,251.2710086762,274.31164892378,274.22898882595,274.22898882595,228.17221045925,228.17221045925,390.25966435636,387.24680805212,0
0.000305,138760850.91621,8.9943055972846e-05,1.0357306478741,4.7765678503095e-07,-2.4001980416398e-07,2.2762062802368e-07,6.426354219876e-07,1.1664621332247e-23,-1.4020167957658e-22,-3.0462180283091e-24,1.1652019863246e-25,-39.173671447989,64.16882762673,-52.349005172565,41.217921046973,-1.260778398488e-06,1.6539082672714e-24,2.6209420918245e-23,-2.0144951310966e-23,-1.7808539790322e-25,2.1844894298892e-16,-1.5845442810769e-15,-1.1790532725341e-16,1.1753895654223e-17,-0.97334008118999,1.2233259610834,-9.9505740745009e-07,-1.3095033753285,1.0120966043905,5.1886287503288e-33,-1.3408864402949e-31,-5.5159639667772e-34,5.2360817727859e-36,-1.0916647832262,1.2040407847913,-0.97941200969599,1.1931193021498,-1.4482078962713e-59,2.4613841634562e-34,1.2043505858931e-32,-8.6551117807563e-33,-9.4447189608871e-36,7.3443056847065e-17,5.1405627181354e-16,-3.934090802469e-16,-1.5965327796758e-17,-2.4674367243809e-61,-1.2095950496807e-58,1.5880335835719e-56,6.0512344955034e-07,-1.886830398503e-06,228.49257641843,228.49257641843,228.23774639357,228.23774639357,261.5758906383,261.38653957061,261.47157430487,261.53225974295,200.67555202636,199.75283803,199.99702093154,200.59797152547,227.94219594104,261.63982334258,261.33162514101,261.40770528572,261.586998974,251.21657464745,251.04775476089,251.12410296476,251.19759503235,205.93334628913,205.4049388395,227.94219594104,205.54863771656,205.88408128624,269.0924194242,268.91818885624,269.00635887273,269.02962392049,206.09197596313,205.23804344292,205.39856590862,206.03643258151,274.34670574144,269.11782639156,268.89640478989,268.98097602888,269.05135845156,251.33943877676,250.94193089261,251.00133686561,251.30299074214,274.34670574144,274.2637348794,274.2637348794,228.19784557307,228.19784557307,390.26425338416,387.23446662836,0
0.00030525,138964010.27134,9.0017217997394e-05,1.0357732391484,4.8829835779603e-07,-2.451608570046e-07,2.3235735850195e-07,6.5787788657941e-07,1.2621881692673e-23,-1.5304959204599e-22,-3.28717658996e-24,1.2514088844454e-25,-39.134444531906,64.214136554928,-52.352676597509,41.184501032856,-1.2910928884716e-06,1.777226971658e-24,2.8195378268279e-23,-2.1897521543415e-23,-1.9136805606872e-25,2.3083459855015e-16,-1.6837698119471e-15,-1.2431804418898e-16,1.2346807168157e-17,-0.97416595359018,1.2250222127076,-1.021581726753e-06,-1.3110628105996,1.0126946650599,5.7964198351737e-33,-1.5194657696638e-31,-6.1496881106301e-34,5.8039868560471e-36,-1.0926577965964,1.205148035279,-0.97980798013707,1.194356098858,-1.8992794394908e-59,2.727180023711e-34,1.333093043238e-32,-9.7308749752127e-33,-1.0477937047482e-35,7.7217244518606e-17,5.4145075886598e-16,-4.1723664175432e-16,-1.6779436910404e-17,-3.1338974105336e-61,-1.4926368691498e-58,2.0646396674814e-56,6.1918591077125e-07,-1.9379926770215e-06,228.51961753088,228.51961753088,228.26386845662,228.26386845662,261.60922952007,261.41911983928,261.504611722,261.56557017377,200.68609318977,199.75885642745,200.00458731824,200.60835455805,227.96694965568,261.6734574729,261.36401429962,261.44045021554,261.62050134842,251.24808107177,251.07857737846,251.15541067879,251.22922395998,205.94888688541,205.41804687765,227.96694965568,205.56265333551,205.8997176653,269.12688230899,268.95196195682,269.04054476693,269.06393242253,206.10820744458,205.25052109826,205.41202921336,206.05253941164,274.38176811775,269.15240662318,268.93010248466,269.01504596438,269.08574315921,251.37151351099,250.97238290933,251.03208104394,251.33499067834,274.38176811775,274.29848640236,274.29848640236,228.22351491822,228.22351491822,390.26901002321,387.222262076,0
0.0003055,139167288.9784,9.0091379880934e-05,1.0358158254921,4.991514700792e-07,-2.504096265799e-07,2.3719157495151e-07,6.7344949205962e-07,1.365350350858e-23,-1.6703267251361e-22,-3.5467904473512e-24,1.3440287127794e-25,-39.095266899977,64.259282519098,-52.356320319287,41.151261100996,-1.3219851734346e-06,1.9093165567053e-24,3.0322080301426e-23,-2.3795394387497e-23,-2.0563943616185e-25,2.4387388888925e-16,-1.7888807912887e-15,-1.3106910094904e-16,1.2969921844317e-17,-0.97498834460539,1.2267187054608,-1.0487192454153e-06,-1.3126147810534,1.0132959020465,6.4723679421209e-33,-1.7211833245907e-31,-6.8549790825445e-34,6.4335760101753e-36,-1.0936489201663,1.2062464130339,-0.98020266276672,1.1955863173681,-2.4857035813684e-59,3.0205124158337e-34,1.4748835523072e-32,-1.0935455101942e-32,-1.1623750516283e-35,8.1174903085587e-17,5.7017770473542e-16,-4.4241681952692e-16,-1.7634985068483e-17,-3.9781997186999e-61,-1.8394231236968e-58,2.6814272025367e-56,6.3353018474692e-07,-1.990331286928e-06,228.54669343177,228.54669343177,228.29002649449,228.29002649449,261.64257987746,261.45171168705,261.53766150643,261.59889272684,200.69669161421,199.7649276401,200.01221075672,200.61879570578,227.99173881061,261.70710318803,261.39641532478,261.47320743772,261.65401558909,251.27960476399,251.10941736492,251.18673687862,251.26087116011,205.96448490109,205.43121116971,227.99173881061,205.57672773623,205.9154139327,269.16135296783,268.98574289463,269.07473899922,269.0982490401,206.12449656639,205.26305590225,205.42555232408,206.068704322,274.41683602017,269.1869946732,268.96380813357,269.04912421258,269.12013588369,251.40360573344,251.00285284324,251.06284354517,251.36700838853,274.41683602017,274.33324336604,274.33324336604,228.24921839102,228.24921839102,390.27393388561,387.21019417357,0
0.00030575,139370687.23627,9.0165541628911e-05,1.0358584069574,5.1021999875346e-07,-2.5576850730079e-07,2.4212558285185e-07,6.8935679475829e-07,1.4764939831058e-23,-1.8224764240039e-22,-3.82648111261e-24,1.4435471128532e-25,-39.056139049774,64.304264269168,-52.359936596341,41.118202377921,-1.3534630047962e-06,2.0507726030337e-24,3.2598830439849e-23,-2.5850018881955e-23,-2.2097350903705e-25,2.5759877771652e-16,-1.9002079293392e-15,-1.3817597581277e-16,1.362483360739e-17,-0.97580719487135,1.2284153555635,-1.076481581878e-06,-1.3141591856292,1.0139002898663,7.2237766084083e-33,-1.948955503175e-31,-7.6398070533111e-34,7.1316005495344e-36,-1.094638071134,1.2073358439436,-0.98059603767489,1.1968098468074,-3.2466636171382e-59,3.3441161881376e-34,1.6309740746337e-32,-1.2283693125044e-32,-1.2894423536994e-35,8.532451429592e-17,6.0029577875255e-16,-4.6902111360162e-16,-1.8534108880609e-17,-5.0472466535226e-61,-2.2637460740073e-58,3.4787934987281e-56,6.481612122136e-07,-2.0438683334743e-06,228.57380396685,228.57380396685,228.3162203659,228.3162203659,261.6759416575,261.48431507839,261.57072360231,261.63222733476,200.70734711204,199.77105159513,200.01989111862,200.62929474508,228.01656331638,261.74076042402,261.42882818368,261.50597690765,261.68754162624,251.31114565549,251.14027466801,251.218081485,251.29253654148,205.98014018238,205.44443162297,228.01656331638,205.59086078119,205.93116989977,269.19583135897,269.01953164276,269.10894152885,269.13257372445,206.14084314897,205.27564777712,205.43913512951,206.08492711463,274.45190941626,269.22159049556,268.99752171082,269.0832107372,269.15453657538,251.43571535434,251.03334064737,251.09362431156,251.39904377673,274.45190941626,274.36800574177,274.36800574177,228.27495588793,228.27495588793,390.2790245827,387.19826269807,0
0.000306,139574205.23936,9.023970324672e-05,1.0359009835957,5.2150789716621e-07,-2.6123995563553e-07,2.471617605561e-07,7.05606482167e-07,1.5962020486672e-23,-1.9879917311678e-22,-4.1277775654209e-24,1.5504877031362e-25,-39.017061492507,64.349080590944,-52.363525692183,41.085325953508,-1.3855342033586e-06,2.2022295213126e-24,3.5035506136914e-23,-2.8073698990489e-23,-2.3744985127356e-25,2.7204267672027e-16,-2.0180995674741e-15,-1.4565704493125e-16,1.4313226102326e-17,-0.97662244689341,1.2301120797409,-1.1048805244289e-06,-1.3156959241185,1.0145078025734,8.0586960417029e-33,-2.2060562454454e-31,-8.5130213602479e-34,7.9055617262984e-36,-1.0956251670549,1.2084162567631,-0.9809880859076,1.1980265775624,-4.2322957381295e-59,3.7009867689324e-34,1.8027303457982e-32,-1.379207282156e-32,-1.4303560452563e-35,8.9674939613037e-17,6.318659870819e-16,-4.9712452011355e-16,-1.9479058404576e-17,-6.400173380021e-61,-2.7822598186153e-58,4.5085393241361e-56,6.6308402785133e-07,-2.0986262603306e-06,228.60094898222,228.60094898222,228.34244992971,228.34244992971,261.70931480737,261.51692997784,261.6037979539,261.66557393031,200.71805949547,199.77722821953,200.02762827505,200.63985145198,228.04142308342,261.77442911714,261.46125284347,261.5387585807,261.72107939034,251.34270367785,251.17114923558,251.24944441878,251.32422001306,205.99585257561,205.4577081446,228.04142308342,205.60505233264,205.94698537785,269.23031744079,269.05332817436,269.14315231513,269.16690642703,206.15724701301,205.28829664477,205.45277751796,206.10120759181,274.48698827365,269.25619404432,269.03124319061,269.117305502,269.18894518483,251.46784228418,251.0638462747,251.12442328532,251.43109674731,274.48698827365,274.40277350093,274.40277350093,228.30072730556,228.30072730556,390.2842817258,387.18646742545,0
0.00030625,139777843.17737,9.0313864739704e-05,1.035943555457,5.3301919716381e-07,-2.6682649210408e-07,2.5230256243183e-07,7.2220537611468e-07,1.7250976607078e-23,-2.1680051666452e-22,-4.4523243998908e-24,1.6654151937737e-25,-38.978034739108,64.393730293099,-52.36708787216,41.052632881698,-1.4182066608496e-06,2.3643630162503e-24,3.7642592216588e-23,-3.0479653921778e-23,-2.5515407918405e-25,2.8724050694609e-16,-2.1429225723312e-15,-1.5353162923063e-16,1.5036878237305e-17,-0.97743404489463,1.2318087949591,-1.1339280332885e-06,-1.3172248970417,1.0151184137213,8.9859958709421e-33,-2.4961596612842e-31,-9.484447094432e-34,8.7637959591273e-36,-1.0966101257734,1.2094875831955,-0.98137878942326,1.1992364012937,-5.5066468392286e-59,4.0944040641264e-34,1.9916417081555e-32,-1.5478895257427e-32,-1.5866253308854e-35,9.4235437322457e-17,6.6495175880516e-16,-5.2680568836659e-16,-2.0472203461129e-17,-8.1115038927927e-61,-3.4150488156687e-58,5.837021187044e-56,6.7830376320751e-07,-2.1546278542221e-06,228.62812832443,228.62812832443,228.36871504496,228.36871504496,261.74269927442,261.54955634998,261.6368845055,261.69893244649,200.72882857655,199.78345744009,200.03542209662,200.65046560216,228.06631802204,261.8081092039,261.49368927135,261.57155241227,261.75462881214,251.3742787628,251.2020410155,251.28082560091,251.35592148407,206.0116219272,205.47104064155,228.06631802204,205.61930225258,205.96286017827,269.26481117182,269.08713246262,269.17737131744,269.20124709945,206.17370797942,205.30100242678,205.46647937721,206.11754555608,274.52207256006,269.29080527375,269.06497254716,269.15140847078,269.22336166278,251.49998643378,251.0943696782,251.15524040868,251.46316720495,274.52207256006,274.43754661502,274.43754661502,228.32653254062,228.32653254062,390.28970492566,387.17480813016,0
0.0003065,139981601.23519,9.0388026113154e-05,1.0359861225904,5.4475801114663e-07,-2.7253070335862e-07,2.5755052219273e-07,7.3916043608763e-07,1.8638466670825e-23,-2.3637418453037e-22,-4.801890599057e-24,1.7889387735841e-25,-38.939059303091,64.43821221702,-52.370623402755,41.020124181116,-1.4514883414121e-06,2.5378927065282e-24,4.0431216073425e-23,-3.3082082461662e-23,-2.7417831741336e-25,3.032287627112e-16,-2.2750632732578e-15,-1.6182004388687e-16,1.5797670112196e-17,-0.97824193474554,1.2335054185872,-1.1636362428017e-06,-1.3187460055986,1.015732096363,1.001544465402e-32,-2.8233875997002e-31,-1.0564992326376e-33,9.7155700600931e-36,-1.0975928654125,1.2105497578195,-0.98176813100885,1.2004392109029,-7.1514041626457e-59,4.5279584804377e-34,2.1993317598956e-32,-1.7364471018593e-32,-1.7599245813457e-35,9.9015680449465e-17,6.9961903510123e-16,-5.581470843898e-16,-2.1516040321444e-17,-1.0275114434819e-60,-4.1863044009666e-58,7.5491566993922e-56,6.93825649854e-07,-2.211896249651e-06,228.65534184042,228.65534184042,228.39501557084,228.39501557084,261.77609500617,261.58219415944,261.66998320153,261.73230281652,200.73965416715,199.78973918343,200.0432724534,200.66113697092,228.0912480424,261.84180062105,261.52613743447,261.60435835774,261.78818982261,251.40587084228,251.23294995575,251.31222495249,251.38764086395,206.02744808369,205.48442902065,228.0912480424,205.63361040282,205.97879411238,269.2993125107,269.12094448078,269.21159849521,269.23559569346,206.19022586938,205.31376504436,205.48024059461,206.13394081029,274.55716224327,269.32542413823,269.09870975473,269.18551960736,269.25778596016,251.53214771427,251.12491081081,251.18607562381,251.49525505466,274.55716224327,274.47232505562,274.47232505562,228.35237148998,228.35237148998,390.29529379258,387.16328458514,0
0.00030675,140185479.59264,9.0462187372306e-05,1.0360286850434,5.5672853457233e-07,-2.7835524440307e-07,2.6290825637384e-07,7.5647876266073e-07,2.0131604146716e-23,-2.5765267845349e-22,-5.1783789866651e-24,1.9217157949322e-25,-38.900135702189,64.482525220324,-52.374132550993,40.987800837369,-1.4853872832854e-06,2.7235849119496e-24,4.3413184832771e-23,-3.5896231550659e-23,-2.9462170515357e-25,3.2004557814491e-16,-2.4149284451447e-15,-1.705436505171e-16,1.6597589360653e-17,-0.97904606401508,1.235201868115,-1.1940174635372e-06,-1.3202591515952,1.0163488230377,1.1157796742468e-32,-3.1923627164041e-31,-1.1766767153215e-33,1.0771187682692e-35,-1.0985733044026,1.2116027180498,-0.98215609426383,1.2016349006838,-9.2705913836712e-59,5.0055792607681e-34,2.4275698862755e-32,-1.9471331914273e-32,-1.952111559801e-35,1.0402577559536e-16,7.3593636164621e-16,-5.9123516100167e-16,-2.261319880019e-17,-1.300920806617e-60,-5.1251289121792e-58,9.7535089630381e-56,7.0965502251966e-07,-2.2704549337622e-06,228.68258937756,228.68258937756,228.42135136674,228.42135136674,261.80950195028,261.61484337089,261.70309398648,261.76568497381,200.75053607897,199.79607337591,200.05117921497,200.6718653332,228.11621305456,261.87550330555,261.5585973,261.63717637253,261.82176235303,251.43747984837,251.26387600434,251.34364239469,251.41937806238,206.04333089173,205.49787318851,228.11621305456,205.64797664495,205.99478699158,269.33382141622,269.15476420212,269.24583380796,269.26995216102,206.20680050433,205.3265844184,205.49406105702,206.15039315761,274.59225729117,269.36005059235,269.1324547876,269.21963887563,269.29221802809,251.56432603708,251.15546962541,251.21692887289,251.5273602018,274.59225729117,274.50710879442,274.50710879442,228.37824405062,228.37824405062,390.30104793619,387.15189656183,0
0.000307,140389478.42436,9.0536348522337e-05,1.0360712428627,5.6893504803441e-07,-2.8430284083478e-07,2.6837846805591e-07,7.7416760104566e-07,2.173798683073e-23,-2.8077927683559e-22,-5.5838364094818e-24,2.0644557849058e-25,-38.861264457422,64.526668189728,-52.377615583394,40.955663802652,-1.5199116004558e-06,2.9222556169041e-24,4.660102458776e-23,-3.8938469402543e-23,-3.1659094290932e-25,3.377307964675e-16,-2.5629463383174e-15,-1.7972491223565e-16,1.7438737942108e-17,-0.97984638185068,1.236898061227,-1.2250841846991e-06,-1.3217642373946,1.0169685657526,1.2424887151318e-32,-3.6082676565167e-31,-1.3103215881827e-33,1.194210836807e-35,-1.0995513614051,1.2126464041445,-0.98254266353092,1.2028233662228,-1.1996473202685e-58,5.5315653328195e-34,2.6782837452355e-32,-2.1824464059256e-32,-2.1652476846749e-35,1.0927628262081e-16,7.739749844318e-16,-6.261605350585e-16,-2.3766449766856e-17,-1.6462556168022e-60,-6.26649044333e-58,1.2588734462144e-55,7.2579732255785e-07,-2.3303277510351e-06,228.70987078365,228.70987078365,228.44772229221,228.44772229221,261.84292005459,261.64750394905,261.73621680491,261.79907885202,200.76147412352,199.80245994373,200.05914225037,200.68265046358,228.14121296843,261.9092171946,261.5910688351,261.67000641206,261.85534633491,251.46910571335,251.29481910936,251.37507784886,251.45113298932,206.05927019806,205.51137305157,228.14121296843,205.66240084039,206.01083862732,269.36833784731,269.18859159996,269.28007721525,269.30431645425,206.22343170598,205.33946046944,205.50794065086,206.1669024015,274.62735767174,269.39468459082,269.16620762009,269.25376623948,269.32665781789,251.59652131395,251.18604607488,251.24780009806,251.55948255206,274.62735767174,274.54189780318,274.54189780318,228.40415011965,228.40415011965,390.3069669655,387.14064383002,0
0.00030725,140593597.89959,9.0610509568366e-05,1.0361137960934,5.8138191962819e-07,-2.9037629137352e-07,2.7396395082794e-07,7.9223434478697e-07,2.3465727981623e-23,-3.0590888093901e-22,-6.0204647098422e-24,2.2179248150728e-25,-38.82244609576,64.570640051537,-52.381072763826,40.923713998412,-1.5550694840551e-06,3.1347736229247e-24,5.0008021819179e-23,-4.2226363417261e-23,-3.4020088364742e-25,3.5632604216393e-16,-2.719567758035e-15,-1.8938745177207e-16,1.8323339424263e-17,-0.9806428389505,1.2385939159702,-1.2568490763264e-06,-1.3232611658169,1.0175912960108,1.3829735144771e-32,-4.0769110381645e-31,-1.4589263818636e-33,1.3241080755764e-35,-1.1005269553618,1.2136807590516,-0.98292782378152,1.204004504542,-1.5496969024841e-58,6.1106188914429e-34,2.9535727843847e-32,-2.4451564383641e-32,-2.4016205643575e-35,1.1477823530538e-16,8.1380894894338e-16,-6.6301817173564e-16,-2.4978713132093e-17,-2.0822326937566e-60,-7.6523552318905e-58,1.6231752329606e-55,7.4225810155448e-07,-2.3915389080948e-06,228.73718590692,228.73718590692,228.47412820703,228.47412820703,261.87634926709,261.68017585866,261.76935160149,261.832484385,200.77246811215,199.80889881282,200.06716142814,200.69349213624,228.16624769382,261.94294222563,261.6235520069,261.70284843177,261.88894170004,251.50074836967,251.32577921895,251.40653123643,251.48290555494,206.07526584955,205.5249285161,228.16624769382,205.67688285035,206.02694883113,269.40286176301,269.22242664768,269.31432867673,269.33868852545,206.24011929632,205.35239311767,205.52187926208,206.18346834577,274.66246335303,269.42932608855,269.19996822652,269.28790166287,269.36110528106,251.62873345695,251.21664011202,251.27868924148,251.5916220115,274.66246335303,274.57669205378,274.57669205378,228.43008959429,228.43008959429,390.31305048907,387.12952615795,0
0.0003075,140797838.18201,9.0684670515449e-05,1.0361563447795,5.9407360754238e-07,-2.9657846974279e-07,2.7966759283188e-07,8.1068653958173e-07,2.5323489356796e-23,-3.3320892531161e-22,-6.4906325507869e-24,2.3829502613403e-25,-38.783681147968,64.614439734173,-52.384504358408,40.891952315148,-1.5908692045094e-06,3.3620639034154e-24,5.3648267134576e-23,-4.5778763190246e-23,-3.65575170356e-25,3.7587479612705e-16,-2.8852671963562e-15,-1.9955611281377e-16,1.9253746770882e-17,-0.98143538748936,1.2402893502983,-1.2893249916699e-06,-1.3247498401878,1.018216984766,1.5386657300377e-32,-4.6048009971814e-31,-1.624148029665e-33,1.4682291701844e-35,-1.1015000053676,1.2147057284957,-0.98331156068434,1.2051782140002,-1.9984948635214e-58,6.7478819549802e-34,3.2557228735921e-32,-2.7383322828097e-32,-2.6637690492465e-35,1.2054316305401e-16,8.5551520321624e-16,-7.0190757620369e-16,-2.6253066226949e-17,-2.6323901206195e-60,-9.3330293264608e-58,2.0908084747719e-55,7.5904302489687e-07,-2.45411297895e-06,228.76453459604,228.76453459604,228.50056897117,228.50056897117,261.90978953593,261.71285906453,261.80249832099,261.86590150687,200.78351785597,199.81538990891,200.07523661633,200.70439012503,228.19131714039,261.97667833633,261.65604678256,261.73570238711,261.92254838049,251.53240774996,251.35675628132,251.43800247899,251.51469566972,206.09131769316,205.53853948814,228.19131714039,205.69142253588,206.04311741462,269.43739312254,269.25626931868,269.34858815213,269.37306832709,206.25686309762,205.3653822829,205.53587677619,206.20009079456,274.69757430319,269.4639750406,269.23373658124,269.32204510978,269.39556036933,251.66096237845,251.24725168963,251.30959624525,251.6237784865,274.69757430319,274.61149151818,274.61149151818,228.4560623719,228.4560623719,390.31929811446,387.11854331198,0
0.00030775,141002199.42959,9.0758831368582e-05,1.0361988889636,6.0701466341936e-07,-3.0291232805431e-07,2.8549238129517e-07,8.2953188705269e-07,2.7320516268155e-23,-3.6286035703896e-22,-6.9968881602537e-24,2.5604259980707e-25,-38.744970148464,64.658066203568,-52.387910629359,40.860379608954,-1.6273191137613e-06,3.6051111764727e-24,5.7536701446938e-23,-4.9615888898035e-23,-3.9284692815684e-25,3.9642247402855e-16,-3.0605440178816e-15,-2.1025702471513e-16,2.0232450728957e-17,-0.98222398118814,1.2419842822293,-1.322524968798e-06,-1.3262301640926,1.0188456024058,1.7111390888284e-32,-5.1992271337601e-31,-1.807825975135e-33,1.6281533326409e-35,-1.1024704307566,1.2157212606313,-0.98369386074621,1.206344394544,-2.5729871651858e-58,7.4489761594712e-34,3.5872221433644e-32,-3.0653732655004e-32,-2.9545111241604e-35,1.2658311380913e-16,8.9917370468915e-16,-7.4293299261886e-16,-2.7592752874933e-17,-3.3263176210197e-60,-1.1368746598772e-57,2.6904933204689e-55,7.7615787597999e-07,-2.518074910102e-06,228.79191670011,228.79191670011,228.52704444484,228.52704444484,261.94324080943,261.7455535315,261.83565690827,261.89933015194,200.79462316591,199.82193315749,200.08336768247,200.71534420338,228.21642121771,262.0104254646,261.68855312919,261.76856823355,261.9561663086,251.56408378701,251.38775024473,251.46949149828,251.54650324437,206.10742557598,205.55220587356,228.21642121771,205.70601975786,206.05934418951,269.47193188522,269.29011958643,269.38285560125,269.40745581186,206.27366293241,205.37842788461,205.54993307824,206.21676955237,274.73269049045,269.49863140221,269.26751265864,269.35619654428,269.43002303459,251.69320799116,251.27788076046,251.34052105151,251.65595188381,274.73269049045,274.64629616845,274.64629616845,228.48206834995,228.48206834995,390.32570944857,387.10769505666,0
0.000308,141206681.79433,9.0832992132687e-05,1.0362414286868,6.2020973180438e-07,-3.0938089964279e-07,2.9144140738361e-07,8.4877824914901e-07,2.9466674741802e-23,-3.9505868826087e-22,-7.5419730807946e-24,2.7513180671198e-25,-38.706313632425,64.701518468836,-52.391291812727,40.828996729139,-1.6644276438142e-06,3.8649636926311e-24,6.168916461151e-23,-5.375942565431e-23,-4.2215951006942e-25,4.1801650752915e-16,-3.2459236971236e-15,-2.2151767103335e-16,2.1262088834549e-17,-0.98300857501216,1.2436786304687,-1.3564622368903e-06,-1.3277020411678,1.0194771188159,1.9021228447604e-32,-5.8683517850531e-31,-2.0120022917706e-33,1.8056390253015e-35,-1.103438151404,1.2167273073355,-0.98407470988616,1.2075029472108,-3.3072342837174e-58,8.2200460582754e-34,3.9507781196348e-32,-3.4300431752409e-32,-3.2769749164678e-35,1.3291067737171e-16,9.4486752910823e-16,-7.8620361408076e-16,-2.9001192873071e-17,-4.2011983480585e-60,-1.3831546451611e-57,3.4587698981055e-55,7.9360856001663e-07,-2.5834500220728e-06,228.8193320687,228.8193320687,228.55355448846,228.55355448846,261.97670303605,261.77825922442,261.86882730829,261.93277025479,200.80578385267,199.82852848381,200.09155449356,200.72635414439,228.24155983521,262.04418354859,261.72107101392,261.80144592661,261.989795417,251.59577641381,251.41876105748,251.50099821617,251.57832818991,206.1235893452,205.56592757803,228.24155983521,205.72067437703,206.07562896764,269.50647801054,269.32397742441,269.41713098397,269.4418509326,206.29051862355,205.3915298419,205.56404805285,206.23350442409,274.76781188316,269.53329512878,269.30129643311,269.39035593042,269.46449322898,251.72547020809,251.30852727722,251.37146360237,251.68814211055,274.76781188316,274.68110597673,274.68110597673,228.50810742603,228.50810742603,390.33228409746,387.09698115513,0
0.00030825,141411285.42231,9.090715281263e-05,1.0362839639892,6.3366355785006e-07,-3.1598730040526e-07,2.9751787063453e-07,8.6843365175126e-07,3.1772491013841e-23,-4.3001512994573e-22,-8.1288369703172e-24,2.9566708561765e-25,-38.667712159174,64.744795527135,-52.394648177768,40.797804473379,-1.7022033150542e-06,4.1427372965308e-24,6.6122447121526e-23,-5.8232623423226e-23,-4.5366730456609e-25,4.4070642998002e-16,-3.4419591312256e-15,-2.3336696142816e-16,2.23454550131e-17,-0.98378912562229,1.2453723127356,-1.3911502115639e-06,-1.3291653755933,1.0201115033386,2.1135164599998e-32,-6.6213116963415e-31,-2.2389440272651e-33,2.002644949051e-35,-1.104403086908,1.2177238212535,-0.98445409621107,1.2086537750795,-4.2442287932352e-58,9.0678062779521e-34,4.3493362900534e-32,-3.8365077322368e-32,-3.6346332249479e-35,1.3953901133067e-16,9.9268298878102e-16,-8.3183379370905e-16,-3.0481992031753e-17,-5.3037402877738e-60,-1.6807492061303e-57,4.4420835995975e-55,8.1140110887756e-07,-2.6502640224979e-06,228.84678055183,228.84678055183,228.58009896268,228.58009896268,262.01017616445,261.81097610822,261.90200946615,261.96622175022,200.81699972675,199.83517581287,200.09979691616,200.73741972073,228.2667329022,262.07795252668,261.75360040387,261.83433542179,262.02343563858,251.62748556349,251.44978866796,251.53252255469,251.61017041761,206.13980884813,205.57970450701,228.2667329022,205.73538625397,206.09197156096,269.54103145809,269.35784280618,269.45141426026,269.47625364235,206.30742999416,205.40468807352,205.57822158423,206.25029521497,274.80293844974,269.56796617589,269.33508787909,269.42452323237,269.49897090481,251.7577489426,251.33919119259,251.40242383992,251.72034907418,274.80293844974,274.71592091531,274.71592091531,228.53417949785,228.53417949785,390.33902166652,387.08640136797,0
0.0003085,141616010.45319,9.0981313413201e-05,1.0363264949089,6.4738098625316e-07,-3.227347332173e-07,3.0372508486426e-07,8.8850629007659e-07,3.4249193319103e-23,-4.6795780777494e-22,-8.7606536082993e-24,3.1776138680004e-25,-38.629166272501,64.787896428191,-52.397979962896,40.766803621835,-1.7406547319248e-06,4.4396197206335e-24,7.0854344187619e-23,-6.3060404093389e-23,-4.8753660825771e-25,4.6454396430037e-16,-3.6492319910224e-15,-2.4583530848249e-16,2.3485510026763e-17,-0.98456559068819,1.2470652474678,-1.4266025044739e-06,-1.3306200714671,1.0207487246997,2.347405605975e-32,-7.4683311627283e-31,-2.4911680496194e-33,2.2213536085688e-35,-1.1053651572888,1.2187107589346,-0.98483200719835,1.2097967823552,-5.4381624138903e-58,9.9995928126624e-34,4.7861001620998e-32,-4.289375801707e-32,-4.0313419222801e-35,1.4648186678166e-16,1.0427097478214e-15,-8.7994327365055e-16,-3.2038952915201e-17,-6.6925951940002e-60,-2.0399288253514e-57,5.6994147427054e-55,8.2954168516472e-07,-2.7185430025023e-06,228.87426199998,228.87426199998,228.60667772844,228.60667772844,262.04366014341,261.84370414783,261.93520332701,261.99968457328,200.82827059838,199.84187506942,200.10809481629,200.7485407047,228.29194032791,262.11173233752,261.78614126613,261.86723667467,262.05708690655,251.65921116938,251.48083302457,251.56406443604,251.64202983905,206.15608393218,205.59353656573,228.29194032791,205.75015524914,206.10837178162,269.57559218764,269.39171570531,269.48570539017,269.51066389436,206.32439686768,205.41790249784,205.59245355612,206.26714173066,274.83807015872,269.60264449929,269.36888697102,269.45869841432,269.53345601461,251.79004410835,251.36987245922,251.43340170629,251.75257268256,274.83807015872,274.75074095654,274.75074095654,228.56028446325,228.56028446325,390.34592175984,387.07595545401,0
0.00030875,141820857.02031,9.1055473939123e-05,1.0363690214832,6.6136696576547e-07,-3.2962649045055e-07,3.1006648348921e-07,9.0900453196146e-07,3.6908756288913e-23,-5.0913307158107e-22,-9.4408381165135e-24,3.4153691082046e-25,-38.590676530656,64.830820234067,-52.40128740615,40.735994939323,-1.7797905880401e-06,4.7568751765575e-24,7.5903713221795e-23,-6.8269474894254e-23,-5.2394657358426e-25,4.8958311566502e-16,-3.8683541557769e-15,-2.5895470786727e-16,2.4685392622817e-17,-0.98533792925609,1.248757352796,-1.4628329226377e-06,-1.3320660329153,1.0213887511023,2.606079609099e-32,-8.4208479878724e-31,-2.771468645102e-33,2.4641977614845e-35,-1.1063242827132,1.219688078955,-0.9852084310839,1.2109318749001,-6.9572497247821e-58,1.1023418872822e-33,5.2645529941474e-32,-4.7937446157547e-32,-4.4713827658162e-35,1.5375361624885e-16,1.0950409472849e-15,-9.3065741610608e-16,-3.3676086294297e-17,-8.4413871600262e-60,-2.4729368503228e-57,7.3055917571901e-55,8.4803658735469e-07,-2.7883134463844e-06,228.9017762641,228.9017762641,228.63329064688,228.63329064688,262.0771549219,261.87644330824,261.9684088362,262.03315865928,200.83959627758,199.84862617795,200.1164480595,200.75971686818,228.31718202143,262.14552291998,261.8186935678,261.90014964082,262.09074915438,251.69095316498,251.5118940758,251.59562378256,251.67390636608,206.17241444489,205.60742365926,228.31718202143,205.76498122288,206.12482944189,269.61016015909,269.42559609543,269.52000433386,269.54508164206,206.34141906785,205.43117303288,205.60674385188,206.28404377723,274.87320697873,269.6373300549,269.40269368337,269.49288144051,269.56794851115,251.82235561936,251.40057102972,251.46439714359,251.78481284389,274.87320697873,274.78556607287,274.78556607287,228.58642222015,228.58642222015,390.35298398072,387.06564316998,0
0.000309,142025825.2504,9.1129634395044e-05,1.0364115437474,6.7562655226356e-07,-3.3666595731271e-07,3.1654562566788e-07,9.2993692337427e-07,3.976394800706e-23,-5.5380690153186e-22,-1.01730655737e-23,3.6712591760412e-25,-38.552243492699,64.873566034039,-52.404570734684,40.705379161956,-1.8196196675621e-06,5.09584924072e-24,8.1290534361107e-23,-7.3888449280797e-23,-5.6309023210452e-25,5.1588026770669e-16,-4.0999692073648e-15,-2.7275882389037e-16,2.5948431585954e-17,-0.98610610160507,1.2504485468686,-1.4998554718384e-06,-1.3335031639616,1.0220315501792,2.8920504606075e-32,-9.4916536118441e-31,-3.082948207378e-33,2.7338901416217e-35,-1.1072803835149,1.2206557424417,-0.98558335650311,1.2120589602034,-8.8872409725369e-58,1.2148035664499e-33,5.7884812972823e-32,-5.3552494334339e-32,-4.9595110367162e-35,1.6136928279343e-16,1.1497733326181e-15,-9.8410744627676e-16,-3.5397623236515e-17,-1.0642503668823e-59,-2.994353180765e-57,9.3554617365553e-55,8.6689225484733e-07,-2.8596022358248e-06,228.92932319562,228.92932319562,228.65993757947,228.65993757947,262.11066044905,261.90919355447,262.00162593914,262.06664394377,200.85097657409,199.85542906272,200.12485651084,200.77094798267,228.34245789177,262.17932421319,261.85125727597,261.93307427587,262.12442231585,251.72271148395,251.54297177016,251.62720051679,251.70579991086,206.18880023392,205.62136569243,228.34245789177,205.77986403543,206.14134435426,269.64473533248,269.4594839502,269.55431105155,269.57950683908,206.35849641872,205.44449959628,205.62109235445,206.30100116117,274.90834887849,269.67202279882,269.43650799066,269.52707227527,269.60244834736,251.85468338996,251.43128685666,251.49541009392,251.81706946676,274.90834887849,274.82039623689,274.82039623689,228.61259266663,228.61259266663,390.36020793124,387.05546427036,0
0.00030925,142230915.26348,9.120379478554e-05,1.0364540617356,6.9016491147566e-07,-3.4385661513075e-07,3.2316620259113e-07,9.5131219313065e-07,4.2828379912437e-23,-6.0226641951665e-22,-1.0961291092387e-23,3.9467161208411e-25,-38.513867728478,64.916132942286,-52.407830170083,40.674957002792,-1.8601508473989e-06,5.4579740588708e-24,8.7035974411708e-23,-7.9947975510672e-23,-6.0517560246945e-25,5.434942828781e-16,-4.3447539976236e-15,-2.8728307960744e-16,2.7278158704501e-17,-0.98687006917136,1.252138747619,-1.5376843596509e-06,-1.3349313684554,1.0226770889955,3.2080735272481e-32,-1.0695048983543e-30,-3.429051353897e-33,3.0334568762282e-35,-1.1082333802441,1.2216137129067,-0.98595677256056,1.2131779472328,-1.1335786625527e-57,1.3382998546725e-33,6.3620002669243e-32,-5.9801180381496e-32,-5.5010086046723e-35,1.6934457053078e-16,1.2070073864275e-15,-1.040430704676e-15,-3.7208027945242e-17,-1.3411839879736e-59,-3.6215223893747e-57,1.1969135518466e-54,8.861152732891e-07,-2.9324366553298e-06,228.95690264641,228.95690264641,228.6866183879,228.6866183879,262.14417667414,261.94195485156,262.03485458139,262.10014036256,200.86241129738,199.8622836477,200.13332003488,200.78223381919,228.3677678478,262.21313615651,261.88383235772,261.96601053549,262.15810632503,251.75448606016,251.57406605624,251.65879456142,251.73771038585,206.20524114703,205.63536256985,228.3677678478,205.7948035469,206.15791633139,269.67931766799,269.49337924333,269.58862550359,269.61393943925,206.37562874467,205.45788210532,205.63549894638,206.31801368937,274.94349582683,269.70672268733,269.47032986739,269.56127088295,269.63695547643,251.88702733481,251.46201989258,251.52644049943,251.84934246013,274.94349582683,274.85523142125,274.85523142125,228.63879570086,228.63879570086,390.3675932124,387.04541850732,0
0.0003095,142436127.17264,9.1277955115111e-05,1.0364965754802,7.0498732276322e-07,-3.5120204475057e-07,3.2993204463505e-07,9.7313925785747e-07,4.6116559721703e-23,-6.5482151260795e-22,-1.180977149293e-23,4.2432911556457e-25,-38.475549816213,64.95852009709,-52.411065925189,40.644729163164,-1.9013930992599e-06,5.8447738963655e-24,9.3162454326026e-23,-8.64808733409e-23,-6.5042689151959e-25,5.7248660720693e-16,-4.6034202878394e-15,-3.0256475215731e-16,2.8678322809525e-17,-0.98762979456819,1.2538278729214,-1.5763339978733e-06,-1.3363505501284,1.0233253340814,3.5571701102939e-32,-1.2047017882519e-30,-3.8136028640863e-33,3.366275092447e-35,-1.1091831934734,1.2225619562028,-0.98632866881104,1.214288746754,-1.4437853505012e-57,1.4738739047282e-33,6.9895812951476e-32,-6.675230521132e-32,-6.1017430656974e-35,1.7769589690438e-16,1.2668474658141e-15,-1.0997709087247e-15,-3.9112011445155e-17,-1.6894734533364e-59,-4.375057286793e-57,1.5298578223289e-54,9.0571238037622e-07,-3.0068443971844e-06,228.98451446888,228.98451446888,228.71333293418,228.71333293418,262.17770354663,261.9747271646,262.06809470863,262.13364785172,200.87390025666,199.8691898566,200.14183849572,200.79357414835,228.39311179833,262.24695868957,261.91641878011,261.99895837537,262.19180111629,251.78627682761,251.60517688266,251.69040583933,251.76963770381,206.22173703213,205.64941419593,228.39311179833,205.80979961737,206.17454518616,269.71390712595,269.52728194857,269.62294765043,269.64837939661,206.39281587039,205.4713204769,205.6499635098,206.3350811692,274.9786477927,269.74142967689,269.50415928812,269.59547722801,269.67146985175,251.91938736894,251.49277009,251.55748830225,251.88163173337,274.9786477927,274.89007159874,274.89007159874,228.66503122112,228.66503122112,390.37513942428,387.03550563101,0
0.00030975,142641461.0839,9.1352115388178e-05,1.0365390850122,7.2009918207001e-07,-3.5870593040277e-07,3.3684712835928e-07,9.9542722707028e-07,4.96439475375e-23,-7.118065775261e-22,-1.2723088705294e-23,4.5626653029553e-25,-38.437290323684,65.000726656136,-52.414278207222,40.614696317379,-1.9433554919484e-06,6.2578710512375e-24,9.9693720490058e-23,-9.3522279472877e-23,-6.9908579577386e-25,6.0292137950402e-16,-4.8767164685607e-15,-3.1864307358281e-16,3.015290486977e-17,-0.98838524142084,1.255515840275,-1.615819006404e-06,-1.3377606122555,1.0239762513255,3.9426520106975e-32,-1.3565419609252e-30,-4.2408498752842e-33,3.7361152580327e-35,-1.1101297439219,1.2235004405264,-0.98669903523687,1.215391270963,-1.8362437714374e-57,1.6226643257995e-33,7.6760817391336e-32,-7.4481848518227e-32,-6.7682336487701e-35,1.8644042644408e-16,1.329401945344e-15,-1.1622784258261e-15,-4.1114546153907e-17,-2.1273395203692e-59,-5.2794307761993e-57,1.9535883073721e-54,9.2569047176242e-07,-3.0828535674637e-06,229.01215851589,229.01215851589,228.74008108062,228.74008108062,262.21124101614,262.00751045872,262.10134626668,262.1671663476,200.88544326084,199.87614761288,200.15041175696,200.8049687403,228.41848965206,262.28079175224,261.94901651022,262.03191775126,262.22550662429,251.8180837205,251.63630419809,251.72203427361,251.80158177784,206.23828773722,205.66352047488,228.41848965206,205.8248521068,206.19123073168,269.74850366684,269.56119203971,269.6572774526,269.68282666541,206.4100576209,205.48481462756,205.66448592648,206.35220340848,275.01380474513,269.77614372413,269.53799622742,269.62969127495,269.70599142694,251.95176340767,251.52353740139,251.58855344455,251.9139371962,275.01380474513,274.92491674223,274.92491674223,228.69129912584,228.69129912584,390.38284616513,387.02572538849,0
0.00031,142846917.09607,9.1426275609088e-05,1.0365815903609,7.3550600619568e-07,-3.6637206339081e-07,3.4391558473119e-07,1.0181854088565e-06,5.3427015341548e-23,-7.7358239363351e-22,-1.3706175049931e-23,4.9066610937484e-25,-38.399089838918,65.042751795914,-52.417467204704,40.584859133632,-1.9860471936114e-06,6.6989921655733e-24,1.0665491995457e-22,-1.0110980204412e-22,-7.514129118526e-25,6.3486554535173e-16,-5.1654293567383e-15,-3.3555933768289e-16,3.1706134391844e-17,-0.98913637449163,1.2572025670683,-1.6561542155106e-06,-1.3391614577628,1.0246298061447,4.3681482740785e-32,-1.5270203122076e-30,-4.7155088263415e-33,4.1471889057014e-35,-1.1110729523599,1.2244291362324,-0.98706786222706,1.2164854339185,-2.3320874833196e-57,1.7859137186621e-33,8.4267771242645e-32,-8.3073687551794e-32,-7.5077246886162e-35,1.9559610656099e-16,1.3947833649341e-15,-1.2281105555105e-15,-4.3220881359962e-17,-2.6776184782553e-59,-6.3636709720745e-57,2.4923649215566e-54,9.4605660749304e-07,-3.1604926908075e-06,229.03983464079,229.03983464079,228.7668626898,228.7668626898,262.24478903245,262.04030469907,262.1346092015,262.20069578679,200.89704011852,199.88315683971,200.15903968176,200.81641736468,228.44390131761,262.31463528465,261.98162551511,262.06488861897,262.25922278401,251.84990667321,251.66744795126,251.75367978749,251.83354252133,206.25489311046,205.67768131066,228.44390131761,205.8399608751,206.20797278132,269.78310725129,269.59510949059,269.69161487075,269.7172812001,206.42735382156,205.49836447348,205.6790660778,206.36938021548,275.04896665329,269.81086478587,269.5718406599,269.66391298834,269.74052015582,251.9841553667,251.55432177921,251.6196358685,251.94625875875,275.04896665329,274.95976682471,274.95976682471,228.71759931354,228.71759931354,390.39071303214,387.0160775247,0
0.00031025,143052495.30056,9.1500435782102e-05,1.0366240915541,7.5121343606149e-07,-3.7420434629897e-07,3.5114170732953e-07,1.041423315912e-06,5.7483310079232e-23,-8.405381348339e-22,-1.4764340554963e-23,5.2772554146404e-25,-38.360948943653,65.084594729466,-52.420633106705,40.555218257934,-2.0294774742871e-06,7.169974952655e-24,1.1407267988889e-22,-1.0928368494746e-22,-8.0768926611383e-25,6.6838897609522e-16,-5.4703860806887e-15,-3.5335701325431e-16,3.3342507099784e-17,-0.98988315949316,1.2588879704275,-1.6973546697514e-06,-1.3405529890671,1.02528596336,4.837634303616e-32,-1.7183644967585e-30,-5.2428176933899e-33,4.6042024566973e-35,-1.1120127396717,1.225348016013,-0.98743514073925,1.2175711512398,-2.9577115238455e-57,1.9649779687106e-33,9.2473959826645e-32,-9.2620384939638e-32,-8.328267557933e-35,2.0518170498729e-16,1.4631085836521e-15,-1.2974318240807e-15,-4.5436559727907e-17,-3.3689233539998e-59,-7.6621770307281e-57,3.1767987232933e-54,9.6681801859675e-07,-3.2397907165218e-06,229.06754269745,229.06754269745,228.79367762466,228.79367762466,262.27834754553,262.07310985084,262.1678834592,262.23423610617,200.90869063797,199.89021745999,200.16772213277,200.82791979063,228.46934670349,262.34848922717,262.01424576182,262.09787093433,262.29294953073,251.88174562028,251.69860809094,251.78534230446,251.86551984799,206.27155300012,205.69189660705,228.46934670349,205.85512578216,206.22477114867,269.81771784007,269.62903427507,269.72595986565,269.75174295533,206.44470429806,205.51196993045,205.69370384481,206.38661139896,275.08413348643,269.84559281913,269.60569256018,269.69814233284,269.77505599246,252.01656316206,251.58512317588,251.65073551631,251.97859633153,275.08413348643,274.99462181927,274.99462181927,228.74393168286,228.74393168286,390.39873962116,387.00656178187,0
0.0003105,143258195.78123,9.1574595911406e-05,1.0366665886178,7.6722724073534e-07,-3.8220679703689e-07,3.5852996165609e-07,1.0651506706171e-06,6.1831520533626e-23,-9.1309352934884e-22,-1.5903302453863e-23,5.6765936486837e-25,-38.322868226979,65.126254675759,-52.423776087874,40.525774329121,-2.0736557079607e-06,7.6727753775788e-24,1.2197519147321e-22,-1.1808698235525e-22,-8.6821797332488e-25,7.0356459310624e-16,-5.7924560513166e-15,-3.7208186345353e-16,3.5066804155909e-17,-0.99062556310605,1.2605719669953,-1.7394356307275e-06,-1.3419351079905,1.0259446872281,5.3554635407215e-32,-1.9330613553744e-30,-5.8285941198127e-33,5.1124179891553e-35,-1.1129490266921,1.2262570546746,-0.98780086216386,1.2186483402726,-3.7460414441257e-57,2.1613363656848e-33,1.0144157543863e-31,-1.0322405176966e-31,-9.2388120558239e-35,2.152168493368e-16,1.5344989390566e-15,-1.3704142895472e-15,-4.7767434841187e-17,-4.2370956736133e-59,-9.2156760399908e-57,4.0454803482075e-54,9.8798211443007e-07,-3.3207770240589e-06,229.09528254023,229.09528254023,228.82052574844,228.82052574844,262.31191650548,262.10592587925,262.20116898602,262.2677872429,200.92039462715,199.89732939638,200.1764589722,200.83947578677,228.49482571815,262.38235352045,262.04687721741,262.13086465326,262.32668680003,251.91360049644,251.72978456596,251.81702174817,251.8975136719,206.2882672546,205.70616626758,228.49482571815,205.87034668779,206.24162564763,269.85233539411,269.6629663671,269.76031239817,269.78621188598,206.46210887645,205.52563091392,205.70839910815,206.40389676818,275.11930521395,269.88032778108,269.63955190293,269.73237927319,269.80959889115,252.04898671013,251.61594154379,251.68185233021,252.01094982546,275.11930521395,275.02948169912,275.02948169912,228.77029613255,228.77029613255,390.4069255263,386.99717789932,0
0.00031075,143464018.61424,9.1648756001099e-05,1.0367090815764,7.835533216014e-07,-3.903835534168e-07,3.6608499471477e-07,1.0893774116036e-06,6.6491548233779e-23,-9.9170117860465e-22,-1.7129217092275e-23,6.1070052395455e-25,-38.284848279584,65.167730894797,-52.426896313066,40.496527972528,-2.1185913755146e-06,8.2094753232349e-24,1.3039229848077e-22,-1.2756574417511e-22,-9.3332603687275e-25,7.4046849753591e-16,-6.1325530273936e-15,-3.9178207278736e-16,3.6884112959751e-17,-0.99136355293268,1.2622544732053,-1.7824125810238e-06,-1.3433077156091,1.0266059414507,5.926401937226e-32,-2.1738862617687e-30,-6.4793001345936e-33,5.6777219003729e-35,-1.1138817342511,1.2271562292085,-0.98816501843526,1.2197169200809,-4.7380987788434e-57,2.3766026257928e-33,1.1123812506699e-31,-1.1499729287579e-31,-1.0249308380969e-34,2.2572206881414e-16,1.6090804128275e-15,-1.4472378591277e-15,-5.0219689925008e-17,-5.3270201969453e-59,-1.1072344651907e-56,5.1470172295957e-54,1.0095564900659e-06,-3.4034814290883e-06,229.123054024,229.123054024,228.84740692469,228.84740692469,262.34549586262,262.13875274956,262.23446572837,262.3013491344,200.93215189363,199.90449257121,200.18525006179,200.85108512114,228.52033826997,262.41622810537,262.07951984893,262.16386973173,262.36043452782,251.9454712366,251.76097732519,251.8487180425,251.92952390743,206.30503572246,205.72049019561,228.52033826997,205.88562345181,206.25853609236,269.88695987449,269.69690574062,269.79467242931,269.82068794715,206.47956738311,205.53934733896,205.72315174815,206.42123613286,275.15448180532,269.91506962911,269.67341866281,269.76662377418,269.84414880639,252.08142592762,251.64677683532,251.71298625248,252.04331915185,275.15448180532,275.06434643757,275.06434643757,228.79669256152,228.79669256152,390.41527034028,386.98792561368,0
0.000311,143669963.86788,9.1722916055198e-05,1.0367515704527,8.0019771621255e-07,-3.98738877677e-07,3.738116459269e-07,1.1141137000611e-06,7.1484582619773e-23,-1.0768490458939e-21,-1.8448714419327e-23,6.5710208587045e-25,-38.246889692811,65.209022650611,-52.429993939329,40.467479807791,-2.1642940670022e-06,8.7822907732737e-24,1.3935559081474e-22,-1.3776921303755e-22,-1.0033663024747e-24,7.7918010583679e-16,-6.4916372753234e-15,-4.1250838148562e-16,3.8799849811739e-17,-0.99209709745245,1.2639354049706,-1.8263012276396e-06,-1.34467071238,1.0272696891649,6.5556654540949e-32,-2.4439357009987e-30,-7.2021142132531e-33,6.3067025756898e-35,-1.1148107830894,1.2280455185743,-0.98852760205619,1.2207768113218,-5.984930010535e-57,2.612536897799e-33,1.2193687147029e-31,-1.2806424183052e-31,-1.1370820946539e-34,2.3671883807199e-16,1.6869838024727e-15,-1.5280906187757e-15,-5.2799857776326e-17,-6.6948930515701e-59,-1.3289123070699e-56,6.5425800355943e-54,1.0315489344253e-06,-3.4879341887506e-06,229.15085700414,229.15085700414,228.87432101735,228.87432101735,262.37908556739,262.17159042708,262.26777363281,262.33492171838,200.94396224465,199.91170690658,200.19409526281,200.86274756118,228.54588426723,262.4501129231,262.11217362342,262.19688612575,262.39419265032,251.97735777585,251.79218631757,251.88043111155,251.9615504693,206.32185825237,205.73486829423,228.54588426723,205.900955934,206.27550229734,269.92159124244,269.73085236965,269.82903992019,269.85517109415,206.4970796448,205.55311912029,205.7379616448,206.43862930329,275.18966323019,269.94981832078,269.70729281456,269.80087580072,269.87870569294,252.11388073161,251.67762900283,251.74413722542,252.07570422243,275.18966323019,275.09921600806,275.09921600806,228.82312086875,228.82312086875,390.42377365386,386.97880465834,0
0.00031125,143876031.60245,9.1797076077635e-05,1.0367940552678,8.1716660324897e-07,-4.0727716151024e-07,3.8171495806119e-07,1.1393699264653e-06,7.6833180737835e-23,-1.1690631276119e-21,-1.9868935295242e-23,7.0713913348484e-25,-38.208993057639,65.25012923791,-52.433069111919,40.438630446708,-2.2107734843974e-06,9.3935805569216e-24,1.4889850329153e-22,-1.4875003346492e-22,-1.0787195800788e-24,8.197822914413e-16,-6.870717832867e-15,-4.3431422799611e-16,4.081978445411e-17,-0.99282616598215,1.2656146778104,-1.8711175057527e-06,-1.3460239977034,1.027935892988,7.2489608479623e-32,-2.7466634268614e-30,-8.0050115393638e-33,7.0067383159109e-35,-1.1157360938283,1.2289249038338,-0.98888860608669,1.2218279363878,-7.5499807325558e-57,2.8710588441727e-33,1.3361731034042e-31,-1.4256169373519e-31,-1.2615655458032e-34,2.4822962366185e-16,1.768344899704e-15,-1.6131691752909e-15,-5.5514842044713e-17,-8.4110561890567e-59,-1.5933253552959e-56,8.3090828915185e-54,1.0539674386885e-06,-3.5741660086628e-06,229.17869133656,229.17869133656,228.90126789066,228.90126789066,262.41268557044,262.20443887713,262.30109264605,262.36850493286,200.95582548705,199.91897232429,200.20299443606,200.8744628737,228.57146361817,262.48400791507,262.14483850794,262.22991379142,262.42796110406,252.00926004944,251.82341149207,251.91216087961,251.99359327259,206.33873469318,205.74930046637,228.57146361817,205.91634399415,206.29252407733,269.95622945936,269.76480622825,269.86341483204,269.88966128251,206.51464548865,205.56694617225,205.75282867774,206.45607609023,275.22484945828,269.98457381386,269.74117433293,269.83513531779,269.91326950577,252.14635103954,251.70849799865,251.77530519137,252.10810494931,275.22484945828,275.13409038412,275.13409038412,228.84958095337,228.84958095337,390.43243505603,386.96981476362,0
0.0003115,144082221.87007,9.1871236072255e-05,1.0368365360408,8.3446630703044e-07,-4.160029311501e-07,3.8980018985007e-07,1.1651567172059e-06,8.256135174102e-23,-1.2689103193653e-21,-2.1397571851496e-23,7.6111085933935e-25,-38.171158959816,65.2910499742,-52.436121965596,40.409980489112,-2.2580394448522e-06,1.0045855691167e-23,1.5905642001942e-22,-1.6056447397665e-22,-1.1597969481727e-24,8.6236153299089e-16,-7.2708548764698e-15,-4.5725589998527e-16,4.2950066926999e-17,-0.99355072856264,1.2672922067666,-1.916877582585e-06,-1.3473674699075,1.0286045148549,8.0125300258424e-32,-3.085920579817e-30,-8.8968534217361e-33,7.7860970260876e-35,-1.1166575869015,1.2297943680593,-0.98924802421057,1.222870219416,-9.5120145144522e-57,3.1542618960503e-33,1.4636568656805e-31,-1.5864034471257e-31,-1.3997500834726e-34,2.6027793291434e-16,1.8533046762148e-15,-1.7026790117397e-15,-5.8371939902498e-17,-1.0563539162282e-58,-1.9084080894452e-56,1.0543151773937e-53,1.076820205618e-06,-3.6622080487004e-06,229.20655687768,229.20655687768,228.92824740926,228.92824740926,262.44629582259,262.2372980651,262.33442271499,262.40209871611,200.96774142725,199.92628874586,200.2119474419,200.88623082481,228.59707623095,262.51791302294,262.17751446955,262.26295268491,262.46173982588,252.04117799285,251.85465279773,251.94390727123,252.02565223271,206.35566489385,205.76378661472,228.59707623095,205.93178749205,206.30960124747,269.99087448679,269.79876729053,269.89779712624,269.924158468,206.53226474215,205.58082840883,205.76775272632,206.47357630502,275.26004045947,270.01933606631,269.77506319269,269.86940229046,269.94784020011,252.17883676919,251.73938377509,251.80649009272,252.14052124502,275.26004045947,275.16896953942,275.16896953942,228.87607271465,228.87607271465,390.44125413358,386.96095565629,0
0.00031175,144288534.71453,9.1945396042818e-05,1.0368790127895,8.5210330176643e-07,-4.2492085263792e-07,3.9807282968835e-07,1.1914849426751e-06,8.8694646442116e-23,-1.3770014904804e-21,-2.3042911194423e-23,8.1934288048057e-25,-38.133387987915,65.331784192105,-52.439152626412,40.381530540156,-2.3061018823866e-06,1.0741789366285e-23,1.6986678446378e-22,-1.7327266280164e-22,-1.2470422587236e-24,9.0700806902544e-16,-7.6931621970621e-15,-4.8139269501853e-16,4.5197256809502e-17,-0.99427075609944,1.2689679062623,-1.9635978611648e-06,-1.3487010264066,1.0292755163578,8.8531982674301e-32,-3.4660001859771e-30,-9.8874869503942e-33,8.6540493078636e-35,-1.1175751824689,1.2306538961429,-0.98960585072742,1.2239035860422,-1.1968697486181e-56,3.4644287913424e-33,1.6027555255262e-31,-1.7646614762845e-31,-1.5531587791067e-34,2.7288836545834e-16,1.9420094749023e-15,-1.7968348560076e-15,-6.1378866258512e-17,-1.3262484324446e-58,-2.2835158488059e-56,1.336607223819e-53,1.1001156589633e-06,-3.7520919287465e-06,229.23445348447,229.23445348447,228.95525943812,228.95525943812,262.47991627483,262.2701679564,262.36776378667,262.43570300672,200.97970987127,199.93365609256,200.22095414019,200.89805117989,228.62272201368,262.55182818869,262.21020147528,262.29600276245,262.49552875299,252.07311154171,251.88591018364,251.97567021117,252.05772726544,206.37264870353,205.77832664177,228.62272201368,205.94728628753,206.32673362319,270.02552628647,269.83273553064,269.93218676429,269.95866260658,206.54993723317,205.59476574368,205.78273366954,206.49112975951,275.29523620373,270.05410503628,269.80895936866,269.90367668389,269.98241773141,252.2113378387,251.77028628445,251.83769187191,252.17295302253,275.29523620373,275.20385344773,275.20385344773,228.90259605196,228.90259605196,390.45023047129,386.95222705989,0
0.000312,144494970.17117,9.2019555992994e-05,1.0369214855295,8.7008421738576e-07,-4.3403573768374e-07,4.0653860968364e-07,1.2183657225734e-06,9.5260252285305e-23,-1.4939947830285e-21,-2.4813882627031e-23,8.8218980363044e-25,-38.095680728942,65.372331255288,-52.442161213798,40.353281209256,-2.3549708520443e-06,1.1484227632272e-23,1.8136921589591e-22,-1.8693883811909e-22,-1.3409348600915e-24,9.5381606009804e-16,-8.1388097959362e-15,-5.0678708940138e-16,4.7568355132959e-17,-0.99498622022326,1.2706416902596,-2.0112949848931e-06,-1.3500245632825,1.0299488583382,9.7784266510197e-32,-3.8916865063986e-30,-1.0987856035804e-32,9.6209969749248e-35,-1.1184888004033,1.2315034750518,-0.98996208068286,1.2249279636635,-1.5040995684473e-56,3.8040485165511e-33,1.7544837241414e-31,-1.9622179461442e-31,-1.7234866064784e-34,2.8608666793887e-16,2.0346112106288e-15,-1.8958610642062e-15,-6.4543779621046e-17,-1.6645675143367e-58,-2.7296710864966e-56,1.6929953026117e-53,1.1238624537593e-06,-3.8438497358545e-06,229.2623810144,229.2623810144,228.9823038426,228.9823038426,262.51354687834,262.30304851649,262.40111580833,262.46931774357,200.99173062466,199.94107428533,200.23001439036,200.90992370355,228.64840087441,262.58575335454,262.24289949221,262.32906398035,262.52932782287,252.10506063184,251.91718359894,252.00744962443,252.0898182869,206.38968597152,205.79292044979,228.64840087441,205.96284024041,206.3439210203,270.06018482024,269.86671092278,269.96658370782,269.99317365449,206.56766278998,205.60875809006,205.79777138613,206.50873626612,275.3304366612,270.08888068212,269.84286283569,269.93795846334,270.01700205536,252.24385416659,251.80120547903,251.86891047143,252.20540019519,275.3304366612,275.23874208294,275.23874208294,228.92915086481,228.92915086481,390.45936365209,386.94362869456,0
0.00031225,144701528.26671,9.2093715926365e-05,1.0369639542747,8.8841584403686e-07,-4.4335254948177e-07,4.1520352179357e-07,1.2458104367395e-06,1.0228709403689e-22,-1.6205991493839e-21,-2.6720108974806e-23,9.5003807133669e-25,-38.058037755118,65.412690536402,-52.445147833206,40.325233099702,-2.4046565322618e-06,1.2276200821579e-23,1.9360563229831e-22,-2.0163161358469e-22,-1.4419925582126e-24,1.0028837584975e-15,-8.6090265972526e-15,-5.3350492059005e-16,5.0070839364925e-17,-0.99569709305268,1.2723134716539,-2.0599858420287e-06,-1.3513379751615,1.0306245011812,1.0796369036786e-31,-4.36830974604e-30,-1.2210125324913e-32,1.0698619243466e-34,-1.1193983601889,1.2323430934403,-0.99031670972619,1.2259432812003,-1.887856365259e-56,4.1758347818174e-33,1.9199417558527e-31,-2.1810833766354e-31,-1.9126202574273e-34,2.9989979142808e-16,2.1312675775401e-15,-1.9999920186229e-15,-6.7875309695316e-17,-2.0885442692358e-58,-3.2598511916238e-56,2.1425397960693e-53,1.1480694874707e-06,-3.9375140307576e-06,229.29033932552,229.29033932552,229.00938048844,229.00938048844,262.54718758446,262.33593971086,262.43447872735,262.50294286585,201.00380349253,199.94854324489,200.23912805136,200.92184815953,228.67411272115,262.61968846299,262.2756084874,262.36213629501,262.56313697336,252.13702519927,251.94847299284,252.03924543626,252.12192521358,206.40677654727,205.80756794085,228.67411272115,205.9784492106,206.36116325498,270.09485005018,269.90069344123,270.00098791861,270.02769156816,206.58544124125,205.62280536091,205.81286575453,206.52639563785,275.36564180214,270.12366296239,269.87677356868,269.97224759418,270.05159312791,252.27638567174,251.83214131109,251.90014583382,252.23786267679,275.36564180214,275.27363541908,275.27363541908,228.95573705286,228.95573705286,390.46865325575,386.93516027604,0
0.0003125,144908209.0191,9.2167875846423e-05,1.0370064190374,9.0710513842414e-07,-4.5287640920681e-07,4.2407383486611e-07,1.2738307313001e-06,1.098059405223e-22,-1.7575781463678e-21,-2.8771962002987e-23,1.0233091234112e-24,-38.020459635118,65.452861439403,-52.448112581775,40.297386820187,-2.4551692286574e-06,1.3120935791022e-23,2.0662038019642e-22,-2.1742425987301e-22,-1.5507748399665e-24,1.0543136857382e-15,-9.1051032890777e-15,-5.6161557776699e-16,5.271270169522e-17,-0.99640334759721,1.2739831630698,-2.1096875696758e-06,-1.3526411550307,1.0313024046742,1.1915933993512e-31,-4.9018066916819e-30,-1.3567818310843e-32,1.1900039258301e-34,-1.1203037804607,1.2331727418477,-0.99066973427512,1.2269494691481,-2.3666340695913e-56,4.5827461788457e-33,2.1003226389948e-31,-2.4234695943638e-31,-2.1226603079917e-34,3.1435595260813e-16,2.2321422649197e-15,-2.109472539465e-15,-7.1382586938102e-17,-2.619729261801e-58,-3.889324781755e-56,2.7091047350796e-53,1.1727459115958e-06,-4.0331178550197e-06,229.31832827641,229.31832827641,229.03648924176,229.03648924176,262.58083834474,262.36884150506,262.46785249134,262.53657831303,201.01592827948,199.95606289163,200.24829498167,200.93382431065,228.69985746186,262.65363345682,262.30832842793,262.3952196629,262.59695614264,252.16900518021,251.97977831461,252.07105757214,252.15404796234,206.42392028044,205.82226901683,228.69985746186,205.99411305802,206.37846014378,270.12952193848,269.93468306029,270.03539935857,270.06221630429,206.60327241605,205.6369074688,205.82801665287,206.54410768826,275.40085159692,270.15845183585,269.91069154256,270.00654404186,270.08619090525,252.30893227339,251.86309373291,251.9313979017,252.27034038155,275.40085159692,275.30853343029,275.30853343029,228.98235451587,228.98235451587,390.47809885973,386.92682151636,0
0.00031275,145115012.43741,9.2242035756569e-05,1.0370488798277,9.2615922895223e-07,-4.6261260237086e-07,4.3315611423882e-07,1.3024385278838e-06,1.1784951781411e-22,-1.9057540021488e-21,-3.0980622577639e-23,1.1024629183251e-24,-37.982946933176,65.492843386947,-52.451055547907,40.269742991071,-2.5065193764393e-06,1.4021869017813e-23,2.2046037173668e-22,-2.34395003523e-22,-1.6678863806763e-24,1.1082128186719e-15,-9.6283952892021e-15,-5.9119220601847e-16,5.5502491238087e-17,-0.99710495735272,1.2756506761855,-2.1604175590351e-06,-1.3539339942692,1.0319825280542,1.3146852092083e-31,-5.4987878992834e-30,-1.507597148715e-32,1.3240014101149e-34,-1.121204979761,1.2339924125696,-0.99102115143864,1.2279464595727,-2.9632617045615e-56,5.0280081761102e-33,2.2969197651714e-31,-2.6918090804842e-31,-2.3559460199175e-34,3.2948469803678e-16,2.3374051805876e-15,-2.2245583141422e-15,-7.5075274089382e-17,-3.2850681449513e-58,-4.6360445095323e-56,3.4225434741247e-53,1.1979011443038e-06,-4.1306947360801e-06,229.34634772621,229.34634772621,229.06362996909,229.06362996909,262.61449911092,262.40175386469,262.50123704805,262.57022402491,201.02810478959,199.96363314569,200.25751503929,200.94585191875,228.72563500447,262.68758827909,262.3410592809,262.42831404058,262.63078526922,252.20100051107,252.01109951357,252.10288595781,252.18618645041,206.44111702083,205.83702357941,228.72563500447,206.00983164267,206.39581150365,270.16420044753,269.96867975433,270.06981798977,270.09674781978,206.62115614388,205.65106432596,205.84322395902,206.56187223152,275.43606601608,270.19324726147,269.9446167323,270.04084777196,270.12079534379,252.34149389117,251.89406269674,251.96266661771,252.30283322411,275.43606601608,275.34343609083,275.34343609083,229.00900315378,229.00900315378,390.48770003881,386.91861212345,0
0.000313,145321938.5216,9.2316195660115e-05,1.037091336654,9.4558542200647e-07,-4.7256658606749e-07,4.4245724174386e-07,1.3316460322858e-06,1.2645262924317e-22,-2.0660119784207e-21,-3.335814586591e-23,1.1880018548992e-24,-37.945500197847,65.532635822458,-52.45397680948,40.242302240923,-2.5587175447458e-06,1.4982660640638e-23,2.3517522967529e-22,-2.5262734365765e-22,-1.7939808657336e-24,1.1646927844797e-15,-1.01803258597e-14,-6.2231192289414e-16,5.8449360262244e-17,-0.99780189643128,1.2773159217927,-2.2121934602908e-06,-1.3552163821237,1.0326648299515,1.4499749018392e-31,-6.1666121275814e-30,-1.6751306391517e-32,1.4735151840278e-34,-1.1221018756146,1.2348020996317,-0.99137095906294,1.228934185983,-3.7058887080632e-56,5.5151371334227e-33,2.5111351772451e-31,-2.988776097917e-31,-2.6150831062789e-34,3.4531697243981e-16,2.4472326848798e-15,-2.345516341392e-15,-7.8963599986426e-17,-4.1182477152234e-58,-5.5211057702996e-56,4.3201708890283e-53,1.2235448837993e-06,-4.2302786966346e-06,229.3743975346,229.3743975346,229.09080253736,229.09080253736,262.64816983491,262.43467675538,262.53463234545,262.60387994159,201.04033282641,199.97125392692,200.26678808175,200.95793074455,228.75144525684,262.72155287315,262.37380101341,262.4614193847,262.66462429193,252.23301112847,252.04243653913,252.13473051926,252.2183405954,206.45836661847,205.85183153004,228.75144525684,206.02560482463,206.41321715194,270.1988855399,270.00268349778,270.10424377443,270.13128607181,206.63909225466,205.66527584428,205.85848755059,206.57968908238,275.47128503029,270.22804919843,269.97854911292,270.07515875015,270.15540640025,252.37407044508,251.92504815486,251.99395192461,252.33534111955,275.47128503029,275.37834337509,275.37834337509,229.03568286666,229.03568286666,390.49745636458,386.91053180068,0
0.00031325,145528987.26244,9.2390355560279e-05,1.037133789523,9.6539120792892e-07,-4.8274399619956e-07,4.5198443913102e-07,1.3614657438218e-06,1.3565228264478e-22,-2.2393050440973e-21,-3.5917532059857e-23,1.2804751555215e-24,-37.908119966665,65.572238214587,-52.456876433295,40.215065218048,-2.6117744394605e-06,1.6007209505821e-23,2.5081744037063e-22,-2.7221038792225e-22,-1.9297651539757e-24,1.2238700651541e-15,-1.0762389354086e-14,-6.5505604883027e-16,6.1563115350866e-17,-0.99849413946125,1.2789788099454,-2.2650331877307e-06,-1.356488205641,1.0333492684173,1.5986224997987e-31,-6.913468766114e-30,-1.8612421698976e-32,1.640415996248e-34,-1.1229943846154,1.2356017987007,-0.99171915566503,1.229912583238,-4.6291873414049e-56,6.0479665273865e-33,2.7444885236227e-31,-3.3173097601874e-31,-2.9029748263218e-34,3.6188519084262e-16,2.561807832051e-15,-2.4726253928603e-15,-8.3058395709342e-17,-5.1613772490763e-58,-6.5692822364941e-56,5.4485898529463e-53,1.2496871230162e-06,-4.3319042601377e-06,229.40247756186,229.40247756186,229.11800681389,229.11800681389,262.68185046884,262.46761014282,262.56803833169,262.63754600349,201.05261219291,199.9789251549,200.27611396611,200.97006054763,228.77728812686,262.75552718263,262.40655359257,262.49453565202,262.69847314997,252.26503696921,252.07378934074,252.16659118274,252.25051031528,206.47566892356,205.86669277002,228.77728812686,206.04143246404,206.43067690642,270.23357717832,270.03669426513,270.13867667489,270.16583101778,206.65708057875,205.67954193529,205.87380730493,206.59755805623,275.50650861037,270.26285760613,270.01248865948,270.10947694222,270.19002403155,252.4066618555,251.95605005952,252.0252537652,252.36786398338,275.50650861037,275.41325525761,275.41325525761,229.06239355473,229.06239355473,390.50736740555,386.9025802468,0
0.0003135,145736158.64135,9.2464515460186e-05,1.037176238439,9.855842685374e-07,-4.9315065538183e-07,4.6174529312142e-07,1.3919104658481e-06,1.4548782536013e-22,-2.426658885248e-21,-3.8672803137084e-23,1.3804837717558e-24,-37.870806763753,65.611650055745,-52.459754478243,40.188032582069,-2.6657009075183e-06,1.7099669314479e-23,2.6744251552195e-22,-2.9323920849012e-22,-2.07600381749e-24,1.2858662122728e-15,-1.1376154619268e-14,-6.8951035271671e-16,6.4854273925416e-17,-0.99918166155487,1.2806392494273,-2.3189549254831e-06,-1.3577493493563,1.0340358008839,1.7618941080613e-31,-7.7484691009524e-30,-2.0680007788025e-32,1.8268130209147e-34,-1.1238824225288,1.2363915072274,-0.99206574051544,1.2308815876965,-5.7758184956942e-56,6.6306756046032e-33,2.9986267476049e-31,-3.6806392077467e-31,-3.2228568261255e-34,3.7922331535352e-16,2.6813206223826e-15,-2.6061764917335e-15,-8.7371133339935e-17,-6.4670886637231e-58,-7.8096509821818e-56,6.8659554280659e-53,1.276338164568e-06,-4.4356064584411e-06,229.43058766882,229.43058766882,229.14524266645,229.14524266645,262.71554096501,262.50055399278,262.60145495511,262.67122215135,201.06494269146,199.98664674894,200.28549254893,200.98224108622,228.80316352233,262.78951115145,262.43931698553,262.52766279938,262.73233178288,252.29707797034,252.10515786794,252.19846787476,252.28269552844,206.49302378652,205.88160720045,228.80316352233,206.05731442115,206.44819058532,270.26827532571,270.07071203094,270.17311665368,270.20038261535,206.67512094697,205.6938625102,205.88918309913,206.61547896908,275.54173672728,270.2976724442,270.0464353471,270.14380231408,270.22464819491,252.43926804322,251.98706836298,252.05657208235,252.40040173158,275.54173672728,275.44817171304,275.44817171304,229.08913511836,229.08913511836,390.51743272682,386.89475715584,0
0.00031375,145943452.63018,9.2538675362871e-05,1.0372186834048,1.0061724829539e-06,-5.0379258103291e-07,4.717477833713e-07,1.4229933144469e-06,1.5600108731289e-22,-2.6291772737753e-21,-4.1639086125376e-23,1.4886858848454e-24,-37.833561097266,65.650870854867,-52.462610987806,40.161205019378,-2.7205079402234e-06,1.8264465938804e-23,2.8510916308326e-22,-3.1581521947628e-22,-2.2335240926468e-24,1.3508080721069e-15,-1.2023268554069e-14,-7.2576531206307e-16,6.8334126859129e-17,-0.99986443820237,1.2822971481106,-2.3739771331504e-06,-1.3589996948196,1.0347243841223,1.941171283853e-31,-8.6817473375907e-30,-2.2977086457265e-32,2.0350865723319e-34,-1.1247659040398,1.2371712241526,-0.99241071348379,1.231841136888,-7.1982168311417e-56,7.2678207031191e-33,3.2753345721135e-31,-4.0823110802987e-31,-3.5783361923587e-34,3.973669360093e-16,2.8059682640741e-15,-2.7464734097488e-15,-9.1913967458455e-17,-8.1011598925239e-58,-9.2763220841572e-56,8.6447794284207e-53,1.3035086380539e-06,-4.5414208395492e-06,229.45872771692,229.45872771692,229.17250996321,229.17250996321,262.74924127596,262.53350827106,262.63488216426,262.70490832624,201.07732412377,199.99441862805,200.29492368626,200.99447211718,228.82907135108,262.82350472385,262.47209115946,262.56080078372,262.76620013055,252.32913406908,252.13654207035,252.23036052211,252.31489615363,206.51043105798,205.89657472223,228.82907135108,206.07325055631,206.46575800728,270.30297994519,270.10473676982,270.20756367349,270.23494082242,206.6932131906,205.70823747989,205.90461481006,206.63345163759,275.57696935214,270.33249367246,270.08038915095,270.17813483175,270.25927884779,252.4718889294,252.01810301752,252.08790681904,252.43295428055,275.57696935214,275.48309271619,275.48309271619,229.11590745809,229.11590745809,390.52765188961,386.88706221636,0
0.000314,146150869.1911,9.2612835271273e-05,1.0372611244209,1.0271639358361e-06,-5.1467599425987e-07,4.8200031366719e-07,1.4547277303638e-06,1.6723653285388e-22,-2.8480478187696e-21,-4.4832703606734e-23,1.6058030902213e-24,-37.796383453486,65.689900151347,-52.465445994065,40.134583240689,-2.7762066775489e-06,1.9506316028522e-23,3.038794678021e-22,-3.4004657679471e-22,-2.40322128519e-24,1.4188280224972e-15,-1.27054598276e-14,-7.6391639162185e-16,7.2014808109696e-17,-1.0005424455072,1.2839524127411,-2.4301185522257e-06,-1.3602391202836,1.0354149742441,2.1379612139672e-31,-9.7245723920546e-30,-2.5529278915837e-32,2.2679257605923e-34,-1.1256447422194,1.2379409500697,-0.99275407509424,1.2327911695861,-8.9607626354107e-56,7.9643695027726e-33,3.5765458436674e-31,-4.5262194821754e-31,-3.9734352537176e-34,4.1635335711286e-16,2.935955445457e-15,-2.8938331827022e-15,-9.6699779712897e-17,-1.0145791990562e-57,-1.1009290062037e-55,1.087540155774e-52,1.3312095176979e-06,-4.6493834742242e-06,229.48689756816,229.48689756816,229.1998085728,229.1998085728,262.78295135442,262.56647294352,262.6683199079,262.73860446954,201.08975629092,200.00224071099,200.30440723368,201.00675339576,228.8550115209,262.85750784436,262.50487608154,262.5939495621,262.80007813323,252.3612052029,252.16794189766,252.26226905186,252.34711211003,206.52789058881,205.91159523609,228.8550115209,206.08924073001,206.48337899143,270.33769100006,270.13876845647,270.24201769716,270.26950559717,206.71135714142,205.72266675489,205.92010231435,206.65147587907,275.61220645622,270.367321251,270.11435004624,270.21247446139,270.29391594793,252.50452443561,252.04915397541,252.1192579183,252.46552154716,275.61220645622,275.51801824198,275.51801824198,229.14271047462,229.14271047462,390.53802445123,386.87949511161,0
0.00031425,146358408.27644,9.2686995188239e-05,1.037303561486,1.0485669245662e-06,-5.2580732899262e-07,4.9251174649644e-07,1.4871274899554e-06,1.7924142178889e-22,-3.0845481279427e-21,-4.8271272008487e-23,1.7326273665467e-24,-37.759274301415,65.72873750985,-52.468259514683,40.108167992447,-2.8328084121056e-06,2.0830246991993e-23,3.2381908207531e-22,-3.6604860185394e-22,-2.5860646716929e-24,1.4900642216803e-15,-1.3424542769375e-14,-8.0406433943596e-16,7.590937229778e-17,-1.0012156597815,1.2856049487769,-2.48739821246e-06,-1.3614675001752,1.036107526698,2.3539077658287e-31,-1.0889471569363e-29,-2.8365105443317e-32,2.528371927451e-34,-1.1265188488179,1.238700687147,-0.99309582642467,1.2337316257814,-1.1142421604196e-55,8.7257385001211e-33,3.9043558088294e-31,-5.0166386601557e-31,-4.4126407280657e-34,4.3622168845984e-16,3.071494618476e-15,-3.0485866454728e-15,-1.0174222660367e-16,-1.2703703123119e-57,-1.305542744949e-55,1.3670282161652e-52,1.3594521418073e-06,-4.7595309635325e-06,229.51509708518,229.51509708518,229.22713836428,229.22713836428,262.81667115332,262.5994479761,262.701768135,262.77231052299,201.10223899324,200.01011291625,200.31394304623,201.01908467548,228.88098393959,262.8915204578,262.537671719,262.62710909168,262.83396573155,252.39329130948,252.19935729964,252.29419339134,252.37934331718,206.54540223012,205.92666864261,228.88098393959,206.10528480283,206.50105335738,270.37240845382,270.17280706565,270.2764786877,270.30407689802,206.72955263168,205.73715024543,205.93564548843,206.6695515115,275.64744801098,270.4021551401,270.14831800826,270.24682116927,270.32855945332,252.53717448382,252.08022118896,252.15062532327,252.49810344873,275.64744801098,275.55294826551,275.55294826551,229.16954406882,229.16954406882,390.54854996482,386.87205551912,0
0.0003145,146566069.82845,9.276115511652e-05,1.0373459945967,1.0703899678807e-06,-5.3719324182389e-07,5.0329144191188e-07,1.5202067164901e-06,1.920659802231e-22,-3.3400524073512e-21,-5.1973808444627e-23,1.870028951943e-24,-37.722234088148,65.767382517629,-52.471051549986,40.081960058011,-2.8903245935543e-06,2.2241618489301e-23,3.4499742759876e-22,-3.9394423022009e-22,-2.7831039481133e-24,1.5646608702659e-15,-1.4182421437928e-14,-8.4631550239961e-16,8.0031881495832e-17,-1.001884057655,1.2872546601995,-2.545835438194e-06,-1.3626847045268,1.0368019961435,2.5908034870359e-31,-1.2190367358534e-29,-3.1516320624513e-32,2.8198688713313e-34,-1.1273881338857,1.2394504390639,-0.99343596903561,1.2346624464644,-1.3839950233233e-55,9.5578340347512e-33,4.2610343980832e-31,-5.5582586254073e-31,-4.9009588980829e-34,4.5701294261995e-16,3.2128062933476e-15,-3.2110789860413e-15,-1.0705579081911e-16,-1.5903243482206e-57,-1.5469644172614e-55,1.7169306905855e-52,1.3882482339549e-06,-4.8719004464947e-06,229.54332613119,229.54332613119,229.25449920716,229.25449920716,262.85040062583,262.6324333348,262.73522679475,262.80602642865,201.11477203031,200.01803516204,200.32353097844,201.03146570797,228.90698851493,262.92554250933,262.57047803907,262.66027932974,262.86786286646,252.42539232672,252.23078822616,252.32613346818,252.41158969508,206.56296583327,205.94179484217,228.90698851493,206.12138263552,206.51878092521,270.40713227016,270.20685257221,270.31094660831,270.33865468366,206.74779949416,205.7516878614,205.95124420851,206.68767835357,275.68269398799,270.43699530032,270.18229301234,270.28117492182,270.36320932225,252.56983899644,252.11130461047,252.18200897718,252.53069990306,275.68269398799,275.587882762,275.587882762,229.19640814174,229.19640814174,390.55922797889,386.86474311022,0
0.00031475,146773853.77917,9.2835315058775e-05,1.0373884237475,1.0926418134464e-06,-5.4884062237795e-07,5.1434930122862e-07,1.5539798935927e-06,2.0576358184839e-22,-3.6160385281964e-21,-5.5960846959642e-23,2.0189652697111e-24,-37.68526323568,65.805834802363,-52.473822083776,40.055960268429,-2.9487668327281e-06,2.3746145532306e-23,3.6748790856113e-22,-4.2386448702488e-22,-2.995476280907e-24,1.6427684870852e-15,-1.4981093870926e-14,-8.9078216377964e-16,8.4397502590375e-17,-1.0025476160665,1.2889014498724,-2.6054498564803e-06,-1.3638905982794,1.037498336525,2.8506026343311e-31,-1.3642728691039e-29,-3.501828857003e-32,3.1463210684684e-34,-1.1282525055145,1.2401902111255,-0.99377450485561,1.2355835736153,-1.7171784273795e-55,1.0467097221422e-32,4.6490406025905e-31,-6.1562239782102e-31,-5.4439775909087e-34,4.7877013771467e-16,3.3601193455015e-15,-3.3816703224416e-15,-1.1265583641549e-16,-1.990478636448e-57,-1.8316240424202e-55,2.1546336799018e-52,1.4176099257802e-06,-4.9865296069658e-06,229.57158457006,229.57158457006,229.28189097142,229.28189097142,262.88413972535,262.6654289857,262.76869583655,262.83975212893,201.12735520092,200.02600736631,200.33317088432,201.04389624266,228.9330251547,262.95957394442,262.60329500907,262.69346023368,262.90176947934,252.45750819279,252.26223462717,252.3580892103,252.4438511641,206.58058124987,205.95697373501,228.9330251547,206.137534089,206.53656151555,270.44186241299,270.24090495106,270.34542142235,270.37323891305,206.76609756216,205.76627951238,205.96689835062,206.70585622466,275.71794435905,270.47184169244,270.21627503391,270.31553568557,270.39786551329,252.60251789627,252.14240419229,252.21340882335,252.56331082842,275.71794435905,275.62282170683,275.62282170683,229.22330259463,229.22330259463,390.57005803723,386.8575575499,0
0.000315,146981760.05017,9.2909475017566e-05,1.0374308489307,1.1153314475171e-06,-5.6075660429557e-07,5.2569581644262e-07,1.5884618762625e-06,2.2039094033773e-22,-3.9140955952163e-21,-6.0254564893078e-23,2.180491080375e-24,-37.648362123674,65.844093999586,-52.476571074312,40.030169501182,-3.008146906828e-06,2.5349923375577e-23,3.9136813700818e-22,-4.5594899024953e-22,-3.2244140193848e-24,1.7245442001859e-15,-1.5822656534123e-14,-9.3758290145446e-16,8.9022617026421e-17,-1.0032063117543,1.2905452183598,-2.6662614047996e-06,-1.3650850404015,1.0381965008218,3.135435318697e-31,-1.5263738159868e-29,-3.8910402988684e-32,3.5121613638267e-34,-1.1291118695863,1.240920010067,-0.99411143611645,1.2364949500762,-2.1282751349666e-55,1.1460553202706e-32,5.0710380332043e-31,-6.8161762073654e-31,-6.0479358333594e-34,5.015384074049e-16,3.5136713353544e-15,-3.5607363001287e-15,-1.185586681182e-16,-2.4908714721042e-57,-2.1670485373048e-55,2.7017289672011e-52,1.4475497819653e-06,-5.1034566817554e-06,229.59987226628,229.59987226628,229.30931352752,229.30931352752,262.91788840549,262.69843489495,262.80217521004,262.87348756659,201.13998830299,200.03402944675,200.34286261733,201.05637602665,228.95909376673,262.99361470887,262.6361225963,262.72665176103,262.93568551193,252.48963884606,252.29369645272,252.39006054594,252.47612764507,206.59824833185,205.97220522122,228.95909376673,206.15373902433,206.55439494954,270.47659884643,270.27496417721,270.37990309339,270.40782954544,206.78444666954,205.78092510765,205.9826077906,206.72408494489,275.75319909611,270.5066942775,270.25026404843,270.34990342723,270.43252798528,252.63521110654,252.17351988678,252.24482480523,252.59593614356,275.75319909611,275.65776507554,275.65776507554,229.25022732892,229.25022732892,390.58103967754,386.85049849547,0
0.00031525,147189788.55235,9.298363499536e-05,1.0374732701367,1.1384681046869e-06,-5.729485768229e-07,5.3734212626641e-07,1.6236679055343e-06,2.3600831347288e-22,-4.2359320456943e-21,-6.4878920556339e-23,2.3557700598912e-24,-37.611531127664,65.882159798367,-52.479298458334,40.004588705622,-3.06847676353e-06,2.7059454326716e-23,4.1672017088744e-22,-4.90346483451e-22,-3.4712531409191e-24,1.8101520531371e-15,-1.6709308957409e-14,-9.8684297242163e-16,9.3924944797114e-17,-1.003860122032,1.2921858652717,-2.7282903386888e-06,-1.3662678831165,1.0388964412429,3.447622860611e-31,-1.7072476815138e-29,-4.3236557822208e-32,3.9224298902884e-34,-1.1299661293891,1.2416398441796,-0.99444676525365,1.2373965195662,-2.6349777045409e-55,1.254586516235e-32,5.5299117566407e-31,-7.5442997620002e-31,-6.7198021913103e-34,5.253651178474e-16,3.6737088397228e-15,-3.7486687107668e-15,-1.247815951843e-16,-3.116540288434e-57,-2.5620459509159e-55,3.38501034612e-52,1.4780808269676e-06,-5.2227204651277e-06,229.62818908499,229.62818908499,229.3367667464,229.3367667464,262.9516466201,262.7314510288,262.8356648651,262.90723268476,201.15267113354,200.04210132081,200.35260603038,201.06890480428,228.98519425883,263.02766474882,262.66896076816,262.75985386943,262.96961090633,252.52178422518,252.32517365298,252.42204740362,252.50841905922,206.6159669314,205.98748920072,228.98519425883,206.16999730279,206.57228104889,270.51134153481,270.30903022577,270.41439158517,270.44242654034,206.80284665073,205.79562455618,205.99837240413,206.74236433511,275.78845817129,270.54155301678,270.28426003146,270.38427811364,270.46719669736,252.66791855095,252.20465164633,252.27625686635,252.62857576773,275.78845817129,275.69271284383,275.69271284383,229.27718224623,229.27718224623,390.59217243282,386.84356559782,0
0.0003155,147397939.18565,9.305779499453e-05,1.0375156873534,1.16206127721e-06,-5.8542419759178e-07,5.4930008013958e-07,1.6596136241491e-06,2.5267971995898e-22,-4.583384322753e-21,-6.9859803280968e-23,2.5460880714433e-24,-37.574770572136,65.920031902279,-52.482004138703,39.979218908931,-3.1297685261924e-06,2.8881676631235e-23,4.4363076611295e-22,-5.2721539988951e-22,-3.7374425018044e-24,1.899763329713e-15,-1.7643358597792e-14,-1.038694724488e-15,9.9123685516117e-17,-1.0045090238499,1.2938232876298,-2.7915572410742e-06,-1.3674389703846,1.0395981090211,3.7896944601577e-31,-1.9090128359514e-29,-4.8045674811652e-32,4.3828664310713e-34,-1.1308151856374,1.2423497233153,-0.99478049457562,1.2382882265547,-3.258878749451e-55,1.3731393598432e-32,6.0287865246243e-31,-8.3473722219831e-31,-7.4673629173454e-34,5.5029999182417e-16,3.8404877994547e-15,-3.9458761360997e-15,-1.3134300021149e-16,-3.8987694062178e-57,-3.0269204931231e-55,4.2377010096441e-52,1.509216575169e-06,-5.344360318827e-06,229.65653489197,229.65653489197,229.3642504995,229.3642504995,262.9854143233,262.76447735356,262.86916475186,262.94098742693,201.16540348861,200.05022290565,200.36240097583,201.0814823169,229.01132653886,263.06172401074,262.70180949206,262.79306651671,263.00354560508,252.55394426906,252.3566661782,252.45404971221,252.54072532826,206.63373690105,206.00282557333,229.01132653886,206.18630878588,206.59021963587,270.54609044272,270.34310307192,270.44888686165,270.47702985757,206.82129734075,205.81037776665,206.01419206676,206.76069421697,275.82372155693,270.57641787185,270.31826295864,270.41865971181,270.50187160898,252.70064015361,252.23579942338,252.30770495038,252.66122962068,275.82372155693,275.72766498758,275.72766498758,229.30416724843,229.30416724843,390.60345582916,386.83675849916,0
0.00031575,147606211.83881,9.3131955017354e-05,1.0375581005665,1.186120726865e-06,-5.9819140528034e-07,5.6158231220243e-07,1.6963150882873e-06,2.7047316967848e-22,-4.9584261568574e-21,-7.5225196678786e-23,2.7528684306295e-24,-37.538080748218,65.957710064365,-52.484687989851,39.95406121784,-3.1920345000992e-06,3.0823995667329e-23,4.7219164279666e-22,-5.6672445886832e-22,-4.0245539771064e-24,1.9935568970077e-15,-1.8627225913493e-14,-1.0932780326275e-15,1.0463967947888e-16,-1.0051529938859,1.2954573808855,-2.8560830296899e-06,-1.3685981370551,1.0403014540257,4.1644052942395e-31,-2.1340204708073e-29,-5.3392294893565e-32,4.9000188801799e-34,-1.1316589356521,1.243049658517,-0.9951126267047,1.2391700163743,-4.0263051546456e-55,1.5026261426393e-32,6.5710464985193e-31,-9.2328189003756e-31,-8.299321205767e-34,5.7639524190632e-16,4.0142738804868e-15,-4.1527846113693e-15,-1.3826241318898e-16,-4.8766499992278e-57,-3.5737235231881e-55,5.3009644346916e-52,1.5409710633877e-06,-5.4684161779905e-06,229.68490955371,229.68490955371,229.39176465878,229.39176465878,263.01919146945,262.79751383567,262.90267482068,262.97475173696,201.17818516318,200.05839411824,200.37224730545,201.09410830237,229.03749051472,263.09579244147,262.7346687355,262.8262896608,263.0374895511,252.58611891685,252.38817397879,252.4860674009,252.57304637432,206.65155809365,206.01821423872,229.03749051472,206.20267333532,206.60821053336,270.58084553494,270.37718269097,270.48338888698,270.51163945724,206.83979857524,205.82518464746,206.0300666539,206.7790744129,275.85898922557,270.61128880455,270.35227280569,270.45304818892,270.53655267988,252.73337583912,252.26696317042,252.33916900112,252.69389762266,275.85898922557,275.76262148282,275.76262148282,229.33118223758,229.33118223758,390.61488938611,386.8300768331,0
0.000316,147814606.38882,9.320611506601e-05,1.0376005097597,1.2106564921113e-06,-6.1125843471169e-07,5.742023257909e-07,1.7337887870112e-06,2.8946090759335e-22,-5.363178488854e-21,-8.1005356901784e-23,2.9776895548543e-24,-37.501461879625,65.995194083786,-52.487349829092,39.929116859417,-3.2552871751403e-06,3.2894317540213e-23,5.0249976699189e-22,-6.0905329995615e-22,-4.3342935864702e-24,2.0917195648283e-15,-1.9663449637234e-14,-1.150740769979e-15,1.1049559261073e-16,-1.0057920086072,1.2970880377027,-2.9218889755629e-06,-1.369745205946,1.0410064257444,4.5747561490715e-31,-2.3848795042582e-29,-5.9337241804594e-32,5.4813711609441e-34,-1.1324972729949,1.2437396633471,-0.99544316286708,1.2400418343567,-4.9693254459695e-55,1.6440425507135e-32,7.1603566082527e-31,-1.0208772329028e-30,-9.2254090195156e-34,6.0370571038193e-16,4.1953428491802e-15,-4.3698383333818e-15,-1.4556059157738e-16,-6.0990308055342e-57,-4.2165465752191e-55,6.625762818435e-52,1.5733588846211e-06,-5.5949285527571e-06,229.71331293737,229.71331293737,229.41930909674,229.41930909674,263.05297801318,262.83056044164,262.93619502223,263.00852555911,201.19101595114,200.06661487527,200.38214487046,201.10678249462,229.06368609434,263.12986998821,262.76753846603,262.85952325983,263.07144268773,252.61830810801,252.41969700525,252.51810039921,252.60538212002,206.66943036241,206.03365509646,229.06368609434,206.21909081309,206.6262535649,270.61560677653,270.41126905832,270.51789762555,270.54625529976,206.85835019048,205.84004510673,206.04599604085,206.79750474615,275.89426114993,270.646165777,270.38628954843,270.48744351232,270.57123987015,252.76612553252,252.29814283999,252.37064896251,252.72657969444,275.89426114993,275.79758230578,275.79758230578,229.358227116,229.358227116,390.62647261528,386.82352022387,0
0.00031625,148023122.70123,9.3280275142582e-05,1.0376429149138,1.23567890612e-06,-6.2463383071019e-07,5.8717459405674e-07,1.7720516544778e-06,3.0971967429344e-22,-5.7999201012628e-21,-8.7233006985599e-23,3.2223054823252e-24,-37.464914172334,66.03248378768,-52.489989438833,39.904387178685,-3.3195392336417e-06,3.5101085548297e-23,5.3465764814277e-22,-6.543931475308e-22,-4.6685137101001e-24,2.1944464765143e-15,-2.0754692336648e-14,-1.2112393084307e-15,1.1671613049915e-16,-1.0064260436967,1.2987151484751,-2.9889967011119e-06,-1.3708799874686,1.0417129716368,5.02401475389e-31,-2.6644840845796e-29,-6.5948366998753e-32,6.1354947851481e-34,-1.1333300872926,1.2444197521163,-0.99577210454056,1.2409036270844,-6.1269649353804e-55,1.7984755367369e-32,7.8006856573e-31,-1.1284136853385e-30,-1.0256513198164e-33,6.3228902279871e-16,4.3839809632838e-15,-4.5975003547752e-15,-1.5325960656827e-16,-7.6269580545358e-57,-4.9718634808847e-55,8.2751413179815e-52,1.6063952314146e-06,-5.7239385394615e-06,229.74174491084,229.74174491084,229.44688368642,229.44688368642,263.08677390938,262.86361713812,262.96972530741,263.04230883802,201.20389564514,200.07488509321,200.39209352144,201.119504623,229.08991318576,263.16395659852,262.80041865127,262.89276727206,263.10540495873,252.65051178228,252.45123520823,252.55014863704,252.63773248843,206.68735356092,206.049148046,229.08991318576,206.23556108148,206.64434855464,270.6503741328,270.4453621495,270.55241304198,270.58087734587,206.87695202344,205.85495905233,206.06198010284,206.81598504084,275.92953730298,270.6810487516,270.42031316278,270.52184564954,270.60593314017,252.79888915935,252.32933838468,252.40214477864,252.75927575736,275.92953730298,275.83254743288,275.83254743288,229.38530178622,229.38530178622,390.63820502067,386.81708828554,0
0.0003165,148231760.6289,9.3354435249057e-05,1.0376853160075,1.2611986046541e-06,-6.3832646468338e-07,6.0051467591058e-07,1.8111210907499e-06,3.3133098136297e-22,-6.2710989763688e-21,-9.3943549220397e-23,3.4886698622901e-24,-37.428437756822,66.069579063808,-52.492606540527,39.879873682041,-3.3848035553084e-06,3.7453319445729e-23,5.6877365464553e-22,-7.0294752052745e-22,-5.0292265069063e-24,2.3019415135934e-15,-2.1903746171857e-14,-1.2749390585871e-15,1.2332828725712e-16,-1.0070550739825,1.3003386008047,-3.0574282009142e-06,-1.3720022760232,1.0424210381436,5.5157389123346e-31,-2.9760439417474e-29,-7.3301386380904e-32,6.8722293506241e-34,-1.1341572631957,1.2450899411581,-0.99609945212885,1.2417553413966,-7.5466705064727e-55,1.967111981005e-32,8.4963313577163e-31,-1.2468659022258e-30,-1.1404817720323e-33,6.6220574763665e-16,4.5804853830055e-15,-4.8362533468523e-15,-1.6138293639216e-16,-9.5367279765722e-57,-5.8589299481569e-55,1.0327033521106e-51,1.6400959368892e-06,-5.8554878222194e-06,229.77020534272,229.77020534272,229.47448830145,229.47448830145,263.12057911327,262.89668389186,263.00326562746,263.07610151876,201.21682403657,200.08320468834,200.40209310841,201.13227441157,229.11617169705,263.19805222039,262.83330925894,262.92602165599,263.13937630832,252.6827298797,252.48278853852,252.58221204466,252.67009740314,206.70532754316,206.06469298672,229.11617169705,206.25208400309,206.66249532747,270.68514756933,270.47946194016,270.58693510112,270.61550555662,206.89560391178,205.86992639186,206.07801871503,206.83451512196,275.96481765792,270.71593769109,270.45434362476,270.55625456833,270.64063245067,252.83166664567,252.36054975718,252.43365639376,252.79198573327,275.96481765792,275.86751684074,275.86751684074,229.41240615107,229.41240615107,390.65008609714,386.81078062101,0
0.00031675,148440520.01192,9.3428595387327e-05,1.0377277130166,1.2872265404909e-06,-6.5234555177895e-07,6.1423935476858e-07,1.8510149787375e-06,3.5438140485261e-22,-6.7793444453042e-21,-1.0117529701925e-22,3.7789642080735e-24,-37.392032694066,66.106479839352,-52.495200784041,39.855578062132,-3.4510932227467e-06,3.99606580351e-23,6.0496234721908e-22,-7.549329798693e-22,-5.4186186748037e-24,2.4144177317792e-15,-2.311353891619e-14,-1.3420150461154e-15,1.3036163775663e-16,-1.0076790727211,1.3019582790202,-3.127205852648e-06,-1.3731118470248,1.0431305700991,6.0538016211253e-31,-3.3231178799807e-29,-8.148082058297e-32,7.7028987789109e-34,-1.1349786799443,1.2457502485725,-0.99642520475737,1.2425969247535,-9.2860745369417e-55,2.1512482366226e-32,9.2519474257236e-31,-1.3773004068939e-30,-1.2683964362648e-33,6.9351956951941e-16,4.7851645970272e-15,-5.0866003702137e-15,-1.6995556728805e-16,-1.1923706754722e-56,-6.9002503057825e-55,1.2877704518437e-51,1.6744775245097e-06,-5.9896186756058e-06,229.79869410238,229.79869410238,229.50212281605,229.50212281605,263.15439358033,262.92976066976,263.03681593392,263.10990354682,201.22980091536,200.09157357671,200.41214348075,201.14509157822,229.14246153642,263.23215680219,262.86621025685,262.95928637026,263.17335668115,252.71496234063,252.51435694707,252.61429055274,252.70247678824,206.72335216356,206.08028981792,229.14246153642,206.26865944089,206.68069370901,270.71992705199,270.51356840609,270.62146376812,270.65013989342,206.91430569392,205.88494703272,206.09411175259,206.85309481546,276.00010218818,270.75083255853,270.48838091052,270.59067023665,270.67533776275,252.86445791802,252.39177691025,252.46518375233,252.82470954461,276.00010218818,275.90249050617,275.90249050617,229.43954011363,229.43954011363,390.66211532899,386.8045968202,0
0.000317,148649400.67694,9.3502755559181e-05,1.0377701059144,1.3137739984947e-06,-6.6670066891673e-07,6.2836680556398e-07,1.8917517032424e-06,3.7896289721008e-22,-7.3274801814531e-21,-1.0896972842381e-22,4.0956314798372e-24,-37.355698959449,66.143186116698,-52.49777173627,39.831502234276,-3.5184215274624e-06,4.2633405315713e-23,6.4334483152117e-22,-8.1057991940747e-22,-5.839067691475e-24,2.5320978244615e-15,-2.4387140249382e-14,-1.4126525305535e-15,1.378486847486e-16,-1.0082980117588,1.3035740639616,-3.1983524302953e-06,-1.3742084528878,1.0438415105999,6.642418331707e-31,-3.7096507278004e-29,-9.0581052333135e-32,8.6405722814517e-34,-1.1357942099335,1.2464006944232,-0.99674935999419,1.243428325037,-1.1415117300452e-54,2.352300656344e-32,1.0072572914306e-30,-1.5208839065085e-30,-1.4109234241687e-33,7.2629747462347e-16,4.9983388668996e-15,-5.3490656778231e-15,-1.7900410269796e-16,-1.4907112270932e-56,-8.1221228241526e-55,1.6045973360934e-51,1.7095572620853e-06,-6.1263739687657e-06,229.82721105999,229.82721105999,229.52978710508,229.52978710508,263.18821726639,262.96284743885,263.07037617865,263.14371486813,201.24282606996,200.09999167419,200.42224448722,201.15795583344,229.16878261218,263.26627029271,262.8991216129,262.99256137379,263.20734602237,252.74720910576,252.54594038501,252.64638409234,252.73487056837,206.741427277,206.09593843884,229.16878261218,206.28528725828,206.69894352565,270.75471254694,270.54768152324,270.65599900837,270.68478031804,206.93305720908,205.90002088206,206.11025909068,206.87172394823,276.03539086749,270.7857333173,270.52242499637,270.6250926227,270.71004903784,252.89726290351,252.42301979677,252.49672679899,252.8574471144,276.03539086749,275.93746840624,275.93746840624,229.4667035773,229.4667035773,390.67429218932,386.79853645932,0
0.00031725,148858402.43647,9.3576915766313e-05,1.0378124946711,1.340852609699e-06,-6.814017745861e-07,6.4291679223074e-07,1.9333501712407e-06,4.0517311910283e-22,-7.9185380881748e-21,-1.1737176345273e-22,4.4414159857226e-24,-37.319436434481,66.179697960539,-52.500318868036,39.807648407443,-3.5868019765865e-06,4.5482580497293e-23,6.840491319087e-22,-8.7013340219061e-22,-6.2931597098689e-24,2.6552146182105e-15,-2.5727768313522e-14,-1.4870476699283e-15,1.4582526787333e-16,-1.0089118604913,1.3051858326578,-3.2708911198012e-06,-1.375291819086,1.0445538009646,7.2861765389814e-31,-4.1400140889813e-29,-1.0070751624758e-31,9.7003804171233e-34,-1.1366037183688,1.2470413008682,-0.99707191345028,1.2442494909868,-1.4018598458485e-54,2.5718172119656e-32,1.0963663988088e-30,-1.6788923289875e-30,-1.5697753147653e-33,7.6060994858972e-16,5.2203406938988e-15,-5.6241955490806e-15,-1.8855688174742e-16,-1.8636001700764e-56,-9.5552770265265e-55,1.9978387493976e-51,1.7453532246121e-06,-6.265797165907e-06,229.85575608649,229.85575608649,229.55748104408,229.55748104408,263.22205012763,262.99594416632,263.10394631388,263.1775354291,201.25589928714,200.10845889648,200.43239597596,201.17086687897,229.19513483279,263.30039264122,262.93204329514,263.02584662571,263.24134427758,252.77947011617,252.57753880363,252.67849259501,252.76727866871,206.75955273886,206.1116387487,229.19513483279,206.30196731908,206.71724460464,270.78950402068,270.58180126769,270.69054078759,270.71942679261,206.95185829729,205.91514784688,206.12646060452,206.8904023482,276.07068366985,270.82063993117,270.55647585872,270.65952169494,270.7447662378,252.9300815298,252.45427836971,252.52828547862,252.89019836629,276.07068366985,275.97245051825,275.97245051825,229.49389644578,229.49389644578,390.68661613845,386.79259909902,0
0.0003175,149067525.08806,9.3651076010317e-05,1.0378548792541,1.3684743664819e-06,-6.9645922898668e-07,6.5791091944224e-07,1.9758298325713e-06,4.3311579257012e-22,-8.5557731269344e-21,-1.2643006768129e-22,4.8194123266415e-24,-37.283244869108,66.216015510203,-52.502841530947,39.784019133183,-3.6562482972156e-06,4.851997229776e-23,7.2721058707812e-22,-9.3385404583776e-22,-6.783709275902e-24,2.7840116033499e-15,-2.7138796510197e-14,-1.565408234232e-15,1.5433107226341e-16,-1.0095205848841,1.3067934576165,-3.3448455361025e-06,-1.3763616361655,1.0452673799964,7.9900678956766e-31,-4.6190512654078e-29,-1.1197803846045e-31,1.0899904897231e-33,-1.1374070609538,1.2476720924715,-0.99739285800025,1.2450603718904,-1.7199241903039e-54,2.81149033414e-32,1.1931128338321e-30,-1.8527206455424e-30,-1.7468723929213e-33,7.9653118892786e-16,5.4515153047058e-15,-5.9125591604969e-15,-1.9864410741514e-16,-2.3296771649332e-56,-1.1235618697285e-54,2.4855559074655e-51,1.7818843630982e-06,-6.4079323202385e-06,229.88432905371,229.88432905371,229.58520450927,229.58520450927,263.25589212058,263.02905081955,263.13752629224,263.21136517663,201.26902035185,200.11697515913,200.44259779446,201.18382440581,229.22151810689,263.33452379744,262.96497527175,263.05914208543,263.27535139294,252.81174531328,252.60915215448,252.71061599276,252.79970101504,206.77772840508,206.12739064669,229.22151810689,206.31869948767,206.73559677411,270.82430144007,270.61592761576,270.72508907185,270.75407927968,206.97070879951,205.93032783398,206.14271616946,206.90912984439,276.10598056959,270.85555236431,270.5905334742,270.69395742211,270.77948932487,252.96291372515,252.48555258221,252.55985973634,252.92296322456,276.10598056959,276.00743681973,276.00743681973,229.52111862312,229.52111862312,390.69908662126,386.78678428139,0
0.00031775,149276768.41323,9.3725236292684e-05,1.0378972596271,1.3966516416804e-06,-7.1188381660477e-07,6.7337293651855e-07,2.0192107019932e-06,4.6290107699194e-22,-9.2426791782433e-21,-1.3619738485465e-22,5.2331245365769e-24,-37.247123853639,66.252139006934,-52.505338931405,39.760617424078,-3.7267744431279e-06,5.175819804706e-23,7.7297226863268e-22,-1.002018956601e-21,-7.3137811022614e-24,2.9187435031506e-15,-2.8623760634119e-14,-1.6479543728954e-15,1.6341023700397e-16,-1.0101241468948,1.3083968065042,-3.4202397401124e-06,-1.3774175529364,1.045982184282,8.7595230690925e-31,-5.1521267840969e-29,-1.2452434604923e-31,1.2259658645173e-33,-1.1382040825893,1.2482930963952,-0.99771218339695,1.2458609185686,-2.1081373938668e-54,3.0731711210272e-32,1.2981362445963e-30,-2.0438935356041e-30,-1.9443689807931e-33,8.3413933487328e-16,5.6922211584007e-15,-6.2147494818101e-15,-2.0929798604942e-16,-2.9122556424218e-56,-1.3205100979845e-54,3.0899918488477e-51,1.8191705847441e-06,-6.5528240733533e-06,229.91292983437,229.91292983437,229.61295737766,229.61295737766,263.2897432022,263.06216736612,263.17111606678,263.24520405814,201.28218904707,200.12554037757,200.45284978958,201.1968280918,229.24793234333,263.36866371163,262.99791751109,263.09244771268,263.30936731514,252.84403463897,252.64078038928,252.74275421812,252.83213753378,206.79595413217,206.14319403203,229.24793234333,206.33548362902,206.75399986318,270.85910477233,270.65006054393,270.75964382756,270.7887377422,206.98960855762,205.94556075004,206.159025661,206.92790626695,276.14128154137,270.89047058129,270.6245978196,270.72839977329,270.81421826172,252.99575941843,252.51684238757,252.59144951759,252.95574161414,276.14128154137,276.04242728855,276.04242728855,229.54837001374,229.54837001374,390.71170306557,386.78109152812,0
0.000318,149486132.1763,9.3799396614805e-05,1.0379396357506,1.4253972048054e-06,-7.2768676932664e-07,6.8932912644408e-07,2.0635133819282e-06,4.9464596972401e-22,-9.9830059640062e-21,-1.4673090150597e-22,5.6865399420538e-24,-37.211072758089,66.288068787157,-52.507810105545,39.737446847392,-3.7983946019745e-06,5.5210767844859e-23,8.214854272963e-22,-1.0749227199092e-21,-7.8867140998543e-24,3.0596768881126e-15,-3.0186366245625e-14,-1.7349194400527e-15,1.7311212203365e-16,-1.0107225026163,1.3099957407497,-3.4970982605575e-06,-1.3784591651068,1.0466981470256,9.6004495728651e-31,-5.7451809628238e-29,-1.384937688994e-31,1.3803689073483e-33,-1.138994614309,1.2489043430433,-0.99802987528205,1.2466510828908,-2.5815334240569e-54,3.3588850653731e-32,1.4121292015583e-30,-2.254076977859e-30,-2.1646832893987e-33,8.7351671208187e-16,5.9428304896117e-15,-6.5313842206763e-15,-2.2055287852305e-16,-3.6405009545513e-56,-1.5512743347789e-54,3.8385194988319e-51,1.8572328446741e-06,-6.7005176439846e-06,229.94155830214,229.94155830214,229.64073952707,229.64073952707,263.32360332987,263.09529377384,263.20471559103,263.27905202162,201.2954051536,200.13415446714,200.46315180755,201.20987759821,229.27437745122,263.40281233456,263.03086998171,263.12576346753,263.34339199144,252.87633803554,252.67242346008,252.77490720419,252.86458815199,206.8142297773,206.15904880402,229.27437745122,206.35231960877,206.77245370199,270.89391398512,270.68420002893,270.79420502157,270.82340214362,207.00855741459,205.96084650167,206.17538895488,206.94673144728,276.17658656028,270.92539454716,270.65866887193,270.76284871792,270.84895301152,253.02861853922,252.54814773929,252.62305476813,252.98853346071,276.17658656028,276.07742190285,276.07742190285,229.5756505225,229.5756505225,390.72446487762,386.77552033572,0
0.00031825,149695616.12276,9.3873556977965e-05,1.0379820075808,1.4547242421977e-06,-7.4387979132215e-07,7.05808805506e-07,2.1087590854266e-06,5.284747330471e-22,-1.07807771097e-20,-1.5809264696806e-22,6.1842222184545e-24,-37.175090699791,66.323805336803,-52.510253877136,39.714511718015,-3.8711231968341e-06,5.889215460362e-23,8.7290996177455e-22,-1.1528784429226e-21,-8.5061479534951e-24,3.207090839411e-15,-3.1830496324698e-14,-1.8265508824689e-15,1.8349227828413e-16,-1.0113156005944,1.3115901160366,-3.5754461130213e-06,-1.3794860009123,1.0474151977035,1.0519272826104e-30,-6.4047900149194e-29,-1.5405115996492e-31,1.5560344549168e-33,-1.1397784706977,1.2495058665875,-0.99834591405436,1.247430818759,-3.1582760681092e-54,3.6708495038481e-32,1.5358415695056e-30,-2.4850908231371e-30,-2.4105313015432e-33,9.1475009832672e-16,6.2037298556438e-15,-6.863106784958e-15,-2.3244546476772e-16,-4.5509079240442e-56,-1.8215823596802e-54,4.7648000741502e-51,1.896093253376e-06,-6.8510588103685e-06,229.97021433168,229.97021433168,229.66855083619,229.66855083619,263.35747246147,263.1284300108,263.23832481905,263.31290901566,201.30866844987,200.14281734315,200.47350369396,201.22297256508,229.30085333997,263.43696961766,263.06383265238,263.15908931046,263.37742536976,252.90865544581,252.70408131918,252.80707488472,252.89705279749,206.8325551984,206.17495486204,229.30085333997,206.36920729337,206.79095812188,270.92872904659,270.71834604778,270.82877262119,270.85807244786,207.0275552145,205.9761849954,206.1918059272,206.96560521811,276.21189560181,270.9603242275,270.69274660848,270.79730422584,270.88369353791,253.06149101779,252.57946859112,252.65467543411,253.0213386907,276.21189560181,276.11242064113,276.11242064113,229.60296005469,229.60296005469,390.73737143921,386.77007017196,0
0.0003185,149905219.9773,9.3947717383347e-05,1.0380243750695,1.4846463780283e-06,-7.6047508437425e-07,7.2284498137758e-07,2.1549696575966e-06,5.6451935032264e-22,-1.1640309413088e-20,-1.7034993237187e-22,6.7314310775132e-24,-37.13917644464,66.359349305074,-52.512668803356,39.691817336956,-3.9449748923527e-06,6.2817870406201e-23,9.274149216293e-22,-1.2362188617294e-21,-9.1760525109172e-24,3.3612776730445e-15,-3.3560219192826e-14,-1.9231111937097e-15,1.946137041962e-16,-1.0119033789345,1.313179780581,-3.6553088268718e-06,-1.3804975010212,1.0481332605443,1.152298073424e-30,-7.1382322353409e-29,-1.7138106337871e-31,1.7563265353802e-33,-1.1405554450528,1.2500977057906,-0.99866027387783,1.2482000832628,-3.8602916723865e-54,4.0114929868804e-32,1.6700852602423e-30,-2.738922456312e-30,-2.6849652574562e-33,9.5793100944077e-16,6.4753207359435e-15,-7.2105873081492e-15,-2.450149223838e-16,-5.6891547318741e-56,-2.138127317497e-54,5.9101974705313e-51,1.9357752044511e-06,-7.0044938830419e-06,229.99889779878,229.99889779878,229.69639118475,229.69639118475,263.39135055544,263.16157604539,263.27194370553,263.34677498954,201.32197871168,200.15152892092,200.48390529383,201.2361126046,229.32735991938,263.47113551299,263.0968054922,263.19242520242,263.41146739868,252.94098681318,252.73575391927,252.83925719416,252.92953139887,206.85093025421,206.19091210563,229.32735991938,206.38614655018,206.80951295546,270.9635499254,270.75249857781,270.86334659429,270.89274861943,207.04660180271,205.99157613779,206.20827645446,206.98452741362,276.247208642,270.99525958846,270.72683100683,270.83176626741,270.91843980513,253.09437678523,252.61080489711,252.68631146214,253.05415723137,276.247208642,276.14742348232,276.14742348232,229.63029851617,229.63029851617,390.75042210115,386.76474046884,0
0.00031875,150114943.44105,9.4021877832017e-05,1.0380667381635,1.5151776916083e-06,-7.7748537555788e-07,7.4047523733859e-07,2.2021676105703e-06,6.0292001003558e-22,-1.2566233397213e-20,-1.8357583391555e-22,7.3342798402403e-24,-37.103328196815,66.394701534011,-52.515053096337,39.669370359767,-4.0199645937684e-06,6.7004549840919e-23,9.8517904028476e-22,-1.3252975112443e-21,-9.9007603138094e-24,3.5225437165604e-15,-3.5379796735499e-14,-2.0248789535178e-15,2.0654851397748e-16,-1.0124857621221,1.3147645715296,-3.7367124784612e-06,-1.3814929873093,1.0488522553275,1.2619171994425e-30,-7.9535608583168e-29,-1.9069016526359e-31,1.9852691593053e-33,-1.1413253020114,1.2506799055278,-0.99897291897457,1.2489588370104,-4.7140260933462e-54,4.3834768136632e-32,1.8157393849983e-30,-3.0177416228391e-30,-2.9914174059304e-33,1.00315600615e-15,6.7580201542274e-15,-7.5745237158365e-15,-2.5830312099194e-16,-7.1124301536396e-56,-2.5087310766496e-54,7.3255039390366e-51,1.9763035191964e-06,-7.1608696766769e-06,230.02760858043,230.02760858043,229.72426045356,229.72426045356,263.42523757089,263.19473184641,263.30557220583,263.38064989331,201.33533571193,200.16028911583,200.49435645163,201.24929729128,229.35389709974,263.50530997342,263.1297884706,263.22577110496,263.44551802758,252.9733320817,252.76744121346,252.87145406778,252.96202388565,206.86935480443,206.20692043458,229.35389709974,206.40313724767,206.82811803677,270.99837659088,270.78665759672,270.89792690937,270.92743062347,207.06569702602,206.00701983551,206.22480041379,207.00349786962,276.28252565748,271.03020059688,270.76092204495,270.86623481356,270.95319177806,253.12727577354,252.64215661167,252.71796279941,253.08698901092,276.28252565748,276.18243040579,276.18243040579,229.65766581337,229.65766581337,390.76361617338,386.75953061198,0
0.000319,150324786.18913,9.4096038324936e-05,1.0381090968034,1.5463327486809e-06,-7.9492394147444e-07,7.5874296811197e-07,2.2503761287728e-06,6.4382562852513e-22,-1.3563515142223e-20,-1.978497224028e-22,7.9999488293952e-24,-37.067543522888,66.429863163522,-52.517404532504,39.64717931391,-4.0961074488771e-06,7.1470041547684e-23,1.0463913033848e-21,-1.4204899529522e-21,-1.0685002602757e-23,3.6912101908122e-15,-3.7293692690781e-14,-2.1321499235682e-15,2.1938022135466e-16,-1.0130626544046,1.3163443178448,-3.8196837048735e-06,-1.3824716236633,1.0495720917762,1.3816108655088e-30,-8.8596841833709e-29,-2.1221006407805e-31,2.2477233382215e-33,-1.1420877692108,1.2512525183382,-0.99928380300657,1.2497070474252,-5.7513494145273e-54,4.7897190301573e-32,1.9737558490852e-30,-3.3239164937623e-30,-3.3337497839857e-33,1.0505270328465e-15,7.0522613415962e-15,-7.9556427901312e-15,-2.7235483250086e-16,-8.8923565838148e-56,-2.9425355565814e-54,9.0730439976175e-51,2.0177046406383e-06,-7.3202334343919e-06,230.05634655498,230.05634655498,229.75215852468,229.75215852468,263.45913346767,263.22789738314,263.3392102762,263.41453367788,201.34873922038,200.16909784349,200.50485701137,201.26252614694,229.38046479191,263.53949295269,263.16278155746,263.2591269803,263.4795772067,253.0056911962,252.79914315539,252.90366544183,252.99453018833,206.8878287099,206.22297974905,229.38046479191,206.42017925561,206.84677320155,271.03320901309,270.82082308272,270.9325135357,270.96211842587,207.08484073287,206.02251599542,206.24137768304,207.02251642374,276.31784662564,271.06514722041,270.79501970125,270.90070983591,270.98794942229,253.16018791571,252.67352368969,252.74962939377,253.11983395856,276.31784662564,276.21744139149,276.21744139149,229.68506185351,229.68506185351,390.77695291602,386.75443993085,0
0.00031925,150534747.86518,9.4170198862946e-05,1.0381514509229,1.5781266195386e-06,-8.1280463388363e-07,7.7769914709121e-07,2.2996191007631e-06,6.8739440304582e-22,-1.463747953136e-20,-2.1325784741276e-22,8.7369844948016e-24,-37.031818938852,66.46483571874,-52.519720286992,39.625255432506,-4.1734188328534e-06,7.6233508245975e-23,1.1112515569678e-21,-1.5221950860925e-21,-1.1533949167426e-23,3.8676141584467e-15,-3.930658118372e-14,-2.2452382495147e-15,2.3320697763323e-16,-1.0136339315966,1.3179188348399,-3.9042497511781e-06,-1.3834323471749,1.0502926686624,1.5122772982253e-30,-9.8664536988049e-29,-2.3620040719968e-31,2.5496343334862e-33,-1.1428425218211,1.2518156076471,-0.99959286298531,1.2504446906788,-7.0106366969877e-54,5.2334211848425e-32,2.1451654399328e-30,-3.6600311274105e-30,-3.7163108788451e-33,1.1001517778692e-15,7.3584944365961e-15,-8.3547013505927e-15,-2.8721795908049e-16,-1.1118663389675e-55,-3.4502269553758e-54,1.1229237633847e-50,2.0600068573682e-06,-7.4826327412997e-06,230.08511160236,230.08511160236,229.78008528171,229.78008528171,263.49303820659,263.26107262547,263.37285787389,263.44842629519,201.36218900329,200.17795501982,200.51540681674,201.27579861651,229.40706290755,263.57368440562,263.19578472326,263.29249279154,263.51364488734,253.03806410248,252.83085969939,252.93589125369,253.02705023864,206.90635183283,206.23908994966,229.40706290755,206.4372724454,206.86547828746,271.06804716306,270.85499501463,270.96710644351,270.9968119934,207.10403277365,206.03806452477,206.25800814111,207.04158291572,276.35317152473,271.10009942768,270.82912395476,270.93519130701,271.02271270435,253.19311314599,252.70490608669,252.78131119393,253.15269200476,276.35317152473,276.25245642008,276.25245642008,229.71248654466,229.71248654466,390.79043151881,386.74946767699,0
0.0003195,150744828.07545,9.4244359446768e-05,1.0381938004465,1.6105749062519e-06,-8.31141897936e-07,7.9740498551801e-07,2.3499211292428e-06,7.3379440635347e-22,-1.5793834826167e-20,-2.2989397920347e-22,9.5557373779691e-24,-36.996149448484,66.499621274898,-52.521996699144,39.603614068597,-4.2519143267572e-06,8.1315537006286e-23,1.1799711639525e-21,-1.6308365223808e-21,-1.2453252354566e-23,4.0521096019046e-15,-4.1423355099137e-14,-2.364477739176e-15,2.4814637682003e-16,-1.014199427589,1.319487921562,-3.9904384991331e-06,-1.3843737622844,1.0510138675373,1.6548929184697e-30,-1.0984760849541e-28,-2.6295244301898e-31,2.8983910762051e-33,-1.1435891600569,1.2523692522351,-0.99990001247115,1.2511717576457,-8.5380578155148e-54,5.7180982557834e-32,2.3310844684514e-30,-4.028904379754e-30,-4.1440001318367e-33,1.1521440707852e-15,7.6771872509885e-15,-8.7724874290523e-15,-3.0294377738918e-16,-1.3903806066741e-55,-4.0442986750491e-54,1.3887720659193e-50,2.1032406009976e-06,-7.6481153686823e-06,230.11390360434,230.11390360434,229.80804061003,229.80804061003,263.52695174968,263.29425754412,263.40651495749,263.48232769846,201.3756848232,200.18686056132,200.52600571137,201.28911402645,229.43369135933,263.60788428838,263.22879793926,263.32586850291,263.54772102205,253.07045074753,252.86259080063,252.9681314422,253.05958396975,206.92492403713,206.25525093779,229.43369135933,206.45441669047,206.88423313452,271.10289101297,270.88917337206,271.00170560424,271.03151129397,207.12327300112,206.05366533137,206.27469166826,207.06069718782,276.38850033423,271.13505718855,270.86323478531,270.96967920053,271.05748159185,253.22605140009,252.73630375901,252.81300814974,253.1855630814,276.38850033423,276.28747547312,276.28747547312,229.73993979608,229.73993979608,390.80405107401,386.74461299491,0
0.00031975,150955026.37972,9.4318520076996e-05,1.0382361452872,1.643693764613e-06,-8.4995077753447e-07,8.1793614121413e-07,2.4013075336174e-06,7.8320422157436e-22,-1.703869852299e-20,-2.4786011512776e-22,1.0469039795369e-23,-36.960527648314,66.534222749859,-52.524228876784,39.582277114547,-4.3316096628172e-06,8.6738260783498e-23,1.2527737178651e-21,-1.7468640424043e-21,-1.3449095458908e-23,4.2450686445816e-15,-4.3649133999434e-14,-2.4902232315927e-15,2.643429973298e-16,-1.0147589106235,1.3210513565675,-4.0782785071127e-06,-1.3852939571029,1.0517355431749,1.8105190222001e-30,-1.2226643164636e-28,-2.9279304721746e-31,3.303376455128e-33,-1.14432716936,1.2529135541239,-1.0002051292041,1.2518882620198,-1.038911586239e-53,6.2476121882561e-32,2.5327220435136e-30,-4.4336104157141e-30,-4.6223413048023e-33,1.2066243140042e-15,8.0088261004631e-15,-9.2098215174847e-15,-3.1958719650867e-16,-1.7388778471779e-55,-4.7393599116716e-54,1.7163140383907e-50,2.1474388437362e-06,-7.8167290035311e-06,230.14272244508,230.14272244508,229.83602439731,229.83602439731,263.56087406056,263.32745211094,263.44018148728,263.51623784257,201.38922643863,200.19581438535,200.53665353925,201.30247150774,229.46035006134,263.64209255889,263.26182117783,263.35925408021,263.58180556502,253.10285107995,252.89433641554,253.00038594808,253.09213131669,206.943545189,206.27146261586,229.46035006134,206.47161186692,206.90303758573,271.13774053664,270.92335813579,271.03631099099,271.06621629692,207.14256127108,206.06931832397,206.29142814665,207.07985908546,276.42383303515,271.17002047454,270.89735217382,271.0041734917,271.09225605386,253.25900261562,252.76771666414,252.84472021253,253.21844712225,276.42383303515,276.32249853337,276.32249853337,229.76742151855,229.76742151855,390.81781052811,386.73987487123,0
0.00032,151165342.27741,9.4392680754087e-05,1.0382784853418,1.6774999239966e-06,-8.6924688876064e-07,8.3938986621397e-07,2.4538043255483e-06,8.3581361959488e-22,-1.8378624185025e-20,-2.6726725563158e-22,1.1493333547399e-23,-36.924942106466,66.568644415539,-52.526409988835,39.561277679167,-4.4125206078672e-06,9.2525493477565e-23,1.3298958336062e-21,-1.8707551242791e-21,-1.4528245326302e-23,4.446882966634e-15,-4.5989270746495e-14,-2.6228520424194e-15,2.8198114101128e-16,-1.015312039804,1.3226088886981,-4.1677990374655e-06,-1.3861901631512,1.0524575052799,1.9803089953238e-30,-1.3605400309195e-28,-3.2608928856886e-31,3.776870271584e-33,-1.1450558485108,1.2534486524984,-1.0005080320565,1.252594257269,-1.263048072941e-53,6.8262096468831e-32,2.7513881059184e-30,-4.8775009156281e-30,-5.1575656630914e-33,1.2637199601816e-15,8.35391672938e-15,-9.6675578220929e-15,-3.372070195227e-16,-2.1750431382204e-55,-5.5524983699004e-54,2.1195768844985e-50,2.1926376591795e-06,-7.9885207582927e-06,230.17156801178,230.17156801178,229.86403653428,229.86403653428,263.59480510511,263.36065629948,263.47385742599,263.55015668464,201.40281360412,200.20481641075,200.5473501455,201.31586983682,229.48703892968,263.67630917751,263.29485441298,263.39264949139,263.61589847269,253.13526505061,252.92609650232,253.03265471461,253.12469221701,206.9622151577,206.28772488796,229.48703892968,206.48885785447,206.92189148801,271.17259571012,270.95754928821,271.07092257915,271.10092697366,207.1618974434,206.08502341283,206.30821746119,207.09906845813,276.45916961079,271.20498925951,270.93147610285,271.03867415798,271.12703606147,253.29196673283,252.79914476129,252.87644733582,253.25134406358,276.45916961079,276.3575255854,276.3575255854,229.79493162503,229.79493162503,390.83170859559,386.73525204434,0
0.00032025,151375775.1849,9.4466841478353e-05,1.0383208204832,1.7120106887877e-06,-8.8904631534066e-07,8.6189834188653e-07,2.5074381219499e-06,8.9182427358734e-22,-1.9820628370086e-20,-2.8823625252367e-22,1.2650742517537e-23,-36.889374184232,66.602893001292,-52.528529885221,39.540670017092,-4.4946626929233e-06,9.8702881001115e-23,1.4115880564732e-21,-2.0030165452128e-21,-1.5698107888227e-23,4.657965492562e-15,-4.8449354717454e-14,-2.7627654425381e-15,3.013086017037e-16,-1.0158582803652,1.324160222746,-4.2590300694284e-06,-1.3870580532528,1.0531794796562,2.1655160460312e-30,-1.5135720201134e-28,-3.6325360610051e-31,4.3356805489185e-33,-1.1457741651915,1.2539747514146,-1.0008084349348,1.2532898705368,-1.5342173250006e-53,7.4585647235564e-32,2.9885024584862e-30,-5.3642290909201e-30,-5.75670545777e-33,1.3235660399425e-15,8.7129853707372e-15,-1.0146585523516e-14,-3.5586618053589e-16,-2.7210694797262e-55,-6.5037078012766e-54,2.6157104093796e-50,2.238877078736e-06,-8.163536174399e-06,230.2004401961,230.2004401961,229.89207691608,229.89207691608,263.62874485266,263.39387008593,263.50754273996,263.58408418511,201.41644607066,200.21386655878,200.55809537779,201.32930705264,229.51375788363,263.7105341082,263.32789762131,263.42605470776,263.64999970477,253.16769261379,252.95787102193,253.06493768891,253.1572666119,206.98093381709,206.30403766083,229.51375788363,206.50615453819,206.9407946938,271.20745651291,270.99174681434,271.10554034761,271.13564329862,207.18128138378,206.10078051073,206.32505950097,207.1183251611,276.49451004781,271.23996352078,270.96560655755,271.07318118016,271.16182158879,253.32494369575,252.83058801238,252.90818947642,253.28425384526,276.49451004781,276.39255661644,276.39255661644,229.82247003178,229.82247003178,390.84574358908,386.73074282659,0
0.0003205,151586324.39463,9.4541002249958e-05,1.0383631505438,1.7472438800808e-06,-9.0936528108438e-07,8.8565721189018e-07,2.5622359056467e-06,9.51450487964e-22,-2.1372214926781e-20,-3.1089872529318e-22,1.397347467418e-23,-36.853790361982,66.636980161733,-52.530571916919,39.520554283193,-4.5780505081493e-06,1.0529807421929e-22,1.4981159935376e-21,-2.1441859952008e-21,-1.6966781443079e-23,4.8787524893871e-15,-5.1035205515753e-14,-2.9103900507132e-15,3.226878938409e-16,-1.0163966975874,1.3257049793718,-4.352002218734e-06,-1.3878900579587,1.0539010134025,2.3675013390722e-30,-1.6833813794399e-28,-4.0474967313961e-31,5.0045403375783e-33,-1.146480414298,1.2544921816928,-1.0011058353015,1.2539753815927,-1.8620165231222e-53,8.1498279543654e-32,3.2456053522902e-30,-5.897775435021e-30,-6.4276961586361e-33,1.3863057554376e-15,9.0865800111054e-15,-1.0647829780885e-14,-3.7563186572178e-16,-3.404820954552e-55,-7.6163953082875e-54,3.225666148246e-50,2.2862025452553e-06,-8.3418168987881e-06,230.22933889668,230.22933889668,229.9201454448,229.9201454448,263.66269327828,263.42709345107,263.5412374015,263.6180203099,201.43012358747,200.22296475518,200.56888908936,201.34277927465,229.54050684778,263.74476732092,263.36095078394,263.45946970626,263.68410922641,253.2001337295,252.98965994014,253.09723482432,253.1898544485,206.99970104851,206.32040084593,229.54050684778,206.52350181166,206.95974706429,271.24232293026,271.02595070375,271.14016428108,271.17036525137,207.2007129672,206.11658953498,206.34195416206,207.13762905862,276.52985433864,271.27494324151,270.99974352752,271.10769454475,271.19661261501,253.35793345467,252.86204638398,252.9399465967,253.31717641304,276.52985433864,276.42759161844,276.42759161844,229.85003666062,229.85003666062,390.85991301678,386.72634468594,0
0.00032075,151796988.99104,9.4615163068941e-05,1.0384054752739,1.7832175352513e-06,-9.3021901447076e-07,9.110019454895e-07,2.6182242663621e-06,1.0149198167208e-21,-2.3041385929216e-20,-3.3539800273837e-22,1.5515647684335e-23,-36.818119816954,66.670930119932,-52.532503822783,39.501156291286,-4.6626954021906e-06,1.1234093643493e-22,1.5897620061545e-21,-2.2948334648221e-21,-1.8343085455979e-23,5.1097063101824e-15,-5.3752833563229e-14,-3.066178630386e-15,3.4673578990547e-16,-1.0169253514045,1.3272425719541,-4.4467462701063e-06,-1.3886702139226,1.0546211769976,2.5877418891184e-30,-1.8717550298903e-28,-4.5109899743918e-31,5.8250345598663e-33,-1.1471712057493,1.2550015775769,-1.0013991799246,1.254651462716,-2.2579472936626e-53,8.905684410068e-32,3.5243714493176e-30,-6.4824745027849e-30,-7.1794764636952e-33,1.452091144511e-15,9.4752718890244e-15,-1.1172251525564e-14,-3.9657515147079e-16,-4.2613016602509e-55,-8.9179956137886e-54,3.9750182747888e-50,2.3346678365688e-06,-8.5233937974059e-06,230.25826402498,230.25826402498,229.94824203536,229.94824203536,263.69665036799,263.4603263848,263.57494139427,263.65196503533,201.44384590749,200.23211093474,200.57973114589,201.35627458139,229.56728575705,263.77900879693,263.39401389097,263.49289447458,263.71822701305,253.23258836867,253.02146323213,253.12954608584,253.22245568504,207.01851674717,206.33681436416,229.56728575705,206.54089958397,206.9787484762,271.27719495839,271.06016095497,271.17479437538,271.20509282131,207.22019208536,206.13245041215,206.35890135368,207.15698003091,276.56520248665,271.30992841596,271.03388701131,271.14221424908,271.23140912911,253.39093597152,252.89351985191,252.97171866969,253.35011172367,276.56520248665,276.46263059247,276.46263059247,229.87763144403,229.87763144403,390.87421240613,386.72205302807,0
0.000321,152007767.63634,9.4689323935531e-05,1.0384477941704,1.819947920228e-06,-9.5161560012876e-07,9.3873641951421e-07,2.6754257860685e-06,1.0824726346477e-21,-2.4836567194218e-20,-3.6188978809608e-22,1.7405253710805e-23,-36.782144754506,66.70481735883,-52.534234431583,39.483263581927,-4.7485931631437e-06,1.198638494394e-22,1.6868294196675e-21,-2.4555604139264e-21,-1.9836409603961e-23,5.351318740973e-15,-5.660820846562e-14,-3.2306071012692e-15,3.7494466528434e-16,-1.0174382948985,1.328771474191,-4.54328993222e-06,-1.3893478784762,1.0553369948311,2.8278337575731e-30,-2.0806532388238e-28,-5.0288808701589e-31,6.8938634257029e-33,-1.147836478237,1.2555046851894,-1.0016851908634,1.2553203631524,-2.7357826609325e-53,9.732434662802e-32,3.8266380622331e-30,-7.1230358236691e-30,-8.0220016569971e-33,1.5210836544757e-15,9.8796559717239e-15,-1.1720838126784e-14,-4.1876760312395e-16,-5.3345185826019e-55,-1.044079603397e-53,4.8949421364216e-50,2.3843432494642e-06,-8.7082533614024e-06,230.28721552194,230.28721552194,229.9763666321,229.9763666321,263.73061613407,263.49356889957,263.60865472871,263.68591836253,201.457612806,200.24130505502,200.5906214454,201.36977486823,229.59409457126,263.81325854428,263.42708695474,263.52632902618,263.75235306476,253.26505652835,253.05328089627,253.16187146589,253.25507030587,207.03738084032,206.35327815978,229.59409457126,206.55834779929,206.99779884123,271.31207261982,271.09437758881,271.20943065278,271.23982602156,207.23971866764,206.14836309175,206.37590101569,207.17637799394,276.60055452141,271.3449190648,271.06803702953,271.17674031646,271.26621114363,253.4239512356,252.92500841475,253.00350569393,253.38305975982,276.60055452141,276.49767356214,276.49767356214,229.90525434009,229.90525434009,390.88862953747,386.71785525356,0
0.00032125,152218657.69624,9.4763484849892e-05,1.038490106278,1.8574502351816e-06,-9.7355485140594e-07,9.7044767725152e-07,2.7338562683519e-06,1.1543624502723e-21,-2.6766551139408e-20,-3.9054273151402e-22,1.9914514666642e-23,-36.745463367061,66.738779053738,-52.535591618002,39.468058700355,-4.8357222331719e-06,1.2790215766643e-22,1.7896485930935e-21,-2.6270022177228e-21,-2.1456620694552e-23,5.6041248879325e-15,-5.9607097431777e-14,-3.404170999619e-15,4.1035819241725e-16,-1.0179250579212,1.3302941053147,-4.6416594019666e-06,-1.3898352213691,1.0560458439824,3.0894957639188e-30,-2.3122182721635e-28,-5.6077617419758e-31,8.4290993538324e-33,-1.1484576959999,1.2560049403137,-1.0019578332051,1.2559862556329,-3.3120099388195e-53,1.0637094026966e-31,4.1544395672823e-30,-7.8245764848317e-30,-8.9662704587517e-33,1.59345648847e-15,1.0300364399765e-14,-1.2294608458461e-14,-4.4227957954554e-16,-6.6798322950879e-55,-1.222295340657e-53,6.0233897400717e-50,2.4353517938176e-06,-8.896320813375e-06,230.31619343658,230.31619343658,230.00451928719,230.00451928719,263.76459068787,263.52682109606,263.64237751579,263.71988038705,201.47142417524,200.25054716302,200.60156001147,201.38342830861,229.62093334523,263.84751667156,263.46017007496,263.55977347216,263.78648747547,253.29753830438,253.08511302107,253.19421105904,253.28769839357,207.05629337187,206.36979226805,229.62093334523,206.57584652691,207.01689819534,271.34695603622,271.12860071351,271.24407323506,271.27456495679,207.25929277657,206.16432761343,206.39295320048,207.19582299027,276.63591057141,271.37991530826,271.10219368968,271.21127286841,271.30101876226,253.45697933845,252.9565121599,253.03530776487,253.41602060183,276.63591057141,276.53272063914,276.53272063914,229.93290540418,229.93290540418,390.90314223342,386.71372830315,0
0.0003215,152429654.21494,9.4837645799776e-05,1.0385324134687,1.8958056560522e-06,-9.9620521034093e-07,1.0014297299369e-06,2.793609509105e-06,1.2308984070416e-21,-2.8843379894662e-20,-4.2155028364704e-22,2.2198136155264e-23,-36.710282731692,66.772011101968,-52.537384463933,39.443961791935,-4.9243997510268e-06,1.3649306837731e-22,1.8985175228051e-21,-2.8099280923423e-21,-2.3220466937288e-23,5.868790098888e-15,-6.2761350502355e-14,-3.5875006857326e-15,4.4263229129505e-16,-1.0184482364813,1.3318348435483,-4.7419918034155e-06,-1.3907258160227,1.0567854608357,3.3747564557213e-30,-2.5690374865388e-28,-6.2551285226599e-31,9.8448118263022e-33,-1.1491369216446,1.2564886423679,-1.0022526780671,1.2566241604962,-4.0064621743999e-53,1.1627063435292e-31,4.5096388857875e-30,-8.5930064846443e-30,-1.0027969226433e-32,1.6694138565558e-15,1.0738195619769e-14,-1.2894998671635e-14,-4.6728555924979e-16,-8.3665527127121e-55,-1.4306144942177e-53,7.4071096369197e-50,2.4878218792077e-06,-9.0883339210008e-06,230.34519796721,230.34519796721,230.03270020163,230.03270020163,263.7985742737,263.56008318786,263.67611000246,263.75385132925,201.48528008094,200.25983741824,200.61254705079,201.39712510961,229.64780225874,263.88178342333,263.49326346275,263.59322805422,263.82063046303,253.33003392463,253.11695981108,253.22656509868,253.32034016232,207.07525454832,206.38635683987,229.64780225874,206.59339601565,207.03604675252,271.38184546267,271.16283054893,271.27872237831,271.30930985105,207.27891466811,206.18034413126,206.41005811664,207.21531524461,276.67127089837,271.41491740082,271.13635721001,271.24581215832,271.33583220738,253.49002051045,252.98803128874,253.06712510701,253.44899446067,276.67127089837,276.56777204822,276.56777204822,229.96058482008,229.96058482008,390.91786652992,386.70979077648,0
0.00032175,152640766.69197,9.4911806786582e-05,1.0385747163552,1.9349938392903e-06,-1.0195101262252e-06,1.0309873900338e-06,2.8547157610817e-06,1.3123647356699e-21,-3.1077222378135e-20,-4.5511869035171e-22,2.4440756613804e-23,-36.675873467315,66.804860273518,-52.539419524394,39.421521317758,-5.0145061928145e-06,1.4567540324122e-22,2.0137703637815e-21,-3.0050106521717e-21,-2.5139607382636e-23,6.1457623113954e-15,-6.6077176764494e-14,-3.7811947169926e-15,4.7377932194031e-16,-1.018983802264,1.3333683574279,-4.8442527648648e-06,-1.391706259877,1.0575333447866,3.6856739442486e-30,-2.8537406137157e-28,-6.9794483877005e-31,1.1269970661059e-32,-1.1498402791545,1.2569571714365,-1.0025564561569,1.2572443941609,-4.8425815203399e-53,1.2710699897251e-31,4.8945161593218e-30,-9.4342647136744e-30,-1.1221502759199e-32,1.7491202225038e-15,1.1193644034869e-14,-1.3522924689171e-14,-4.9385134510974e-16,-1.0482402728609e-54,-1.6741786135165e-53,9.1025624698561e-50,2.5415347420569e-06,-9.2841411969697e-06,230.37422752742,230.37422752742,230.0609077944,230.0609077944,263.83256544216,263.59335380317,263.70985072854,263.78782976258,201.49917844838,200.26917438022,200.62358074031,201.41086340488,229.67469983927,263.91605733705,263.52636575443,263.62669133723,263.85478060482,253.36254192584,253.14881986627,253.25893209454,253.35299414151,207.09426269769,206.40297041055,229.67469983927,206.61099455238,207.05524276896,271.41673946004,271.19706573812,271.31337664136,271.34405931113,207.29858254823,206.19641119132,206.42721413878,207.23485300105,276.706634073,271.44992389983,271.17052623834,271.28035675648,271.37065008897,253.5230732581,253.01956441317,253.09895627532,253.48197986918,276.706634073,276.60282643148,276.60282643148,229.98829109423,229.98829109423,390.93276323327,386.70600322583,0
0.000322,152851998.20244,9.498596781359e-05,1.0386170150231,1.9750218179491e-06,-1.0434660865709e-06,1.0599485978628e-06,2.9172060375996e-06,1.3990676731305e-21,-3.3479176773024e-20,-4.9147318544379e-22,2.6756004449963e-23,-36.641942059609,66.837449854008,-52.541589361865,39.399940607219,-5.1059929111721e-06,1.554922366824e-22,2.1357663120421e-21,-3.2129893909489e-21,-2.7228052315434e-23,6.4355783323069e-15,-6.956160968634e-14,-3.9858900091399e-15,5.0520080816626e-16,-1.0195231933396,1.3348914400961,-4.9484506676319e-06,-1.3927127567781,1.0582832078907,4.0244906765535e-30,-3.1692435045171e-28,-7.7902771169352e-31,1.2786895843831e-32,-1.1505497781107,1.2574116386861,-1.002862608796,1.2578504079293,-5.8483863568416e-53,1.3897303166361e-31,5.3115316472213e-30,-1.0354892728073e-29,-1.2563746108917e-32,1.8327692976191e-15,1.1667306147187e-14,-1.4179458704861e-14,-5.2207191339262e-16,-1.3137951504667e-54,-1.9589900011539e-53,1.1178475635054e-49,2.5964878113255e-06,-9.4836804849938e-06,230.40328239146,230.40328239146,230.08914235017,230.08914235017,263.86656457307,263.62663336105,263.74360007012,263.82181607499,201.51311913812,200.27855839981,200.63466120707,201.42464308399,229.70162642961,263.95033878303,263.55947737268,263.66016370978,263.88893828825,253.39506267296,253.18069358421,253.29131239944,253.38566068941,207.1133180433,206.41963331431,229.70162642961,206.62864235976,207.07448643633,271.45163841865,271.23130671198,271.34803641502,271.37881374701,207.31829658102,206.21252913833,206.44442152669,207.25443643858,276.74200049448,271.48493519232,271.20470120743,271.31490705902,271.40547281723,253.55613792652,253.05111193681,253.130801646,253.51497718339,276.74200049448,276.63788422089,276.63788422089,230.01602455615,230.01602455615,390.9478121519,386.70234557828,0
0.00032225,153063349.13001,9.5060128884602e-05,1.0386593093683,2.0159091979718e-06,-1.0680944599364e-06,1.0883129412309e-06,2.9811134345386e-06,1.4913354496043e-21,-3.6061286639753e-20,-5.3086047477935e-22,2.9180018190655e-23,-36.608321621014,66.869822902453,-52.543826559141,39.378877684036,-5.1988500805643e-06,1.6599075310808e-22,2.2648896930778e-21,-3.4346625735057e-21,-2.9501904703505e-23,6.7388385735344e-15,-7.3222398777544e-14,-4.2022686011451e-15,5.3725019642354e-16,-1.0200609932457,1.3364023384641,-5.0546152413481e-06,-1.3936957193277,1.0590325908946,4.3936464092041e-30,-3.5187743217339e-28,-8.6984183110606e-31,1.442863669595e-32,-1.1512561944345,1.2578529201864,-1.0031680746068,1.2584431599837,-7.0573209913802e-53,1.5197208560987e-31,5.7633470779729e-30,-1.1362051974373e-29,-1.4074216736061e-32,1.9205760591036e-15,1.2159852932809e-14,-1.4865778581099e-14,-5.5206203235012e-16,-1.6472696099833e-54,-2.2920662643747e-53,1.3718449850537e-49,2.6527340591162e-06,-9.6869494199987e-06,230.43236264115,230.43236264115,230.11740395571,230.11740395571,263.90057183707,263.65992205527,263.77735819426,263.85581043902,201.52710179932,200.28798960068,200.64578839758,201.4384638336,229.72858215422,263.9846279252,263.59259851288,263.69364534681,263.92310368552,253.4275963216,253.21258113988,253.32370615948,253.418339954,207.13242062766,206.43634566184,229.72858215422,206.64633948343,207.09377777086,271.48654251941,271.26555367507,271.38270187979,271.41357334907,207.33805677887,206.22869809087,206.46168034536,207.27406557113,276.77737035146,271.51995145673,271.23888232263,271.34946324971,271.44030058256,253.58921465779,253.08267403746,253.16266138019,253.54798655015,276.77737035146,276.67294562351,276.67294562351,230.04378532372,230.04378532372,390.96300302728,386.69880769967,0
0.0003225,153274818.88755,9.5134290003488e-05,1.038701599219,2.0576808161299e-06,-1.0934255580515e-06,1.1163669385754e-06,3.0464729119568e-06,1.5895190134985e-21,-3.8836525198444e-20,-5.7355106921629e-22,3.1743188003385e-23,-36.574935028358,66.901995304573,-52.546091012683,39.358185977944,-5.2930858356368e-06,1.7722234789252e-22,2.4015490442645e-21,-3.6708831802366e-21,-3.1979241004738e-23,7.056198864125e-15,-7.7067848929942e-14,-4.431061382256e-15,5.7027901625605e-16,-1.0205945881349,1.3379001093463,-5.1627858610628e-06,-1.3946420993685,1.059780437422,4.7957934226559e-30,-3.9058984567152e-28,-9.7160998720533e-31,1.6222386169508e-32,-1.1519548099378,1.2582816516902,-1.0034714505893,1.2590226646263,-8.5092619780272e-53,1.6621902541607e-31,6.2528429752227e-30,-1.2463553240149e-29,-1.577533043833e-32,2.0127730409673e-15,1.267200575139e-14,-1.5583138956432e-14,-5.8395036633213e-16,-2.0662793316255e-54,-2.6816193124817e-53,1.6824091319401e-49,2.7103512588359e-06,-9.8939757849842e-06,230.46146826457,230.46146826457,230.14569260379,230.14569260379,263.93458729914,263.69321996563,263.81112516392,263.88981291931,201.54112592033,200.29746800167,200.65696217315,201.45232525769,229.7555670312,264.01892482329,263.62572925567,263.72713631638,263.95727686037,253.46014292216,253.2444825963,253.35611341903,253.45103197927,207.15157040943,206.45310745836,229.7555670312,206.66408589267,207.11311671692,271.52145183724,271.29980671709,271.41737311061,271.44833819679,207.35786308644,206.24491806109,206.47899057147,207.29374034474,276.81274372609,271.55497276588,271.27306967396,271.38402540548,271.47513346408,253.62230349212,253.11425077977,253.19453553218,253.58100801173,276.81274372609,276.70801073211,276.70801073211,230.07157341046,230.07157341046,390.97833012412,386.69538393031,0
0.00032275,153486406.53981,9.5208451174066e-05,1.0387438843791,2.1003639706253e-06,-1.1194932340096e-06,1.1444065190587e-06,3.113321366372e-06,1.6939937509041e-21,-4.1818821660418e-20,-6.1984193699547e-22,3.4472054563296e-23,-36.541754420852,66.933973223147,-52.548359368884,39.337792569423,-5.3887170713874e-06,1.8924292508009e-22,2.5461773671182e-21,-3.922558782304e-21,-3.4680225482246e-23,7.3883735393468e-15,-8.1106756290787e-14,-4.6730525635285e-15,6.0459203966545e-16,-1.0211226300598,1.3393837122973,-5.273007097548e-06,-1.39555042351,1.0605261745773,5.2338150216116e-30,-4.3345492329232e-28,-1.0857177664763e-30,1.8193271055508e-32,-1.1526432414447,1.2586982453671,-1.0037721607793,1.2595885149095,-1.0251714055728e-52,1.8184161913257e-31,6.7831368285203e-30,-1.3667901234113e-29,-1.7692805179336e-32,2.1096096270013e-15,1.3204525970059e-14,-1.6332860235455e-14,-6.1787814454361e-16,-2.5930911259117e-54,-3.1372629148125e-53,2.0618797630226e-49,2.7694347902152e-06,-1.0104803745755e-05,230.49059920958,230.49059920958,230.17400824598,230.17400824598,263.96861097726,263.72652712091,263.84490099559,263.92382353253,201.555190808,200.30699357599,200.66818234591,201.46622691586,229.78258103129,264.05322949093,263.65886963021,263.76063663872,263.99145782853,253.49270247834,253.27639796652,253.38853417715,253.48373676315,207.17076731208,206.46991866307,229.78258103129,206.68188152362,207.13250318871,271.55636639977,271.33406587623,271.45205013523,271.4831083202,207.37771542125,206.26118901408,206.49635214292,207.3134606784,276.84812065291,271.58999914562,271.30726329967,271.41859355551,271.50997149138,253.65540442496,253.1458421778,253.22642410854,253.61404156443,276.84812065291,276.74307958828,276.74307958828,230.0993887839,230.0993887839,390.9937898329,386.69207068483,0
0.000323,153698111.0236,9.5282612400214e-05,1.0387861646402,2.1439872990204e-06,-1.1463332947889e-06,1.1726704526369e-06,3.1816976604394e-06,1.8051618559456e-21,-4.5023106969752e-20,-6.7005948509853e-22,3.7390606710267e-23,-36.508783256844,66.965759284662,-52.550618194042,39.317655543187,-5.48576510059e-06,2.0211329842559e-22,2.6992330319493e-21,-4.1906530825103e-21,-3.762734015026e-23,7.7361449509022e-15,-8.5348384471519e-14,-4.9290845585851e-15,6.4044523093723e-16,-1.0216443695455,1.3408515958128,-5.3853270468086e-06,-1.3964222431865,1.0612693656138,5.7108464804129e-30,-4.8090629349103e-28,-1.2137370889448e-30,2.0366047298213e-32,-1.15332028246,1.2591029063133,-1.0040700502315,1.2601400307555,-1.2341226653217e-52,1.9898215741593e-31,7.3576029250108e-30,-1.4984348059671e-29,-1.9856180147859e-32,2.2113525090137e-15,1.3758210752712e-14,-1.7116324723315e-14,-6.5399966666153e-16,-3.2558804798109e-54,-3.670255372763e-53,2.5252325338595e-49,2.830100581126e-06,-1.0319486872492e-05,230.51975540647,230.51975540647,230.20235081562,230.20235081562,264.0026428679,263.75984352629,263.87868568451,263.95784227358,201.56929548667,200.3165662763,200.67944869022,201.48016832417,229.80962410355,264.08754192079,263.69201964194,263.79414631216,264.02564658402,253.52527497255,253.30832724052,253.4209684124,253.51645428281,207.1900112439,206.48677921443,229.80962410355,206.69972629787,207.15193708784,271.59128621297,271.36833116692,271.48673295975,271.51788372676,207.39761368982,206.27751089329,206.51376497996,207.33322648052,276.88350114464,271.62503060032,271.34146321421,271.453167707,271.54481467147,253.68851743162,253.17744822222,253.25832709395,253.64708718395,276.88350114464,276.7781522101,276.7781522101,230.12723139071,230.12723139071,391.00937945459,386.68886524276,0
0.00032325,153909931.21165,9.5356773686208e-05,1.0388284397814,2.1885802366008e-06,-1.1739833187815e-06,1.2013417267364e-06,3.2516424761455e-06,1.9234555586795e-21,-4.8465370929017e-20,-7.2456288862707e-22,4.0521603378748e-23,-36.476052693963,66.997354918203,-52.552859973897,39.297744370083,-5.5842535788857e-06,2.158996587015e-22,2.8612010695104e-21,-4.4761883602485e-21,-4.0845692609794e-23,8.1003812343349e-15,-8.9802460833656e-14,-5.2000631112034e-15,6.7806021246675e-16,-1.0221593319187,1.342301236045,-5.4997967793856e-06,-1.3972592981526,1.0620095274928,6.2302986080604e-30,-5.3342178100727e-28,-1.3574534184587e-30,2.2766227935363e-32,-1.1539852892128,1.2594956312123,-1.0043651911841,1.2606762177103,-1.4845070504876e-52,2.1779931018e-31,7.9798940156263e-30,-1.6422953957758e-29,-2.2299451772728e-32,2.3182865970517e-15,1.4333891871377e-14,-1.7934976080129e-14,-6.9248366779346e-16,-4.0903394961692e-54,-4.2937839055245e-53,3.0906294079422e-49,2.8924945831719e-06,-1.0538084550848e-05,230.54893677949,230.54893677949,230.23072023963,230.23072023963,264.03668295877,263.7931691772,263.91247921746,263.9918691289,201.58343844324,200.32618604711,200.69076094335,201.49414894482,229.83669618826,264.12186209724,263.72517928643,263.82766532606,264.05984311239,253.55786037856,253.34027039882,253.45341609533,253.54918450757,207.20930210819,206.50368904268,229.83669618826,206.7176201324,207.171418313,271.62621127399,271.40260259372,271.52142158149,271.55266441495,207.41755779607,206.29388363335,206.53122899625,207.35303765781,276.91888520503,271.6600671257,271.37566942209,271.48774785823,271.57966300236,253.72164247967,253.20906889406,253.29024446421,253.68014483825,276.91888520503,276.81322860601,276.81322860601,230.15510116924,230.15510116924,391.02509647898,386.6857650283,0
0.0003235,154121865.90712,9.5430935037489e-05,1.0388707095585,2.2341724911699e-06,-1.2024829543881e-06,1.2305631359064e-06,3.3231978341298e-06,2.0493420689442e-21,-5.216272760812e-20,-7.8374778845071e-22,4.3887607837387e-23,-36.443633490434,67.028761289486,-52.555081044213,39.278025835813,-5.6842075850731e-06,2.3067407018009e-22,3.032594709263e-21,-4.7802485324211e-21,-4.4363394816235e-23,8.4820717041984e-15,-9.4479185198719e-14,-5.4869624690156e-15,7.1763898710348e-16,-1.0226671192585,1.3437281939889,-5.6164700782479e-06,-1.3980625767248,1.062745953088,6.7958849053919e-30,-5.915277036315e-28,-1.5188972409564e-30,2.5420870355357e-32,-1.1546378803408,1.2598761640165,-1.0046578158739,1.2611955240146,-1.7843224579194e-52,2.3847021670809e-31,8.6539648647393e-30,-1.7994655536086e-29,-2.5061845188576e-32,2.430715874758e-15,1.4932436079271e-14,-1.879032028882e-14,-7.3351519945373e-16,-5.1417366656055e-54,-5.0232980806495e-53,3.7800811373137e-49,2.9568138313601e-06,-1.0760660478055e-05,230.57814325436,230.57814325436,230.2591164462,230.2591164462,264.07073123661,263.82650406754,263.94628158059,264.02590408463,201.59761689574,200.33585283253,200.70211879872,201.50816817031,229.86379722479,264.15619000406,263.75834855768,263.86119366872,264.09404739898,253.59045866927,253.37222742054,253.48587719636,253.58192740699,207.22863981005,206.52064807775,229.86379722479,206.73556294648,207.19094676713,271.66114157889,271.43688015968,271.55611599685,271.58745038255,207.43754764757,206.31030716784,206.54874410599,207.37289412224,276.95427283671,271.69510871655,271.4098819263,271.52233400632,271.61451648142,253.75477953657,253.24070417287,253.32217619406,253.71321449551,276.95427283671,276.84830878324,276.84830878324,230.18299805725,230.18299805725,391.04093797256,386.68276699069,0
0.00032375,154333913.79225,9.5505096462604e-05,1.0389129736808,2.2807927376143e-06,-1.2318742463327e-06,1.2604525670832e-06,3.3964056813139e-06,2.1833331345347e-21,-5.61334881151e-20,-8.4805028847186e-22,4.7511632325945e-23,-36.411684670013,67.059979998121,-52.557281156042,39.258442748144,-5.7856533574577e-06,2.4651488672427e-22,3.2139570471669e-21,-5.1039827814601e-21,-4.8212020345756e-23,8.8824129745135e-15,-9.9389250635144e-14,-5.7908297020339e-15,7.5937457627081e-16,-1.0231672039528,1.3451235366161,-5.7354023187674e-06,-1.3988318648449,1.0634773604656,7.4116551583628e-30,-6.558035648075e-28,-1.7003803560051e-30,2.8359067518666e-32,-1.1552778564972,1.2602438453942,-1.0049483760178,1.2616951074666,-2.1430744894207e-52,2.6119271057854e-31,9.3840975215958e-30,-1.9711344139788e-29,-2.8188753361565e-32,2.5489631321491e-15,1.5554746176695e-14,-1.9683926259274e-14,-7.7729791294335e-16,-6.4675604957437e-54,-5.8769003613689e-53,4.6202431587151e-49,3.0233608285239e-06,-1.0987283248578e-05,230.60737476585,230.60737476585,230.28753937231,230.28753937231,264.104787694,263.85984819691,263.98009276637,264.05994713423,201.61182372406,200.34556658371,200.71352189133,201.52222530207,229.89092715857,264.19052563134,263.79152745529,263.89473133417,264.12825943634,253.62306982359,253.40419829054,253.51835169282,253.6146829584,207.24802426368,206.53765625662,229.89092715857,206.75355466902,207.21052236599,271.6960771295,271.47116387362,271.59081620813,271.62224163418,207.45758316323,206.3267814366,206.56631023091,207.39279579988,276.98966404798,271.73015537358,271.44410073556,271.5569261541,271.64937511278,253.78792857677,253.2723540438,253.35412226413,253.74629613173,276.98966404798,276.88339275518,276.88339275518,230.21092199898,230.21092199898,391.05689960287,386.67986660225,0
0.000324,154546073.30576,9.5579257980267e-05,1.0389552317383,2.3284629133049e-06,-1.2622011161734e-06,1.2911147873291e-06,3.4713022178483e-06,2.3260141823307e-21,-6.0397242216199e-20,-9.1795061934688e-22,5.1416827544623e-23,-36.380679411554,67.091014819915,-52.559465876456,39.238841046899,-5.8886184197475e-06,2.6350648158091e-22,3.4058622606705e-21,-5.4486099208027e-21,-5.2427156980109e-23,9.3031202877486e-15,-1.0454389416333e-13,-6.1127829791887e-15,8.0345216416814e-16,-1.0236583733063,1.3464632802503,-5.856642929002e-06,-1.3995647613786,1.0642006138046,8.082049141986e-30,-7.2688704538947e-28,-1.9045367031505e-30,3.1611669671518e-32,-1.1559055381091,1.2605970019923,-1.0052379516857,1.262167883071,-2.5720673516616e-52,2.8618695103833e-31,1.0174925858204e-29,-2.1585968036222e-29,-3.1732899871911e-32,2.6733631728153e-15,1.6201760561142e-14,-2.0617417804746e-14,-8.2405655805633e-16,-8.1409195724793e-54,-6.8757995234835e-53,5.6433662349217e-49,3.0927469990924e-06,-1.1218032729453e-05,230.63663127148,230.63663127148,230.31598897724,230.31598897724,264.13885234083,263.89320158236,264.01391278531,264.09399829125,201.62600643511,200.35532727167,200.72496977308,201.53631952403,229.91808595279,264.22486898724,263.82471599614,263.92827833347,264.16247923711,253.65569383806,253.43618301125,253.55083958116,253.64745116002,207.26745540608,206.55471353615,229.91808595279,206.77159525205,207.23014505461,271.7310179447,271.50545376201,271.62552223499,271.65703819385,207.47766428848,206.34330639785,206.5839273126,207.4127426488,277.025058864,271.76520711484,271.47832587611,271.59152432131,271.68423891995,253.82108959387,253.30401850922,253.38608267223,253.77938974381,277.025058864,276.91848055354,276.91848055354,230.23887295721,230.23887295721,391.07297239666,386.67705451549,0
0.00032425,154758342.26741,9.5653419699721e-05,1.0389974825096,2.3771195750974e-06,-1.2934920406468e-06,1.3226311730901e-06,3.5478486710871e-06,2.4783562925047e-21,-6.4974960364321e-20,-9.9396474913256e-22,5.561311386695e-23,-36.354681710051,67.121898056504,-52.561688283007,39.218059446143,-5.9931281874355e-06,2.8172706964439e-22,3.6089026236849e-21,-5.8154242088027e-21,-5.7048991439474e-23,9.7500875997802e-15,-1.0995529885372e-13,-6.4539134496555e-15,8.4993012742598e-16,-1.0241321217602,1.3475701748615,-5.9801140054568e-06,-1.4002451172268,1.0648950114074,8.8121978797324e-30,-8.0547675649155e-28,-2.1343497387435e-30,3.5199955664301e-32,-1.1565276269217,1.2609253974469,-1.0055333400253,1.2625651016402,-3.0849208830078e-52,3.1368248066911e-31,1.1031397735792e-29,-2.3632887459014e-29,-3.5755975245421e-32,2.8041490489458e-15,1.6874403678392e-14,-2.159229374569e-14,-8.7403420662532e-16,-1.0254943545085e-53,-8.0447433483098e-53,6.8883399197489e-49,3.1683031434365e-06,-1.1453084925053e-05,230.66591279776,230.66591279776,230.34446528733,230.34446528733,264.17292524255,263.92656429771,264.04774170485,264.12805763207,201.64035312291,200.36513493067,200.73646188537,201.55044989314,229.94527362709,264.25922013717,263.85791425322,263.96183473224,264.19670687672,253.68833076571,253.46818164186,253.58334091727,253.68023207447,207.2869332436,206.57181993629,229.94527362709,206.78968471565,207.24981486265,271.7659640983,271.53974990851,271.66023415241,271.6918401469,207.49779104725,206.359882069,206.60159535355,207.43273471933,277.06045736425,271.80026401388,271.51255743107,271.62612858196,271.71910798761,253.85426264153,253.33569762721,253.41805747123,253.81249539323,277.06045736425,276.95357226887,276.95357226887,230.26685095372,230.26685095372,391.08910355875,386.67427627535,0
0.0003245,154970714.30871,9.5727581380145e-05,1.0390397271707,2.4271341938656e-06,-1.3258914295148e-06,1.3553209743229e-06,3.626336978546e-06,2.6399105559767e-21,-6.9889276899712e-20,-1.0767247658447e-21,6.0185732582729e-23,-36.317648644197,67.152496415913,-52.563731875918,39.199584971882,-6.0992716501394e-06,3.0132946585528e-22,3.823816653532e-21,-6.2058186495683e-21,-6.2124853904094e-23,1.0211612943013e-14,-1.1563480482222e-13,-6.8158863162892e-15,8.9959378581828e-16,-1.024619568164,1.3490107198117,-6.1064094382621e-06,-1.4009308813489,1.0656191803799,9.6064426171949e-30,-8.9235933293316e-28,-2.3933206020637e-30,3.9208588650064e-32,-1.1571193269256,1.2612576830616,-1.0058190877033,1.2630272535077,-3.6968653515216e-52,3.4401887541136e-31,1.195934744845e-29,-2.5866472044015e-29,-4.0329874523834e-32,2.9421875960482e-15,1.7574040791825e-14,-2.2611185044999e-14,-9.2755080192609e-16,-1.2928143626426e-53,-9.4134156350324e-53,8.4027065688828e-49,3.2418441558649e-06,-1.1692226186766e-05,230.69521997886,230.69521997886,230.3729689192,230.3729689192,264.20700698165,263.9599369442,264.08158011589,264.16212579996,201.65474173541,200.37499016721,200.7479979226,201.56461592461,229.97249072143,264.29357967455,263.89112282155,263.99540110349,264.23094299785,253.72098118318,253.50019476889,253.6158562968,253.71302634045,207.30645839286,206.58897604743,229.97249072143,206.80782366842,207.2695325284,271.80091617628,271.57405292757,271.69495254847,271.72664813619,207.51796413568,206.37650901003,206.61931490079,207.45277282949,277.09586013525,271.83532665999,271.54679601151,271.66073951613,271.75398295735,253.88744832037,253.36739197423,253.45004722427,253.84561372066,277.09586013525,276.98866853338,276.98866853338,230.29485655182,230.29485655182,391.10543569338,386.67167732424,0
0.00032475,155183195.41281,9.5801743032909e-05,1.0390819660246,2.4783959745977e-06,-1.3594103698922e-06,1.3891056948837e-06,3.7067863554985e-06,2.8116095664233e-21,-7.5163643454699e-20,-1.1668901035583e-21,6.5160541359433e-23,-36.282137705536,67.18290029335,-52.565819600389,39.182381929635,-6.2070031526116e-06,3.2241550792435e-22,4.0512360925691e-21,-6.6212181450701e-21,-6.7704853480883e-23,1.0692634015733e-14,-1.2159462204859e-13,-7.2001293186028e-15,9.5257404283883e-16,-1.0251046185691,1.3505358316281,-6.2354864380551e-06,-1.4015854229506,1.0663555337605,1.047064047862e-29,-9.8837829485269e-28,-2.6854160423946e-30,4.3680129239307e-32,-1.1576870486153,1.2615813680759,-1.0060944328492,1.2635138980637,-4.426707616892e-52,3.7750507952386e-31,1.2964502865486e-29,-2.8303304321332e-29,-4.5537605227947e-32,3.0877666435033e-15,1.8301514381428e-14,-2.3675757117074e-14,-9.8488700757621e-16,-1.6312430954534e-53,-1.1015905756564e-52,1.0243446894688e-48,3.3153693954121e-06,-1.1935538041752e-05,230.72455089949,230.72455089949,230.40149799491,230.40149799491,264.241095855,263.99331780562,264.11542630769,264.19620100707,201.66917009354,200.38489113289,200.7595743935,201.5788133264,229.99973548368,264.32794587621,263.92433999589,264.02897576585,264.26518581091,253.75364336185,253.53222066176,253.64838396676,253.74583213977,207.32602891259,206.60618001483,229.99973548368,206.82601024014,207.2892959499,271.83587249373,271.60836110652,271.72967573933,271.76146040007,207.53818151082,206.39318541733,206.63708414397,207.47285477593,277.1312655086,271.87039336173,271.58103991039,271.69535545293,271.7888620683,253.92064485904,253.39909983805,253.48205023204,253.87874290019,277.1312655086,277.02376762073,277.02376762073,230.32288795693,230.32288795693,391.12192497021,386.66921325033,0
0.000325,155395787.06984,9.587590466336e-05,1.0391241989151,2.5308870567223e-06,-1.3940989743877e-06,1.4240147499021e-06,3.7892301310591e-06,2.9942430639067e-21,-8.0823264591247e-20,-1.2651941367021e-21,7.0566726173041e-23,-36.247338345061,67.213141748129,-52.568067375131,39.166082419581,-6.3163244021595e-06,3.4510686781847e-22,4.2918611193185e-21,-7.0631468041332e-21,-7.3847480207897e-23,1.1195806166177e-14,-1.2784771342598e-13,-7.608199864056e-15,1.0090503574308e-15,-1.025582787176,1.3521007755048,-6.367432469292e-06,-1.4021955516475,1.0670951320432,1.1411035740978e-29,-1.0944627227666e-27,-3.0151896287224e-30,4.8660640044842e-32,-1.1582307113512,1.2618869843802,-1.0063594276451,1.2640038137886,-5.2966545422347e-52,4.1449968866023e-31,1.4053172930947e-29,-3.0961308747123e-29,-5.1477503318086e-32,3.2413033122918e-15,1.9057841196075e-14,-2.4787960830066e-14,-1.0463801238179e-15,-2.0602336417538e-53,-1.2892267229945e-52,1.2479330897962e-48,3.3901268932726e-06,-1.2183097758719e-05,230.75390589419,230.75390589419,230.43005286912,230.43005286912,264.27519232497,264.02670734174,264.14928073969,264.23028367804,201.68363805695,200.394838207,200.77118799116,201.5930389748,230.02700832876,264.36231919351,263.95756624053,264.06255919217,264.29943573835,253.78631774513,253.56425976589,253.68092435955,253.77864987504,207.34564511418,206.62343220285,230.02700832876,206.84424478535,207.30910537239,271.87083352624,271.64267491164,271.76440420168,271.79627738069,207.55844343941,206.40991168176,206.6549034606,207.49298076204,277.1666739708,271.90546459073,271.61528959609,271.7299768747,271.82374576213,253.95385267855,253.43082167224,253.51406695198,253.91188332896,277.1666739708,277.05886999331,277.05886999331,230.35094556351,230.35094556351,391.13854580218,386.66685831189,0
0.00032525,155608488.40371,9.5950066268456e-05,1.0391664254031,2.5846332793892e-06,-1.430030085249e-06,1.4601209695034e-06,3.8737124220143e-06,3.1885924545029e-21,-8.6895016895873e-20,-1.3724530690001e-21,7.6437350994532e-23,-36.212862727165,67.243221589702,-52.570677978756,39.150583825254,-6.4272608915357e-06,3.6954321536451e-22,4.5464546637251e-21,-7.5332492677731e-21,-8.0620188801703e-23,1.1722937907239e-14,-1.3440754126108e-13,-8.0417941503024e-15,1.0692644970769e-15,-1.0260519856605,1.35365815564,-6.5024974658388e-06,-1.4027450754982,1.0678296703114,1.2434426742232e-29,-1.2116329527655e-27,-3.387875817469e-30,5.4198509731239e-32,-1.1587452065286,1.2621621084747,-1.0066135401749,1.2644854528078,-6.332935351136e-52,4.5541520641819e-31,1.5232272295279e-29,-3.3859937497782e-29,-5.8265862436202e-32,3.4033039906972e-15,1.9844166732579e-14,-2.5950149871236e-14,-1.1124197329839e-15,-2.6047420307509e-53,-1.5089561395534e-52,1.5193277076318e-48,3.4663962725633e-06,-1.2434967193413e-05,230.78328512674,230.78328512674,230.45863371864,230.45863371864,264.30929664256,264.0601058017,264.18314366439,264.2643740473,201.69814522755,200.40483156868,200.78282434664,201.60728614753,230.05430945948,264.39669987286,263.99080180758,264.09615164081,264.33369301294,253.81900456652,253.59631231551,253.71347770768,253.81147976347,207.36530712486,206.64073277323,230.05430945948,206.86252748214,207.32896091609,271.90579953686,271.67699460052,271.79913820079,271.83109932527,207.57875003997,206.42668798651,206.67277303022,207.51315089027,277.20208579436,271.94054060839,271.64954532754,271.76460404925,271.85863428559,253.98707200304,253.46255771655,253.54609762758,253.94503522028,277.20208579436,277.09397591065,277.09397591065,230.37902955969,230.37902955969,391.15527910343,386.66459317578,0
0.0003255,155821297.07287,9.6024227823059e-05,1.0392086446201,2.6396621691432e-06,-1.4672845555636e-06,1.497511426702e-06,3.9602642186062e-06,3.3955270803827e-21,-9.3406998069403e-20,-1.4895623065605e-21,8.2802949684756e-23,-36.178499688457,67.273102555504,-52.574663315191,39.135977315413,-6.5398640716058e-06,3.9587999298547e-22,4.8158576987176e-21,-8.0333668010693e-21,-8.8097457586987e-23,1.2275920015594e-14,-1.4128739408963e-13,-8.5026916259336e-15,1.1335007479197e-15,-1.0265111644534,1.3551907759976,-6.6414378605683e-06,-1.4032049043078,1.068543511946,1.3548472610552e-29,-1.3410000284567e-27,-3.8094575421057e-30,6.0332367676127e-32,-1.1592121477857,1.2623647706726,-1.0068528644062,1.2649493541683,-7.5664865466362e-52,5.0072232917056e-31,1.6509414449472e-29,-3.7020404944318e-29,-6.6036914483137e-32,3.5743236783031e-15,2.0661810308993e-14,-2.7165883763728e-14,-1.183428481261e-15,-3.2967845784791e-53,-1.7663121886817e-52,1.8485023654455e-48,3.5445645446734e-06,-1.2691163526075e-05,230.81268871809,230.81268871809,230.48724067651,230.48724067651,264.34340899003,264.0935133665,264.21701526874,264.29847229153,201.71269110064,200.41487135663,200.79450660037,201.62152661638,230.08163901701,264.43108809469,264.02404688033,264.1297533007,264.36795780919,253.85170399311,253.62837847799,253.74604418341,253.84432196866,207.3850150388,206.65808184086,230.08163901701,206.88085848072,207.34886269682,271.94077071838,271.71132036261,271.83387793298,271.86592641973,207.59910141549,206.44351446497,206.69069299067,207.53336526697,277.23750118044,271.97562160679,271.6838072951,271.79923717366,271.89352782378,254.02030299613,253.49430814289,253.57814243478,253.97819873344,277.23750118044,277.12908556634,277.12908556634,230.40714007406,230.40714007406,391.17209435593,386.66238654517,0
0.00032575,156034208.5085,9.6098389346619e-05,1.0392508554048,2.6960383569448e-06,-1.5060373975924e-06,1.5360017602651e-06,4.0489843434192e-06,3.6159378648739e-21,-1.0038924665783e-19,-1.6175719208723e-21,8.9615635582915e-23,-36.143664520426,67.302984542343,-52.577496508991,39.124229681087,-6.6540821620353e-06,4.24298044203e-22,5.1009560481618e-21,-8.5652306530317e-21,-9.6379273733803e-23,1.2857179759892e-14,-1.4850096720634e-13,-8.993054191506e-15,1.2017077032704e-15,-1.0269452478789,1.3567029064702,-6.7841457463201e-06,-1.4034574405801,1.0692466973234,1.4760950111452e-29,-1.4837869384449e-27,-4.2870091419558e-30,6.6968264651722e-32,-1.159637168734,1.2625504093881,-1.007078291671,1.2654004706356,-9.0339635966021e-52,5.5097203665499e-31,1.7893027980158e-29,-4.0465331506663e-29,-7.4965921935945e-32,3.755026216159e-15,2.1511961893543e-14,-2.8436550756732e-14,-1.2599965080358e-15,-4.177887259667e-53,-2.0678819771522e-52,2.2474804861631e-48,3.6255242959625e-06,-1.2951637681344e-05,230.84211695862,230.84211695862,230.51587405564,230.51587405564,264.37752968965,264.12693035863,264.25089588929,264.33257874224,201.72727523663,200.42495789526,200.8062996331,201.63582692925,230.10899730332,264.46548418341,264.05730178584,264.16336450689,264.40223045469,253.88441633404,253.6604585634,253.7786241162,253.87717681576,207.40476912276,206.67547968834,230.10899730332,206.89923815225,207.36881106471,271.97574740273,271.74565252898,271.86862373897,271.90075899982,207.6194978608,206.46039142955,206.70866368097,207.55362422062,277.27292047008,272.01070791876,271.7180758317,271.83387658819,271.92842671101,254.05354597107,253.52607327015,253.61020169967,254.0113741856,277.27292047008,277.16419929811,277.16419929811,230.43527738503,230.43527738503,391.18897732021,386.66022370532,0
0.000326,156247216.61486,9.617255093057e-05,1.039293058619,2.7539567224977e-06,-1.546558586328e-06,1.5782755174156e-06,4.140119289469e-06,3.8504985153695e-21,-1.0788029144899e-19,-1.7577741429314e-21,9.7346938690059e-23,-36.108855520348,67.332931473524,-52.574390740757,39.111105757173,-6.7699313569065e-06,4.5501146469182e-22,5.4025596127434e-21,-9.1303111054359e-21,-1.0561785269071e-22,1.3467479684822e-14,-1.5607091472121e-13,-9.5157629218019e-15,1.2775971452819e-15,-1.0273678809064,1.3582014435708,-6.9282881809509e-06,-1.4037462531179,1.0699974149451,1.6078998117386e-29,-1.6414443609415e-27,-4.8291140546331e-30,7.4701172714728e-32,-1.160102905747,1.2629081099469,-1.0073144798128,1.26585260953,-1.0779091117024e-51,6.0680870305328e-31,1.9391560299958e-29,-4.4219184926871e-29,-8.5306942443715e-32,3.9462731537375e-15,2.2395599213422e-14,-2.9758698577191e-14,-1.3430560515582e-15,-5.3024332869619e-53,-2.4212504267258e-52,2.7309543689599e-48,3.7087853819843e-06,-1.3216840322262e-05,230.87156997496,230.87156997496,230.54453399983,230.54453399983,264.41165889162,264.16035690206,264.28478569069,264.36669354315,201.74189686461,200.43509128016,200.81813859598,201.65021222841,230.13638442483,264.49988829278,264.09056664853,264.19698541552,264.4365110878,253.91714172422,253.69255268657,253.81121766395,253.91004444794,207.42456949806,206.69292638866,230.13638442483,206.91766671371,207.38880621383,272.01072975073,271.77999123065,271.90337578745,271.93559720858,207.63993956007,206.47731897034,206.72668526197,207.57392794514,277.30834383247,272.04579970585,271.75235106788,271.86852245755,271.96333108752,254.08680107169,253.55785321569,253.64227556496,254.04456171112,277.30834383247,277.19931724461,277.19931724461,230.46344158844,230.46344158844,391.20604135161,386.65821972901,0
0.00032625,156460325.76134,9.6246712538317e-05,1.0393352552495,2.813476400638e-06,-1.5887645225034e-06,1.6247625309672e-06,4.2336595093583e-06,4.1001636726151e-21,-1.1591672442356e-19,-1.9114372768431e-21,1.06298048574e-22,-36.074971530675,67.362629430221,-52.57272769829,39.095310247461,-6.8875889108124e-06,4.8824015693982e-22,5.7215887879614e-21,-9.7308619957932e-21,-1.1594076713182e-22,1.4107444905689e-14,-1.6401518067196e-13,-1.0073098117365e-14,1.3624448883014e-15,-1.0278021962726,1.3596596948666,-7.0740885188339e-06,-1.4042312012989,1.0707705907508,1.7512363092743e-29,-1.8154905407646e-27,-5.4451710130395e-30,8.4066727144285e-32,-1.1605895056041,1.2633127707608,-1.0075584904833,1.2662912920626,-1.2852896914869e-51,6.6894870653166e-31,2.1014060384648e-29,-4.8309224779925e-29,-9.7317471821462e-32,4.1488279501306e-15,2.3314218308714e-14,-3.1136781242181e-14,-1.4332121674206e-15,-6.7401850821225e-53,-2.8351454897821e-52,3.3164652030944e-48,3.7934175938225e-06,-1.3486949801554e-05,230.90104630666,230.90104630666,230.57321900469,230.57321900469,264.44579525209,264.1937916303,264.31868329848,264.40081529788,201.75655316227,200.4452699496,200.83002178867,201.6645959678,230.16379890677,264.53429906906,264.12384009028,264.23061465563,264.47079831742,253.94987880028,253.72465946719,253.84382341811,253.94292344032,207.44441469815,206.7104204384,230.16379890677,206.93614254484,207.40884648451,272.0457164295,271.81433510836,271.93813272746,271.97043966928,207.66042503627,206.49429553148,206.74475613412,207.59427486215,277.34376993627,272.08089563039,271.78663163899,271.90317343129,271.99823957778,254.12006691758,253.58964657829,253.67436263108,254.07775989819,277.34376993627,277.23443804594,277.23443804594,230.49163126049,230.49163126049,391.2232916214,386.65637960298,0
0.0003265,156673540.97418,9.6320874154871e-05,1.0393774446666,2.8746046756969e-06,-1.6326779705182e-06,1.6730964150994e-06,4.3296218610492e-06,4.3660332731413e-21,-1.2453184242596e-19,-2.0800167345476e-21,1.16240188743e-22,-36.041319614499,67.392331563934,-52.571420604134,39.08343620953,-7.0069266284459e-06,5.2423542201959e-22,6.0590687560477e-21,-1.0368948425769e-20,-1.2750312749078e-22,1.4779430327281e-14,-1.7234450398664e-13,-1.0667653799814e-14,1.4539181617363e-15,-1.0282253760064,1.3610750661476,-7.2218771036009e-06,-1.4046213821765,1.0715516711204,1.9071400533299e-29,-2.007502056869e-27,-6.1462494911257e-30,9.4868648018065e-32,-1.1610447835361,1.2637354218567,-1.0077916486171,1.2667181552486,-1.5315291737043e-51,7.3823811986869e-31,2.277113067541e-29,-5.2763778131326e-29,-1.1131935687503e-31,4.3635102367456e-15,2.4269039212282e-14,-3.2573594223933e-14,-1.531202088101e-15,-8.58231748517e-53,-3.3201610406382e-52,4.0249508750485e-48,3.8801747833822e-06,-1.3761548046657e-05,230.93054572113,230.93054572113,230.60192881113,230.60192881113,264.47993865484,264.22723444954,264.35258857238,264.4349438715,201.77124172547,200.45549368513,200.84194858862,201.67896904955,230.191240554,264.56871638517,264.15712201393,264.26425210014,264.5050920144,253.98262743118,253.75677879291,253.87644120778,253.97581362376,207.46430445998,206.72796163939,230.191240554,206.95466526607,207.42893146705,272.08070733182,271.84868407788,271.97289443932,272.00528627201,207.68095396753,206.51132088698,206.76287596925,207.61466460194,277.37919867799,272.11599558122,271.82091745978,271.93782939523,272.03315207438,254.15334335558,253.62145323818,253.70646275229,254.11096858831,277.37919867799,277.26956161661,277.26956161661,230.51984622838,230.51984622838,391.24065694365,386.65463154955,0
0.00032675,156886858.90885,9.6395035758398e-05,1.0394196253693,2.9373874410402e-06,-1.6784610815817e-06,1.7241024484281e-06,4.4280559725796e-06,4.6493244775068e-21,-1.3376219340835e-19,-2.2651822845645e-21,1.2737276948848e-22,-36.007458532126,67.422205260172,-52.569784630383,39.075237250503,-7.1278865509246e-06,5.6328719819753e-22,6.4161529109812e-21,-1.1046796992737e-20,-1.4051376819009e-22,1.5486033441433e-14,-1.8107167816731e-13,-1.1302398914462e-14,1.553618041694e-15,-1.0286237441374,1.3624535823278,-7.3715458076329e-06,-1.4048176450676,1.0723306318939,2.0767419412415e-29,-2.2192227178561e-27,-6.9453781410452e-30,1.0740830111832e-31,-1.1614288868983,1.2641571742764,-1.0080014321529,1.2671327227523,-1.8236991975902e-51,8.1567135376232e-31,2.4674579104869e-29,-5.7613950884978e-29,-1.2774121056957e-31,4.5912768482238e-15,2.5261578732312e-14,-3.4071599675774e-14,-1.6380919040384e-15,-1.0948221700032e-52,-3.8888366116483e-52,4.8815866832218e-48,3.9695410211033e-06,-1.4040334284104e-05,230.96006894522,230.96006894522,230.63066414487,230.63066414487,264.51408988674,264.26068613444,264.38650229872,264.46908003525,201.78595939195,200.46576317908,200.85391946341,201.69350236563,230.21871009055,264.6031410254,264.19041319208,264.29789853424,264.53939294837,254.01538838839,253.78891142632,253.90907180298,254.00871575669,207.48423950077,206.74555068895,230.21871009055,206.97323559881,207.44906185631,272.11570325468,271.88303892142,272.00766171996,272.0401377966,207.70152709235,206.52839572623,206.78104547051,207.6350978823,277.41463086104,272.15110035378,271.85520931118,271.97249114538,272.06806935604,254.18663115365,253.653273955,253.73857669744,254.14418853824,277.41463086104,277.30468874258,277.30468874258,230.54808722184,230.54808722184,391.2580893293,386.6529267156,0
0.000327,157100271.69025,9.6469197392294e-05,1.0394617996394,3.0019988537725e-06,-1.7266662133613e-06,1.7724566828504e-06,4.5292388106515e-06,4.9514082661813e-21,-1.4366299437658e-19,-2.4689508841149e-21,1.3922039884448e-22,-35.975840216574,67.451231804651,-52.569135034398,39.05542723618,-7.2510743933658e-06,6.0572300960603e-22,6.7936929256272e-21,-1.1767057265548e-20,-1.5529891956746e-22,1.6230406904007e-14,-1.9023421761354e-13,-1.1981292038006e-14,1.6556361027812e-15,-1.0290454719602,1.3638240127323,-7.5232353018358e-06,-1.4053605888961,1.0731213125721,2.2613128506712e-29,-2.4527939923465e-27,-7.8581313971408e-30,1.2132454319451e-31,-1.1619017428317,1.2645398253672,-1.0082430006277,1.2675109477484,-2.1702723549982e-51,9.0238853560787e-31,2.6733743941029e-29,-6.2895811305723e-29,-1.4721770563922e-31,4.8332748906671e-15,2.6293581287438e-14,-3.5633925208806e-14,-1.7557672867577e-15,-1.3994282676708e-52,-4.5542894655464e-52,5.9167613865672e-48,4.0618331511287e-06,-1.4325015157587e-05,230.98961650198,230.98961650198,230.65942553169,230.65942553169,264.54824949299,264.29414719226,264.42042503137,264.50322431528,201.80069588688,200.47607887515,200.86593473235,201.70809641129,230.24620800047,264.6375735391,264.22371412999,264.33155450268,264.57370164241,254.04816220144,253.82105786729,253.94171574893,254.04163036486,207.50422034949,206.76318803075,230.24620800047,206.99185413216,207.46923820996,272.15070475365,271.91740015223,272.04243512897,272.07499476832,207.72214501524,206.54552049151,206.79926516722,207.6555752867,277.45006704783,272.18621050454,271.88950770497,272.00715923708,272.10299194608,254.21993085164,253.68510922634,253.77070499517,254.17742026974,277.45006704783,277.33981994426,277.33981994426,230.5763547274,230.5763547274,391.27573218305,386.65141122439,0
0.00032725,157313791.0703,9.6543359088026e-05,1.0395039685515,3.0684852880354e-06,-1.7776256611054e-06,1.8190116330551e-06,4.6333198577719e-06,5.273887613395e-21,-1.5427998964914e-19,-2.693619440068e-21,1.5181286603177e-22,-35.946812399638,67.479659199579,-52.569168487799,39.03505692301,-7.3763944858754e-06,6.5191688093249e-22,7.192778944259e-21,-1.2532079797216e-20,-1.7229741431828e-22,1.7016714231963e-14,-1.9985073834673e-13,-1.2708485264904e-14,1.760556150936e-15,-1.0294858791989,1.3651211427944,-7.6769760978223e-06,-1.4060779989901,1.0739110540525,2.4622479645654e-29,-2.7103918921169e-27,-8.9030959287374e-30,1.366658079773e-31,-1.1624320202741,1.2648800128536,-1.008507191512,1.2678473853403,-2.58107509116e-51,9.9975503007349e-31,2.8961048425114e-29,-6.864544035102e-29,-1.7065534193474e-31,5.0906826951868e-15,2.7366263062206e-14,-3.7262730249732e-14,-1.886520989263e-15,-1.7928412706811e-52,-5.3329406595624e-52,7.1668659896873e-48,4.1577863625008e-06,-1.461549611408e-05,231.01918649585,231.01918649585,230.68821108262,230.68821108262,264.58241570872,264.32761594568,264.45435499632,264.53737498465,201.81542382928,200.48643904962,200.87799192812,201.72270826623,230.27373249831,264.67201214813,264.25702315727,264.36521825381,264.60801637211,254.0809470931,253.85321640908,253.97437124367,254.07455567663,207.52424502986,206.78087191147,230.27373249831,207.01051881009,207.48945847802,272.18571007318,271.95176610908,272.07721290965,272.10985549322,207.742805621,206.56269343091,206.81753310198,207.67609476018,277.48550549195,272.2213242741,271.92381098395,272.04183192368,272.13791815286,254.25324064232,253.71695735564,253.80284588471,254.21066201276,277.48550549195,277.37495356129,277.37495356129,230.6046469432,230.6046469432,391.29354912865,386.65004826818,0
0.0003275,157527422.55659,9.6617520891839e-05,1.0395461313037,3.1368683344039e-06,-1.8320121413856e-06,1.8663546355273e-06,4.7403717093903e-06,5.6187754855798e-21,-1.6565864210752e-19,-2.9418202862653e-21,1.6551569448599e-22,-35.92137653965,67.507852126714,-52.569301404995,39.016446063997,-7.5036583795904e-06,7.022994099073e-22,7.6146622505e-21,-1.3344320673348e-20,-1.9229274381819e-22,1.7851397837321e-14,-2.099361215353e-13,-1.3488466809504e-14,1.8718698638513e-15,-1.0299286173842,1.366242195501,-7.8327818689455e-06,-1.4068335051527,1.074679559558,2.681113626863e-29,-2.9943514864937e-27,-1.0102482942456e-29,1.5390451453876e-31,-1.1629533417807,1.2651807354223,-1.0087745985782,1.2681250541383,-3.0676774643119e-51,1.1093993652639e-30,3.1370777911973e-29,-7.4901727311093e-29,-1.9965672055988e-31,5.3648018510934e-15,2.8480942655816e-14,-3.8960174684853e-14,-2.0345480364801e-15,-2.3028209959441e-52,-6.2444462891564e-52,8.6754937818908e-48,4.2587502557728e-06,-1.4911343850808e-05,231.04877916845,231.04877916845,230.71702105153,230.71702105153,264.61658886669,264.36109279639,264.48829252679,264.57153241829,201.83028986172,200.4968440648,200.89009071327,201.73731091457,230.30128389771,264.70645717676,264.29034068056,264.39889013316,264.64233751147,254.11374338462,253.8853874278,254.00703860125,254.10749203385,207.54431371913,206.79860266896,230.30128389771,207.02922977716,207.50972282107,272.22071955477,271.98613720865,272.11199540675,272.14472037002,207.76350900272,206.57991488426,206.83584947335,207.69665646334,277.52094654355,272.25644200122,271.95811956734,272.07650955525,272.17284837528,254.28656082838,253.74881872713,253.83499970311,254.24391410596,277.52094654355,277.41009001461,277.41009001461,230.63296416746,230.63296416746,391.31145935922,386.64875572918,0
0.00032775,157741161.91128,9.6691682603276e-05,1.0395882879292,3.2074922866825e-06,-1.8923415983433e-06,1.9136780723195e-06,4.8507160111611e-06,5.9878104483473e-21,-1.7785118701315e-19,-3.2167377323223e-21,1.8045920579916e-22,-35.887498039344,67.535967011283,-52.568704808915,39.003034323232,-7.6327663073206e-06,7.5746831190938e-22,8.060682800396e-21,-1.4206628443811e-20,-2.1776850825223e-22,1.8734479427393e-14,-2.2050808831796e-13,-1.4326947556345e-14,1.9896165683459e-15,-1.0303633832987,1.3676702596379,-7.9912700054257e-06,-1.4075546444724,1.0754780448294,2.9196197423278e-29,-3.3073469524134e-27,-1.1483354743551e-29,1.7338218373796e-31,-1.1633610386602,1.2654614602324,-1.0090114860437,1.2684273295216,-3.6431926974847e-51,1.2334574012662e-30,3.3978286288373e-29,-8.1705673801877e-29,-2.390876361962e-31,5.6577750388256e-15,2.9639221693946e-14,-4.0730292193305e-14,-2.2138164595265e-15,-2.966653530662e-52,-7.3117512979391e-52,1.0495691822445e-47,4.363727452273e-06,-1.5212008130549e-05,231.07839539287,231.07839539287,230.74585631069,230.74585631069,264.65076984744,264.39457865689,264.52223851227,264.60569754478,201.84518530525,200.5072948082,200.90223133188,201.75194872156,230.32886304833,264.74090950952,264.32366761237,264.43257102478,264.67666598785,254.14655194719,253.91757181752,254.03971870639,254.14044035111,207.5644272578,206.81638117546,230.32886304833,207.04798787604,207.53003213401,272.25573408558,272.02051437698,272.14678351239,272.1795903353,207.78425602307,206.59718571165,206.85421510252,207.71726133551,277.55639109518,272.29156457446,271.99243438102,272.11119302156,272.20778354922,254.31989228928,253.78069423509,253.86716732515,254.27717746239,277.55639109518,277.44523024259,277.44523024259,230.66130725076,230.66130725076,391.32952628323,386.64759798902,0
0.000328,157955009.23694,9.6765844266963e-05,1.0396304380969,3.2803915226724e-06,-1.9570695607787e-06,1.9614855328365e-06,4.9645621039076e-06,6.3832419550518e-21,-1.9091108309377e-19,-3.5221336707651e-21,1.9682977592537e-22,-35.855020141225,67.563996958389,-52.568183202909,38.990241376257,-7.7637441535144e-06,8.1804969195458e-22,8.5324025657284e-21,-1.5121831765302e-20,-2.4703517157405e-22,1.9671293928406e-14,-2.3158719526153e-13,-1.5230353507219e-14,2.1149754152674e-15,-1.0307863860024,1.3691561491234,-8.1525737965621e-06,-1.4081690804018,1.0762787724701,3.1796695062335e-29,-3.6521875551988e-27,-1.3078834979342e-29,1.9547823668394e-31,-1.163755554226,1.2657376591449,-1.0092374128326,1.2687451064837,-4.3235381510958e-51,1.3744181904187e-30,3.6800951648387e-29,-8.9103424280003e-29,-2.8678415356138e-31,5.9714378945223e-15,3.0843200572198e-14,-4.2575536050566e-14,-2.4127264293659e-15,-3.8350371117269e-52,-8.5620614989784e-52,1.268996951082e-47,4.4717479655748e-06,-1.5517623167608e-05,231.1080342376,231.1080342376,230.77471598238,230.77471598238,264.68495787049,264.42807272356,264.55619219217,264.63986953183,201.86010266692,200.51779034093,200.91441215968,201.76657315707,230.35646913837,264.77536835998,264.35700316596,264.46626018623,264.71100096429,254.17937197222,253.94976875838,254.0724107696,254.1733997795,207.58458464679,206.83420648326,230.35646913837,207.06679229592,207.55038538854,272.29075290632,272.05489681819,272.1815764832,272.21446457131,207.80504564067,206.6145050313,206.87262917934,207.73790825295,277.59183840956,272.32669123385,272.02675463741,272.14588158811,272.24272285681,254.35323420051,253.81258308872,253.89934799231,254.31045121918,277.59183840956,277.480373447,277.480373447,230.68967531448,230.68967531448,391.34771729977,386.646542942,0
0.00032825,158168962.73541,9.6840005942474e-05,1.039672580082,3.3556973002031e-06,-2.0208197920697e-06,2.0096285303199e-06,5.0820489503642e-06,6.8089108792727e-21,-2.0488713443556e-19,-3.8624613405866e-21,2.1483338145561e-22,-35.82211448259,67.592336755873,-52.568103577669,38.981895724831,-7.8965298372855e-06,8.8483797537146e-22,9.03193751786e-21,-1.6093044617727e-20,-2.7527561104367e-22,2.0674172196413e-14,-2.4318499311538e-13,-1.6205910116647e-14,2.2491776888339e-15,-1.0311753798596,1.3706513796027,-8.3166082467564e-06,-1.408442549353,1.0770560867055,3.4636838986111e-29,-4.0317924145607e-27,-1.4929724007359e-29,2.2060172499862e-31,-1.1641610933812,1.2660260675028,-1.0094555632428,1.2690796616777,-5.1274701593106e-51,1.5354604823341e-30,3.986105369511e-29,-9.7145580519724e-29,-3.3384233615693e-31,6.3081980296508e-15,3.2095848317744e-14,-4.4498669098923e-14,-2.6030723378608e-15,-4.9776700200319e-52,-1.0029310041071e-51,1.5332523786064e-47,4.5843169857548e-06,-1.5827654203559e-05,231.13769596184,231.13769596184,230.80360032117,230.80360032117,264.7191532723,264.46157531478,264.59015389604,264.67404868676,201.87501222915,200.52833089034,200.92663214658,201.78138059728,230.38410243511,264.80983406139,264.39034765814,264.49995794942,264.74534274879,254.21220377922,253.98197855709,254.10511510009,254.20637061121,207.60478612348,206.85207881842,230.38410243511,207.08564328322,207.57078278305,272.32577636418,272.08928485741,272.21637466248,272.24934339603,207.82587810452,206.6318730785,206.89109194629,207.75859741799,277.62728883993,272.36182232519,272.06108066085,272.180575599,272.2776666162,254.38658687586,253.84448559216,253.93154201865,254.34373567014,277.62728883993,277.51551995504,277.51551995504,230.71806863005,230.71806863005,391.3659581058,386.64551694206,0
0.0003285,158383013.34452,9.6914167732065e-05,1.0397147159253,3.4336959098741e-06,-2.0836929741788e-06,2.0608315279279e-06,5.2035600998463e-06,7.2750193316962e-21,-2.1986361585743e-19,-4.2433495497512e-21,2.3546089147941e-22,-35.794220594976,67.619735996398,-52.569594702396,38.959837186637,-8.0318100123e-06,9.5880188591256e-22,9.5601462750557e-21,-1.7123887282057e-20,-3.0410781942038e-22,2.1781133541678e-14,-2.5535418825657e-13,-1.7263157573715e-14,2.3983263066885e-15,-1.0315795254295,1.3719182438912,-8.4831422584221e-06,-1.4089573119176,1.0777972113992,3.7759391381235e-29,-4.4499273107012e-27,-1.7087811761205e-29,2.5050928486794e-31,-1.1647187764681,1.2662760364535,-1.0097170995288,1.2693752433336,-6.0774188087145e-51,1.7205590190384e-30,4.3171399753334e-29,-1.0589058115291e-28,-3.8334087384037e-31,6.6710443790998e-15,3.3398681322265e-14,-4.6502936782368e-14,-2.7935353826458e-15,-6.4915587532053e-52,-1.1746342331596e-51,1.851319581705e-47,4.7032352668179e-06,-1.6144258256063e-05,231.16738144411,231.16738144411,230.83251012004,230.83251012004,264.75335691124,264.49508721132,264.62412444432,264.70823581752,201.88999110324,200.53891712016,200.93888980428,201.79624871661,230.41176364478,264.84430748147,264.42370184653,264.53366511328,264.77969216004,254.24504821518,254.01420199519,254.13783250607,254.23935365321,207.62503260158,206.86999888576,230.41176364478,207.10454160811,207.59122517992,272.36080532057,272.12367927766,272.2511788826,272.28422761445,207.8467544834,206.6492905062,206.90960411338,207.77932982356,277.66274323675,272.3969587117,272.09541322348,272.21527587638,272.31261563477,254.41995118578,253.87640248624,253.96375017465,254.37703164828,277.66274323675,277.55067055902,277.55067055902,230.7464879957,230.7464879957,391.38438354998,386.64465298111,0
0.00032875,158597171.61218,9.6988329608316e-05,1.0397568472679,3.514852222073e-06,-2.1462572326118e-06,2.1135997401525e-06,5.329550301038e-06,7.7749243960227e-21,-2.3591045082838e-19,-4.6720035031078e-21,2.5824390742412e-22,-35.764730976093,67.646343287983,-52.572304968165,38.937898260209,-8.169581803414e-06,1.0413353836372e-21,1.0118646127016e-20,-1.8217828268809e-20,-3.3440711944562e-22,2.2956450022721e-14,-2.6812034827891e-13,-1.8414071384528e-14,2.5579414299525e-15,-1.0320178808905,1.3732230710824,-8.6523300179608e-06,-1.4096316416639,1.0785509772526,4.1168483995468e-29,-4.9104528231605e-27,-1.9620861351399e-29,2.849049056694e-31,-1.1653621521723,1.2664866960242,-1.0100081457885,1.2696485881179,-7.1989086934525e-51,1.935343294732e-30,4.6752161150497e-29,-1.1539645455288e-28,-4.3712512304417e-31,7.0644498124358e-15,3.4753673284309e-14,-4.859188737906e-14,-2.9888053578455e-15,-8.5157480589872e-52,-1.3755366546125e-51,2.2339911246387e-47,4.8295229572007e-06,-1.6467265442121e-05,231.19708899058,231.19708899058,230.86144368709,230.86144368709,264.78756718809,264.52860692759,264.65810222026,264.74242939103,201.90504193127,200.54954756931,200.95117833329,201.81114935708,230.43945116112,264.87878700269,264.45706424333,264.56738007631,264.81404766428,254.27790367971,254.04643756053,254.17056135241,254.27234732913,207.64532234136,206.88796518252,230.43945116112,207.12348540423,207.61171080399,272.39583817709,272.15807860775,272.28598753822,272.31911572493,207.86767289331,206.66675579238,206.92816390834,207.80010369026,277.69820000184,272.43209878758,272.12975085297,272.24998082059,272.34756841032,254.45332549405,253.90833225501,253.99597085609,254.41033757645,277.69820000184,277.58582378745,277.58582378745,230.77493181494,230.77493181494,391.40300513335,386.64396331288,0
0.000329,158811446.02858,9.7062491518611e-05,1.0397989747841,3.5996299419322e-06,-2.2085184629622e-06,2.1670956582349e-06,5.4605228838422e-06,8.297997506617e-21,-2.5309874631068e-19,-5.157974502799e-21,2.8289135799839e-22,-35.733612465749,67.672371049655,-52.576042853664,38.918393378517,-8.3097369432466e-06,1.1343414238228e-21,1.0709303156682e-20,-1.9378493763655e-20,-3.6654697647434e-22,2.4148452277257e-14,-2.8150548314688e-13,-1.9674249542661e-14,2.7251796971561e-15,-1.0324810692565,1.3746703513645,-8.8242903723506e-06,-1.4103956966908,1.0793303568001,4.4855496089686e-29,-5.417556217067e-27,-2.2620536627406e-29,3.2371737876259e-31,-1.1660024025572,1.2666517328268,-1.010305590993,1.2699057478891,-8.5218040533568e-51,2.1877463764143e-30,5.062653635648e-29,-1.2572552026779e-28,-4.9618346557197e-31,7.4942792405041e-15,3.6163020919214e-14,-5.0769154597598e-14,-3.1905284698994e-15,-1.1255674692826e-51,-1.6106779860191e-51,2.6942108454231e-47,4.9576372276403e-06,-1.6796192285031e-05,231.22681824635,231.22681824635,230.89040068544,230.89040068544,264.82178387101,264.56213430608,264.69208698641,264.77662920499,201.92006857879,200.56022203481,200.96347724724,201.82616596865,230.46716473689,264.91327237965,264.49043469723,264.60110262014,264.84840905865,254.31076992955,254.07868507018,254.20330137744,254.30535139877,207.66565491679,206.90597748024,230.46716473689,207.14247421638,207.63223918798,272.43087471054,272.1924827037,272.32080040678,272.3540075535,207.88863278972,206.68426872082,206.94677094959,207.82091850474,277.73365892062,272.46724232518,272.16409340862,272.28469021735,272.38252476954,254.48670952804,253.94027472547,254.02820383687,254.44365321098,277.73365892062,277.62097949586,277.62097949586,230.80339982101,230.80339982101,391.42179711993,386.64342320027,0
0.00032925,159025840.05789,9.7136653539897e-05,1.0398410988186,3.6884347514832e-06,-2.2714235592032e-06,2.223843995815e-06,5.5970653388804e-06,8.8498740541421e-21,-2.7151411832992e-19,-5.7147748115698e-21,3.0999859318282e-22,-35.709645491306,67.697447307438,-52.582460657151,38.892729998172,-8.4524742627752e-06,1.240563626461e-21,1.1333582510415e-20,-2.0609895264492e-20,-4.0098053322245e-22,2.5370910561288e-14,-2.9554727424157e-13,-2.1065539037881e-14,2.9042376770219e-15,-1.0329784464694,1.3759670245118,-8.9985978430616e-06,-1.4114048472464,1.0800788893923,4.8857591485116e-29,-5.9759508567712e-27,-2.6218320401968e-29,3.6809646509174e-31,-1.1666654892599,1.2666929087674,-1.0106235992453,1.2700710069483,-1.0081948990048e-50,2.4896440765176e-30,5.481482934559e-29,-1.3694943128163e-28,-5.6159618359338e-31,7.9685805300905e-15,3.7628592843796e-14,-5.303807190272e-14,-3.4013501288521e-15,-1.5029851506223e-51,-1.8855542381295e-51,3.2473919954603e-47,5.083025001614e-06,-1.7131744893152e-05,231.25656931994,231.25656931994,230.91938123372,230.91938123372,264.85600717314,264.59566959157,264.72607895323,264.81083547366,201.9352289193,200.57094069061,200.97582818238,201.84121687858,230.49490455446,264.94776381965,264.52381346059,264.63483297082,264.88277655962,254.34364716226,254.11094474892,254.23605276837,254.3383660488,207.68603036855,206.92403593632,230.49490455446,207.16150811045,207.65281033761,272.4659151452,272.22689182126,272.35561771356,272.38890333528,207.90963415539,206.70182947241,206.96542533921,207.84177423141,277.76912022748,272.50238954787,272.19844115047,272.31940429939,272.41748494975,254.5201034703,253.97223013405,254.06044933157,254.47697873926,277.76912022748,277.6561379412,277.6561379412,230.83189217358,230.83189217358,391.44071645609,386.64298881163,0
0.0003295,159240355.45349,9.7210815517102e-05,1.0398832209418,3.7830168572081e-06,-2.3348539874313e-06,2.2811054281108e-06,5.7406683328739e-06,9.4349954483263e-21,-2.9123701782552e-19,-6.3645845406435e-21,3.3921963357919e-22,-35.678363882534,67.721687050529,-52.587294055946,38.871037704861,-8.59758882728e-06,1.3657838590501e-21,1.1993532246336e-20,-2.1915322321838e-20,-4.3800817816448e-22,2.6637419914203e-14,-3.1026842772578e-13,-2.2624992825165e-14,3.0913228159296e-15,-1.0334910705747,1.3773848627353,-9.1769838171295e-06,-1.4124638147637,1.0808407507604,5.3207285012209e-29,-6.5906761388935e-27,-3.0627941869405e-29,4.1794629126362e-31,-1.1673323387262,1.266748059026,-1.0109248076586,1.2702721345809,-1.1918295129272e-50,2.864981099243e-30,5.9344176867445e-29,-1.4913162756182e-28,-6.3430438509423e-31,8.5058022000529e-15,3.9152637065212e-14,-5.5402459557968e-14,-3.6222974335933e-15,-2.038050826597e-51,-2.2070731345483e-51,3.9120544910041e-47,5.2082185409859e-06,-1.7473274886287e-05,231.28634260463,231.28634260463,230.94838574655,230.94838574655,264.89023750417,264.62921329301,264.76007854469,264.84504870109,201.95037433124,200.58170410784,200.98826385188,201.85630204452,230.52267105891,264.98226173255,264.5572010519,264.66857156067,264.91715067037,254.37653578486,254.14321708012,254.26881594739,254.37139175859,207.70644899689,206.94214105768,230.52267105891,207.18058744922,207.67342469305,272.50095989436,272.26130648608,272.39043988243,272.4238035916,207.93067723396,206.71943857515,206.98412745971,207.86267129308,277.80458434298,272.53754087015,272.23279460906,272.35412349496,272.45244947309,254.55350772494,254.00419897999,254.09270777612,254.51031463606,277.80458434298,277.69129965923,277.69129965923,230.86040928421,230.86040928421,391.45985341422,386.64275214179,0
0.00032975,159455000.38113,9.7284977642077e-05,1.0399253424582,3.8880497988661e-06,-2.3979790968051e-06,2.3381124974442e-06,5.8934109351991e-06,1.005509063178e-20,-3.1236191647684e-19,-7.153300482622e-21,3.7059471205931e-22,-35.65233613495,67.744786906642,-52.588729533708,38.851514849897,-8.7449808074397e-06,1.534412735046e-21,1.2691413077498e-20,-2.329786943192e-20,-4.7781357803593e-22,2.7948807338553e-14,-3.2570479230794e-13,-2.4428349818824e-14,3.285803727153e-15,-1.0340036049439,1.3787765438153,-9.3597695010844e-06,-1.4135379846088,1.0816109546615,5.7931417934576e-29,-7.2673891040476e-27,-3.6289964231374e-29,4.737479585309e-31,-1.1680084343793,1.2669239892896,-1.0111659086672,1.2703992120442,-1.40786074141e-50,3.4137660245559e-30,6.4242752267841e-29,-1.6234511726702e-28,-7.1519559536138e-31,9.1824951739522e-15,4.0738717438858e-14,-5.786236319329e-14,-3.8531418431601e-15,-2.8437782645014e-51,-2.5831594733755e-51,4.7103300389295e-47,5.3318842696593e-06,-1.7820987072394e-05,231.31613678401,231.31613678401,230.97741295655,230.97741295655,264.92447376475,264.66276434348,264.79408465139,264.87926772606,201.96562420385,200.5925112137,201.00069136606,201.87141897258,230.55046314986,265.01676498858,264.59059641501,264.70231731605,264.95153022417,254.40943468317,254.17550098395,254.30158976659,254.40442733149,207.72690950304,206.96029173184,230.55046314986,207.19971094889,207.69408074948,272.53600787038,272.29572563214,272.42526582759,272.4587071923,207.95176053986,206.73709495436,207.002876128,207.8836080651,277.84005019272,272.57269519334,272.26715272344,272.38884673321,272.48741720816,254.58692111567,254.03618020246,254.12497809017,254.54365969104,277.84005019272,277.72646356301,277.72646356301,230.8889500078,230.8889500078,391.47915950713,386.64266524275,0
0.00033,159669781.63907,9.7359139805427e-05,1.0399674631065,3.9989006584435e-06,-2.4616126997768e-06,2.3947121899781e-06,6.061941215575e-06,1.0712304334785e-20,-3.3497123935143e-19,-8.2502405965121e-21,4.0438522004604e-22,-35.621520948468,67.767591331481,-52.593844406425,38.833520184728,-8.8954212088953e-06,1.7085039781015e-21,1.3429130964494e-20,-2.4763200584736e-20,-5.2065257346345e-22,2.930853929549e-14,-3.4187856848986e-13,-2.6754441603501e-14,3.4884805706737e-15,-1.0344912691335,1.3801481984883,-9.5456457825903e-06,-1.4145689678276,1.0823373292692,6.3059989714946e-29,-8.0117830795853e-27,-4.4815613205944e-29,5.3641849239176e-31,-1.1687119328396,1.2671601763383,-1.0114618528289,1.270652266553,-1.6620216592744e-50,3.9972767407331e-30,6.9540876656342e-29,-1.7668482350869e-28,-8.0515760514586e-31,9.8736870659388e-15,4.2387687986764e-14,-6.0423469366311e-14,-4.095176024418e-15,-4.3372246791514e-51,-3.0232245280552e-51,5.6681547591436e-47,5.4544626591561e-06,-1.8174654205995e-05,231.34595224244,231.34595224244,231.00646320681,231.00646320681,264.95871646523,264.69632328151,264.82809773891,264.91349300791,201.98092576421,200.60336259484,201.01326461991,201.88656682735,230.57828128694,265.05127407498,264.62400008094,264.73607072558,264.98591568779,254.44234436503,254.20779699359,254.33437465951,254.43747319255,207.7474123538,206.97848853611,230.57828128694,207.21887884467,207.71477870295,272.57105958405,272.33014979637,272.46009603672,272.49361462426,207.97288443447,206.75479912202,207.02167166892,207.90458479469,277.87551828335,272.60785301915,272.30151602763,272.42357451092,272.52238864475,254.62034410496,254.06817431944,254.15726075233,254.57701434404,277.87551828335,277.76163017298,277.76163017298,230.91751484754,230.91751484754,391.49862997061,386.64272385035,0
0.00033025,159884697.84378,9.7433301953281e-05,1.0400095816591,4.1097176471301e-06,-2.5263080670716e-06,2.4512503654076e-06,6.2397326496983e-06,1.1409549920366e-20,-3.5916018229003e-19,-9.2906429436446e-21,4.410181707114e-22,-35.590766386222,67.792256201819,-52.592886041281,38.816388344327,-9.0479936910218e-06,1.8809578107351e-21,1.4208226972094e-20,-2.6315714831443e-20,-5.6686104769738e-22,3.0721249170018e-14,-3.5881459192018e-13,-2.8988865763811e-14,3.7010635560604e-15,-1.034958324607,1.3816004063019,-9.7342939327732e-06,-1.4155865075765,1.0831953923891,6.8631309460134e-29,-8.8303360727907e-27,-5.3006258751972e-29,6.0730441148409e-31,-1.16941277095,1.2674523437496,-1.0117912651853,1.2709808766546,-1.9607724044033e-50,4.5880040949955e-30,7.5267693114207e-29,-1.9224020329389e-28,-9.0531800442583e-31,1.05523301343e-14,4.4099023809611e-14,-6.3089076181978e-14,-4.3499088277537e-15,-5.9561435442692e-51,-3.5378754909317e-51,6.8167119394696e-47,5.5766266248764e-06,-1.8534261321088e-05,231.37578886661,231.37578886661,231.03553640285,231.03553640285,264.99296561324,264.72989011815,264.86211780961,264.94772452641,201.9962517195,200.61425815883,201.0258790317,201.9017439199,230.60612542188,265.08578898281,264.65741205675,264.76983179623,265.02030703315,254.47526482171,254.24010510584,254.36717060442,254.47052929995,207.76795738669,206.99673134644,230.60612542188,207.23809100874,207.7355183428,272.60611505346,272.36457899589,272.49493052706,272.52852588342,207.99404874815,206.77255102802,207.04051399475,207.92560126761,277.91098863946,272.64301435743,272.33588453549,272.45830684544,272.55736377403,254.65377665624,254.10018132472,254.18955575412,254.61037854199,277.91098863946,277.79679950159,277.79679950159,230.94610374655,230.94610374655,391.51830829095,386.64297704329,0
0.0003305,160099742.55419,9.7507464119312e-05,1.0400516972943,4.2200478476863e-06,-2.5923307808356e-06,2.5079329811236e-06,6.4158835297958e-06,1.2149540447495e-20,-3.8503633352504e-19,-1.0324626930744e-20,4.8097729289827e-22,-35.561738226687,67.817695324223,-52.593020436349,38.799739099495,-9.2022144007475e-06,2.0587201120095e-21,1.5030884423889e-20,-2.7960152795382e-20,-6.1677062384631e-22,3.2190913823643e-14,-3.7654852426677e-13,-3.1182523252474e-14,3.9253224406691e-15,-1.0354212087948,1.3830401622973,-9.925238419318e-06,-1.4165677897223,1.0840813039647,7.4683973355574e-29,-9.7302529199671e-27,-6.1363559142356e-29,6.8801626231033e-31,-1.1700880413926,1.2677486286519,-1.0121315131263,1.2713190406732,-2.3117358073409e-50,5.2153320669855e-30,8.1457740654897e-29,-2.0910969786524e-28,-1.0169006757611e-30,1.123832077387e-14,4.5874050819238e-14,-6.5862403407025e-14,-4.6185774952975e-15,-7.807009081303e-51,-4.1396977189755e-51,8.1931896948198e-47,5.6988703124216e-06,-1.8899743465306e-05,231.40564599173,231.40564599173,231.06463186496,231.06463186496,265.02722059352,264.76346417069,264.89614426566,264.98196167137,202.01159041164,200.62519669093,201.03853378517,201.91694721439,230.63399474941,265.1203091207,264.69083165656,264.80359990512,265.05470365214,254.50819539508,254.27242460565,254.39997698153,254.50359503104,207.78854373761,207.01501910736,230.63399474941,207.25734664958,207.75629891687,272.64117369051,272.39901257444,272.52976871561,272.56344036183,208.01525274351,206.79034958867,207.05940219709,207.9466567731,277.94646068916,272.67817862933,272.37025758934,272.49304314381,272.59234198872,254.68721815861,254.13220049724,254.22186242704,254.6437516669,277.94646068916,277.83197092594,277.83197092594,230.97471591552,230.97471591552,391.53812954466,386.64335759878,0
0.00033075,160314911.43809,9.7581626346805e-05,1.0400938091199,4.3289613382411e-06,-2.6600043730292e-06,2.5651269110743e-06,6.5919360529706e-06,1.2935377378722e-20,-4.1271494995536e-19,-1.1397487988429e-20,5.2490664105321e-22,-35.534773260603,67.843421808475,-52.593531940919,38.78325751107,-9.3580253091774e-06,2.2439638248377e-21,1.5899546502757e-20,-2.9701630245235e-20,-6.7079166593887e-22,3.3722564645331e-14,-3.9511820078048e-13,-3.3411868953094e-14,4.1636403721331e-15,-1.0358866764668,1.3844090519524,-1.0118357634538e-05,-1.4175063120194,1.0849697103204,8.1260554870452e-29,-1.0719431792409e-26,-7.0309634502393e-29,7.8070954904408e-31,-1.1707261228553,1.2680260087767,-1.0124731638967,1.2716197308788,-2.7238304489258e-50,5.891399883461e-30,8.8148574606868e-29,-2.2740048471841e-28,-1.1413928134752e-30,1.1935971977274e-14,4.7715072620209e-14,-6.874719982394e-14,-4.9027377037285e-15,-1.0019148262599e-50,-4.8433828438268e-51,9.8418751538293e-47,5.8218673049872e-06,-1.9271334145854e-05,231.43552431856,231.43552431856,231.09375029132,231.09375029132,265.06148212607,264.79704613002,264.93017784318,265.01620518005,202.02691782517,200.63617863563,201.05122941635,201.93217294334,230.66188988933,265.15483522309,264.72425957054,264.83737577244,265.08910628131,254.54113678009,254.30475616263,254.43279451635,254.53667111569,207.8091720029,207.03335232343,230.66188988933,207.27664643486,207.77712112563,272.67623623152,272.43345124017,272.56461134544,272.59835879811,208.03649710854,206.80819530078,207.07833686558,207.96775204535,277.98193517964,272.71334657661,272.40463589688,272.52778414258,272.62732402693,254.72066933604,254.16423250562,254.25418146593,254.67713444805,277.98193517964,277.86714517534,277.86714517534,231.00335197664,231.00335197664,391.55804997753,386.64382071426,0
0.000331,160530199.77771,9.7655788715205e-05,1.0401359157592,4.4360483428382e-06,-2.7298451822214e-06,2.6233191720112e-06,6.7654295466545e-06,1.3771011335069e-20,-4.4231969040474e-19,-1.2520044340533e-20,5.7365020795229e-22,-35.511472090639,67.869152854756,-52.594029794814,38.766505179202,-9.5155054009087e-06,2.4374404939163e-21,1.681685867853e-20,-3.1545640415142e-20,-7.2949946562242e-22,3.5323978941895e-14,-4.1456387666581e-13,-3.5682495240568e-14,4.4190821691907e-15,-1.0363522398599,1.385622339716,-1.0313618843781e-05,-1.4183978307696,1.0858287272512,8.840965286221e-29,-1.1806533251768e-26,-8.000719056231e-29,8.8827534710769e-31,-1.1713164409505,1.2682708924649,-1.0128150119903,1.2718330214405,-3.2075312319788e-50,6.622023036964e-30,9.5380946722637e-29,-2.4722985875475e-28,-1.2807720116755e-30,1.2646277744831e-14,4.9624830981009e-14,-7.1747444580643e-14,-5.2047160400616e-15,-1.2700731072237e-50,-5.6660775844693e-51,1.1815479923561e-46,5.9466606602768e-06,-1.9649194048512e-05,231.4654243312,231.4654243312,231.12289216442,231.12289216442,265.09575068443,264.83063645847,264.96421903235,265.05045555562,202.04235040562,200.64720434379,201.06396626793,201.94740557456,230.68981125655,265.18936777618,264.75769626117,264.87115987462,265.12351542266,254.57408943443,254.3371002231,254.46562369611,254.56975805364,207.82984261095,207.05173136418,230.68981125655,207.29599085098,207.79798550583,272.71130316078,272.46789546895,272.59945890847,272.63328169478,208.05778235768,206.82608852676,207.09731841864,207.98888766399,278.01741260301,272.74851868833,272.43901993388,272.56253032811,272.66231039046,254.75413067159,254.19627779671,254.28651333153,254.71052738375,278.01741260301,277.90232274313,277.90232274313,231.03201234454,231.03201234454,391.57802075922,386.64431664695,0
0.00033125,160745600.2969,9.772995103089e-05,1.0401780168633,4.5420469883091e-06,-2.8035297853517e-06,2.6826864573101e-06,6.9366813923485e-06,1.4656375127659e-20,-4.7397682698435e-19,-1.3702422904803e-20,6.28474096851e-22,-35.481562053234,67.89495792749,-52.593811056479,38.752879338865,-9.6746117318963e-06,2.6402930877996e-21,1.7785390004941e-20,-3.3497785086135e-20,-7.9414997979148e-22,3.6985506048323e-14,-4.349190772032e-13,-3.8007733545824e-14,4.6959495328786e-15,-1.0368080594136,1.3868966731026,-1.0511742693234e-05,-1.4191828802182,1.0866866580776,9.6168975394041e-29,-1.3001004213977e-26,-9.0593985766352e-29,1.0150902719018e-30,-1.1718117930479,1.2685040273189,-1.0131311747475,1.272069875346,-3.7744430093004e-50,7.4135761689978e-30,1.0319776319323e-28,-2.6871346039428e-28,-1.4387312317969e-30,1.3373074634928e-14,5.1605599911074e-14,-7.4869053625589e-14,-5.5305185972704e-15,-1.5968073740978e-50,-6.6278372113432e-51,1.4177039344251e-46,6.0716502033725e-06,-2.0032916931041e-05,231.49534663152,231.49534663152,231.15205807804,231.15205807804,265.13002680514,264.86423569359,264.99826838975,265.08471338977,202.05778201269,200.65827433511,201.07674481988,201.96267112255,230.71775935385,265.22390733296,264.79114226475,264.90495274924,265.15793166673,254.60705388646,254.36945731196,254.49846508552,254.60285643985,207.8505561388,207.07015674486,230.71775935385,207.31538052236,207.81889278413,272.74637502053,272.50234581091,272.63431195585,272.66820963752,208.07910918026,206.84402976232,207.11634739629,208.01006442657,278.05289350581,272.78369551281,272.47341024962,272.59728224367,272.69730166409,254.78760272714,254.2283368935,254.31885855234,254.74393106839,278.05289350581,277.93750419917,277.93750419917,231.06069752843,231.06069752843,391.59811467838,386.64491699937,0
0.0003315,160961111.09812,9.7804113391236e-05,1.0402201116805,4.6471349905536e-06,-2.8794158443095e-06,2.7439044173399e-06,7.1063266853355e-06,1.5596190658815e-20,-5.078257989724e-19,-1.4953520535748e-20,6.9110486200883e-22,-35.455483175317,67.920621413608,-52.593385975867,38.738697976717,-9.835578613131e-06,2.8530145219935e-21,1.8808243871409e-20,-3.5564101512101e-20,-8.6437749827197e-22,3.8717449846004e-14,-4.5622942231571e-13,-4.0400556833078e-14,5.0001198896448e-15,-1.0372572327512,1.3880949187586,-1.0712568858243e-05,-1.4198910822642,1.0875220196263,1.0459620761319e-28,-1.4313099110558e-26,-1.0219557292714e-28,1.1673488396291e-30,-1.1722634206024,1.2687182130394,-1.0134363566843,1.2722678256011,-4.4387814789973e-50,8.2701080378256e-30,1.1164706859073e-28,-2.9198843684925e-28,-1.6155691404719e-30,1.4117617265699e-14,5.36609293988e-14,-7.8115842080917e-14,-5.876388655946e-15,-1.995270930173e-50,-7.751978688409e-51,1.7000772183494e-46,6.1984577446461e-06,-2.0422994123268e-05,231.52529028098,231.52529028098,231.18124716897,231.18124716897,265.16430965293,264.8978429753,265.03232511446,265.1189778139,202.07330696036,200.66938771844,201.08956422299,201.97802234602,230.74573334589,265.2584530521,264.82459673572,264.93875360277,265.19235413172,254.64002927954,254.40182655915,254.53131786897,254.6359654032,207.87131164738,207.0886275425,230.74573334589,207.33481470788,207.83984204103,272.78145099276,272.53680141069,272.66916969371,272.70314176153,208.10047660508,206.86201814025,207.13542303163,208.03128131963,278.08837709045,272.81887622992,272.50780599477,272.63203909865,272.73229697817,254.82108463342,254.26040895358,254.35121632602,254.77734460393,278.08837709045,277.97268868644,277.97268868644,231.08940662412,231.08940662412,391.6182878258,386.64557782355,0
0.00033175,161176728.16022,9.7878275776228e-05,1.0402622018568,4.7520411906848e-06,-2.9520491365465e-06,2.8077220401902e-06,7.2755647725745e-06,1.6592868320602e-20,-5.4401672796725e-19,-1.6281743906419e-20,7.6470882127561e-22,-35.42435526723,67.945972989093,-52.594145182973,38.720996637423,-9.9989050942149e-06,3.0764420620803e-21,1.9889283508137e-20,-3.7751069021864e-20,-9.3722807099896e-22,4.0520030146831e-14,-4.7854504051452e-13,-4.2874369434211e-14,5.3423796069747e-15,-1.0377181505484,1.3894253538873,-1.0916486381622e-05,-1.420645544152,1.0883461623285,1.1374333750599e-28,-1.5753996886472e-26,-1.1493363903202e-28,1.3562467917573e-30,-1.1728092299984,1.2689329578692,-1.0137445895771,1.2724986093503,-5.2166373524749e-50,9.1967012775522e-30,1.2078446707115e-28,-3.1719644026464e-28,-1.8051113293937e-30,1.4882898573904e-14,5.5796174352199e-14,-8.1493770592082e-14,-6.2249869964986e-15,-2.4805216286055e-50,-9.0660151947905e-51,2.037428805725e-46,6.3260537802509e-06,-2.0820098797925e-05,231.55525574114,231.55525574114,231.21045991527,231.21045991527,265.19859969831,264.93145877088,265.06638969427,265.15324931464,202.08878431368,200.68054496625,201.10242485139,201.9933899891,230.77373368163,265.29300540821,264.85806014394,264.97256291655,265.22678329943,254.67301607309,254.43420842149,254.5641825313,254.66908542809,207.89210959493,207.10714420384,230.77373368163,207.35429392908,207.86083380168,272.8165315563,272.57126274369,272.70403261099,272.73807855389,208.12188512789,206.88005411362,207.15454580786,208.05253888186,278.12386384375,272.85406131977,272.54220764544,272.66680137915,272.7672968175,254.85457685881,254.29249443936,254.38358712551,254.81076846637,278.12386384375,278.00787668878,278.00787668878,231.11814006643,231.11814006643,391.63866125199,386.64642161262,0
0.000332,161392460.06448,9.795243838766e-05,1.0403042863814,4.8566223579947e-06,-3.0250172491591e-06,2.8750849135696e-06,7.444639006484e-06,1.7652190034981e-20,-5.8270923958415e-19,-1.76937130551e-20,8.5533627816302e-22,-35.401331258252,67.971115615223,-52.595470621038,38.703903116681,-1.0164521122069e-05,3.3106616187298e-21,2.1031673611659e-20,-4.0065829662913e-20,-1.0149065877924e-21,4.2406091927607e-14,-5.0191264714432e-13,-4.5437139029203e-14,5.7420901977349e-15,-1.0381715679653,1.3906278153509,-1.1123015544652e-05,-1.4213553006396,1.0891217575241,1.2368114185549e-28,-1.73361422192e-26,-1.2892436193369e-28,1.604083826382e-30,-1.1733773396284,1.2691146685281,-1.0140645151457,1.2726259759975,-6.1278012739266e-50,1.0195911275804e-29,1.3066511291023e-28,-3.4450588898072e-28,-2.0130662670704e-30,1.5668573429859e-14,5.8013908059916e-14,-8.5006712530009e-14,-6.588224375639e-15,-3.0701497271961e-50,-1.0601618775719e-50,2.4402801940827e-46,6.4569732692982e-06,-2.1224277341663e-05,231.58524143736,231.58524143736,231.2396946995,231.2396946995,265.23289549706,264.9650816495,265.10046064302,265.18752641383,202.10447329506,200.69174450857,201.11532470489,202.00872982233,230.80175881451,265.32756294501,264.89153105012,265.00637921773,265.26121770114,254.70601280807,254.46660145101,254.59705755133,254.7022149987,207.91294835523,207.12570517353,230.80175881451,207.37381641327,207.88186629479,272.8516152743,272.60572838741,272.73889924642,272.77301856355,208.14333306335,206.89813612109,207.17371403436,208.07383536154,278.15935232728,272.88924934095,272.57661377588,272.7015676292,272.80229973492,254.88807792001,254.32459188644,254.41596945577,254.84420115781,278.15935232728,278.04306678113,278.04306678113,231.14689634758,231.14689634758,391.65909044986,386.64730311269,0
0.00033225,161608301.42805,9.8026600804412e-05,1.0403463660401,4.9620791021493e-06,-3.0997668915854e-06,2.9481852111215e-06,7.6149027866426e-06,1.8781198560333e-20,-6.2403790418137e-19,-1.9196924014722e-20,9.8812034574402e-22,-35.36099984148,67.996551730043,-52.596320654716,38.694771702448,-1.0332139125733e-05,3.5573151176273e-21,2.2238892628514e-20,-4.2514003798121e-20,-1.0984456397259e-21,4.439089283371e-14,-5.2634730275093e-13,-4.8100101849307e-14,6.2797204384986e-15,-1.0385900291767,1.3920018989694,-1.1333431467133e-05,-1.4218056564595,1.0899292095633,1.3448347136183e-28,-1.9072223331198e-26,-1.4429228171004e-28,2.0024497194906e-30,-1.1739129088696,1.2693234641852,-1.0143401258741,1.2729353245123,-7.1921532576585e-50,1.1276391995517e-29,1.4135238891998e-28,-3.7404818054642e-28,-2.2427413522993e-30,1.6480411500481e-14,6.0316712606054e-14,-8.8661593261715e-14,-6.9709739576456e-15,-3.7845967694707e-50,-1.2396787364792e-50,2.9210444025911e-46,6.5890247243446e-06,-2.1634135824967e-05,231.61524906273,231.61524906273,231.26895316208,231.26895316208,265.2671986626,264.99871324062,265.13453957011,265.22181079288,202.12019797722,200.70298793567,201.12826512066,202.02421472786,230.82981028941,265.36212729332,264.92501107307,265.04020409395,265.29565902463,254.73902109347,254.49900726218,254.62994454392,254.73535579046,207.93382956723,207.14431205048,230.82981028941,207.39338373008,207.90294129025,272.88670376145,272.6401999859,272.7737712073,272.80796347111,208.16482217182,206.9162657157,207.19292922324,208.09517265255,278.19484415122,272.92444191428,272.61102602527,272.73633944681,272.83730741271,254.92158946198,254.35670288992,254.44836489128,254.87764436882,278.19484415122,278.07826062983,278.07826062983,231.17567706099,231.17567706099,391.67973415305,386.64838068908,0
0.0003325,161824256.31966,9.810076299886e-05,1.0403884429709,5.0685030462185e-06,-3.1770834831828e-06,3.0330136740884e-06,7.7867312677412e-06,1.9974244899345e-20,-6.6822430166306e-19,-2.0797884204937e-20,1.1146418202089e-21,-35.324735630497,68.021505086095,-52.597419993214,38.678540486099,-1.0502331081625e-05,3.816760660066e-21,2.351421696969e-20,-4.5105224904121e-20,-1.1888183502436e-21,4.6440979109328e-14,-5.5193318640715e-13,-5.0870827718234e-14,6.801165022279e-15,-1.0390685317496,1.3936460277157,-1.1547858826557e-05,-1.4226302730349,1.0907791480662,1.4619051509745e-28,-2.0978394781797e-26,-1.6116213179773e-28,2.3882388895058e-30,-1.174448990605,1.2695307877873,-1.0146043317812,1.2732922122806,-8.435897560786e-50,1.2441910051516e-29,1.5290252249047e-28,-4.0602804045771e-28,-2.4977291027441e-30,1.731911398992e-14,6.270889571099e-14,-9.2466972502222e-14,-7.3770523223417e-15,-4.6476391256054e-50,-1.4493489027546e-50,3.4947772011944e-46,6.722892326335e-06,-2.2051013539825e-05,231.64527649826,231.64527649826,231.29823329096,231.29823329096,265.3015073837,265.03235168203,265.16862466875,265.25610049149,202.13595614815,200.7142732695,201.14124402342,202.03972331624,230.85788625949,265.39669660256,264.95849836296,265.07403577183,265.33010529094,254.77203908674,254.53142398669,254.66284165196,254.7685058197,207.95475116265,207.16296283107,230.85788625949,207.4129939709,207.92405647696,272.92179522963,272.67467567164,272.80864671712,272.84291134014,208.18635020558,206.93444098811,207.21218954123,208.11654823569,278.23033755049,272.95963723569,272.64544253042,272.7711150682,272.87231790681,254.95510956606,254.3888256074,254.48077164066,254.91109607881,278.23033755049,278.11345633851,278.11345633851,231.20448028421,231.20448028421,391.70063321468,386.64969486401,0
0.00033275,162040335.94679,9.8174925000763e-05,1.0404305175717,5.175736525808e-06,-3.2569057755947e-06,3.1165251548301e-06,7.9602814113106e-06,2.1232121621384e-20,-7.1544813015017e-19,-2.2502545284832e-20,1.239554412186e-21,-35.29064674393,68.046247399038,-52.598671444461,38.665039781717,-1.067486485923e-05,4.0893015067795e-21,2.4861009676119e-20,-4.7846618187267e-20,-1.2866406840074e-21,4.8549107134685e-14,-5.7871415590245e-13,-5.3754832323583e-14,7.307375781412e-15,-1.039555999181,1.3953908879083,-1.176593150594e-05,-1.423529816039,1.0916377517813,1.5886707476164e-28,-2.3070467178362e-26,-1.7966229260648e-28,2.7821148590294e-30,-1.174961716119,1.269719671671,-1.014852189659,1.2736568569949,-9.888796072846e-50,1.3696439208313e-29,1.6538211867065e-28,-4.4063665136065e-28,-2.7810554638213e-30,1.8184776788673e-14,6.5192512523109e-14,-9.6426153566508e-14,-7.8079666950938e-15,-5.6870620987291e-50,-1.6941646581005e-50,4.1789995528464e-46,6.8552651663805e-06,-2.2474797872318e-05,231.67532301013,231.67532301013,231.3275343631,231.3275343631,265.33582111433,265.06599645141,265.20271537928,265.29039492246,202.1517463625,200.72559982611,201.15426028827,202.0552497975,230.88598612988,265.43127031503,264.99199241052,265.10787372377,265.36455592014,254.80506621798,254.56385107879,254.69574827487,254.80166445874,207.97571229114,207.18165682769,230.88598612988,207.43264632465,207.94521088158,272.95688914943,272.70915493293,272.84352524285,272.87786161556,208.20791618921,206.9526613,207.23149426184,208.13796106769,278.26583201022,272.99483477393,272.67986278738,272.80589397566,272.90733066776,254.98863763238,254.42095951259,254.51318915937,254.94455566666,278.26583201022,278.14865338989,278.14865338989,231.23330538308,231.23330538308,391.7217036778,386.65116318915,0
0.000333,162256542.36695,9.824908682314e-05,1.0404725894556,5.2838782986358e-06,-3.3394575583009e-06,3.1980038680824e-06,8.1356886699099e-06,2.2557519843449e-20,-7.6590427324987e-19,-2.4316635432178e-20,1.3670970379372e-21,-35.257814149879,68.070857973616,-52.599865534422,38.653317173532,-1.0849656779592e-05,4.3754837852055e-21,2.6282982416739e-20,-5.0746069812154e-20,-1.392714302086e-21,5.0715742339595e-14,-6.0673869838317e-13,-5.6756900003873e-14,7.8113830288603e-15,-1.0400382059978,1.397169016217,-1.1987602156847e-05,-1.4244268676464,1.0924934850235,1.7258846374295e-28,-2.5365824148286e-26,-1.9992520204524e-28,3.1996981755321e-30,-1.1754277937174,1.2698807985447,-1.0150806335247,1.2740085242181,-1.1585216932706e-49,1.5044891245228e-29,1.7886362243548e-28,-4.7808017105741e-28,-3.0964404982218e-30,1.9078506962991e-14,6.7770343731262e-14,-1.0054403696266e-13,-8.2660604588689e-15,-6.9350330769599e-50,-1.9799347598212e-50,4.994486150568e-46,6.9860728033547e-06,-2.2905441879703e-05,231.70538938336,231.70538938336,231.35685717752,231.35685717752,265.37014074067,265.09964844384,265.23681258943,265.3246949608,202.16756873442,200.73696839837,201.16731434814,202.07078001553,230.91411074366,265.46584931333,265.02549411756,265.14171884859,265.39901178801,254.8381033545,254.59628941529,254.72866527784,254.83483256055,207.9967136545,207.20039482086,230.91411074366,207.45234156214,207.96640520316,272.99198642017,272.74363867519,272.87840768657,272.91281518878,208.22952078935,206.9709274669,207.25084417499,208.15941181422,278.30132844092,273.03003542789,272.71428770514,272.84067707662,272.9423465883,255.02217451871,254.45310549338,254.5456183319,254.97802398408,278.30132844092,278.18385269197,278.18385269197,231.26215317472,231.26215317472,391.74289900822,386.65273994008,0
0.00033325,162472873.5034,9.8323248453398e-05,1.0405146576864,5.3931036770285e-06,-3.4255035742518e-06,3.275641804666e-06,8.313044225446e-06,2.3954167589081e-20,-8.1980122452494e-19,-2.6245727376459e-20,1.4973722961717e-21,-35.225692864572,68.095396664234,-52.600588034279,38.643850283547,-1.1026637137076e-05,4.6760011446153e-21,2.7784023491395e-20,-5.381212560414e-20,-1.5081707649335e-21,5.2944120826461e-14,-6.3605715080376e-13,-5.9881186554655e-14,8.3110433198666e-15,-1.0405044059131,1.3989483642025,-1.2213065987911e-05,-1.4252573752335,1.0933428358212,1.874395087518e-28,-2.7883542020604e-26,-2.2208820073001e-28,3.6435238406569e-30,-1.1758008667443,1.2700018378449,-1.0152833841019,1.2743354061184,-1.3564846899676e-49,1.6492938126438e-29,1.9342471900958e-28,-5.1858048232854e-28,-3.4486371379563e-30,2.0001879658147e-14,7.0445300916162e-14,-1.0482668325001e-13,-8.7554275696025e-15,-8.4287271855914e-50,-2.3134172231014e-50,5.9658940455085e-46,7.1155763064988e-06,-2.3342818171863e-05,231.7354760428,231.7354760428,231.38620217173,231.38620217173,265.40446674278,265.13330814019,265.27091678779,265.35900108804,202.18342297909,200.74837940325,201.18040625437,202.08631993449,230.94226054479,265.50043407901,265.0590039699,265.17557163745,265.43347337521,254.87115096049,254.62873946209,254.7615931361,254.86801059409,208.01775561983,207.21917720976,230.94226054479,207.47208012934,207.98763984992,273.02708753309,272.77812738896,272.91329454518,272.94777254996,208.25116438075,206.98923991468,207.27023971402,208.18090087061,278.33682734349,273.0652396899,272.74871777668,272.87546486949,272.97736615877,255.05572069096,254.48526402432,254.57805963726,255.011501497,278.33682734349,278.21905474155,278.21905474155,231.29102408225,231.29102408225,391.7641833596,386.65438935971,0
0.0003335,162689324.3742,9.8397409883855e-05,1.0405567212782,5.5036305864915e-06,-3.5155393944609e-06,3.3495923782428e-06,8.4924461613447e-06,2.5426300920609e-20,-8.773634344126e-19,-2.8295344058516e-20,1.6305974355787e-21,-35.194003206868,68.119862158348,-52.600740677986,38.635743066362,-1.1205849221219e-05,4.9916762658775e-21,2.936849134491e-20,-5.7053898891386e-20,-1.6344759596309e-21,5.5238445870189e-14,-6.6672561209785e-13,-6.3131603971985e-14,8.8073605252045e-15,-1.040952308344,1.400714241766,-1.2442533630961e-05,-1.4260039420849,1.0941841030095,2.0351309042411e-28,-3.0644450689989e-26,-2.4629374148022e-28,4.1149753911558e-30,-1.1760825561215,1.2700949518756,-1.015459926929,1.2746338940643,-1.5873621353903e-49,1.8047010749141e-29,2.0915081171758e-28,-5.6237660502936e-28,-3.8441955293462e-30,2.0956823208309e-14,7.3221103758373e-14,-1.0928080259147e-13,-9.2805150763309e-15,-1.0210876455561e-49,-2.7024914097672e-50,7.1223558333852e-46,7.244196484516e-06,-2.3787010211998e-05,231.76558334081,231.76558334081,231.41556972347,231.41556972347,265.43879949883,265.16697590957,265.30502837326,265.39331368817,202.19930865897,200.75983318781,201.19353597319,202.10194113012,230.97043589434,265.53502499514,265.09252234376,265.20943248742,265.46794106183,254.90420939975,254.66120157698,254.79453224277,254.90119894065,208.03883850655,207.23800431338,230.97043589434,207.4918624746,208.00891522825,273.06219287724,272.81262145153,272.94818622046,272.98273408461,208.27284731906,207.00759899304,207.28968128325,208.20242862723,278.37232911827,273.10044795132,272.7831533825,272.91025775574,273.01238976351,255.08927652181,254.51743547615,254.61051346384,255.04498857806,278.37232911827,278.25425992355,278.25425992355,231.3199184353,231.3199184353,391.7855426542,386.65609722694,0
0.00033375,162905889.72352,9.8471571201243e-05,1.0405987807265,5.6157940862386e-06,-3.6071034463808e-06,3.4206301868455e-06,8.6741137937993e-06,2.6978249572137e-20,-9.3884252754049e-19,-3.0471070721059e-20,1.7670741643467e-21,-35.162791042774,68.14402294459,-52.601660926861,38.623372228709,-1.138779086168e-05,5.3235136750638e-21,3.1042187429442e-20,-6.0481160456873e-20,-1.7723912375345e-21,5.7602912254742e-14,-6.9882013240026e-13,-6.6512500199359e-14,9.3024957010074e-15,-1.0413995239457,1.4024483938563,-1.2675700504629e-05,-1.4267284133145,1.0950085081657,2.2090789128216e-28,-3.367124563833e-26,-2.7268777950609e-28,4.6151491490716e-30,-1.1764754964252,1.2702301252017,-1.015638361943,1.2749097426914,-1.8565271822864e-49,1.9714469280794e-29,2.2614272261766e-28,-6.0973042149392e-28,-4.2900166871691e-30,2.1945872693409e-14,7.6104579679157e-14,-1.139131017793e-13,-9.8383730883443e-15,-1.2329947736754e-49,-3.1564388290477e-50,8.4979190571237e-46,7.3723585604441e-06,-2.4239088023778e-05,231.79571140024,231.79571140024,231.44495998051,231.44495998051,265.47313914678,265.20065187655,265.33914750595,265.4276329058,202.21522489676,200.77132986424,201.20670307808,202.11755418011,230.99863691315,265.56962220565,265.12604936996,265.24330155426,265.50241498793,254.93727879651,254.69367587453,254.82748275435,254.93439774491,208.05996241514,207.25687621561,230.99863691315,207.51168882628,208.03023153179,273.09730260101,272.84712099519,272.983082874,273.01769993656,208.29456975125,207.0260048128,207.30916905838,208.22399526688,278.40783392443,273.13566036306,272.81759465751,272.94505589549,273.04741754479,255.12284214688,254.54961997515,254.64297995893,255.07848536269,278.40783392443,278.28946837854,278.28946837854,231.34883632593,231.34883632593,391.80702979657,386.6579175344,0
0.000334,163122572.11577,9.8545732361438e-05,1.040640835197,5.7297998909505e-06,-3.7008757090259e-06,3.4891872297997e-06,8.8579611416504e-06,2.8615040317964e-20,-1.0044866805497e-18,-3.2777932498033e-20,1.9067928908372e-21,-35.131833106949,68.168137353692,-52.602232393574,38.614563230644,-1.157221746026e-05,5.672634768776e-21,3.2809613331794e-20,-6.4104515613884e-20,-1.9226034486348e-21,6.0042057104652e-14,-7.3239050975242e-13,-7.0026202080381e-14,9.7972545605766e-15,-1.0418300283808,1.4041540716723,-1.2913009603114e-05,-1.4273643056928,1.0958194953518,2.3973540248126e-28,-3.6988888255305e-26,-3.01420491366e-28,5.1440680395795e-30,-1.1768340369403,1.2703710011387,-1.0157996932141,1.2751552934985,-2.170142443283e-49,2.1503821954837e-29,2.4449887061622e-28,-6.6092205157934e-28,-4.789897089766e-30,2.2971555319562e-14,7.9098461661483e-14,-1.1873204131476e-13,-1.0431954453728e-14,-1.4841728801701e-49,-3.6859870272445e-50,1.01335348954e-45,7.5003443004906e-06,-2.4698357025295e-05,231.82585952779,231.82585952779,231.47437221392,231.47437221392,265.50748503477,265.23433539759,265.37327351345,265.46195809494,202.23116952706,200.782868712,201.21990571416,202.13322454819,231.0268628663,265.60422505705,265.15958439468,265.27717816111,265.53689451161,254.97035848883,254.72616169715,254.86044398263,254.96760634069,208.08112662247,207.27579220266,231.0268628663,207.53155835146,208.05158799204,273.13241605734,272.88162538583,273.01798384495,273.05266947221,208.31633096297,207.04445663579,207.3287022249,208.24560007702,278.44334111265,273.17087627655,272.85204096272,272.9798586252,273.08244886968,255.15641690312,254.58181684585,254.67545842819,255.11199119516,278.44334111265,278.32467947911,278.32467947911,231.37777705944,231.37777705944,391.82859208883,386.65979707124,0
0.00033425,163339367.08513,9.8619893459338e-05,1.0406828847158,5.846051098613e-06,-3.7967984649632e-06,3.5565106480168e-06,9.04408791083e-06,3.0341588395269e-20,-1.0745485211321e-18,-3.5221106085794e-20,2.0502042470894e-21,-35.100650940208,68.192029392326,-52.604077324549,38.603708483117,-1.1759642077103e-05,6.040513811538e-21,3.4678123346914e-20,-6.7934505074793e-20,-2.0863304842586e-21,6.2560225408535e-14,-7.6749585273833e-13,-7.3675866516184e-14,1.0294982444875e-14,-1.0422520044844,1.4058287204015,-1.3154351459147e-05,-1.4279498893645,1.0966078316852,2.6011273434666e-28,-4.062321812015e-26,-3.3264520781095e-28,5.7028213267395e-30,-1.177211875534,1.2704832494572,-1.0159610215346,1.2753798793401,-2.5353884657039e-49,2.3425470464317e-29,2.6434760748429e-28,-7.1625087676133e-28,-5.3520707696769e-30,2.4037515384939e-14,8.2211257660513e-14,-1.2374463575128e-13,-1.1062668561538e-14,-1.7808962953271e-49,-4.3040969697989e-50,1.2076372382866e-45,7.6286072704438e-06,-2.5165165998791e-05,231.85602828862,231.85602828862,231.50380700393,231.50380700393,265.54183774278,265.26802703758,265.40740699179,265.4962898427,202.24714090644,200.79445025132,201.23314293118,202.1490245039,231.05511429665,265.63883413482,265.19312798454,265.31106289612,265.57138021588,255.00344904299,254.75865959918,254.89341651896,255.00082531343,208.1023316724,207.29475278669,231.05511429665,207.55147167899,208.07298522302,273.16753383594,272.91613519664,273.05288973186,273.08764327845,208.33813154609,207.06295498269,207.34828135806,208.26724367482,278.4788512809,273.20609628335,272.88649287167,273.01466654005,273.11748432314,255.19000136841,254.61402664666,254.70794944818,255.1455066538,278.4788512809,278.35989380775,278.35989380775,231.40674116726,231.40674116726,391.85025495019,386.66175854958,0
0.0003345,163556274.7096,9.8694054576225e-05,1.0407249315571,5.9651008215336e-06,-3.8957674269085e-06,3.6214055293169e-06,9.2327943449156e-06,3.2162550274106e-20,-1.1493850102252e-18,-3.7806583885573e-20,2.1971530427704e-21,-35.071426281431,68.214963498486,-52.607716093972,38.584456214261,-1.1950668124436e-05,6.4290397202827e-21,3.6651397795452e-20,-7.1983214910448e-20,-2.265524318111e-21,6.5160076623421e-14,-8.0426095110814e-13,-7.7466576278206e-14,1.079342694874e-14,-1.0427113281016,1.4074204171803,-1.3400011531606e-05,-1.4286539274916,1.0973814377496,2.8216360189977e-28,-4.4605649951464e-26,-3.6652518423793e-28,6.2923146856192e-30,-1.1776963538508,1.2705426319241,-1.0161594876521,1.2755669519911,-2.9606654310811e-49,2.5492305734643e-29,2.8577802900834e-28,-7.7605069494099e-28,-5.9862317944903e-30,2.5148554179622e-14,8.5446533685391e-14,-1.2896040135774e-13,-1.173682121838e-14,-2.1302235651008e-49,-5.0241282517084e-50,1.4382782605621e-45,7.7569396412053e-06,-2.5641762024874e-05,231.88621742734,231.88621742734,231.53326397661,231.53326397661,265.57619701205,265.30172652461,265.44154761839,265.53062786637,202.26313480419,200.80607415423,201.24641107681,202.16485198447,231.08339081694,265.67344918216,265.22667984393,265.34495543151,265.60587183837,255.0365501994,254.79116930524,254.92640002289,255.03405435899,208.12357734418,207.31375767035,231.08339081694,207.57142829297,208.09442285739,273.20265567345,272.9506501589,273.08780022858,273.12262108532,208.35997134031,207.08149948126,207.36790597208,208.28892586278,278.51436414782,273.24132012023,272.9209501057,273.04947933118,273.15252364255,255.22359528897,254.64624905754,254.74045267024,255.17903147638,278.51436414782,278.39511109987,278.39511109987,231.43572837161,231.43572837161,391.87210887365,386.66389376729,0
0.00033475,163773306.98043,9.8768215707833e-05,1.0407669760841,6.0875080705667e-06,-3.9980390795979e-06,3.6849603623198e-06,9.4239816260089e-06,3.4083764570764e-20,-1.2292943599522e-18,-4.0539358726438e-20,2.34794346034e-21,-35.043671931652,68.23739657827,-52.612398776298,38.567054868514,-1.2145018016634e-05,6.8409324112756e-21,3.8735388338235e-20,-7.6263105959674e-20,-2.4622433225424e-21,6.7845906683849e-14,-8.4273877018753e-13,-8.1400385831321e-14,1.1295191041857e-14,-1.0431860749337,1.4089460122755,-1.3650348307371e-05,-1.4293995217891,1.0981357820643,3.0603018649693e-28,-4.8968715859417e-26,-4.0322495949596e-28,6.9131999573791e-30,-1.1782063970643,1.2705500821987,-1.0163684884294,1.2757098792205,-3.4555214422099e-49,2.7722802735649e-29,3.089198724778e-28,-8.4066641426001e-28,-6.7040981900167e-30,2.6311258168183e-14,8.8808368645555e-14,-1.3439051070979e-13,-1.2459598649114e-14,-2.5401935839276e-49,-5.8629760033372e-50,1.7120075522683e-45,7.8854729424003e-06,-2.6127144457107e-05,231.91642572169,231.91642572169,231.56274190178,231.56274190178,265.61056172235,265.33543283017,265.47569425063,265.56497108748,202.27913959168,200.81773940651,201.25969952987,202.18070396303,231.11169128937,265.70806906206,265.26023894265,265.37885464174,265.64036830264,255.06966083508,254.82368976421,254.95939333019,255.06729235776,208.14486238403,207.33280580994,231.11169128937,207.59142678925,208.11589955138,273.23778045131,272.98516925587,273.12271420646,273.15760184435,208.38184895793,207.10008906971,207.38757476724,208.31064529449,278.54987859493,273.27654666227,272.95541164755,273.08429587672,273.18756578036,255.2571975077,254.67848302349,254.77296696386,255.21256454694,278.54987859493,278.43033033675,278.43033033675,231.46473754771,231.46473754771,391.8940905688,386.66613970764,0
0.000335,163990465.78613,9.8842376857555e-05,1.0408090177361,6.2147371485111e-06,-4.1044669400907e-06,3.7478038548971e-06,9.6175341718522e-06,3.6110965690397e-20,-1.3145943288095e-18,-4.342397854354e-20,2.5028524300055e-21,-35.017784336056,68.259359201131,-52.618281620679,38.550446179156,-1.2342640995465e-05,7.2818819448578e-21,4.0936398875588e-20,-8.0788269068695e-20,-2.6798513582376e-21,7.0620384100359e-14,-8.8299073471284e-13,-8.5478733994201e-14,1.180208589758e-14,-1.0436665233956,1.4103939144588,-1.3905820193138e-05,-1.4301633216854,1.0988624816268,3.3186690818884e-28,-5.3747586085492e-26,-4.4290761120454e-28,7.5664131691516e-30,-1.1786718012826,1.2704805300263,-1.016568383675,1.2757887052435,-4.0309627081948e-49,3.0152692178551e-29,3.3391143249266e-28,-9.1046989263542e-28,-7.5234924499001e-30,2.7540419783162e-14,9.2301555391374e-14,-1.4005122820792e-13,-1.3240538356069e-14,-3.0197597289281e-49,-6.8401666508979e-50,2.0367351310526e-45,8.0140182622969e-06,-2.6620802572509e-05,231.94665377745,231.94665377745,231.59224138448,231.59224138448,265.64493253018,265.36914665321,265.50984754064,265.59932019183,202.29511847273,200.82944669351,201.27299402701,202.19657843819,231.14001634568,265.74269442677,265.29380598003,265.41276118413,265.67487029511,255.10278159945,254.85622165837,254.99239708085,255.10053997389,208.16618737238,207.35189787842,231.14001634568,207.61146771009,208.13741587459,273.27290883096,273.01969319682,273.15763232539,273.19258625645,208.40376493535,207.1187244094,207.40728830673,208.33240254401,278.5853952872,273.31177656944,272.98987820686,273.11911683877,273.22261143791,255.29080866482,254.7107292269,254.80549297892,255.24610653029,278.5853952872,278.46555223206,278.46555223206,231.49376933028,231.49376933028,391.91614823778,386.66844450456,0
0.00033525,164207748.12014,9.8916538076324e-05,1.0408510553398,6.3522343461269e-06,-4.2168906778319e-06,3.8105438732711e-06,9.8132252839748e-06,3.8248867100118e-20,-1.4056287645001e-18,-4.6464170909901e-20,2.6624306023314e-21,-34.996395956391,68.280461795296,-52.626079473815,38.533601472379,-1.2543752504983e-05,7.7706538249895e-21,4.3261117662102e-20,-8.5575012791325e-20,-2.9238909044847e-21,7.3480768505807e-14,-9.2508825489055e-13,-8.9701777546467e-14,1.2316629294224e-14,-1.0441526563992,1.4116976301014,-1.4167213056125e-05,-1.4309267369516,1.0995410381646,3.5984197360423e-28,-5.8980651840164e-26,-4.8572982034213e-28,8.2541356331241e-30,-1.179027331585,1.2702771776004,-1.0167367092777,1.275740405108,-4.69963988792e-49,3.2892852341703e-29,3.6090086142243e-28,-9.858583615322e-28,-8.4725675627924e-30,2.8887214547896e-14,9.5931489252866e-14,-1.4596759735591e-13,-1.4096345244762e-14,-3.5787636601049e-49,-7.9782257320155e-50,2.4217758914529e-45,8.1414084237863e-06,-2.7122603636046e-05,231.97690213365,231.97690213365,231.62176296516,231.62176296516,265.67930998467,265.40286857066,265.54400804159,265.63367575937,202.31118904683,200.84119662466,201.28640612301,202.21247171174,231.16836652603,265.77732582769,265.32738153564,265.4466756131,265.70937839664,255.13591303656,254.8887655527,255.025411824,255.13379777633,208.1875528435,207.37103446182,231.16836652603,207.63155160487,208.15897240161,273.30804136548,273.05422256711,273.19255514114,273.22757490886,208.4257198019,207.13740607668,207.42704712275,208.35419819262,278.62091478166,273.34701039626,273.02435037054,273.15394277408,273.25766120328,255.32442930736,254.74298823636,254.83803126571,255.27965799601,278.62091478166,278.50077737776,278.50077737776,231.52282425548,231.52282425548,391.9382040508,386.670729399,0
0.0003355,164425147.71617,9.8990699308852e-05,1.0408930886261,6.4792278867213e-06,-4.3312927823528e-06,3.874206315812e-06,1.0012088526111e-05,4.0500297770664e-20,-1.502815888898e-18,-4.9671910438495e-20,2.8281011163221e-21,-34.968530670831,68.302368538345,-52.626270768896,38.518069947928,-1.2747770422829e-05,8.2450242220982e-21,4.57169928013e-20,-9.0629239903913e-20,-3.1922902842155e-21,7.6428733776889e-14,-9.6914002417297e-13,-9.4083573753388e-14,1.2844258256017e-14,-1.0446204035224,1.4129793041539,-1.443976762968e-05,-1.4316726613525,1.100242105052,3.9007072495861e-28,-6.4711834839061e-26,-5.3195266400736e-28,8.982215877064e-30,-1.1795538719687,1.2702591599864,-1.0169605050584,1.2757852879338,-5.476780698968e-49,3.5607563249224e-29,3.9005609467212e-28,-1.0672794509864e-27,-9.5546573811561e-30,3.0170348415933e-14,9.9703886891778e-14,-1.5210759493096e-13,-1.5008552532162e-14,-4.2295638003717e-49,-9.3043650641401e-50,2.8781679312726e-45,8.2679646216033e-06,-2.763318965586e-05,232.00717171449,232.00717171449,231.65130756481,231.65130756481,265.71369495724,265.43659949225,265.57817663263,265.6680387108,202.32737649032,200.85299029422,201.29985268918,202.2283757757,231.19674273816,265.81196414295,265.36096652365,265.48059880827,265.74389353057,255.16905602333,254.92132235237,255.05843844776,255.16706668478,208.20895977794,207.39021659786,231.19674273816,207.65167947172,208.18057019915,273.34317892383,273.08875828101,273.22748352717,273.26256872285,208.44771454659,207.15613507853,207.44685217334,208.37603332733,278.65643794777,273.38224901534,273.05882905565,273.18877455733,273.29271599977,255.35806032279,254.77526096283,254.87058271056,255.31321986674,278.65643794777,278.53600669429,278.53600669429,231.55190322712,231.55190322712,391.96044807151,386.67318512764,0
0.00033575,164642663.0997,9.906486041987e-05,1.0409351180926,6.6052125946669e-06,-4.4475344265679e-06,3.9360335968233e-06,1.0213870950978e-05,4.2897238973004e-20,-1.606531883565e-18,-5.3049904107074e-20,2.9976038492874e-21,-34.935462564357,68.324494273588,-52.62758067789,38.505909891585,-1.2954678911526e-05,8.7318365621005e-21,4.8311157880201e-20,-9.5966038032285e-20,-3.4874180097556e-21,7.9542544013474e-14,-1.0152077334481e-12,-9.8622657553053e-14,1.3374982422648e-14,-1.0450694674054,1.4144512140357,-1.4717618940661e-05,-1.4323285304575,1.1009712933212,4.2287037071582e-28,-7.0986861171436e-26,-5.8173032541662e-28,9.7434133864021e-30,-1.1800617555463,1.2702963707737,-1.0171770644626,1.2759057555242,-6.3788144836346e-49,3.8437281615805e-29,4.2154590383687e-28,-1.1551695490145e-27,-1.0789288159539e-29,3.1470384675622e-14,1.036241027106e-13,-1.5848219539746e-13,-1.5982152620341e-14,-4.9844300800781e-49,-1.0849169398344e-49,3.4189330841115e-45,8.4045861108498e-06,-2.8151700487143e-05,232.03746021348,232.03746021348,231.68087289234,231.68087289234,265.74808522986,265.47033716349,265.61235110802,265.70240682366,202.34359161002,200.86482506896,201.31332879699,202.24424461781,231.22514262547,265.84660715585,265.39455868112,265.51452854418,265.77841346487,255.20220831011,254.95388977779,255.09147472553,255.20034446188,208.23040573078,207.40944173539,231.22514262547,207.67184893268,208.20220685381,273.37831930771,273.12329810177,273.26241529045,273.29756548252,208.46974680652,207.17490889524,207.4667010274,208.39790556102,278.69196259844,273.41749022643,273.09331201967,273.22360998526,273.32777360525,255.39169947044,254.80754511649,254.90314505455,255.34678989253,278.69196259844,278.57123796123,278.57123796123,231.58100389662,231.58100389662,391.98288597906,386.67581671686,0
0.000336,164860296.86788,9.9139021353657e-05,1.0409771426905,6.7331087916784e-06,-4.5650138548803e-06,3.9962983353151e-06,1.0418172402831e-05,4.543280280888e-20,-1.717162598187e-18,-5.6601188121271e-20,3.1706061930724e-21,-34.904088561703,68.346751355842,-52.628584546075,38.4986255999,-1.3164372658229e-05,9.2400901520978e-21,5.1050572937949e-20,-1.0160119745953e-19,-3.8108674869131e-21,8.2783519321372e-14,-1.0633525162469e-12,-1.0331743106481e-13,1.3908160843932e-14,-1.0454960922494,1.415999395459,-1.5000539875592e-05,-1.4328830925856,1.1017119347366,4.5838313265912e-28,-7.7854662416243e-26,-6.35229367822e-28,1.0536354100884e-29,-1.1804091648786,1.2703199864194,-1.0173488393246,1.2760525245988,-7.4251685948802e-49,4.1431925695028e-29,4.5554702906188e-28,-1.250011638239e-27,-1.2190125219714e-29,3.2813148255972e-14,1.076963539847e-13,-1.6510757137005e-13,-1.7022133907454e-14,-5.8572322951307e-49,-1.26478967002e-49,4.0593634992361e-45,8.5456058259334e-06,-2.8677502525058e-05,232.06776737676,232.06776737676,231.71045875066,231.71045875066,265.78248070475,265.50408145614,265.64653138911,265.73677995169,202.3598326228,200.87670060584,201.32682872473,202.26016149952,231.25356602913,265.88125475982,265.42815788888,265.54846474997,265.81293804322,255.23536976916,254.98646768305,255.1245205501,255.23363094546,208.25189035888,207.42870955193,231.25356602913,207.69205980337,208.22388199846,273.41346244074,273.15784191015,273.29735036903,273.33256505412,208.49181620116,207.19372726793,207.48659349855,208.41981443296,278.72748867698,273.45273394961,273.12779914683,273.25844899894,273.36283388201,255.42534660539,254.8398405696,254.93571820568,255.38036789114,278.72748867698,278.60647105899,278.60647105899,231.61012605526,231.61012605526,392.00541519996,386.67852185634,0
0.00033625,165078043.3948,9.9213182126117e-05,1.0410191619012,6.863709511004e-06,-4.6936746186368e-06,4.0554295152458e-06,1.0625037106623e-05,4.8109327947169e-20,-1.8351675646797e-18,-6.032963573874e-20,3.3474620426156e-21,-34.873677056057,68.368875304736,-52.630401476405,38.489957905441,-1.337708442058e-05,9.7736791457241e-21,5.3944585940396e-20,-1.0754927494594e-19,-4.1878372504188e-21,8.6140318887218e-14,-1.1136802511943e-12,-1.0816943891519e-13,1.4445459704508e-14,-1.0459098726489,1.4175760146189,-1.5286096437548e-05,-1.4333601090334,1.102443203676,4.9680725557369e-28,-8.536967561292e-26,-6.9261569374077e-28,1.1362398631557e-29,-1.180761495881,1.2703569617217,-1.0175167538362,1.2761982421975,-8.6383808440041e-49,4.461541484143e-29,4.9227127721056e-28,-1.3523350535024e-27,-1.3892590685138e-29,3.4208823585872e-14,1.119286871898e-13,-1.7198291433158e-13,-1.8195349223427e-14,-6.8628729816918e-49,-1.4742344327463e-49,4.8173417209092e-45,8.6888722654325e-06,-2.9211414780038e-05,232.09809426628,232.09809426628,231.74006627571,231.74006627571,265.8168825142,265.53783347291,265.68071865262,265.77115921307,202.37609818219,200.88861792493,201.34033463428,202.2762217211,231.2820140764,265.91590809009,265.46176526578,265.5824086031,265.84746837148,255.26854150877,255.01905715795,255.157577089,255.2669272559,208.27341466211,207.44802104619,231.2820140764,207.71231335527,208.24559675388,273.44860947425,273.19239081723,273.33228994303,273.36756855485,208.51392375461,207.21259126496,207.50653079227,208.44176097822,278.76301735704,273.48798133791,273.16229155509,273.29329277936,273.39789794299,255.45900284058,254.87214844221,254.96830333111,255.41395495717,278.76301735704,278.64170710457,278.64170710457,231.6392707547,231.6392707547,392.0280315715,386.68129682075,0
0.0003365,165295899.864,9.9287342865636e-05,1.041061177168,6.9974997896877e-06,-4.8332575837439e-06,4.1140063714142e-06,1.0834592627476e-05,5.0932338284765e-20,-1.9610399907421e-18,-6.4237684045991e-20,3.529334479535e-21,-34.844306515348,68.390229512525,-52.636968499337,38.472710203576,-1.3593887234716e-05,1.033520010163e-20,5.7005783210731e-20,-1.1382634054388e-19,-4.6293060968618e-21,8.9610366095147e-14,-1.1663231621652e-12,-1.1317941480118e-13,1.4990951732587e-14,-1.046347546082,1.419121534024,-1.5572221235536e-05,-1.4338904590832,1.1031288405021,5.3837658054967e-28,-9.3589406405106e-26,-7.5402535251889e-28,1.2226658048585e-29,-1.1813144456388,1.2703052623423,-1.0177129893141,1.2763198230619,-1.0044636149202e-48,4.8005139172029e-29,5.3196965403988e-28,-1.4627186717525e-27,-1.5984683787417e-29,3.5663694411945e-14,1.1633560904986e-13,-1.7911286358995e-13,-1.9516064017497e-14,-8.0168138705748e-49,-1.718152402112e-49,5.7133743877511e-45,8.8334013502558e-06,-2.9755507635808e-05,232.12844084513,232.12844084513,231.76969546473,231.76969546473,265.85129066441,265.57159320765,265.71491292665,265.80554461863,202.39238404074,200.90057694342,201.35383747742,202.29229141303,231.31048674,265.95056715578,265.49538081057,265.61636012648,265.88200445332,255.30172351775,255.05165818285,255.19064436252,255.30023340013,208.29497854632,207.46737612487,231.31048674,207.73260962189,208.26735111828,273.48376042708,273.22694482627,273.36723404449,273.40257599742,208.53606940008,207.23150082434,207.5265128982,208.46374515735,278.79854866934,273.523232411,273.19678924937,273.32814135628,273.43296579781,255.4926681712,254.90446872497,255.00090044152,255.44755108411,278.79854866934,278.67694610947,278.67694610947,231.66843793903,231.66843793903,392.05079258524,386.6841990322,0
0.00033675,165513873.89934,9.9361503512072e-05,1.0411031879961,7.1346326298254e-06,-4.9779236101207e-06,4.1716659284923e-06,1.1046536392584e-05,5.3909933645052e-20,-2.0952541069567e-18,-6.8326580470288e-20,3.7169905098261e-21,-34.815949971562,68.410925759454,-52.647033066288,38.4575073474,-1.3814718926697e-05,1.0926883148744e-20,6.0243704000159e-20,-1.2045238754107e-19,-5.1417826228109e-21,9.3195834008923e-14,-1.221353825387e-12,-1.1834472571459e-13,1.5546316087146e-14,-1.0467999400981,1.4206150216106,-1.5860756649107e-05,-1.43439035499,1.1037531800469,5.8336457914325e-28,-1.0257754543347e-25,-8.1959325887633e-28,1.3133612596663e-29,-1.1818651207256,1.270123306302,-1.0179023532411,1.276397502478,-1.1673785998762e-48,5.1617695783284e-29,5.7488165222055e-28,-1.5817934560746e-27,-1.8548528249797e-29,3.7182370860837e-14,1.2092386395915e-13,-1.8651586436813e-13,-2.0980333424549e-14,-9.3362159444475e-49,-2.0021733744092e-49,6.772197290026e-45,8.9787508496619e-06,-3.0308886223488e-05,232.15880637743,232.15880637743,231.79934549847,231.79934549847,265.88570446176,265.6053600166,265.74911345993,265.83993549028,202.40868008826,200.91257699387,201.36751646546,202.30832994239,231.33898324191,265.98523125508,265.52900386174,265.65031857402,265.91654562521,255.33491510417,255.08427010048,255.2237215993,255.33354866439,208.3165812618,207.48677411922,231.33898324191,207.7529475657,208.28914421229,273.5189146005,273.26150330122,273.40218193855,273.43758672783,208.5582523542,207.25045523199,207.54653887622,208.48576619026,278.83408190027,273.55848646651,273.23129158612,273.36299399628,273.46803679769,255.52634189033,254.9368007274,255.03350877763,255.48115558813,278.83408190027,278.71218743873,278.71218743873,231.6976269105,231.6976269105,392.07360588646,386.68713553411,0
0.000337,165731962.81342,9.9435664297353e-05,1.0411451950586,7.2760801890488e-06,-5.1259702733614e-06,4.2269520114377e-06,1.1261946456914e-05,5.704058316697e-20,-2.2384125047747e-18,-7.2614123985096e-20,3.910186423915e-21,-34.788336019841,68.432012744407,-52.643427580525,38.447358992901,-1.4038920037904e-05,1.1551861573988e-20,6.3665479117797e-20,-1.274408881518e-19,-5.7774482923284e-21,9.6892684362343e-14,-1.2788907798431e-12,-1.2368683998075e-13,1.6109462369248e-14,-1.0472190092787,1.4220831262674,-1.6151189328151e-05,-1.4347717902567,1.1044540914743,6.3188282640821e-28,-1.1240956099564e-25,-8.8969090123834e-28,1.4083483442054e-29,-1.1824080757315,1.2701267073624,-1.0180578958271,1.276459567277,-1.3560721857888e-48,5.5472639774284e-29,6.2124712390254e-28,-1.7101334359172e-27,-2.1959897514022e-29,3.8773203794704e-14,1.2569409242649e-13,-1.9419709237771e-13,-2.2682857395759e-14,-1.0843715487676e-48,-2.3329461678511e-49,8.0235621120937e-45,9.1255078268342e-06,-3.0870883422811e-05,232.18919189704,232.18919189704,231.82901740646,231.82901740646,265.92012493136,265.63913495288,265.78332127502,265.87433288664,202.42494485671,200.92461920962,201.38123116017,202.32442777805,231.3675046047,266.0199014162,265.56263547235,265.68428496743,265.95109294793,255.36811729192,255.11689395505,255.2568098218,255.36687409913,208.33822383518,207.50621611289,231.3675046047,207.77332823578,208.31097714023,273.55407302025,273.29606730187,273.43713464856,273.47260180985,208.58047365406,207.26945558403,207.56660976882,208.50782518306,278.86961807516,273.59374453169,273.26579962536,273.3978517227,273.50311200756,255.56002502703,254.96914549307,255.06612935958,255.51476952296,278.86961807516,278.74743215834,278.74743215834,231.72683869286,231.72683869286,392.09659423382,386.69023054504,0
0.00033725,165950170.14391,9.950982527389e-05,1.0411871985271,7.4232515662725e-06,-5.2807098531693e-06,4.2876301095813e-06,1.1480007173231e-05,6.0311790793438e-20,-2.3910732820402e-18,-7.7096063169583e-20,4.1294311326564e-21,-34.764906641426,68.452790240625,-52.642730066775,38.434743462716,-1.4267497567538e-05,1.2213399836314e-20,6.7283354866481e-20,-1.3480884403434e-19,-6.5203931904598e-21,1.0065396162304e-13,-1.3390402029135e-12,-1.2919497704046e-13,1.6744150640446e-14,-1.0476236322358,1.4233865011154,-1.644476089335e-05,-1.4351215941281,1.1051605759437,6.8410248236418e-28,-1.2316100308284e-25,-9.6438334304723e-28,1.5173329468863e-29,-1.1829717167366,1.2702001959595,-1.0181717520101,1.2764509251966,-1.5745281106699e-48,5.9582676319119e-29,6.7134693133225e-28,-1.8484361077504e-27,-2.6185165194979e-29,4.0448242219466e-14,1.3065941922689e-13,-2.0216018946217e-13,-2.4584236476113e-14,-1.2558895040403e-48,-2.7179526400872e-49,9.5015251373434e-45,9.2675516515107e-06,-3.1441883573117e-05,232.21959589964,232.21959589964,231.85870959887,231.85870959887,265.95455065574,265.67291655284,265.81753490891,265.9087353228,202.44128430251,200.9367018782,201.39497885302,202.34068039828,231.3960492418,266.05457621522,265.59627415871,265.71825784062,265.98564494723,255.40132864695,255.14952827505,255.28990753328,255.40020819436,208.35990480396,207.52570052054,231.3960492418,207.79374987304,208.33284816052,273.58923427648,273.33063536905,273.47209073584,273.50761977442,208.60273186159,207.28850017814,207.58672383314,208.52992056744,278.90515577915,273.62900519284,273.30031189885,273.43271309431,273.53818996116,255.59371613806,255.00150151362,255.09876068795,255.54839140382,278.90515577915,278.78267880972,278.78267880972,231.75607179459,231.75607179459,392.11969110371,386.6934160627,0
0.0003375,166168496.75984,9.9583986388447e-05,1.0412292002422,7.5751817219925e-06,-5.4403031219867e-06,4.3566087105973e-06,1.1700986065602e-05,6.378003788807e-20,-2.5539450145258e-18,-8.1772888466551e-20,4.3713564999359e-21,-34.738591303693,68.473031552447,-52.645021060568,38.41528056987,-1.4500509500978e-05,1.2917719727223e-20,7.1108689768837e-20,-1.4257444450139e-19,-7.2479646628185e-21,1.0460029735994e-13,-1.4019765312648e-12,-1.3486922824133e-13,1.743903497733e-14,-1.0480386916804,1.4246697733563,-1.6740883987923e-05,-1.4356569677948,1.1058812804975,7.4061922817795e-28,-1.3491983912357e-25,-1.04376242186e-27,1.639394890755e-29,-1.1837152632709,1.2703188773859,-1.0183854519905,1.2764561880133,-1.8273629020628e-48,6.4015476074305e-29,7.2546482445269e-28,-1.9975088289866e-27,-3.0418022024176e-29,4.2210602171389e-14,1.358295427802e-13,-2.1039604495581e-13,-2.6442618207061e-14,-1.4501633883492e-48,-3.1657198320119e-49,1.1246377489524e-44,9.4172624744717e-06,-3.2023515536548e-05,232.25001910547,232.25001910547,231.88842274671,231.88842274671,265.9889823846,265.7067055746,265.85175508477,265.94314354132,202.45774752104,200.94882572704,201.4087584675,202.35695973176,231.42461783034,266.08925639631,265.62992066711,265.75223791605,266.02020237128,255.43454991606,255.1821738121,255.32301544239,255.43355167481,208.3816249596,207.54522811728,231.42461783034,207.8142130435,208.35475791799,273.6243991193,273.36520826484,273.50705093426,273.54264137586,208.62502775292,207.30758968872,207.60688164689,208.55205309816,278.94069575727,273.66426919713,273.33482916334,273.46757884395,273.57327141413,255.62741596126,255.03386951854,255.13140347189,255.58202196913,278.94069575727,278.81792815567,278.81792815567,231.78532695399,231.78532695399,392.14300826401,386.69680372945,0
0.00033775,166386952.44802,9.9658147496811e-05,1.0412712010451,7.7295424158134e-06,-5.5961510998373e-06,4.4223223165036e-06,1.1924781369166e-05,6.7500482155739e-20,-2.7276204994375e-18,-8.6641996363675e-20,4.6009648191907e-21,-34.706714635172,68.493250410119,-52.64884320856,38.399087099767,-1.473695491241e-05,1.3666967655182e-20,7.5152014933735e-20,-1.5076165463627e-19,-7.9825646003887e-21,1.0883241222967e-13,-1.4677815956408e-12,-1.4070482724762e-13,1.8087774079895e-14,-1.0484512067082,1.4261298840843,-1.7038261569899e-05,-1.4362719240418,1.1066426797527,8.0208433099335e-28,-1.4777488725265e-25,-1.127876330156e-27,1.75776459777e-29,-1.1844972880302,1.270450778472,-1.018707701127,1.2765436755255,-2.1197807546751e-48,6.8814856716547e-29,7.8391199511648e-28,-2.1581864884839e-27,-3.4829666713276e-29,4.4052526166602e-14,1.4120841262284e-13,-2.189197475114e-13,-2.8282791358769e-14,-1.6692308473141e-48,-3.6864137334888e-49,1.3305168108404e-44,9.5838522664785e-06,-3.2614910994045e-05,232.28046006104,232.28046006104,231.91815535447,231.91815535447,266.0234187821,265.74050072707,265.88598042559,265.97755620082,202.47421692122,200.96098930709,201.42256552587,202.37326308051,231.45320894291,266.12394060753,265.66357369497,265.78622382823,266.05476388564,255.467779755,255.21482925628,255.35613214169,255.46690315822,208.40338280672,207.56479750907,231.45320894291,207.83471603635,208.37670474295,273.65956621614,273.39978470744,273.54201388795,273.57766530194,208.6473597335,207.32672266853,207.62708157471,208.57422113661,278.97623667272,273.69953520513,273.36935013198,273.5024476197,273.60835505645,255.66112312185,255.06624817664,255.16405632802,255.61565985159,278.97623667272,278.85317891132,278.85317891132,231.8146027967,231.8146027967,392.16654778174,386.70039765237,0
0.000338,166605541.6785,9.9732308638311e-05,1.0413132010136,7.8871284700922e-06,-5.7478629407265e-06,4.4860622290471e-06,1.2151028278539e-05,7.1447175443499e-20,-2.9127459196879e-18,-9.169854239011e-20,4.8217707059413e-21,-34.678390049625,68.512987608271,-52.653784638706,38.384431246828,-1.4977200723648e-05,1.4460787769782e-20,7.9425719920832e-20,-1.5938826595379e-19,-8.7417938214151e-21,1.1325001137945e-13,-1.5365555284632e-12,-1.4669466313789e-13,1.8706276478179e-14,-1.0488653810967,1.4275989022498,-1.7336408628186e-05,-1.4369204392659,1.1073987815718,8.686945375191e-28,-1.6182312753047e-25,-1.2167243264611e-27,1.8731870789845e-29,-1.1852628011892,1.2705591081865,-1.0190667925878,1.2766330492747,-2.4577515371532e-48,7.3960622728954e-29,8.4703285069652e-28,-2.331277260201e-27,-3.9550044256395e-29,4.5980679131471e-14,1.4680472499438e-13,-2.2773731040183e-13,-3.0137264632796e-14,-1.9151007787926e-48,-4.2917790114071e-49,1.5733001488654e-44,9.7530979466897e-06,-3.3215730745381e-05,232.31091852437,232.31091852437,231.94790718399,231.94790718399,266.05785973873,265.77430190351,265.92021081289,266.01197317248,202.49072161084,200.97319224469,201.43639435859,202.38958803692,231.48182237729,266.15862873283,265.69723313538,265.82021546568,266.08932936236,255.50101803035,255.24749447794,255.38925748255,255.50026248629,208.42517796786,207.58440837213,231.48182237729,207.85525851136,208.39868822841,273.69473547255,273.43436460314,273.5769794981,273.61269144458,208.66972739318,207.34589882605,207.6473232942,208.59642423414,279.01177844028,273.73480311992,273.40387471103,273.53731932558,273.6434407805,255.69483747334,255.09863735808,255.19671912138,255.6493048938,279.01177844028,278.88843098687,278.88843098687,231.84389911685,231.84389911685,392.19021364745,386.70410226136,0
0.00033825,166824264.85007,9.9806469769228e-05,1.0413551996507,8.0481716068424e-06,-5.8947340312224e-06,4.5482425397875e-06,1.2379640775931e-05,7.5618663886321e-20,-3.1100078185203e-18,-9.6935852905457e-20,5.0364131173065e-21,-34.650133967586,68.532464357981,-52.659655694526,38.37079136448,-1.5221275719468e-05,1.5303802545823e-20,8.3943069864538e-20,-1.6847767013315e-19,-9.5320863062286e-21,1.1782400362118e-13,-1.6084062126581e-12,-1.5283184983996e-13,1.9303794364222e-14,-1.0492789852929,1.4290567203368,-1.7635971947867e-05,-1.4375641318523,1.1081361325849,9.4079266297874e-28,-1.7716962813521e-25,-1.3102413203292e-27,1.9865834337317e-29,-1.1859857891206,1.270629315233,-1.0194233504478,1.2767139277311,-2.8481400919866e-48,7.9491850101542e-29,9.1520102084852e-28,-2.5176992894405e-27,-4.4643157054565e-29,4.8003278417243e-14,1.5262746301459e-13,-2.3686351291784e-13,-3.2014422674481e-14,-2.189569391635e-48,-4.9954659344051e-49,1.8594288431554e-44,9.921301773961e-06,-3.3825792398423e-05,232.34139547939,232.34139547939,231.9776792211,231.9776792211,266.09230630022,265.80811016752,265.95444728722,266.04639550455,202.50730422608,200.98543554518,201.45022933168,202.40593200884,231.5104591425,266.19332181358,265.73090005213,265.85421387424,266.12389985034,255.53426577802,255.28017052759,255.42239249111,255.53363068954,208.44701139379,207.60406171834,231.5104591425,207.87584142935,208.4207093177,273.72990794076,273.46894902303,273.61194881478,273.64772086482,208.69213165241,207.36511916798,207.66760776452,208.61866331818,279.04732211644,273.7700739922,273.43840397185,273.57219501389,273.6785296478,255.72856004251,255.13103811335,255.22939288786,255.68295812696,279.04732211644,278.92368545521,278.92368545521,231.87321692445,231.87321692445,392.21397925147,386.70789070534,0
0.0003385,167043119.28854,9.9880630738632e-05,1.0413971957954,8.2120098409244e-06,-6.0375877197135e-06,4.6091725435389e-06,1.2610547112096e-05,8.0022296584658e-20,-3.3201055976688e-18,-1.0234113582037e-19,5.2474308539458e-21,-34.618599230057,68.552331806392,-52.667173561946,38.358240484035,-1.5468791469793e-05,1.6199475245327e-20,8.8717940117133e-20,-1.7805938778912e-19,-1.035908107356e-20,1.2254698364742e-13,-1.6834350259069e-12,-1.5910467386734e-13,1.9887969100402e-14,-1.0496884459707,1.430542269111,-1.7938569882329e-05,-1.43817172043,1.108847301489,1.0188003512701e-27,-1.9392638942547e-25,-1.4082162630431e-27,2.0990629875532e-29,-1.1866614079035,1.270646281739,-1.0197400831851,1.2768140681028,-3.2988470628267e-48,8.5451989978728e-29,9.8882099974272e-28,-2.7184987834751e-27,-5.0163256830375e-29,5.0121033286459e-14,1.5868487936069e-13,-2.4632201373406e-13,-3.3925036841326e-14,-2.4939060912237e-48,-5.8133567026399e-49,2.1964024511003e-44,1.0087122395896e-05,-3.444482184408e-05,232.37189115898,232.37189115898,232.00747172423,232.00747172423,266.12675873669,265.84192579677,265.98869013368,266.08082348173,202.52391303695,200.99771943983,201.46405873826,202.42228555413,231.53911949156,266.22802012164,265.76457472829,265.88821933881,266.15847563043,255.56752325566,255.31285766955,255.45553744552,255.5670080448,208.46888327038,207.62375776721,231.53911949156,207.89646508538,208.44276827514,273.76508390013,273.50353825374,273.64692212681,273.68275385266,208.71457270689,207.38438394212,207.68793525002,208.64093862136,279.08286798982,273.80534810224,273.4729382034,273.60707497366,273.71362194707,255.76229108978,255.16345071685,255.26207790453,255.71661981953,279.08286798982,278.95894260957,278.95894260957,231.9025564468,231.9025564468,392.23785044763,386.71176836792,0
0.00033875,167262098.75725,9.9954791500277e-05,1.0414391881246,8.3785439117632e-06,-6.1765704417293e-06,4.6690501703684e-06,1.2843153347903e-05,8.467187445247e-20,-3.5438458783146e-18,-1.0788927892827e-19,5.4566296355789e-21,-34.588566258181,68.571966716615,-52.676727241579,38.346753278636,-1.571985398253e-05,1.7147677840652e-20,9.3766279893608e-20,-1.8815864732167e-19,-1.1226421825865e-20,1.2742307342368e-13,-1.7617764193902e-12,-1.654894931028e-13,2.0463961439665e-14,-1.0500993861738,1.4320056586791,-1.8245637130287e-05,-1.4387281895463,1.1095022582723,1.1032429918992e-27,-2.1221937598303e-25,-1.5101671232263e-27,2.2114552910215e-29,-1.1872568571986,1.2705803291253,-1.0200216579874,1.2769019159601,-3.8188745115275e-48,9.1833054023023e-29,1.0683387706208e-27,-2.9347333247955e-27,-5.6155095704499e-29,5.2335038884143e-14,1.6498858059432e-13,-2.5612774482754e-13,-3.5874380331636e-14,-2.8283196714297e-48,-6.763805403685e-49,2.5930592966056e-44,1.0250515721338e-05,-3.5072907655397e-05,232.40240542212,232.40240542212,232.03728463221,232.03728463221,266.16121694272,265.87574867239,266.0229393006,266.1152570294,202.54054625472,201.01004367324,201.47804289919,202.4386250967,231.56780331511,266.26272356259,265.79825706127,265.92223179911,266.19305661419,255.6007903325,255.34555576412,255.48869229286,255.60039448061,208.49079331674,207.64349623333,231.56780331511,207.91712953023,208.46486505981,273.80026326479,273.53813219195,273.68189938069,273.71779032972,208.73705035281,207.40369298413,207.70830572893,208.66325001194,279.11841599683,273.84062536879,273.50747730898,273.64195914828,273.74871759484,255.79603050538,255.19587506058,255.29477410082,255.75028987181,279.11841599683,278.9942023632,278.9942023632,231.93191748863,231.93191748863,392.26176031369,386.71566796148,0
0.000339,167481196.1342,0.0001000289522576,1.0414811771433,8.5487394837045e-06,-6.3098838954869e-06,4.7283195958878e-06,1.3078239737193e-05,8.9570529367125e-20,-3.7822109008369e-18,-1.1356622921854e-19,5.6655115659218e-21,-34.559210676912,68.592188150077,-52.672724732514,38.338995224397,-1.597392266637e-05,1.8152726932284e-20,9.9099030297641e-20,-1.9879021758229e-19,-1.2138800332849e-20,1.3245243541591e-13,-1.8436019298833e-12,-1.7198449363796e-13,2.1036409313818e-14,-1.0504705253287,1.4334652950903,-1.8553020394058e-05,-1.439230050283,1.1102388388739,1.1944006065213e-27,-2.3219714863805e-25,-1.6156686177656e-27,2.3244124318811e-29,-1.187748727269,1.2706529756827,-1.020272212876,1.2770047046571,-4.4186212124447e-48,9.8658195079273e-29,1.1541710806997e-27,-3.1673463675817e-27,-6.2682913138696e-29,5.4656241143241e-14,1.715412961157e-13,-2.6627350518156e-13,-3.786516968168e-14,-3.1923629209589e-48,-7.8679798288521e-49,3.0600325343087e-44,1.0412349174568e-05,-3.5709537173003e-05,232.43293899582,232.43293899582,232.06711875201,232.06711875201,266.19568164419,265.90957952406,266.05719556567,266.14969691657,202.55720191447,201.02240899604,201.49205013413,202.45508433155,231.5965113769,266.29743287219,265.83194779685,265.95625202591,266.22764355742,255.63406771989,255.37826552711,255.52185781874,255.63379077445,208.51274217979,207.66327779886,231.5965113769,207.93783573635,208.48700057402,273.83544677336,273.57273157822,273.71688134648,273.75283105839,208.75956529128,207.42304707506,207.72872009285,208.68559829442,279.15396689391,273.87590653476,273.54202203586,273.67684830555,273.78381734878,255.82977901896,255.22831189131,255.32748224752,255.78396903384,279.15396689391,279.0294654694,279.0294654694,231.96130073171,231.96130073171,392.28585008001,386.71973225613,0
0.00033925,167700414.08374,0.00010010311311915,1.041523164535,8.7229818634351e-06,-6.4512204011982e-06,4.7877154551366e-06,1.3313616166492e-05,9.473447876928e-20,-4.0360948326726e-18,-1.1926500349645e-19,5.8762631074425e-21,-34.530560434588,68.612046774586,-52.673231138377,38.325594671565,-1.623232518964e-05,1.9220234573718e-20,1.0474217685098e-19,-2.0998178254278e-19,-1.3126913377224e-20,1.3764494817733e-13,-1.92908757557e-12,-1.7849351711231e-13,2.1611725164316e-14,-1.0508383474709,1.4348798677198,-1.886183444098e-05,-1.4397511322026,1.1109802474783,1.2928575918267e-27,-2.5400233017542e-25,-1.7223759951241e-27,2.4389991681553e-29,-1.1883087269904,1.2707332559115,-1.0205276000388,1.2771029155429,-5.110070796388e-48,1.0595973364725e-28,1.2469229102892e-27,-3.4175734816415e-27,-6.9939703487743e-29,5.7096846288348e-14,1.7837081372972e-13,-2.7677195547373e-13,-3.998645149439e-14,-3.5778988942059e-48,-9.1510934321528e-49,3.6091453278748e-44,1.0573207047802e-05,-3.6356517639026e-05,232.46349014895,232.46349014895,232.09697231376,232.09697231376,266.23015121035,265.94341666767,266.09145728052,266.18414144506,202.57387283541,201.034813471,201.50602411257,202.47156248914,231.62524191559,266.33214641601,265.86564524347,265.99027837164,266.2622347667,255.66735376425,255.41098526445,255.55503234362,255.66719520991,208.53472813024,207.68310062836,231.62524191559,207.95858187266,208.50917290488,273.87063280896,273.60733473412,273.75186639679,273.78787435251,208.78211581642,207.44244432376,207.74917649924,208.70798164856,279.18951907007,273.91118998137,273.57657070231,273.71174081798,273.8189195241,255.86353497115,255.26075950093,255.36020066761,255.81765560038,279.18951907007,279.06473025126,279.06473025126,231.99070445319,231.99070445319,392.31013457239,386.72397354204,0
0.0003395,167919761.59449,0.00010017727409376,1.0415651509708,8.9013968327838e-06,-6.5956186222561e-06,4.8470821267969e-06,1.3535629682257e-05,1.0018230832986e-19,-4.306401383265e-18,-1.2436583384316e-19,6.0897809483375e-21,-34.502910056998,68.630825324279,-52.677732218155,38.313860607296,-1.6495421672205e-05,2.0357311378409e-20,1.1071908443222e-19,-2.2176423273504e-19,-1.4177320847449e-20,1.4301199784306e-13,-2.0183524451902e-12,-1.8446322028037e-13,2.2191838388816e-14,-1.0512123089917,1.436173633459,-1.9173251520392e-05,-1.4402480904398,1.1116187535734,1.3992552395349e-27,-2.7779349578297e-25,-1.8163716547574e-27,2.5557064815987e-29,-1.1888836002741,1.270824132551,-1.0207569146177,1.2771708603004,-5.9069062724298e-48,1.1376962011751e-28,1.3471892791652e-27,-3.6867394832126e-27,-7.7879223173254e-29,5.9672645358453e-14,1.8549987434353e-13,-2.8764013432864e-13,-4.2196117848971e-14,-3.9254445316782e-48,-1.0641948336456e-48,4.254498523528e-44,1.0733239252323e-05,-3.7012474353628e-05,232.4940586434,232.4940586434,232.12684497396,232.12684497396,266.26462547779,265.97725994922,266.12572421285,266.21859041168,202.59053580256,201.04725683558,201.52015629299,202.48805092802,231.65399464083,266.36686401876,265.89934922586,266.02431061218,266.29683005641,255.70064829953,255.44371481471,255.58821560418,255.700607548,208.55675097116,207.70296452171,231.65399464083,207.97936736038,208.53138159241,273.90582120555,273.64194150842,273.78685432325,273.82292003383,208.80470170368,207.46188443893,207.76967446562,208.73039975945,279.22507234452,273.94647553733,273.61112314821,273.7466364798,273.85402394882,255.89729817416,255.29321768751,255.39292911559,255.85134936884,279.22507234452,279.09999655264,279.09999655264,232.02012846659,232.02012846659,392.33452574444,386.72830350293,0
0.00033975,168139242.24026,0.00010025143513506,1.0416071356833,9.0833490849297e-06,-6.7413098444567e-06,4.9068655832439e-06,1.3780026105481e-05,1.0593407297698e-19,-4.5941312860125e-18,-1.3012884719073e-19,6.3074996895499e-21,-34.477525254867,68.649967570788,-52.678562269143,38.303567025564,-1.6764845021787e-05,2.1573250536305e-20,1.1706763488596e-19,-2.3416466498493e-19,-1.5286515174938e-20,1.4856575724013e-13,-2.1115400771416e-12,-1.9105793436416e-13,2.2780656844661e-14,-1.0515485647456,1.4375135182247,-1.9487875485292e-05,-1.4407207514277,1.1124030638903,1.5143167275984e-27,-3.0374611022917e-25,-1.9254302468359e-27,2.6753132259643e-29,-1.1894436563053,1.2708975619597,-1.0209261952096,1.2771560971294,-6.8243087133299e-48,1.22051217399e-28,1.455672552014e-27,-3.9761479396407e-27,-8.6510425460247e-29,6.2413810183736e-14,1.9298531283666e-13,-2.9889057554087e-13,-4.4480328187346e-14,-4.3522873387892e-48,-1.2373247515861e-48,5.0126557137732e-44,1.0893516622976e-05,-3.7679074313451e-05,232.52464541643,232.52464541643,232.1567376531,232.1567376531,266.29910542485,266.01111036994,266.15999732367,266.25304479186,202.60724713402,201.05974017957,201.53432251176,202.50453760081,231.68277050504,266.40158664877,265.9330607389,266.05834971283,266.33143040252,255.73395230365,255.47645517382,255.62140855041,255.73402874851,208.57881169169,207.72287052392,231.68277050504,208.00019307745,208.55362754419,273.94101294106,273.67655290425,273.82184609446,273.85796908946,208.82732391539,207.48136844054,207.79021490334,208.75285357514,279.26062769231,273.98176417591,273.64568037349,273.78153626057,273.8891316095,255.93106958809,255.32568743607,255.42566855166,255.88505130224,279.26062769231,279.1352653726,279.1352653726,232.04957375092,232.04957375092,392.35901555858,386.73271596813,0
0.00034,168358851.88862,0.00010032559615017,1.0416491173687,9.2801176058195e-06,-6.887496518067e-06,4.9672307162487e-06,1.4034466818354e-05,1.1200875262786e-19,-4.900325546703e-18,-1.3648815814478e-19,6.5306402602787e-21,-34.450528774871,68.669477147446,-52.679667980809,38.295505754873,-1.703960193302e-05,2.293007339468e-20,1.2378399910932e-19,-2.4722023673407e-19,-1.6453899158595e-20,1.5431646890577e-13,-2.2087870574518e-12,-1.9817926429818e-13,2.3381152543743e-14,-1.0518604975334,1.438852898908,-1.9806329545726e-05,-1.4411288131475,1.1132223187668,1.6387659723349e-27,-3.3204889409821e-25,-2.0484221100531e-27,2.7985103518718e-29,-1.1899557019168,1.2709870002761,-1.0211162311877,1.2771500180882,-7.8801983698868e-48,1.3144881221083e-28,1.57288242998e-27,-4.2873663897988e-27,-9.5858208943333e-29,6.5426805452595e-14,2.0077954165286e-13,-3.1054469462267e-13,-4.6833848419567e-14,-4.858951535155e-48,-1.4383524118646e-48,5.9029058409126e-44,1.1054165962922e-05,-3.8355345229482e-05,232.55525049373,232.55525049373,232.18665034987,232.18665034987,266.33359109285,266.04496796051,266.19427664887,266.28750462673,202.62402020517,201.07226336265,201.54852213452,202.52112044399,231.71156948404,266.43631435525,265.96677981295,266.09239570821,266.36603585315,255.76726580626,255.50920636161,255.65461120706,255.76745884234,208.60091031793,207.74281861528,231.71156948404,208.02105897527,208.57591076862,273.9762080642,273.71116896087,273.85684175461,273.89302156644,208.84998249576,207.5008962318,207.81079771996,208.77534314864,279.29618516586,274.01705594985,273.68024241829,273.81644020496,273.92424255684,255.96484925568,255.35816876282,255.45841899543,255.91876144306,279.29618516586,279.17053675984,279.17053675984,232.07904030363,232.07904030363,392.38358394902,386.73719062747,0
0.00034025,168578583.51025,0.00010039975721109,1.041691096854,9.4920226528819e-06,-7.0307680571174e-06,5.0288960770622e-06,1.4298660478369e-05,1.1842221552033e-19,-5.2261786604476e-18,-1.4342462449103e-19,6.7618060484199e-21,-34.422081741269,68.689072316317,-52.682445336722,38.281371877234,-1.7318100284477e-05,2.4426027670273e-20,1.3085724262797e-19,-2.6096607298082e-19,-1.7676275162633e-20,1.6027047689704e-13,-2.3103287068803e-12,-2.0581656225009e-13,2.4000345297226e-14,-1.0521866830571,1.4401687701768,-2.0128342070135e-05,-1.4415814076969,1.1140499922045,1.7733190883793e-27,-3.6290327492281e-25,-2.1849856333715e-27,2.9267300589782e-29,-1.1905049664399,1.2710839028675,-1.0214194172624,1.2772153260927,-9.0954031659436e-48,1.4218139486499e-28,1.6992885302172e-27,-4.6220534921823e-27,-1.0594893551482e-28,6.8676224656698e-14,2.0882509398881e-13,-3.2261729469931e-13,-4.923782061415e-14,-5.4497173265627e-48,-1.6716700216536e-48,6.9471303315637e-44,1.1215321739611e-05,-3.904346343686e-05,232.58587406264,232.58587406264,232.21658328143,232.21658328143,266.36808268433,266.07883290231,266.22856241703,266.32197012956,202.64078544038,201.08482640735,201.5627546033,202.53772519039,231.74039174106,266.47104734878,266.00050663379,266.12644881692,266.40064661524,255.80058899293,255.54196854707,255.6878237995,255.80089804419,208.62304698653,207.76280888006,231.74039174106,208.04196532848,208.59823152765,274.01140678986,273.74578986955,273.89184153336,273.92807767538,208.8726776363,207.52046790092,207.831423104,208.79786871823,279.33174499178,274.05235107699,273.71480947545,273.85134853856,273.95935699879,255.99863737889,255.39066184562,255.49118065273,255.95247999406,279.33174499178,279.20581091755,279.20581091755,232.10852826584,232.10852826584,392.40832295995,386.74181922336,0
0.0003405,168798441.51652,0.00010047391837656,1.0417330742767,9.7053219668478e-06,-7.1722634912052e-06,5.091882538312e-06,1.4569837782576e-05,1.2519561121828e-19,-5.5729590262186e-18,-1.5091262795737e-19,7.0022359586715e-21,-34.396944956796,68.7082826645,-52.686062967347,38.268223271925,-1.7600957683898e-05,2.6009607662548e-20,1.3832022580314e-19,-2.7543369721372e-19,-1.8956470406597e-20,1.6643516743545e-13,-2.416345899854e-12,-2.1393076520179e-13,2.4640703856192e-14,-1.0525192165801,1.4414120619128,-2.0453827875544e-05,-1.4420367514298,1.1148548487276,1.9188464118829e-27,-3.9654038261228e-25,-2.3349066269409e-27,3.0607813497211e-29,-1.1910593779563,1.2711653677206,-1.0217800731234,1.2772471311548,-1.0493107254479e-47,1.5382936418326e-28,1.8357010109409e-27,-4.9818502967332e-27,-1.1682649248778e-28,7.2045124150382e-14,2.1716361342212e-13,-3.3511963742174e-13,-5.1698503244671e-14,-6.1312161131239e-48,-1.9424439734059e-48,8.1717398863092e-44,1.1376477604667e-05,-3.9742885988462e-05,232.61651497565,232.61651497565,232.24653524655,232.24653524655,266.40257911697,266.1127041301,266.26285351062,266.35644022037,202.65758311958,201.09742803444,201.57701720789,202.55434785638,231.76923608658,266.50578454237,266.03424012241,266.16050792051,266.43526161705,255.83392077056,255.57474064766,255.72104518746,255.83434524425,208.64522047835,207.78284011404,231.76923608658,208.06291076658,208.62058852446,274.0466080399,273.78041457595,273.92684432994,273.96313635541,208.89540811628,207.54008222111,207.85208972523,208.82042906776,279.3673060867,274.08764847656,273.74938048439,273.88626015936,273.99447387688,256.0324328575,255.42316557726,255.52395238403,255.98620586368,279.3673060867,279.24108679729,279.24108679729,232.13803650378,232.13803650378,392.43315558455,386.74652376549,0
0.00034075,169018426.61339,0.00010054807960047,1.041775048935,9.9194280006727e-06,-7.3126307862218e-06,5.1567121780222e-06,1.4847212340805e-05,1.3234523730376e-19,-5.9419132544009e-18,-1.5893735353967e-19,7.2549140860377e-21,-34.371057938918,68.727638544461,-52.68997404865,38.255806431195,-1.7887415871138e-05,2.7697952041212e-20,1.4619831924965e-19,-2.9066492777464e-19,-2.0296573302355e-20,1.7280809335671e-13,-2.5269992996319e-12,-2.2250003490286e-13,2.5309113002118e-14,-1.0528492520554,1.4425962299639,-2.0783349931641e-05,-1.4424711242302,1.115634918555,2.0762028798228e-27,-4.3320157697641e-25,-2.4981609663528e-27,3.202534212333e-29,-1.1916114191756,1.2712299479252,-1.0221476937024,1.2772684540722,-1.2100165186193e-47,1.6659904794072e-28,1.9829378629587e-27,-5.3686593835231e-27,-1.285331994346e-28,7.5552120353829e-14,2.2581411556145e-13,-3.4807430201548e-13,-5.4219255551322e-14,-6.911280630446e-48,-2.2566782192907e-48,9.6072168287122e-44,1.1536285392681e-05,-4.0453113426401e-05,232.64717406681,232.64717406681,232.27650704866,232.27650704866,266.43708124403,266.14658251535,266.2971507644,266.39091576495,202.67441231488,201.11006906861,201.59130837562,202.57098230026,231.79810332186,266.54052678775,266.0679811423,266.19457385217,266.46988172915,255.86726198902,255.6075235254,255.75427619618,255.86780129247,208.66743163563,207.80291317808,231.79810332186,208.08389603642,208.64298256687,274.08181266849,273.81504395792,273.96185098649,273.99819848244,208.9181747682,207.55974000839,207.87279832687,208.84302505426,279.40286930123,274.12294900176,273.78395631943,273.92117590851,274.0295940685,256.06623653909,255.45568080493,255.55673501249,256.01993991232,279.40286930123,279.27636528107,279.27636528107,232.1675658563,232.1675658563,392.45807657149,386.75129954493,0
0.000341,169238534.98993,0.0001006222408355,1.0418170193909,1.0134033529228e-05,-7.4521574116838e-06,5.2244012242543e-06,1.5130417048936e-05,1.3988306367683e-19,-6.3343216265568e-18,-1.6748911748445e-19,7.5252293093273e-21,-34.344621642859,68.747645279268,-52.693918616267,38.244146281722,-1.8176330508292e-05,2.9498446621182e-20,1.545144418739e-19,-3.0670476489583e-19,-2.1698179840354e-20,1.7937241112702e-13,-2.6424461671292e-12,-2.3150873542536e-13,2.6018042317156e-14,-1.0531672482247,1.4437070239843,-2.1117380306263e-05,-1.4428694597563,1.1163864606877,2.2462771312452e-27,-4.7314428368426e-25,-2.6748232008982e-27,3.3554179741038e-29,-1.1921469344329,1.2712774090057,-1.0224927988255,1.2773039959478,-1.3947544788084e-47,1.8062385173854e-28,2.1418660444304e-27,-5.7845583061848e-27,-1.4111061770457e-28,7.9199092829348e-14,2.3478617824939e-13,-3.6150482452383e-13,-5.6801514215212e-14,-7.7987708686653e-48,-2.6213659870833e-48,1.1288893037881e-43,1.1691535888224e-05,-4.1173676630845e-05,232.6778513443,232.6778513443,232.30649870734,232.30649870734,266.4715890885,266.18046807849,266.33145421428,266.42539680717,202.69135201816,201.12274942164,201.60562215033,202.58760567997,231.82699342838,266.5752741135,266.10172971434,266.22864663935,266.50450699211,255.90061265821,255.64031718702,255.78751685698,255.9012662273,208.68968041429,207.82302800874,231.82699342838,208.10492116698,208.66541369533,274.11702070753,273.84967804638,273.99686154157,274.03326410229,208.94097759407,207.57944121486,207.89354889423,208.86565672838,279.43843467408,274.15825268632,273.81853701131,273.95609582085,274.06471761781,256.10004844549,255.4882075372,255.58952855379,256.05368217292,279.43843467408,279.3116464111,279.3116464111,232.19711629744,232.19711629744,392.48307379831,386.75613498816,0
0.00034125,169458758.8586,0.00010069640193919,1.0418589851685,1.0347361569648e-05,-7.5911306324441e-06,5.2937610049615e-06,1.5419317974927e-05,1.4790778914834e-19,-6.7516382086763e-18,-1.7656290813553e-19,7.806236858514e-21,-34.312535469546,68.767665275611,-52.698011733588,38.236986145155,-1.8468178198087e-05,3.1391600820662e-20,1.6329915050944e-19,-3.2359629669498e-19,-2.3162330305492e-20,1.8632889235254e-13,-2.7628565684017e-12,-2.4094773891071e-13,2.6753647476506e-14,-1.0534563533286,1.444956374333,-2.1456931971718e-05,-1.4431524987776,1.1171322985935,2.4306389239748e-27,-5.1666213350465e-25,-2.8650261624357e-27,3.5144630829935e-29,-1.192614590532,1.2713129334864,-1.0228116672714,1.2773559823816,-1.6068942783338e-47,1.9573628261876e-28,2.3134984358384e-27,-6.2315840225582e-27,-1.5459578264971e-28,8.2951143718038e-14,2.4410158123385e-13,-3.7543677755832e-13,-5.944576798493e-14,-8.8032626740933e-48,-3.0447250718689e-48,1.3258768742101e-43,1.1863865604461e-05,-4.1903297941319e-05,232.70854691139,232.70854691139,232.33651035678,232.33651035678,266.50610275123,266.2143608988,266.36576399309,266.45988347743,202.70828694015,201.13546900306,201.61993654744,202.60432780136,231.85590646133,266.6100266334,266.1354859216,266.26272639803,266.53913752872,255.93397285932,255.67312169522,255.82076730286,255.93474018206,208.71196681691,207.84318453817,231.85590646133,208.12598634299,208.68788209599,274.15223227163,273.88431693456,274.03187612676,274.06833334017,208.96381670456,207.59918582808,207.91434153099,208.88832427911,279.47400233206,274.19355964935,273.85312265416,273.99102002081,274.09984464647,256.13386868489,255.52074584576,255.62233310925,256.08743276533,279.47400233206,279.34693029902,279.34693029902,232.22668785322,232.22668785322,392.50816546949,386.76104760776,0
0.0003415,169679095.60149,0.00010077056303177,1.0419009473071,1.0558071446667e-05,-7.7305023245674e-06,5.3630748983884e-06,1.5713926764211e-05,1.5640654258328e-19,-7.1956724434705e-18,-1.861561209817e-19,8.0957430729891e-21,-34.285690257532,68.786555426108,-52.705370283878,38.222506452578,-1.8764139812101e-05,3.3370422904915e-20,1.7257498854874e-19,-3.4138020290246e-19,-2.469514346425e-20,1.9359098959362e-13,-2.8886121220025e-12,-2.5081299136459e-13,2.7505872398841e-14,-1.0537881308334,1.4461848721533,-2.1801616003216e-05,-1.443440712516,1.1178269909912,2.6302443255392e-27,-5.6407337334837e-25,-3.0688809753223e-27,3.6790806131542e-29,-1.1931440476785,1.2712657855681,-1.0231539730213,1.2773657123976,-1.8504927570057e-47,2.1190199413511e-28,2.4986802241819e-27,-6.7120454123339e-27,-1.6906886534867e-28,8.6791645692449e-14,2.537770247288e-13,-3.8988204083687e-13,-6.2162862941681e-14,-9.9341149267771e-48,-3.5354928223264e-48,1.5564158343637e-43,1.204372200668e-05,-4.2646045985406e-05,232.73926051033,232.73926051033,232.36654177507,232.36654177507,266.54062201829,266.24826072518,266.40007990852,266.49437553617,202.72528622311,201.1482274766,201.63435097201,202.62107039377,231.88484218294,266.64478413715,266.16924952053,266.29681293423,266.57377309371,255.96734236133,255.70593679251,255.85402733369,255.96822292006,208.73429055308,207.86338243972,231.88484218294,208.14709145549,208.71038754151,274.18744715944,273.91896037561,274.06689455398,274.10340595474,208.98669185436,207.61897356954,207.93517606819,208.91102741797,279.50957208626,274.22886969114,273.88771300433,274.02594831994,274.13497491116,256.16769703298,255.55329548754,255.65514847454,256.12119144078,279.50957208626,279.38221670175,279.38221670175,232.25628024781,232.25628024781,392.5333535667,386.76603763543,0
0.00034175,169899550.76791,0.00010084472412841,1.0419429073559,1.076683000801e-05,-7.8700220436984e-06,5.4327618750009e-06,1.6015854287491e-05,1.6537970625445e-19,-7.6680570133172e-18,-1.9630448037234e-19,8.3946215344065e-21,-34.255764155469,68.80539123239,-52.705921272044,38.210991722202,-1.9063925279633e-05,3.544196380374e-20,1.8236945426933e-19,-3.6008400889565e-19,-2.6301514501661e-20,2.0112977239341e-13,-3.0198879554586e-12,-2.611430699221e-13,2.8276772434041e-14,-1.0541169801142,1.4474633389733,-2.215022834183e-05,-1.4437170914815,1.1185827701775,2.8458475389627e-27,-6.1572480047598e-25,-3.2872324805827e-27,3.8498229139562e-29,-1.1936555888823,1.2712518029044,-1.023496839519,1.2774045868783,-2.1299137591619e-47,2.2920902909361e-28,2.6984937119184e-27,-7.2278725935478e-27,-1.8461502491854e-28,9.0731420236211e-14,2.6382639683401e-13,-4.0484146595598e-13,-6.4957507716102e-14,-1.1204488384195e-47,-4.1045504306857e-48,1.8261938715496e-43,1.2227535089804e-05,-4.3400230429954e-05,232.76999201631,232.76999201631,232.39659291521,232.39659291521,266.57514681202,266.28216755802,266.43440192004,266.52887298275,202.74232917963,201.16102490729,201.6487944467,202.63783171519,231.91380057558,266.67954654223,266.20302052639,266.33090621352,266.60841367291,256.00072107994,255.73876245759,255.88729690969,256.00171442675,208.75665142455,207.88362171778,231.91380057558,208.16823646993,208.73292999062,274.222665301,273.95360838342,274.10191677911,274.13848195579,209.00960276915,207.63880449692,207.95605247779,208.93376598628,279.54514388124,274.26418274025,273.92230808189,274.06088067679,274.17010841672,256.20153339442,255.58585646925,255.68797462115,256.15495815702,279.54514388124,279.41750563934,279.41750563934,232.28589339508,232.28589339508,392.55875444136,386.77121959217,0
0.000342,170120132.67553,0.00010091888516178,1.0419848658814,1.097307119948e-05,-8.0097466523791e-06,5.5030007996676e-06,1.6324716001778e-05,1.7485472602632e-19,-8.1703707698674e-18,-2.0700570072467e-19,8.704405662851e-21,-34.225130689007,68.824080715451,-52.707929717904,38.201632690027,-1.9367938580299e-05,3.761117997025e-20,1.9271839680503e-19,-3.7975373438741e-19,-2.7983771134489e-20,2.0894765979512e-13,-3.1568476874256e-12,-2.7193382278108e-13,2.9069476603088e-14,-1.0544365991715,1.4487778568081,-2.2503494030395e-05,-1.4439712637114,1.1193669413044,3.078814571309e-27,-6.719723970245e-25,-3.5201359951926e-27,4.0276999187586e-29,-1.194147940248,1.2712498450269,-1.0238255042411,1.2774593929688,-2.450200701691e-47,2.4774518302402e-28,2.9141781631872e-27,-7.7815307643896e-27,-2.0129390080778e-28,9.4772846264992e-14,2.7427448763712e-13,-4.2033777842328e-13,-6.7831002976171e-14,-1.2624033684667e-47,-4.7644246852546e-48,2.1417190123867e-43,1.2413564245298e-05,-4.4164982284204e-05,232.80073994977,232.80073994977,232.42666228595,232.42666228595,266.6096758076,266.31608006427,266.46872867921,266.56337442952,202.75937312433,201.17385980939,201.66326252042,202.65460786975,231.94278023716,266.71431250747,266.23679760463,266.36500490538,266.64305788174,256.03410767316,255.77159734624,255.92057464651,256.03521328504,208.77904795402,207.90390094522,231.94278023716,208.1894198026,208.75550775262,274.25788538245,273.98825962826,274.13694147734,274.17355997847,209.03254787776,207.65867716387,207.97696924832,208.95653829486,279.5807164092,274.29949747662,273.9569065568,274.09581577385,274.20524379974,256.23537639427,255.61842744307,255.72081019934,256.18873150231,279.5807164092,279.45279577321,279.45279577321,232.31552590502,232.31552590502,392.5843203522,386.77654704144,0
0.00034225,170340844.3516,0.00010099304616469,1.0420268228496,1.1173546264351e-05,-8.1497902337485e-06,5.5739602142912e-06,1.6640142229481e-05,1.8486502091633e-19,-8.7044025830025e-18,-2.1825529367474e-19,9.0268322112289e-21,-34.196995066705,68.842169799386,-52.711016748368,38.193492621543,-1.9677259287124e-05,3.9870402259242e-20,2.0366447185516e-19,-4.0043521881193e-19,-2.9745357593983e-20,2.1705650569845e-13,-3.299712425985e-12,-2.831843602594e-13,2.9887534285537e-14,-1.0547457576051,1.4500862296474,-2.2861382015982e-05,-1.4441965351666,1.1201476065815,3.3306840651183e-27,-7.3320989418142e-25,-3.7674229355546e-27,4.213844293811e-29,-1.1946152877541,1.2712335763497,-1.0241485006836,1.2774814259703,-2.8171621523018e-47,2.6751044250337e-28,3.1471151247894e-27,-8.3756705787184e-27,-2.1917873616076e-28,9.8888174070974e-14,2.851553681398e-13,-4.363882850301e-13,-7.0786380534551e-14,-1.4199884237861e-47,-5.529596892058e-48,2.5105682961007e-43,1.260133660858e-05,-4.4940042595654e-05,232.83150468125,232.83150468125,232.45675027085,232.45675027085,266.64420949434,266.34999872814,266.50306067018,266.59788032819,202.77645296448,201.18673255091,201.67774892335,202.67139619719,231.97178160788,266.7490825116,266.27058124223,266.39910950577,266.67770617034,256.06750261378,255.80444193089,255.95386100316,256.06871992655,208.8014804935,207.92422052388,231.97178160788,208.21064180405,208.77812108356,274.29310790443,274.02291459944,274.17196914878,274.20864049015,209.0555274738,207.67859197841,207.99792676277,208.97934457451,279.61629017964,274.33481439698,273.99150891965,274.13075411609,274.24038152721,256.26922648396,255.6510088863,255.75365569065,256.2225119045,279.61629017964,279.48808758861,279.48808758861,232.34517820651,232.34517820651,392.60998263633,386.78195211925,0
0.0003425,170561685.58914,0.00010106720709869,1.0420687776721,1.1374804824837e-05,-8.2906552201111e-06,5.6458676446801e-06,1.6962121680993e-05,1.9544522865046e-19,-9.2719975242313e-18,-2.3003828805354e-19,9.3644260676019e-21,-34.168328011778,68.859990492149,-52.715043331037,38.186318026533,-1.9991624811975e-05,4.2270978316421e-20,2.1524484087177e-19,-4.2218613745593e-19,-3.1592044185384e-20,2.2547254494533e-13,-3.4486991926409e-12,-2.9489571521784e-13,3.073612686225e-14,-1.0550349540313,1.4513896806514,-2.3224176893411e-05,-1.4443768969342,1.1209124620275,3.603061077858e-27,-7.9985797609216e-25,-4.0283339614258e-27,4.4099224123668e-29,-1.1950561470107,1.2711922525622,-1.0244420226058,1.2774835740501,-3.2374596741176e-47,2.8899762021388e-28,3.3987342276402e-27,-9.013291004059e-27,-2.3836666881449e-28,1.0317367900689e-13,2.9648962127122e-13,-4.5302221275758e-13,-7.3831214310925e-14,-1.5932166609413e-47,-6.4169239332473e-48,2.9415044996359e-43,1.2791031298044e-05,-4.5724862895713e-05,232.86228689689,232.86228689689,232.48685755441,232.48685755441,266.67874861384,266.38392429724,266.53739862812,266.63239140842,202.79361332418,201.19964385685,201.69222005754,202.68819312279,232.00080539929,266.78385729113,266.3043721869,266.43322075585,266.71235926914,256.10090663551,255.83729695127,255.98715670132,256.10223506757,208.82394973542,207.94458119375,232.00080539929,208.23190315091,208.80077063913,274.32833361378,274.0575740485,274.20700053753,274.24372423063,209.0785422254,207.69854966322,208.01892570249,209.00218548441,279.65186594283,274.37013424628,274.02611592218,274.16569645009,274.27552233937,256.30308438685,255.68360153835,255.78651182802,256.25630008101,279.65186594283,279.52338183598,279.52338183598,232.37485101387,232.37485101387,392.63572648055,386.78741951385,0
0.00034275,170782653.1804,0.00010114136782394,1.042110728879,1.1589059424039e-05,-8.4347239803722e-06,5.7188997294771e-06,1.7289739354757e-05,2.0663610605637e-19,-9.8749497979534e-18,-2.4227078110371e-19,9.7204153473994e-21,-34.136319032718,68.878268571981,-52.721843713454,38.180019826217,-2.0309213679918e-05,4.4890222635591e-20,2.2748524280137e-19,-4.4508074478768e-19,-3.3539921747015e-20,2.3421753138935e-13,-3.6039836227502e-12,-3.0702961982975e-13,3.1621523712306e-14,-1.0552861013013,1.4527123517795,-2.3591264238536e-05,-1.4444869459493,1.1216400843141,3.8977802206151e-27,-8.7235582393668e-25,-4.2996972977025e-27,4.6181500039532e-29,-1.195489310547,1.2710854100554,-1.0246702083213,1.2775151359731,-3.7187111356041e-47,3.129109129521e-28,3.6704673202268e-27,-9.6978530512985e-27,-2.5905757977434e-28,1.0778459255293e-13,3.0827392527086e-13,-4.7028388559006e-13,-7.699321997855e-14,-1.7796952663638e-47,-7.4460341696632e-48,3.4446068479326e-43,1.2983132603281e-05,-4.6517746625e-05,232.89308671567,232.89308671567,232.51698427186,232.51698427186,266.71329331558,266.41785691903,266.57174271299,266.66690782263,202.81079852909,201.21259382949,201.70671856232,202.70499142411,232.02985174156,266.81863699651,266.33817058958,266.46733881505,266.74701732754,256.13431987734,255.87016254556,256.02046189431,256.13575885523,208.84645577792,207.96498306682,232.02985174156,208.25320401366,208.82345656783,274.36356266762,274.09223812909,274.24203580735,274.27881135587,209.10159224957,207.71855034866,208.03996621415,209.02506116469,279.68744386306,274.4054571821,274.06072771947,274.20064293952,274.31066639106,256.33695024383,255.7162055441,255.81937876348,256.29009617287,279.68744386306,279.55867867342,279.55867867342,232.40454444028,232.40454444028,392.66154417201,386.79294042041,0
0.000343,171003739.14034,0.00010121552847499,1.0421526765264,1.181008037783e-05,-8.5774989413976e-06,5.7929465660228e-06,1.7606117951522e-05,2.1846253174948e-19,-1.0515622740639e-17,-2.5401050798287e-19,1.0097567676464e-20,-34.104948492112,68.896081021207,-52.726159950071,38.17577282903,-2.062998391568e-05,4.7686134738765e-20,2.4042392546349e-19,-4.6916796538785e-19,-3.5578188444087e-20,2.4330351425454e-13,-3.7658820136815e-12,-3.1895190068624e-13,3.2548185581876e-14,-1.0554129595961,1.4539834040017,-2.3967406282484e-05,-1.4445027024329,1.1222984941818,4.2162567008231e-27,-9.5122428493803e-25,-4.5518738192476e-27,4.8405515466247e-29,-1.195845683369,1.2710300657581,-1.024863093952,1.2775691906811,-4.2696772641983e-47,3.3896211442069e-28,3.9640071019279e-27,-1.0432487124265e-26,-2.8121320335828e-28,1.1262853963872e-13,3.2052232870373e-13,-4.8819790885243e-13,-8.0241520370965e-14,-1.9535625914188e-47,-8.6402143226753e-48,4.0317808628502e-43,1.3178036150918e-05,-4.7309321556006e-05,232.92390418711,232.92390418711,232.54713054699,232.54713054699,266.74784366655,266.45179664735,266.60609304246,266.70142966637,202.82800787085,201.22558241441,201.72137929937,202.7217734559,232.05892071036,266.85342170366,266.37197651806,266.5014637917,266.78168042666,256.16774238664,255.90303875218,256.05377670242,256.16929139219,208.86899857419,207.9854260769,232.05892071036,208.27454464104,208.84617904725,274.39879514864,274.12690690692,274.27707507157,274.3139019551,209.12467757344,207.73859408022,208.06104847787,209.04797171883,279.72302404207,274.44078329052,274.09534438259,274.23559369394,274.34581376577,256.37082412014,255.74882096986,255.85225659908,256.32390025457,279.72302404207,279.59397818017,279.59397818017,232.43425848522,232.43425848522,392.68744866431,386.79852532491,0
0.00034325,171224943.72923,0.00010128968902105,1.0421946195856,1.2035399579718e-05,-8.7182416236643e-06,5.8671551792751e-06,1.7991204580795e-05,2.3096703013285e-19,-1.119612097766e-17,-2.6871005622438e-19,1.0497194718289e-20,-34.073539887491,68.915147150637,-52.723318464593,38.174568456059,-2.0954382094346e-05,5.0658140467319e-20,2.5410233620317e-19,-4.9449693961591e-19,-3.7703038804561e-20,2.5275616420216e-13,-3.9346382108052e-12,-3.3348181682088e-13,3.3515262911459e-14,-1.0556301583448,1.4553460150779,-2.4352679623713e-05,-1.4444008844513,1.1231130475084,4.5604528478977e-27,-1.0369951932509e-24,-4.8779337603137e-27,5.078638488053e-29,-1.1961182429531,1.2710576100486,-1.0250351256167,1.2776402038518,-4.8999449178599e-47,3.6726992157125e-28,4.2810963798542e-27,-1.1220427162829e-26,-3.0484567366209e-28,1.1768610402211e-13,3.3325794963657e-13,-5.0677923339147e-13,-8.3565363401845e-14,-2.1853034205932e-47,-1.0025807693587e-47,4.7167591440498e-43,1.3376762611529e-05,-4.8127824373918e-05,232.95473916438,232.95473916438,232.57729621295,232.57729621295,266.78239955787,266.48574335268,266.64044948708,266.7359567889,202.84524035549,201.23860953966,201.73607111921,202.73847084612,232.08801215712,266.8882112943,266.40578983319,266.53559555669,266.81634841646,256.20117405226,255.93592544493,256.087100985,256.2028325219,208.89157803985,208.00591012066,232.08801215712,208.29592490492,208.86893791048,274.43403094806,274.16158024877,274.31211820911,274.34899588237,209.14779813032,207.75868077616,208.08217238387,209.07091702333,279.75860636676,274.47611245778,274.12996577325,274.27054859116,274.38096431657,256.40470588977,255.78144767397,255.88514519794,256.35771217408,279.75860636676,279.62928021598,279.62928021598,232.46399302869,232.46399302869,392.71348071759,386.80421870465,0
0.0003435,171446261.33912,0.00010136384943991,1.0422365556547,1.2263121202069e-05,-8.8571391010133e-06,5.9329389019146e-06,1.839409577991e-05,2.4421179771428e-19,-1.191824396321e-17,-2.850384150838e-19,1.0903015558091e-20,-34.040906710443,68.935138397798,-52.721028840434,38.180857538205,-2.1282278413383e-05,5.3819161125813e-20,2.6857977236531e-19,-5.2113016393312e-19,-3.9916154848239e-20,2.6263455038123e-13,-4.1103034784793e-12,-3.4921519124253e-13,3.4466174648142e-14,-1.0558467573239,1.4567649302938,-2.4745754725733e-05,-1.4439877203987,1.1239677343268,4.9326646393511e-27,-1.130201261306e-24,-5.2498619509305e-27,5.3252068056998e-29,-1.1962763722236,1.2711324679246,-1.0251608284544,1.27771645282,-5.6204359701597e-47,3.9811493303774e-28,4.6240483384034e-27,-1.2065298340005e-26,-3.3002092758926e-28,1.2295758664985e-13,3.4651396823327e-13,-5.2605529961381e-13,-8.6965030771384e-14,-2.4623676785553e-47,-1.1635628603424e-47,5.5152453886493e-43,1.3582898720432e-05,-4.8960913570505e-05,232.98559110153,232.98559110153,232.60748069363,232.60748069363,266.81696046307,266.51969644281,266.67481152575,266.77048864427,202.86249411933,201.25167415615,201.7507916458,202.75531817136,232.11712541937,266.92300526095,266.4396099409,266.56973357428,266.85102075711,256.23461432013,255.96882201571,256.12043420541,256.2363816943,208.91419353771,208.02643437576,232.11712541937,208.31734416044,208.89173255779,274.46926955667,274.19625757646,274.34716471006,274.38409259075,209.17095340151,207.77880955448,208.10333718877,209.0938965535,279.79419033743,274.51144418268,274.16459131316,274.30550711614,274.41611749945,256.43859503471,255.81408504285,255.91804399298,256.39153139234,279.79419033743,279.66458422296,279.66458422296,232.49374743064,232.49374743064,392.7395180661,386.80989721771,0
0.00034375,171667678.89262,0.0001014380097072,1.0422784867276,1.2493851767465e-05,-8.9971374073615e-06,6.0206322947553e-06,1.8803436718211e-05,2.5821775428649e-19,-1.2685741596025e-17,-3.0257592472652e-19,1.141022570337e-20,-34.009714815604,68.954721742372,-52.719849963596,38.174941104823,-2.1615896629435e-05,5.7198506365221e-20,2.8389516735797e-19,-5.4917174018117e-19,-4.2244947500614e-20,2.7290003650513e-13,-4.2936135345753e-12,-3.6574900989452e-13,3.5665467057158e-14,-1.056107783579,1.4581217309299,-2.514737376652e-05,-1.4437155287505,1.124833712832,5.3351281574639e-27,-1.231579220571e-24,-5.6585643505668e-27,5.633909035795e-29,-1.1964238304541,1.2712015530388,-1.0252922012581,1.2777556245837,-6.4442098278841e-47,4.3194718183374e-28,4.9943424269187e-27,-1.2971895184633e-26,-3.5706534227544e-28,1.2847440793901e-13,3.6032781600243e-13,-5.4609784954179e-13,-9.0486930833758e-14,-2.7824467744326e-47,-1.3500546127318e-47,6.4459639148905e-43,1.3789118882332e-05,-4.9811151354632e-05,233.01646144919,233.01646144919,232.63768544324,232.63768544324,266.85152779641,266.55365725101,266.70918059738,266.80502663019,202.87976890853,201.2647773544,201.76553837802,202.77215991733,232.1462618301,266.95780503682,266.47343817312,266.60387925942,266.88569884248,256.26806458486,256.00172979374,256.15377780444,256.2699403246,208.93684650134,208.04700005974,232.1462618301,208.33880395696,208.91456456478,274.50451240168,274.2309402302,274.38221601226,274.419193462,209.19414499273,207.79898161349,208.12454430208,209.11691193285,279.82977739009,274.54677989913,274.19922234137,274.34047069669,274.45127469396,256.47249298902,255.84673440436,255.95095437913,256.4253593192,279.82977739009,279.69989155859,279.69989155859,232.52352302698,232.52352302698,392.76573337193,386.81572626152,0
0.000344,171889207.13463,0.00010151216981829,1.0423204129381,1.2727361673151e-05,-9.1372937155068e-06,6.121062042449e-06,1.920995198367e-05,2.7303236566312e-19,-1.3500923757266e-17,-3.2109563203462e-19,1.199417715948e-20,-33.979167151995,68.974082430503,-52.719373781189,38.172375286633,-2.1955170142152e-05,6.0835208702448e-20,3.0011031460425e-19,-5.7871038917538e-19,-4.4712651107287e-20,2.8357108126202e-13,-4.4847366786791e-12,-3.8281964572111e-13,3.7039972192489e-14,-1.0563889365371,1.4594485118741,-2.5558020556713e-05,-1.4434408255791,1.1256889305275,5.7703994609579e-27,-1.3417812551645e-24,-6.1002705402029e-27,5.9915104418498e-29,-1.1965162986038,1.2712425304998,-1.0254098192217,1.2777633523352,-7.385343242623e-47,4.6939902333075e-28,5.3943813645145e-27,-1.3944460734085e-26,-3.863247082556e-28,1.3427295665285e-13,3.7473829593729e-13,-5.6697825553869e-13,-9.415766070011e-14,-3.1472825977452e-47,-1.566161184259e-47,7.5300735907272e-43,1.3996823974655e-05,-5.0675601276744e-05,233.04734821947,233.04734821947,232.66790846319,232.66790846319,266.88609963743,266.58762387777,266.74355477216,266.83956882265,202.89705957968,201.27791713526,201.78029095843,202.78913647089,232.17541943597,266.99260869663,266.50727263229,266.63803069308,266.92038075276,256.30152291712,256.0346468674,256.18712983484,256.30350646808,208.95953492792,208.06760524337,232.17541943597,208.36030223367,208.93743185382,274.53975756869,274.26562631698,274.41727019739,274.45429658746,209.217370839,207.81919499729,208.14579168744,209.13996110556,279.86536561479,274.58211769168,274.23385696648,274.37543741952,274.48643399386,256.50639781179,255.87939384853,255.98387442828,256.45919401616,279.86536561479,279.73520032986,279.73520032986,232.55331786727,232.55331786727,392.79205324411,386.82163419001,0
0.00034425,172110846.72901,0.00010158632982123,1.0423623359893,1.2964483314089e-05,-9.2772573685032e-06,6.2291818178015e-06,1.9611610726943e-05,2.8870529341299e-19,-1.4367211592104e-17,-3.4052006289319e-19,1.2652728537691e-20,-33.951178177868,68.992572479658,-52.721566319997,38.161857037272,-2.2301482215926e-05,6.4791856667896e-20,3.1727904412296e-19,-6.0993495761071e-19,-4.7423705954451e-20,2.9466127270242e-13,-4.6842485839561e-12,-4.0033795375809e-13,3.85687618697e-14,-1.056721627565,1.4607675122039,-2.5981273329164e-05,-1.443408424632,1.1265273820059,6.2412572240706e-27,-1.4615814726541e-24,-6.5741730672137e-27,6.3998262803722e-29,-1.1965846951016,1.2711896079896,-1.02554696916,1.277723818837,-8.4599046508759e-47,5.1144912202523e-28,5.8261445573625e-27,-1.4988404585821e-26,-4.191112097596e-28,1.4041836870685e-13,3.8979274292391e-13,-5.8893158096083e-13,-9.812049423679e-14,-3.5604487874878e-47,-1.8161653471385e-47,8.7919181116274e-43,1.4204143736644e-05,-5.1557736929264e-05,233.07825216643,233.07825216643,232.6981505128,232.6981505128,266.92067677343,266.6215971109,266.77793484342,266.87411601107,202.91436025274,201.29109419464,201.79509531017,202.80608660599,232.2045989981,267.02741702945,266.54111410965,266.67218867019,266.95506727729,256.33499009371,256.06757401455,256.22049108094,256.33708090575,208.98225955905,208.08825068229,232.2045989981,208.38183975889,208.96033517959,274.57500585259,274.30031663129,274.45232806434,274.48940276218,209.24063168407,207.83945045754,208.16708009568,209.16304483465,279.90095581316,274.61745835636,274.26849598478,274.41040808464,274.52159619465,256.54031028207,255.91206415864,256.01680492678,256.49303626308,279.90095581316,279.770511336,279.770511336,232.58313270302,232.58313270302,392.81852141286,386.82767906156,0
0.0003445,172332606.87004,0.0001016604897547,1.0424042559438,1.3206017761156e-05,-9.4220449333503e-06,6.343829274005e-06,2.0008357067492e-05,3.0531938285376e-19,-1.5287365453846e-17,-3.6084272774987e-19,1.3429993289715e-20,-33.924410266444,69.010615349202,-52.72204577462,38.156238478418,-2.265548334599e-05,6.9181826569551e-20,3.3551447497349e-19,-6.4279933096449e-19,-5.0254332899936e-20,3.0624276791626e-13,-4.8923420810367e-12,-4.182841074544e-13,4.0329005736661e-14,-1.0570640617755,1.4620326621005,-2.6419077212394e-05,-1.4433545755346,1.1273465511398,6.7508132377865e-27,-1.5917767875493e-24,-7.0811406018743e-27,6.8907570526912e-29,-1.1966971427696,1.2711276727609,-1.0256679066939,1.2776552584217,-9.6860344928408e-47,5.5988906198514e-28,6.2930023335079e-27,-1.6107505009989e-26,-4.5414137272828e-28,1.4702466991036e-13,4.0559416328904e-13,-6.1178696269381e-13,-1.0219151039598e-13,-4.0271097525293e-47,-2.1056381174408e-47,1.0260208565157e-42,1.4410807198257e-05,-5.2454894187815e-05,233.10917244388,233.10917244388,232.72841078296,232.72841078296,266.95525845337,266.65557627027,266.81232007716,266.90866749955,202.93162217611,201.30430776095,201.80997283053,202.82293672379,232.23379977114,267.0622292832,266.57496194058,266.70635247259,266.98975771955,256.36846534773,256.1005105259,256.25386079185,256.37066291117,209.00501942602,208.10893562328,232.23379977114,208.40341562569,208.98327361167,274.61025651525,274.33501051105,274.48738888842,274.5245113122,209.26392642627,207.85974727593,208.18840867846,209.18616209893,279.93654726261,274.6528011568,274.30313874232,274.44538197548,274.55676062418,256.57422962463,255.94474465078,256.04974515041,256.52688532671,279.93654726261,279.80582392376,279.80582392376,232.61296673589,232.61296673589,392.84508027294,386.83379647321,0
0.00034475,172554487.8556,0.000101734649685,1.0424461715493,1.3447349741935e-05,-9.5727353058058e-06,6.4702475474391e-06,2.0400537505942e-05,3.2294732026312e-19,-1.6264305135687e-17,-3.8208244443881e-19,1.4385380892569e-20,-33.899873685096,69.027992232234,-52.718576732823,38.158944960592,-2.3027307428192e-05,7.4502795622592e-20,3.5526813620849e-19,-6.7711892920414e-19,-5.3015660877782e-20,3.183684864754e-13,-5.1092045256504e-12,-4.3666006174004e-13,4.2429481921523e-14,-1.0573748879749,1.4632614317567,-2.6863007570361e-05,-1.443068259337,1.1281559030262,7.3023812203971e-27,-1.7332364133825e-24,-7.6227213343833e-27,7.512316644623e-29,-1.1968336549875,1.2711073968668,-1.0256661847942,1.2775170543857,-1.1084058748868e-46,6.2264954492762e-28,6.8021039019928e-27,-1.7304543199011e-26,-4.8915605483258e-28,1.545485519914e-13,4.2276026639785e-13,-6.3513285127723e-13,-1.0610966516985e-13,-4.553029026365e-47,-2.4412174454072e-47,1.1968438714785e-42,1.4620416935275e-05,-5.3364174224313e-05,233.14010969186,233.14010969186,232.75868994687,232.75868994687,266.98984536402,266.68956206088,266.84671117823,266.94322399568,202.94898584433,201.31755845012,201.8248765951,202.84000315847,232.26302243387,267.0970461428,266.60881683574,266.74052280566,267.02445278019,256.40194935471,256.13345709268,256.28723966534,256.4042531825,209.02781514129,208.12966074124,232.26302243387,208.42503050304,209.00624780336,274.64551025233,274.36970867006,274.52245337759,274.55962295148,209.28725565107,207.88008613584,208.20977809845,209.20931352064,279.97214066885,274.68814678784,274.33778595504,274.48035980011,274.59192799357,256.60815651133,255.97743602728,256.08269579837,256.56074189196,279.97214066885,279.84113881194,279.84113881194,232.64282061805,232.64282061805,392.87164735521,386.83989434009,0
0.000345,172776482.82966,0.00010180880952222,1.0424880844512,1.3726644774422e-05,-9.7240639425803e-06,6.6141024703322e-06,2.0790485283177e-05,3.4146247802113e-19,-1.7301953123964e-17,-4.0429651151079e-19,1.5364323923531e-20,-33.872286087455,69.04530704499,-52.717538856883,38.148895673407,-2.3391657209367e-05,8.0234887494383e-20,3.7566241569658e-19,-7.1305232398576e-19,-5.5773828713295e-20,3.3079973139597e-13,-5.3354552878966e-12,-4.5551356232443e-13,4.4587220208029e-14,-1.0577422740437,1.4645271725225,-2.7304883924738e-05,-1.443074854174,1.1289676857861,7.8973783092913e-27,-1.8869218907724e-24,-8.201201935359e-27,8.1644963774861e-29,-1.1971687939414,1.2711466093838,-1.0257934897934,1.2774662541187,-1.2678688617e-46,6.9119088984746e-28,7.3467203070159e-27,-1.8586304642445e-26,-5.2485746968623e-28,1.6269640033492e-13,4.3984837611439e-13,-6.5907246022474e-13,-1.0997169791506e-13,-5.1459073043596e-47,-2.8295616900099e-47,1.3954067090237e-42,1.4841823271884e-05,-5.4289926665974e-05,233.17106499667,233.17106499667,232.78898911948,232.78898911948,267.02443856859,266.7235555091,266.88110923262,266.97778654171,202.96635101972,201.33084731757,201.83979503511,202.85706296318,232.2922680636,267.13186867296,266.64267982454,266.77470074794,267.05915349248,256.43544317497,256.16641474852,256.32062879386,256.43785277945,209.05064789614,208.15042716143,232.2922680636,208.44668565452,209.02925900419,274.68076813057,274.40441213049,274.55752261258,274.59473871057,209.3106206185,207.90046813708,208.2311895415,209.23250036538,280.00773710462,274.72349631602,274.37243864565,274.51534263566,274.62709932903,256.64209200786,256.01013932884,256.11565794966,256.59460700329,280.00773710462,279.87645702116,279.87645702116,232.67269541055,232.67269541055,392.89841985286,386.84618202228,0
0.00034525,172998600.70395,0.00010188296931037,1.0425299944744,1.4019132897973e-05,-9.8766238081221e-06,6.7565691809536e-06,2.1178277616885e-05,3.6097554274517e-19,-1.8403564860146e-17,-4.2751253869038e-19,1.6366127583145e-20,-33.84803814936,69.062252343043,-52.718469624529,38.141754229688,-2.3754429871674e-05,8.6253836460681e-20,3.969353702476e-19,-7.5068349542469e-19,-5.8580189852733e-20,3.4362801592392e-13,-5.5713216515918e-12,-4.7485067976389e-13,4.6757456834526e-14,-1.0581180373661,1.4657629111233,-2.7739916341174e-05,-1.4430305633834,1.1297683986798,8.5401050172436e-27,-2.0538372987156e-24,-8.8184852492511e-27,8.8500461398229e-29,-1.1975910848168,1.2711574623815,-1.02598385777,1.2774105536987,-1.4496216586147e-46,7.6462767425615e-28,7.9315711597873e-27,-1.9958445604385e-26,-5.6185673476086e-28,1.7117576485716e-13,4.5719261612361e-13,-6.8363261924953e-13,-1.1385373693174e-13,-5.8137012190306e-47,-3.279093446223e-47,1.6261400482721e-42,1.5070786979363e-05,-5.5230249466156e-05,233.20203576401,233.20203576401,232.81930568989,232.81930568989,267.0590355947,266.75755419926,266.91551175287,267.0123527053,202.98379869309,201.34417155928,201.85474907676,202.87424040991,232.32153408685,267.16669439518,266.67654848686,266.80888381637,267.09385742682,256.46894431588,256.19938104329,256.35402566066,256.47145922545,209.07351493333,208.17123223645,232.32153408685,208.46837821093,209.05230436046,274.71602768975,274.43911849831,274.5925941248,274.62985618605,209.33401849016,207.92089062489,208.25264021081,209.25571979396,280.04333411529,274.75884727857,274.40709441812,274.55032801495,274.662272228,256.67603360932,256.04285209723,256.14862909758,256.62847819007,280.04333411529,279.91177616903,279.91177616903,232.70258855904,232.70258855904,392.92527008583,386.85252873979,0
0.0003455,173220840.49239,0.00010195712885801,1.0425719025251,1.4311198371988e-05,-1.0030385589265e-05,6.9020681338478e-06,2.1565792712802e-05,3.8154526194451e-19,-1.9573402887609e-17,-4.5179615590047e-19,1.7380225215765e-20,-33.820384525111,69.079737497494,-52.718728964236,38.129669417922,-2.4121230548686e-05,9.2537350291452e-20,4.1928296500449e-19,-7.9013719552126e-19,-6.145295737656e-20,3.5686629446637e-13,-5.8173091614752e-12,-4.9471958637928e-13,4.8912911147652e-14,-1.0585174701472,1.4670070782059,-2.8172488705275e-05,-1.443465462114,1.1305451785526,9.2341953648766e-27,-2.235148853851e-24,-9.4772950174068e-27,9.5650610058733e-29,-1.1981007600335,1.2711640861404,-1.0261954777716,1.2773603652412,-1.6566633181924e-46,8.4339919614483e-28,8.560900595544e-27,-2.142772457606e-26,-6.0036846136903e-28,1.7985789133188e-13,4.7505336587088e-13,-7.0890330757784e-13,-1.1778454521765e-13,-6.5654620543059e-47,-3.7989357026789e-47,1.8942055185187e-42,1.5300625295418e-05,-5.6186034945173e-05,233.23302340021,233.23302340021,232.84964109892,232.84964109892,267.09363787593,266.79155960458,266.94992019238,267.04692396811,203.00125778739,201.35753251634,201.86978311666,202.89149270084,232.35082193788,267.2015247411,266.71042429978,266.84307346179,267.12856605652,256.50245420376,256.232357434,256.38743171709,256.50507399158,209.09641763105,208.19207740948,232.35082193788,208.49010960059,209.07538533156,274.75129036974,274.47382925765,274.62766936728,274.66497686622,209.35745061526,207.94135504141,208.27413151683,209.2789732336,280.07893314883,274.79420111413,274.44175475767,274.58531738948,274.697448175,256.70998273903,256.07557579777,256.18161068969,256.66235690838,280.07893314883,279.94709774721,279.94709774721,232.73250147759,232.73250147759,392.95232773058,386.85906540239,0
0.00034575,173443207.10083,0.00010203128839811,1.0426138109445,1.4599223438759e-05,-1.0178806784219e-05,7.0423074573999e-06,2.1954604852655e-05,4.0321699059827e-19,-2.0815793261412e-17,-4.7723554015034e-19,1.8399867843252e-20,-33.79566180113,69.097025835906,-52.716872828012,38.114767892802,-2.4494439985325e-05,9.9076374709493e-20,4.4284134451299e-19,-8.3147955515778e-19,-6.4348018666725e-20,3.7053828692923e-13,-6.0739610214217e-12,-5.1518064677775e-13,5.1027490323604e-14,-1.0589399550493,1.4682218906001,-2.8611210359772e-05,-1.4441020565425,1.1313249308822,9.9828852386519e-27,-2.4320604055445e-24,-1.0181169238339e-26,1.0306280466141e-28,-1.1986221847379,1.2712089996018,-1.0264563517338,1.2773147203114,-1.8925051213812e-46,9.2775470964851e-28,9.2390789017143e-27,-2.2999979304054e-26,-6.3986853396098e-28,1.8869826225439e-13,4.9356526806119e-13,-7.3494362158539e-13,-1.2169097091345e-13,-7.4122316845817e-47,-4.4002887788635e-47,2.2054126364601e-42,1.5531950182626e-05,-5.7159269319643e-05,233.26402616249,233.26402616249,232.8799936562,232.8799936562,267.12824382404,266.82557016216,266.98433298972,267.08149876376,203.01870058189,201.37092816742,201.88484603124,202.90875153452,232.3801299685,267.23635812221,266.74430571537,266.87726813218,267.16327780959,256.53597121617,256.26534232087,256.42084537286,256.53869547932,209.11935399931,208.21296081376,232.3801299685,208.51187800516,209.09849992593,274.78655460671,274.5085428686,274.66274679484,274.70009920653,209.38091494098,207.96185961661,208.2956616892,209.30225860066,280.11453266486,274.82955626003,274.47641813139,274.62030921891,274.73262562449,256.74393777051,256.10830885772,256.21460115194,256.69624154519,280.11453266486,279.982420229,279.982420229,232.76243244914,232.76243244914,392.9796310806,386.86582424095,0
0.000346,173665713.27538,0.00010210544798581,1.0426557196949,1.4881522934517e-05,-1.0323422078076e-05,7.1759470514723e-06,2.2343759755397e-05,4.2608228259039e-19,-2.2134442805604e-17,-5.0385564859734e-19,1.9426784380431e-20,-33.774530370768,69.114187443819,-52.716840252891,38.101899084915,-2.4874437630188e-05,1.0585630855876e-19,4.6772060852937e-19,-8.7477869408849e-19,-6.7265580042905e-20,3.8469893937649e-13,-6.3414812954997e-12,-5.3622496440053e-13,5.3105258938122e-14,-1.0593622210522,1.4693498793671,-2.9051129339087e-05,-1.444762703272,1.1320912426652,1.079105928568e-26,-2.6458296125127e-24,-1.0932422028632e-26,1.1074767945532e-28,-1.1991482487603,1.2712580948355,-1.0267389953037,1.2772289321976,-2.1610791548225e-46,1.0177463779697e-27,9.9705763221752e-27,-2.4682131758366e-26,-6.8034752707856e-28,1.9766333876692e-13,5.1280697823571e-13,-7.6172905580511e-13,-1.2557740969976e-13,-8.3653707206841e-47,-5.0961069446977e-47,2.5665846497362e-42,1.5766187789041e-05,-5.8147506188939e-05,233.29504354062,233.29504354062,232.91036274748,232.91036274748,267.16285302902,266.85958548746,267.01874966721,267.11607666133,203.03619995786,201.38435777986,201.8999358077,202.92600270171,232.40945762882,267.27119411954,266.7781923302,266.91146735989,267.19799227506,256.56949493418,256.29833530191,256.45426611404,256.57232321187,209.14232346783,208.23388193276,232.40945762882,208.53368252098,209.12164730015,274.82181999201,274.54325895614,274.69782595698,274.73522280709,209.40441084556,207.98240377989,208.31722994547,209.32557519232,280.15013224302,274.86491230413,274.51108415676,274.65530305654,274.7678041844,256.7778982669,256.14105083852,256.24759999102,256.73013166305,280.15013224302,280.01774324017,280.01774324017,232.7923810145,232.7923810145,393.00706099575,386.87268483006,0
0.00034625,173888358.80781,0.00010217960753146,1.0426976284275,1.5158174498177e-05,-1.0465453824336e-05,7.3029456673123e-06,2.2733458348885e-05,4.5020186749115e-19,-2.353330872003e-17,-5.3169848937151e-19,2.0466025259926e-20,-33.750547744059,69.131295339385,-52.717463779528,38.092195328153,-2.5261305577822e-05,1.128757517192e-19,4.9402500921074e-19,-9.2010290527091e-19,-7.021083799588e-20,3.9934891053389e-13,-6.6201204849044e-12,-5.5786418190334e-13,5.5157856240158e-14,-1.059771241522,1.4705011883107,-2.9491416065645e-05,-1.4453382101263,1.132857151359,1.1663397669173e-26,-2.8778083545839e-24,-1.1733757754255e-26,1.1874242488117e-28,-1.1996554628608,1.2713133951819,-1.0270168392588,1.2771466265375,-2.466503327758e-46,1.1135178288578e-27,1.0760136272397e-26,-2.648052549217e-26,-7.2185261671802e-28,2.067476414561e-13,5.3284013943613e-13,-7.892708056205e-13,-1.2945585137388e-13,-9.4375709169109e-47,-5.9015003416177e-47,2.9855681821622e-42,1.6001844664591e-05,-5.9149084175473e-05,233.32607686443,233.32607686443,232.94074965536,232.94074965536,267.19746682358,266.8936069255,267.05317153897,267.15065901387,203.05375011277,201.39782242611,201.91505185264,202.94324196013,232.43880617841,267.30603406903,266.81208547927,266.94567245213,267.23271081241,256.60302668474,256.33133771017,256.48769524555,256.60595852643,209.16532734127,208.25484205723,232.43880617841,208.55552431673,209.14482872013,274.85708786032,274.57797887444,274.73290817511,274.77034902967,209.42793967784,208.002988779,208.33883745975,209.34892438137,280.18573321387,274.90027058182,274.54575418349,274.69030022047,274.80298521842,256.81186556288,256.17380305483,256.28060850014,256.76402861368,280.18573321387,280.0530681441,280.0530681441,232.82234847941,232.82234847941,393.03459852045,386.87963344972,0
0.0003465,174111141.7911,0.00010225376696991,1.0427395366325,1.5429626984966e-05,-1.0605615700303e-05,7.4242556782764e-06,2.312358441328e-05,4.7564657301402e-19,-2.5016705681595e-17,-5.6080277984271e-19,2.1524395189308e-20,-33.724557790719,69.148347130548,-52.718196613562,38.085731921571,-2.5655141816655e-05,1.2013558577753e-19,5.2185875823433e-19,-9.6753555854537e-19,-7.318864450521e-20,4.1450516557908e-13,-6.9102016958386e-12,-5.8010420025495e-13,5.7201287605257e-14,-1.0601578601867,1.4717063067281,-2.9931880379696e-05,-1.4457557067218,1.133626278405,1.2604997178873e-26,-3.1294612545097e-24,-1.2587934759985e-26,1.2709823711707e-28,-1.2001225442615,1.2713692556608,-1.0272737226643,1.2770822651616,-2.8135345336803e-46,1.2152131022946e-27,1.1612822471911e-26,-2.8402395605675e-26,-7.644368378553e-28,2.1595183201777e-13,5.5371967664367e-13,-8.1759118436819e-13,-1.3333606417297e-13,-1.0642924551778e-46,-6.8339668515295e-47,3.4713922225451e-42,1.6238485894624e-05,-6.0163222259514e-05,233.35712622348,233.35712622348,232.97115446407,232.97115446407,267.23208534371,266.92763460003,267.08759873618,267.18524594275,203.07131390451,201.41132192298,201.93019089433,202.9605654744,232.46817569911,267.34087810569,266.84598528385,266.97988353918,267.26743354359,256.63656659245,256.36434966085,256.52113288587,256.63960153438,209.18836569412,208.27584124698,232.46817569911,208.57740346576,209.16804424368,274.89235835467,274.61270275261,274.76799358907,274.80547800219,209.45150152341,208.02361466785,208.36048429201,209.37230624233,280.22133572386,274.93563123552,274.58042833949,274.72530084999,274.83816885447,256.84583978172,256.20656561755,256.31362679649,256.7979325101,280.22133572386,280.08839507305,280.08839507305,232.85233493498,232.85233493498,393.06222387857,386.88665148049,0
0.00034675,174334059.43563,0.00010232792632463,1.0427814451437,1.5696549826375e-05,-1.0744747901089e-05,7.5406526533027e-06,2.3513357677814e-05,5.0249145149462e-19,-2.6590496142075e-17,-5.911841465024e-19,2.2591099754357e-20,-33.700682770337,69.164823654692,-52.719770546929,38.074733087619,-2.6056819481619e-05,1.2763492482925e-19,5.5131231174101e-19,-1.0171847744839e-18,-7.6206813722504e-20,4.3018967464757e-13,-7.2124674659131e-12,-6.0292983215369e-13,5.9215820668957e-14,-1.0605393872644,1.4728575742914,-3.0372405640059e-05,-1.446297272166,1.1343759071359,1.3621310707e-26,-3.4025048924261e-24,-1.3497172936233e-26,1.3573673537762e-28,-1.2006278422972,1.2713987298888,-1.0275309215298,1.27700520616,-3.2078547778027e-46,1.3229251355148e-27,1.2533302087879e-26,-3.0456502057558e-26,-8.0819661616965e-28,2.2527691898842e-13,5.7549457503141e-13,-8.4672253670907e-13,-1.372314341064e-13,-1.1996151932409e-46,-7.9125555866126e-47,4.0345188564261e-42,1.6475063075029e-05,-6.1193088658976e-05,233.38819176937,233.38819176937,233.0015773407,233.0015773407,267.26670879068,266.96166868879,267.12203146467,267.21983762378,203.0888888492,201.42485610811,201.9453433849,202.97785904788,232.49756635596,267.37572642894,266.87989192262,267.01410082665,267.30216064134,256.67011484649,256.3973713264,256.55457923026,256.67325240783,209.21143867711,208.29687963072,232.49756635596,208.59932018867,209.19129403903,274.92763168456,274.64743077141,274.80308241142,274.84060990339,209.47509654381,208.04428158824,208.38217063245,209.39572092588,280.25693998878,274.97099447375,274.61510680564,274.76030515735,274.8733552699,256.87982110966,256.23933870164,256.34665507515,256.83184351874,280.25693998878,280.12372420853,280.12372420853,232.88234053735,232.88234053735,393.08997134297,386.89377389733,0
0.000347,174557116.29356,0.00010240208559243,1.0428233532542,1.5959304159311e-05,-1.0882687312557e-05,7.6545679845816e-06,2.3897950602217e-05,5.3082920406785e-19,-2.8259106719002e-17,-6.2270663535623e-19,2.3675750998171e-20,-33.677714479505,69.180818879091,-52.721828177492,38.068030650067,-2.6466028069304e-05,1.3537625190451e-19,5.8250317791372e-19,-1.0691481269315e-18,-7.9264689398204e-20,4.4644667243065e-13,-7.5271329179891e-12,-6.2617980063622e-13,6.1227235480404e-14,-1.0608992995667,1.473939187942,-3.0813165351692e-05,-1.4467952750131,1.1350942281988,1.47184257309e-26,-3.6986139713488e-24,-1.4460120381794e-26,1.4472017318987e-28,-1.2010987082519,1.2714021807944,-1.0277661991073,1.2769019129529,-3.6557114263228e-46,1.4368056895684e-27,1.35276438389e-26,-3.2651478941772e-26,-8.5313525286093e-28,2.3472583809628e-13,5.9821851119422e-13,-8.7669118223314e-13,-1.4114076644672e-13,-1.3509809963326e-46,-9.1607836182175e-47,4.6869560402506e-42,1.6713440654711e-05,-6.2236817411894e-05,233.41927297504,233.41927297504,233.03201775896,233.03201775896,267.30133672648,266.9957087882,267.15646927132,267.25443361244,203.1064700845,201.4384241839,201.9604932026,202.99521128365,232.52697769319,267.41057858797,266.91380499212,267.04832387572,267.3368916626,256.70367100402,256.43040229257,256.58803380741,256.70691067836,209.23454576596,208.31795678735,232.52697769319,208.62127391052,209.21457746763,274.96290741509,274.68216253141,274.83817420085,274.87574430728,209.49872411509,208.0649891177,208.40389595946,209.41916776183,280.29254557562,275.00635985688,274.6497891828,274.79531270713,274.90854403959,256.91380907783,256.27212189248,256.37969289224,256.86576117305,280.29254557562,280.15905514551,280.15905514551,232.91236483229,232.91236483229,393.1177644016,386.90091848198,0
0.00034725,174780308.49668,0.00010247624483096,1.0428652614118,1.62186305716e-05,-1.1019544376448e-05,7.7654553020658e-06,2.4268909729065e-05,5.6073636963266e-19,-3.002861589392e-17,-6.5507101779349e-19,2.477825909027e-20,-33.656343655143,69.195737206356,-52.7256605738,38.057947272545,-2.6883610721981e-05,1.4336596643965e-19,6.1554883349308e-19,-1.1235308721272e-18,-8.2367594661514e-20,4.6329812367858e-13,-7.854934571401e-12,-6.495454978264e-13,6.3234523255419e-14,-1.0612680859559,1.4749683911726,-3.1254459286793e-05,-1.4473607212496,1.1357627393848,1.5902368523144e-26,-4.0196960341559e-24,-1.5471231197653e-26,1.5405633256476e-28,-1.2015642796462,1.2713639231328,-1.0279989487313,1.2767598717946,-4.1642559964248e-46,1.5570465390695e-27,1.4601944413073e-26,-3.4996673877258e-26,-8.9933900166476e-28,2.4430815985568e-13,6.2195224276689e-13,-9.0752685617194e-13,-1.4507087719487e-13,-1.5192635096463e-46,-1.0605221539392e-46,5.4423333275495e-42,1.6953626291993e-05,-6.3298732897156e-05,233.45037076282,233.45037076282,233.06247664209,233.06247664209,267.33597008034,267.02975582979,267.19091308259,267.28903483074,203.12405040622,201.45202657638,201.97575305988,203.01256819016,232.55641064117,267.44543550768,266.94772542239,267.08255361437,267.37162752809,256.73723599491,256.46344349138,256.6214975419,256.74057726638,209.25768794062,208.33907369347,232.55641064117,208.64326562391,209.23789550785,274.99818647512,274.71689896311,274.87326988519,274.91088213794,209.5223852315,208.085738234,208.42566124619,209.442647746,280.32815341279,275.04172831165,274.68447640056,274.83032442743,274.94373608671,256.94780460896,256.30491612007,256.41274117579,256.89968639187,280.32815341279,280.1943888114,280.1943888114,232.94240875355,232.94240875355,393.14561787264,386.90810518851,0
0.0003475,175003638.49191,0.00010255040402302,1.0429071685932,1.6475478071815e-05,-1.1155547520759e-05,7.8739265201197e-06,2.4687028892329e-05,5.9232723007751e-19,-3.1904332019863e-17,-6.9149753373295e-19,2.5900151031836e-20,-33.636504107916,69.211595972956,-52.725088280104,38.049236054777,-2.7310104712649e-05,1.5161834810075e-19,6.505786508309e-19,-1.1804283555391e-18,-8.5520069648098e-20,4.8079113879824e-13,-8.1961865182293e-12,-6.7572960588556e-13,6.5243502548143e-14,-1.0615484040509,1.4759586620629,-3.1697024731052e-05,-1.447923423211,1.1364756161411,1.7180800313043e-26,-4.367743253702e-24,-1.6621567951058e-26,1.6375207957325e-28,-1.2019957242874,1.2713059428201,-1.0282148874759,1.2765729654313,-4.7411554349092e-46,1.6839639648131e-27,1.5762886769074e-26,-3.75012727512e-26,-9.4688879621889e-28,2.5404232962803e-13,6.4676355151659e-13,-9.3925604324513e-13,-1.4902744896837e-13,-1.7188518815284e-46,-1.2276572643629e-46,6.3165525617039e-42,1.7196618065671e-05,-6.4371140883325e-05,233.48148484308,233.48148484308,233.09295370558,233.09295370558,267.37060859296,267.06380958979,267.22536263787,267.32364103914,203.14160118844,201.46566220836,201.99102183011,203.02996576894,232.58586494883,267.48029692417,266.98165299208,267.11678978865,267.40636799796,256.77080955822,256.49649469022,256.65497016711,256.77425191915,209.28086492253,208.36023015821,232.58586494883,208.66529503713,209.26124786562,275.03346860696,274.75163984756,274.9083692074,274.94602316579,209.54607958033,208.10652876599,208.44746622915,209.46616058244,280.36376324486,275.07709957887,274.71916824115,274.86534006409,274.97893118185,256.98180743217,256.33772115584,256.44579967176,256.93361892123,280.36376324486,280.22972498708,280.22972498708,232.97247204143,232.97247204143,393.17354467969,386.91534690768,0
0.00034775,175227100.67467,0.00010262456328512,1.0429490749017,1.6730127929044e-05,-1.1291608052207e-05,7.9819727699873e-06,2.5148383342732e-05,6.2570491612984e-19,-3.389284903383e-17,-7.3178697257796e-19,2.7051337582034e-20,-33.620546962133,69.227149452865,-52.726865727441,38.036793523606,-2.7746700974827e-05,1.6014191415725e-19,6.8773801245844e-19,-1.2399604871593e-18,-8.8733132184855e-20,4.9898055921204e-13,-8.5516211169246e-12,-7.0455666112585e-13,6.727672059868e-14,-1.0617723439062,1.476804548422,-3.2140602773128e-05,-1.448463472474,1.1371939739067,1.8561082890646e-26,-4.7449608263638e-24,-1.7907257676432e-26,1.738860521132e-28,-1.2024289362521,1.2711921585424,-1.0284329373898,1.2763046848521,-5.3956349456076e-46,1.8178130052101e-27,1.7017668809892e-26,-4.0176326393541e-26,-9.9593623429101e-28,2.6393718376721e-13,6.7273590254459e-13,-9.7190656727506e-13,-1.5302766418466e-13,-1.9512611763671e-46,-1.420981123117e-46,7.3276458876977e-42,1.7444413518866e-05,-6.5459361636975e-05,233.51261508336,233.51261508336,233.12344878088,233.12344878088,267.40525210754,267.09786988466,267.25981777609,267.35825209194,203.15916021554,201.4793288651,202.00634716565,203.04738282995,232.6153403729,267.51516269518,267.01558751115,267.15103222323,267.44111293334,256.80439152565,256.52955569583,256.68845151791,256.807934488,209.30407656303,208.38142592128,232.6153403729,208.68736195501,209.2846344219,275.06875366011,274.78638501103,274.94347201057,274.98116724379,209.56980707938,208.12736037814,208.46931063037,209.48970620698,280.39937492163,275.1124735138,274.75386452842,274.90035945465,275.0141291807,257.01581740745,256.37053679334,256.47886818686,256.96755862579,280.39937492163,280.26506351502,280.26506351502,233.00255449064,233.00255449064,393.201516166,386.92261265423,0
0.000348,175450695.60295,0.00010269872264852,1.0429909804791,1.6983765879599e-05,-1.142845494649e-05,8.0900746916346e-06,2.5604994694775e-05,6.6097669140464e-19,-3.6000460934193e-17,-7.7305188865135e-19,2.8237463215085e-20,-33.605247795293,69.242861627945,-52.72671232037,38.023296089078,-2.819489606231e-05,1.6896632723152e-19,7.27207003132e-19,-1.3022366197244e-18,-9.2017497768493e-20,5.1788949869247e-13,-8.9217320572833e-12,-7.3362164717178e-13,6.9344179817009e-14,-1.0620175369872,1.477592034016,-3.2585923903324e-05,-1.4489901982427,1.1379045889273,2.0051571077595e-26,-5.1536955410304e-24,-1.9249621317601e-26,1.8451528634382e-28,-1.2028539512948,1.2710519457085,-1.0286482480525,1.2759678831264,-6.137545193248e-46,1.9591686149844e-27,1.8374439875111e-26,-4.3032425100337e-26,-1.046644476858e-27,2.7402837465668e-13,6.9998670151861e-13,-1.0055097512708e-12,-1.5708660581196e-13,-2.2076494534333e-46,-1.6445349931009e-46,8.4965399149671e-42,1.7697180118837e-05,-6.656343524628e-05,233.54376184753,233.54376184753,233.15396220854,233.15396220854,267.43990095716,267.13193707102,267.29427882342,267.39286835347,203.17683427585,201.49302182262,202.02172752142,203.06477432589,232.64483723712,267.55003315598,267.04952933116,267.18528123972,267.47586270148,256.83798223378,256.56262686084,256.72194192283,256.84162533195,209.32732328989,208.40266141691,232.64483723712,208.70946670476,209.30805560128,275.10404196492,274.82113481407,274.97857861994,275.01631473878,209.59356816351,208.14823345884,208.49119476724,209.51328509935,280.43498876951,275.14785044738,274.78856562067,274.93538292225,275.04933045093,257.04983487626,256.40336337559,256.51194704165,257.00150587137,280.43498876951,280.30040476089,280.30040476089,233.03265645181,233.03265645181,393.22957192396,386.92994096116,0
0.00034825,175674424.04893,0.00010277288190058,1.0430328859795,1.7238939849858e-05,-1.1566413911484e-05,8.1965444614677e-06,2.6041949928481e-05,6.982140191235e-19,-3.8231909996069e-17,-8.1424387225665e-19,2.9457483928668e-20,-33.581722150678,69.259591931535,-52.724783629506,38.014087333084,-2.8657160579605e-05,1.7817347830027e-19,7.6927164222215e-19,-1.3673608925602e-18,-9.5376124761646e-20,5.3747338506253e-13,-9.3065468907266e-12,-7.6209138818315e-13,7.143760501683e-14,-1.0622667911294,1.4785648555364,-3.3035131697192e-05,-1.449451814187,1.1386511686039,2.1660473512174e-26,-5.5962351108463e-24,-2.0618989398673e-26,1.9565979240887e-28,-1.203226154643,1.2709335884584,-1.0288078239272,1.2756453205737,-6.9770434228974e-46,2.1094412148717e-27,1.9843682496909e-26,-4.6079296732987e-26,-1.0990686685232e-27,2.8441413276191e-13,7.2873993379614e-13,-1.0401117803457e-12,-1.6120866259e-13,-2.4849222595385e-46,-1.9031085826572e-46,9.8470666384009e-42,1.7951249246226e-05,-6.7679513697641e-05,233.57492467142,233.57492467142,233.18449351639,233.18449351639,267.47455466843,267.16601068785,267.32874531403,267.42748938597,203.1944958604,201.50671522497,202.0371374509,203.08211660973,232.6743550337,267.58490784174,267.08347799171,267.21953636591,267.51061686622,256.87158120139,256.59570771138,256.75544091404,256.875324006,209.35060462663,208.42393615969,232.6743550337,208.73160878168,209.33151096908,275.13933305352,274.85588880624,275.01368857099,275.05146521597,209.61736237109,208.16914747537,208.51311809659,209.53689685385,280.47060432483,275.18322991551,274.82327106811,274.97041000017,275.08453455867,257.08385937292,256.43620042851,256.54503575503,257.03546021557,280.47060432483,280.33574828688,280.33574828688,233.0627774258,233.0627774258,393.25779198007,386.93740847127,0
0.0003485,175898289.59851,0.00010284704114603,1.0430747906997,1.7497279226027e-05,-1.1705116100158e-05,8.3028161209577e-06,2.647624805039e-05,7.3757190104458e-19,-4.0592892606291e-17,-8.5649641371255e-19,3.0716413733378e-20,-33.560658185064,69.278706851604,-52.722949866851,38.008242272989,-2.9145403884148e-05,1.8791441917507e-19,8.1471593920095e-19,-1.4354473581022e-18,-9.88101921618e-20,5.5780506971398e-13,-9.7063336825239e-12,-7.9087272533429e-13,7.3568877190238e-14,-1.0624673485097,1.4795537095047,-3.3487459553606e-05,-1.449824212933,1.139419254693,2.3398515462815e-26,-6.0750985518885e-24,-2.2049027004394e-26,2.0736283289451e-28,-1.2034851457742,1.2707981554793,-1.0288909804308,1.2751775891846,-7.9266028117224e-46,2.2713668082063e-27,2.1444204722787e-26,-4.9329217191808e-26,-1.1532644434935e-27,2.9526536521303e-13,7.5977057475937e-13,-1.0757284598895e-12,-1.6539278987702e-13,-2.7897773420705e-46,-2.2023604665305e-46,1.1406513955403e-41,1.8207693671835e-05,-6.8806415923324e-05,233.60610252174,233.60610252174,233.21504172114,233.21504172114,267.50921233065,267.20008979494,267.36321635943,267.46211424598,203.21210482284,201.52051519043,202.05257553746,203.09954861433,232.70389279869,267.61978584175,267.11743256511,267.25379672051,267.54537447867,256.90518748963,256.62879728967,256.78894758014,256.90902955453,209.3739194341,208.44524903163,232.70389279869,208.75378722315,209.35499941272,275.1746260356,274.89064605786,275.04880098866,275.08661774108,209.64118851759,208.19010133942,208.53507962904,209.56054025555,280.50622071691,275.21861102895,274.85797994706,275.00543981728,275.11974056868,257.1178899555,256.46904701617,256.57813342676,257.06942068879,280.50622071691,280.37109316829,280.37109316829,233.09291639824,233.09291639824,393.28605027517,386.94488436406,0
0.00034875,176122288.38479,0.0001029212003073,1.0431166933308,1.7755667132873e-05,-1.1844907267709e-05,8.4106027495026e-06,2.6913420960197e-05,7.7914825208656e-19,-4.3100523729456e-17,-9.0030162297205e-19,3.2022448398912e-20,-33.545410084199,69.291380396771,-52.721455226338,37.999420444925,-2.9630741337408e-05,1.978828165002e-19,8.6203391735931e-19,-1.5066478680352e-18,-1.0232245808943e-19,5.7893227526111e-13,-1.0123576528987e-11,-8.2032443511309e-13,7.5756195520682e-14,-1.0628254047416,1.4803966143166,-3.3941657114372e-05,-1.4501583429983,1.1401621876351,2.5274378195669e-26,-6.5947962863887e-24,-2.3556387877552e-26,2.1969344404076e-28,-1.2037779993473,1.2706695237416,-1.0290773759575,1.2748295172384,-9.001840677577e-46,2.440243735857e-27,2.3162649145087e-26,-5.2797495918636e-26,-1.2092903098729e-27,3.0618111906767e-13,7.9119331951511e-13,-1.1123784793479e-12,-1.6964270957709e-13,-3.1273589574373e-46,-2.5485921521173e-46,1.3209994068488e-41,1.8468750023933e-05,-6.9951879973521e-05,233.63729691749,233.63729691749,233.24560830693,233.24560830693,267.54387544414,267.23417585384,267.39769344708,267.49674440178,203.22979454657,201.53435022547,202.0680427712,203.11701251749,232.73345199476,267.6546686646,267.15139451089,267.28806379019,267.58013701664,256.93880259594,256.66189706164,256.82246340487,256.94274344905,209.39726932253,208.46660154129,232.73345199476,208.77600359388,209.37852249614,275.2099224126,274.925408029,275.08391736479,275.12177377998,209.66504824562,208.21109651487,208.55708087561,209.58421690037,280.54183944515,275.25399529343,274.89269371786,275.04047386618,275.15494995159,257.15192813519,256.50190459783,256.61124153616,257.1033887786,280.54183944515,280.4064408677,280.4064408677,233.1230748578,233.1230748578,393.31439787388,386.9524195356,0
0.000349,176346413.23266,0.00010299535927267,1.0431585941156,1.8011410317058e-05,-1.1985438214424e-05,8.5191514439573e-06,2.7354573744154e-05,8.2301614427086e-19,-4.5760964494012e-17,-9.4581132047447e-19,3.3387341932482e-20,-33.524232816839,69.305116384015,-52.720163065584,37.992859221923,-3.0116514853619e-05,2.0807335180874e-19,9.1186066118019e-19,-1.5810592486746e-18,-1.0590441316559e-19,6.0083820811992e-13,-1.0558475200728e-11,-8.5053674579531e-13,7.8014721899023e-14,-1.0632352263707,1.4812893967136,-3.4398651192025e-05,-1.4503563718046,1.1409074903672,2.7297156391709e-26,-7.1582669684691e-24,-2.5147897791475e-26,2.3278506864151e-28,-1.2040854733334,1.2705455484515,-1.0292724762461,1.2746077058794,-1.0217467319326e-45,2.6161883000218e-27,2.5017760296823e-26,-5.6495353276555e-26,-1.2670376669231e-27,3.1716098077836e-13,8.2356243537254e-13,-1.1500872793133e-12,-1.7394745968108e-13,-3.5014475563864e-46,-2.9498150434466e-46,1.5293716844396e-41,1.8732666461048e-05,-7.1113216741164e-05,233.66850723934,233.66850723934,233.27619269907,233.27619269907,267.57854337195,267.268268255,267.43217598768,267.53137929759,203.24752244291,201.54821954179,202.08353771301,203.13455965642,232.76303196722,267.68955568283,267.18536322508,267.3223369668,267.6149039093,256.97242586706,256.6950063933,256.85598780492,256.97646513227,209.42065352529,208.4879929257,232.76303196722,208.79825727969,209.4020796938,275.24522156024,274.96017412883,275.11903710307,275.1569327743,209.68894093388,208.23213226872,208.57912115341,209.60792632146,280.57745989993,275.28938208696,274.92741179051,275.0755115418,275.19016214163,257.18597328147,256.53477255341,256.64435946627,257.13736390276,280.57745989993,280.44179081471,280.44179081471,233.15325210926,233.15325210926,393.34286591448,386.9600526459,0
0.00034925,176570665.46873,0.00010306951799369,1.0432004949001,1.8265126980035e-05,-1.2127496504499e-05,8.626765393453e-06,2.7800028444346e-05,8.6924053983272e-19,-4.8585181551543e-17,-9.9311824744457e-19,3.4781748428419e-20,-33.502456449189,69.318946364142,-52.719352951415,37.983150416386,-3.0606306205934e-05,2.1849968753688e-19,9.6452387310551e-19,-1.6587748930708e-18,-1.095678748917e-19,6.2346272163104e-13,-1.1012150725283e-11,-8.8155462595192e-13,8.0283993610874e-14,-1.0636633015167,1.4823242309965,-3.4858321032895e-05,-1.4506920093939,1.141655406688,2.94770962308e-26,-7.769442123105e-24,-2.6828690106117e-26,2.4643743477781e-28,-1.2044264391229,1.2703994801339,-1.0294624753071,1.2744792408322,-1.1590366727525e-45,2.7994681303692e-27,2.7022749503435e-26,-6.0435109051815e-26,-1.3266885611757e-27,3.2823067300707e-13,8.5713632215814e-13,-1.18886436991e-12,-1.7832349434974e-13,-3.9158168846724e-46,-3.4146246007474e-46,1.7701279214866e-41,1.8994143144342e-05,-7.2292105395235e-05,233.69973288692,233.69973288692,233.30679437805,233.30679437805,267.61321562056,267.3023665068,267.46666353038,267.56601845398,203.26515824197,201.56212223274,202.09905880456,203.15205869425,232.79263219445,267.72444639953,267.21933822796,267.35661579741,267.64967465965,257.00605678202,256.72812476884,256.88952031497,257.01019411417,209.44407128549,208.50942249315,232.79263219445,208.82054775032,209.42567039086,275.28052300564,274.99494388071,275.15415975869,275.1920942515,209.712865831,208.25320798631,208.60119991765,209.63166783478,280.61308163057,275.32477093462,274.96213369237,275.11055239781,275.22537665863,257.22002486846,256.56765039226,256.67748674939,257.17134553847,280.61308163057,280.47714254125,280.47714254125,233.18344756043,233.18344756043,393.37149300941,386.96782941448,0
0.0003495,176795055.23255,0.00010314367649466,1.0432423951602,1.8516075232539e-05,-1.2271379392962e-05,8.7345053042255e-06,2.8248178607856e-05,9.1798712196089e-19,-5.1582045384423e-17,-1.0422721025828e-18,3.6218467736003e-20,-33.487087788696,69.332397820357,-52.718197484421,37.977769365632,-3.1096984665347e-05,2.2916667724693e-19,1.0202637740445e-18,-1.7396038195452e-18,-1.1331943090708e-19,6.4688713499037e-13,-1.1485076253086e-11,-9.1337253155038e-13,8.2591227406892e-14,-1.0640738284585,1.4833651905102,-3.5317160382667e-05,-1.4509634844456,1.1423489166124,3.1826906340425e-26,-8.4321869035983e-24,-2.8603343257042e-26,2.6075269146513e-28,-1.2047250355051,1.2701627061375,-1.029611705147,1.2743143418139,-1.3134831739147e-45,2.9902641412442e-27,2.9193124444512e-26,-6.4616525100317e-26,-1.3883617323205e-27,3.3939566096549e-13,8.9198325840657e-13,-1.2285590480107e-12,-1.8277923353417e-13,-4.3747032239207e-46,-3.9540444643481e-46,2.0482388730741e-41,1.9256884767426e-05,-7.3484887933074e-05,233.73097310763,233.73097310763,233.33741266624,233.33741266624,267.64789158596,267.3364700385,267.50115550067,267.60066127744,203.28288494061,201.57605728997,202.11460381623,203.1695107856,232.82225206843,267.75934020218,267.25331896627,267.39089972302,267.68444866362,257.03969471215,256.76125159106,256.92306033766,257.04392977686,209.46752168107,208.53088950265,232.82225206843,208.84287427893,209.44929372485,275.31582616393,275.0297167284,275.18928476902,275.22725763682,209.73682190384,208.27432301453,208.62331649147,209.65544044428,280.64870407416,275.3601612492,274.99685887494,275.14559587862,275.26059292469,257.25408224791,256.60053754935,256.71062281638,257.20533304419,280.64870407416,280.51249549341,280.51249549341,233.21366052209,233.21366052209,393.40012848011,386.97558846754,0
0.00034975,177019579.62727,0.00010321783488713,1.0432842950875,1.8765128734256e-05,-1.2415928808034e-05,8.842904052644e-06,2.8699115307145e-05,9.6942804453271e-19,-5.4763302413371e-17,-1.0933456349363e-18,3.7708945465183e-20,-33.467777331654,69.345892825602,-52.716404839221,37.975967796043,-3.1581599568577e-05,2.4010825581832e-19,1.0793347221257e-18,-1.8249712501964e-18,-1.1715168295257e-19,6.7117957026884e-13,-1.1978031113232e-11,-9.4601702805299e-13,8.4956058302241e-14,-1.0643774324841,1.4844158062201,-3.5775623342072e-05,-1.4511162052509,1.1430647005192,3.436020520201e-26,-9.1510796238659e-24,-3.0476753905178e-26,2.758478369358e-28,-1.2049534731057,1.269975677343,-1.0296570028954,1.2741781439522,-1.4897645707003e-45,3.1892191819351e-27,3.1552447682275e-26,-6.9122649637789e-26,-1.4520047442098e-27,3.5069619234456e-13,9.2807528564182e-13,-1.2697125411249e-12,-1.8730021068815e-13,-4.8825798078651e-46,-4.5854237232658e-46,2.3694945316354e-41,1.9521958312627e-05,-7.4681683508726e-05,233.76222974125,233.76222974125,233.36804944938,233.36804944938,267.68257307524,267.37058067806,267.53565374204,267.63530961468,203.30059178731,201.59002629939,202.13017224841,203.18711943534,232.85189345615,267.7942389021,267.28730727976,267.42519058526,267.71922775849,257.07334146347,256.79438868328,256.95660972788,257.07767397574,209.49100655955,208.55239583376,232.85189345615,208.86523886273,209.47295171295,275.35113284567,275.06449450361,275.22441396793,275.26242477125,209.76081105004,208.29547926884,208.64547282579,209.67924614749,280.68432905126,275.39555484317,275.03158917494,275.1806438177,275.29581277736,257.28814723389,256.63343587009,256.7437695174,257.23932825663,280.68432905126,280.54785150729,280.54785150729,233.24389280956,233.24389280956,393.42879222106,386.98335073333,0
0.00035,177244239.69115,0.00010329199327856,1.0433261962477,1.9012855435337e-05,-1.2560483809089e-05,8.9535610980866e-06,2.9154045621449e-05,1.0237000265245e-18,-5.8136430218585e-17,-1.1464274252244e-18,3.9272620286802e-20,-33.452735272489,69.358797346464,-52.716162708813,37.963771391509,-3.2078982284836e-05,2.5134668106396e-19,1.1421768729204e-18,-1.914664871089e-18,-1.2106870325381e-19,6.9636245869522e-13,-1.2492046661615e-11,-9.7953659245715e-13,8.740895428616e-14,-1.064766716301,1.4853025743608,-3.624005720728e-05,-1.451386113954,1.1437873705741,3.7091619892297e-26,-9.9297588872748e-24,-3.2453946325908e-26,2.9192707768125e-28,-1.2052470326659,1.2697824393949,-1.0297944936873,1.273997094315,-1.6899849103168e-45,3.3968112888351e-27,3.4109074606999e-26,-7.3951701155576e-26,-1.5177456906643e-27,3.621570291489e-13,9.659006199221e-13,-1.312284795008e-12,-1.9188621684035e-13,-5.4440481058943e-46,-5.3152610039631e-46,2.7399569762368e-41,1.9787861928558e-05,-7.5908914249837e-05,233.79350254049,233.79350254049,233.39870449254,233.39870449254,267.71725986259,267.404698161,267.57015803554,267.66996320922,203.31847838129,201.6040285766,202.14575786764,203.20472692985,232.88155610151,267.82914227407,267.32130290353,267.4594881607,267.75401168424,257.10699680049,256.82753578134,256.99016826133,257.11142645911,209.51452570108,208.57394121124,232.88155610151,208.88764136756,209.49664417614,275.3864428317,275.09927694188,275.25954714,275.29759539491,209.78483308737,208.31667647858,208.66766873705,209.70308476285,280.71995634757,275.43095149706,275.06632432719,275.21569599739,275.33103595482,257.32221959365,256.66634509078,256.77692662024,257.27333091829,280.71995634757,280.58321031913,280.58321031913,233.27414416152,233.27414416152,393.45756341416,386.99120025641,0
0.00035025,177469044.04446,0.00010336615143773,1.043368098144,1.9257128814764e-05,-1.2706661088769e-05,9.0665734316423e-06,2.9614744763487e-05,1.081030223575e-18,-6.1703299107355e-17,-1.2016120569764e-18,4.0937056422887e-20,-33.427475602467,69.372302613216,-52.716399424229,37.957896561791,-3.2596229145864e-05,2.6290882540546e-19,1.2090902682375e-18,-2.0080849902245e-18,-1.2507865104067e-19,7.2254774514034e-13,-1.3026294701905e-11,-1.0139831351819e-12,8.9989541949898e-14,-1.0652291172834,1.4862930678265,-3.6728740121468e-05,-1.4514295178141,1.1446293591674,4.003919763466e-26,-1.077149592657e-23,-3.4540227858899e-26,3.0930750710281e-28,-1.2055142741709,1.2697319900183,-1.0300117636302,1.2738488210237,-1.9151480502462e-45,3.6139348123709e-27,3.6870167591563e-26,-7.9073785100374e-26,-1.5856603411713e-27,3.7378072364206e-13,1.0057451344109e-12,-1.3562547352249e-12,-1.9655516747105e-13,-6.0640889022741e-46,-6.1507948257906e-46,3.1666450488915e-41,2.0062427652691e-05,-7.7168242616414e-05,233.82479043662,233.82479043662,233.42937668462,233.42937668462,267.75195094297,267.43882153391,267.60466734488,267.70462108252,203.3364583786,201.61806264868,202.16133803217,203.22238706176,232.91123893516,267.86404930587,267.35530487503,267.49379141879,267.78879947003,257.14065971377,256.86069191392,257.02373488252,257.1451862151,209.53807802966,208.59552465077,232.91123893516,208.91008049625,209.52036988394,275.42175511808,275.13406310064,275.29468326263,275.33276855154,209.80888686076,208.33791360857,208.68990300543,209.726955124,280.75558495448,275.46635020405,275.10106338539,275.25075139712,275.36626150371,257.35629830323,256.69926422252,256.81009308184,257.30734003295,280.75558495448,280.61857099031,280.61857099031,233.3044135545,233.3044135545,393.48649035106,386.99917993236,0
0.0003505,177693989.95002,0.00010344030919572,1.0434100025242,1.9499752929461e-05,-1.2855323178687e-05,9.1792759932278e-06,3.0082077161265e-05,1.1415146334999e-18,-6.5479415751516e-17,-1.2589782442707e-18,4.2647648605801e-20,-33.399313494357,69.385594691146,-52.718831532748,37.95206461374,-3.3124635120903e-05,2.7483795816062e-19,1.2802648917095e-18,-2.1054713015837e-18,-1.2918133305358e-19,7.4967687522162e-13,-1.3582184582354e-11,-1.0494391681911e-12,9.2602416116968e-14,-1.0657030326591,1.4875281830601,-3.7229341416326e-05,-1.4516605586186,1.1454687978009,4.3217634725805e-26,-1.1682157482427e-23,-3.6737942204782e-26,3.2751176874171e-28,-1.2057754078877,1.2696679717232,-1.030216234128,1.2737600580542,-2.1684335328856e-45,3.8414954454086e-27,3.9856466091175e-26,-8.4515092353351e-26,-1.6557086745472e-27,3.8561424577382e-13,1.0475342611568e-12,-1.4015462077915e-12,-2.0131223454564e-13,-6.7460334963009e-46,-7.1113090307542e-46,3.65819309788e-41,2.0338932682424e-05,-7.8451050034087e-05,233.85609279729,233.85609279729,233.46006545807,233.46006545807,267.78664578862,267.47295023228,267.63918117775,267.73928270149,203.35439941642,201.63212706729,202.1770057492,203.24006162545,232.94094135144,267.89895947468,267.38931263776,267.5280998575,267.82359056998,257.17432964046,256.89385649172,257.05730908145,257.17895270274,209.56166270136,208.61714531532,232.94094135144,208.93255568685,209.54412818121,275.45706920127,275.16885243235,275.3298218531,275.36794371146,209.83297157754,208.35918992651,208.71217502199,209.75085648305,280.79121438938,275.5017504619,275.13580580441,275.28580952966,275.4014888887,257.39038281096,256.73219269401,256.84326837499,257.3413550355,280.79121438938,280.65393298822,280.65393298822,233.33470032416,233.33470032416,393.51556871056,387.00729540873,0
0.00035075,177919087.06517,0.00010351446659249,1.0434519097291,1.974137670758e-05,-1.3004935894925e-05,9.292380125512e-06,3.0552401040443e-05,1.2053979818071e-18,-6.9477157590016e-17,-1.3189575383407e-18,4.4408028037525e-20,-33.37607352245,69.399578522353,-52.716598120035,37.946667887038,-3.3662639179482e-05,2.871585276124e-19,1.3560653789252e-18,-2.2069160610556e-18,-1.3338499948408e-19,7.7782817330372e-13,-1.4160539553386e-11,-1.0859494932708e-12,9.5257552872512e-14,-1.06610427165,1.4888479293411,-3.7736547875043e-05,-1.4519107566014,1.1462871268309,4.6648451627161e-26,-1.2667336394266e-23,-3.9077412747285e-26,3.4656239266411e-28,-1.2060152350393,1.2696386216027,-1.0303970057755,1.2736826088931,-2.4530736797244e-45,4.0801762939276e-27,4.3092571859681e-26,-9.0294326356503e-26,-1.7281332690911e-27,3.9767668770204e-13,1.0913737651023e-12,-1.4480913605643e-12,-2.0615740328949e-13,-7.5086050158107e-46,-8.2182132515273e-46,4.2242710369529e-41,2.0618581673693e-05,-7.9752752598864e-05,233.88740928165,233.88740928165,233.49077052045,233.49077052045,267.82134425814,267.50708411874,267.67369939552,267.77394787622,203.37238585473,201.64622077088,202.19269149902,203.25777106928,232.97066317314,267.93387262564,267.42332606874,267.56241336389,267.85838479207,257.20800641219,256.92702935658,257.09089068266,257.21272570119,209.58527922487,208.63880287582,232.97066317314,208.95506660102,209.56791848291,275.49238495902,275.20364480855,275.36496279546,275.40312070962,209.85708660884,208.38050521759,208.73448453806,209.77478811637,280.82684454814,275.53715214474,275.17055146297,275.32087029077,275.43671794568,257.42447291748,256.76513037226,256.87645237091,257.37537569574,280.82684454814,280.68929617836,280.68929617836,233.36500422815,233.36500422815,393.54478362842,387.01552418939,0
0.000351,178144337.30277,0.00010358862375974,1.0434938215965,1.9981940818962e-05,-1.3154724742759e-05,9.405430757103e-06,3.1026387706387e-05,1.2728629853175e-18,-7.3708369129575e-17,-1.3812259821046e-18,4.6229291756813e-20,-33.352732927224,69.413837316396,-52.715979807345,37.939748379543,-3.4211128391111e-05,2.9989606941221e-19,1.4369305983339e-18,-2.3126779924101e-18,-1.3769010965339e-19,8.0705185321903e-13,-1.4762189323949e-11,-1.123388109307e-12,9.7968732676233e-14,-1.0664639023796,1.4901712158487,-3.8247968959448e-05,-1.4522231650877,1.1470770006125,5.0350339440372e-26,-1.3732672455521e-23,-4.1544146665014e-26,3.6659992234652e-28,-1.2062512605039,1.2695906172393,-1.0305606605831,1.2735992363198,-2.7734889393711e-45,4.3307666557834e-27,4.6604273623895e-26,-9.6439737941018e-26,-1.8030098800774e-27,4.0998214677748e-13,1.1374451435103e-12,-1.4959246697936e-12,-2.1108586235349e-13,-8.3505027697871e-46,-9.4944072636094e-46,4.8756639290968e-41,2.0901932495072e-05,-8.1073578443797e-05,233.91874007804,233.91874007804,233.52149203379,233.52149203379,267.85604658213,267.54122339498,267.70822222079,267.80861683144,203.39036921597,201.66034267253,202.20838870785,203.27549554582,233.00040451684,267.96878899876,267.45734536387,267.59673215113,267.89318236671,257.24169023909,256.96021069377,257.12447989208,257.24650542152,209.60892769486,208.66049737214,233.00040451684,208.9776133181,209.59174089107,275.52770263386,275.23844044368,275.40010632446,275.43829977728,209.88123207339,208.40185947963,208.75683158795,209.79875014231,280.8624756773,275.57255549885,275.20530057324,275.35593391143,275.47194890818,257.45856885099,256.79807743123,256.90964525723,257.40940223566,280.8624756773,280.7246607899,280.7246607899,233.39532541166,233.39532541166,393.57412865108,387.02386225054,0
0.00035125,178369750.85692,0.00010366278082014,1.0435357397075,2.0220560307402e-05,-1.3304502446999e-05,9.5191710315153e-06,3.1505837218156e-05,1.3441205220319e-18,-7.8186264688702e-17,-1.4457071149246e-18,4.8134923219559e-20,-33.3329305553,69.428062112241,-52.716408820534,37.932228387538,-3.477146603919e-05,3.1307404110253e-19,1.5234227949069e-18,-2.4229752430456e-18,-1.4208373375785e-19,8.3739479567256e-13,-1.5388048024058e-11,-1.1617775761167e-12,1.0076971657653e-13,-1.0667794141735,1.4913721259504,-3.876317708822e-05,-1.4526280887996,1.1478285489928,5.4344990861939e-26,-1.4884487269828e-23,-4.4132881411641e-26,3.8789648410605e-28,-1.2064785812371,1.2694839281886,-1.0307155194269,1.2734627486615,-3.1343328903126e-45,4.594159973535e-27,5.042275276694e-26,-1.0297718241466e-25,-1.8801472364102e-27,4.2253363361842e-13,1.1859956917568e-12,-1.5450876882849e-12,-2.1608254977656e-13,-9.2727325611563e-46,-1.0966616583608e-45,5.6248993567327e-41,2.1188080633909e-05,-8.2413709576011e-05,233.95008517271,233.95008517271,233.55222994553,233.55222994553,267.89075278373,267.57536806485,267.74274965686,267.84328957374,203.40834887351,201.67449123956,202.22405521967,203.29310049924,233.03016531865,268.00370862055,267.49137051948,267.63105621942,267.92798330827,257.27538113277,256.99340049847,257.15807669728,257.28029185664,209.63260807824,208.68222874338,233.03016531865,209.00019571571,209.61559529632,275.56302225483,275.27323934817,275.43525245531,275.47348092886,209.9054079329,208.42325261357,208.7792160476,209.82274249552,280.89810780486,275.60796055468,275.24005314272,275.39100040565,275.50718179372,257.49267062929,256.8310338513,256.94284701574,257.44343466331,280.89810780486,280.76002683994,280.76002683994,233.42566384918,233.42566384918,393.60354220962,387.03224757256,0
0.0003515,178595336.52551,0.00010373693776919,1.0435776638175,2.0455997526558e-05,-1.3448912920412e-05,9.6295906230105e-06,3.199739978848e-05,1.4194941483666e-18,-8.2922678957586e-17,-1.5119312019094e-18,5.0144418178709e-20,-33.313764934779,69.441819246226,-52.718851030579,37.932199441214,-3.5344381239179e-05,3.2674120519408e-19,1.616352832566e-18,-2.5379945889957e-18,-1.4645619023606e-19,8.6905764560803e-13,-1.6038498295345e-11,-1.2012134809642e-12,1.0367068686985e-13,-1.0668716212996,1.4925148364806,-3.9284659257335e-05,-1.4527897133897,1.1485439419395,5.8657337659674e-26,-1.6129391487332e-23,-4.6804113785785e-26,4.1077106712149e-28,-1.2065745585423,1.2693138401636,-1.0308253451667,1.2732660093976,-3.5402630801178e-45,4.871923686802e-27,5.4591083628463e-26,-1.0992895497574e-25,-1.9578013690892e-27,4.3534865444532e-13,1.2373844065441e-12,-1.5956532943761e-12,-2.2101094112403e-13,-1.0254141092274e-45,-1.2668519851916e-45,6.4864689814316e-41,2.1487195574566e-05,-8.3768458484382e-05,233.98144526957,233.98144526957,233.5829849277,233.5829849277,267.92546355936,267.60951882352,267.77728238629,267.8779667987,203.42643589078,201.68866494031,202.23977893798,203.3107921378,233.05994624445,268.03863218868,267.52540222488,267.66538624931,267.9627883176,257.30907978982,257.02659946488,257.19168177678,257.31408569672,209.65632115051,208.70399773846,233.05994624445,209.02281445963,209.63948238639,275.59834451748,275.30804221859,275.47040187427,275.50866486286,209.92961496069,208.44468532674,208.8016385802,209.84676592632,280.93374162262,275.64336800817,275.27480986562,275.42607045877,275.54241730274,257.52677895145,256.86400031508,256.97605832149,257.47747367974,280.93374162262,280.79539502743,280.79539502743,233.45602023913,233.45602023913,393.63288916721,387.04053333155,0
0.00035175,178821093.02153,0.00010381109444503,1.0436195958422,2.0688042304826e-05,-1.3599561842512e-05,9.7388091909097e-06,3.2483781527503e-05,1.4992750987936e-18,-8.7934702289425e-17,-1.5810788710897e-18,5.2209605524761e-20,-33.287719177611,69.45612690955,-52.718248458259,37.929373652594,-3.5934035242691e-05,3.4099895091943e-19,1.7168456841272e-18,-2.6578379727876e-18,-1.5104862710163e-19,9.0212253617981e-13,-1.671490851219e-11,-1.2414044375075e-12,1.0660881655557e-13,-1.0671948306502,1.4938667666405,-3.9812119698922e-05,-1.4530538157314,1.1492602676609,6.3313847993627e-26,-1.7475223549831e-23,-4.9665031279686e-26,4.3470812369888e-28,-1.2066519594096,1.2691034100386,-1.030926104367,1.2730739695083,-3.9957735063607e-45,5.1668047409667e-27,5.9163717761217e-26,-1.1731288675203e-25,-2.0399007496796e-27,4.4849024311704e-13,1.2921678294736e-12,-1.6476378008471e-12,-2.261701773587e-13,-1.1367613319887e-45,-1.4639311870409e-45,7.4770305617776e-41,2.1798677476662e-05,-8.5142580268321e-05,234.01282216254,234.01282216254,233.61375879088,233.61375879088,267.96018062527,267.64367736614,267.81182213561,267.9126502093,203.44457109595,201.70286137918,202.25551180141,203.32855957362,233.08974907684,268.07356141737,267.55944217342,267.69972396074,267.99759909111,257.34278794044,257.05980930773,257.22529687601,257.34788866989,209.68006888581,208.72580627037,233.08974907684,209.04547161924,209.66340423179,275.63367112973,275.34285073761,275.50555629545,275.54385326603,209.95385520461,208.46615955242,208.824101184,209.87082251816,280.96937883412,275.67877956524,275.3095724228,275.46114578125,275.57765711827,257.56089554732,256.89697853647,257.00928090914,257.51152100312,280.96937883412,280.83076702688,280.83076702688,233.48639635983,233.48639635983,393.66235489709,387.04891363871,0
0.000352,179047031.02729,0.00010388525069674,1.0436615395057,2.091103273989e-05,-1.3779669151715e-05,9.8526752035353e-06,3.2975958988664e-05,1.583511398787e-18,-9.3236853718179e-17,-1.6532630724858e-18,5.4309796729526e-20,-33.259935632611,69.471185810977,-52.719885708972,37.925128709456,-3.6544928303883e-05,3.5595327072905e-19,1.8266623786342e-18,-2.7827004887196e-18,-1.5631338137138e-19,9.363435798755e-13,-1.7418160183883e-11,-1.2827655178873e-12,1.0957840807242e-13,-1.0675941490066,1.4953286060624,-4.0342173483108e-05,-1.4534699068737,1.1499476532772,6.8338910078492e-26,-1.8929694681186e-23,-5.2702217943837e-26,4.5939326497111e-28,-1.2067675013061,1.2687354663037,-1.0309774663278,1.2728540977894,-4.5065143555523e-45,5.4826169494352e-27,6.4219923822095e-26,-1.2515450418484e-25,-2.1337688162015e-27,4.6196325164378e-13,1.3512232529817e-12,-1.7010775967855e-12,-2.3212975317937e-13,-1.2605580155907e-45,-1.6925703416938e-45,8.6153123788651e-41,2.2104527418812e-05,-8.6535355835981e-05,234.04421347894,234.04421347894,233.64454918115,233.64454918115,267.99490169253,267.67784140387,267.84636663731,267.94733754591,203.46266260785,201.71706409204,202.27140370398,203.34648417046,233.11957143554,268.10849403517,267.59348808983,267.73406708673,268.03241337322,257.37650326193,257.09302770343,257.25891970644,257.38169849361,209.70384864977,208.74765173917,233.11957143554,209.06816474246,209.68735833947,275.66899982574,275.37766264116,275.54071346457,275.5790438923,209.97812604029,208.48767272342,208.84660135481,209.89490969768,281.00501719305,275.71419296941,275.34433855791,275.49622412144,275.61289899832,257.59501812177,256.92996621269,257.04251248532,257.54557435227,281.00501719305,280.8661405977,280.8661405977,233.5167897897,233.5167897897,393.69193382324,387.05738970038,0
0.00035225,179273171.26483,0.00010395940680364,1.0437035037695,2.1109878667937e-05,-1.3967444642392e-05,9.9683300225119e-06,3.3480009384529e-05,1.6721950603323e-18,-9.8851339743613e-17,-1.7287381316869e-18,5.6396610006417e-20,-33.237328339453,69.487529858025,-52.714425398722,37.912272489103,-3.7187446794597e-05,3.7193070136982e-19,1.9500646613096e-18,-2.9126785625783e-18,-1.6184401152008e-19,9.7164285892842e-13,-1.8150618319278e-11,-1.3255642399475e-12,1.1250154234457e-13,-1.0680380930009,1.496772390039,-4.0873585623055e-05,-1.4541935110572,1.1506458758898,7.3746746167572e-26,-2.0502207187609e-23,-5.5921808913497e-26,4.8432196689224e-28,-1.2070172237225,1.2684432305562,-1.0309717437424,1.2725505667142,-5.0802068407845e-45,5.8303107200204e-27,6.9932028100262e-26,-1.3348180346461e-25,-2.2328643829369e-27,4.7580818426301e-13,1.4167601851334e-12,-1.75582938109e-12,-2.3837547736303e-13,-1.3974093634631e-45,-1.9592095430188e-45,9.9227452482341e-41,2.2403680338441e-05,-8.7954493942759e-05,234.07561907517,234.07561907517,233.67535599643,233.67535599643,268.02962669539,267.7120108727,267.88091584722,267.98202875238,203.48086323894,201.73128111227,202.2873143565,203.36437925872,233.14941323277,268.14342998432,267.62753992545,267.76841559072,268.06723110781,257.41022566601,257.12625456681,257.2925502098,257.41551509812,209.72766016095,208.7695339295,233.14941323277,209.09089376891,209.71134452211,275.70433055615,275.41247787941,275.57587334587,275.61423669511,210.00242714628,208.50922470253,208.86913901477,209.91902714488,281.04065666667,275.74960817662,275.37910822914,275.53130544862,275.6481428985,257.62914659637,256.96296328422,257.07575300164,257.57963365126,281.04065666667,280.90151570116,280.90151570116,233.54720038033,233.54720038033,393.72176765972,387.0661078355,0
0.0003525,179499563.5349,0.00010403356277368,1.0437454981184,2.1298074115702e-05,-1.4158933149648e-05,1.0082152919631e-05,3.399250407213e-05,1.7657717825048e-18,-1.047903986034e-16,-1.8074359266064e-18,5.8458089896989e-20,-33.211914293424,69.504877367602,-52.712558282769,37.904483223909,-3.7872693371838e-05,3.889661504491e-19,2.0899268396971e-18,-3.0476813001419e-18,-1.6750773198353e-19,1.0081392084478e-12,-1.8912244232472e-11,-1.369703657856e-12,1.1535579549792e-13,-1.0684358222295,1.4982142910053,-4.1405900346117e-05,-1.4550143510761,1.1514500208781,7.9579499806976e-26,-2.2201189599306e-23,-5.9325895774939e-26,5.0936703788746e-28,-1.2072950351393,1.2683287726211,-1.03091221241,1.2722381037008,-5.723933056023e-45,6.2101658847167e-27,7.6447189327764e-26,-1.4231353566664e-25,-2.3348572357204e-27,4.9017433620097e-13,1.4900929609083e-12,-1.8117655322069e-12,-2.4475879152979e-13,-1.5483130691764e-45,-2.2724228759708e-45,1.1423831923926e-40,2.2697960414175e-05,-8.9392771991225e-05,234.10703706614,234.10703706614,233.70617724194,233.70617724194,268.06435389942,267.74618407813,267.91546795881,268.01672206292,203.49904206449,201.74556355059,202.30322187486,203.38216294805,233.17927259287,268.17836751626,267.6615959718,267.80276768868,268.10205055141,257.44395340751,257.15948818234,257.32618653256,257.44933665997,209.75150151412,208.79145101855,233.17927259287,209.11365625538,209.73536039477,275.73966158989,275.44729476828,275.61103416621,275.64942994912,210.02675645893,208.53081356806,208.89171192366,209.94317261715,281.07629551551,275.78502345135,275.41387974794,275.56638799938,275.68338710318,257.66327919485,256.99596800539,257.1090006475,257.61369711853,281.07629551551,280.93689064993,280.93689064993,233.57762634505,233.57762634505,393.75174136341,387.07494955608,0
0.00035275,179726260.61535,0.00010410771854673,1.0437875540271,2.1565472242863e-05,-1.4352154795694e-05,1.0192878056772e-05,3.4510059915562e-05,1.8645201338435e-18,-1.1106660387378e-16,-1.8892380202035e-18,6.0499769817593e-20,-33.189894241082,69.520070133778,-52.71317769206,37.902676298451,-3.8587896555229e-05,4.0547557152056e-19,2.2326174484811e-18,-3.1881917988418e-18,-1.7323274130636e-19,1.0459059919756e-12,-1.9703372021468e-11,-1.415051372388e-12,1.1814688685786e-13,-1.0687190451111,1.4995689765554,-4.1939359906155e-05,-1.4557853185835,1.1522618857804,8.5868765476962e-26,-2.4035204781069e-23,-6.2915481507859e-26,5.3459499923743e-28,-1.2075981969519,1.2682529182355,-1.0308175226,1.2720431533238,-6.447179883355e-45,6.5684739552984e-27,8.3298784435742e-26,-1.5169438511486e-25,-2.4384153062711e-27,5.0501730252719e-13,1.5639894329934e-12,-1.8690724864334e-12,-2.5120303952797e-13,-1.714620454917e-45,-2.6334429219315e-45,1.3145784275801e-40,2.2989010174637e-05,-9.0847886164406e-05,234.13846869321,234.13846869321,233.73701408082,233.73701408082,268.09908463886,267.78036232728,267.9500242526,268.05141875099,203.51723263942,201.75987899101,202.31918192344,203.40004627774,233.20915071733,268.21330795871,267.6956575202,267.83712466709,268.13687299263,257.47768780952,257.19272985076,257.35982992365,257.48316442496,209.77537396387,208.81340421828,233.20915071733,209.13645319749,209.75940693873,275.77499426486,275.4821146177,275.64619722984,275.6846249465,210.05111517756,208.55244046386,208.91432113978,209.96734717577,281.11193506946,275.82044012885,275.44865441788,275.60147308012,275.71863291039,257.69741722741,257.02898164642,257.14225668427,257.64776602987,281.11193506946,280.97226675192,280.97226675192,233.6080689621,233.6080689621,393.78169734126,387.08375399401,0
0.000353,179953437.13403,0.00010418187404541,1.0438296240111,2.1863684763495e-05,-1.4546474707395e-05,1.0301200200476e-05,3.5031243199223e-05,1.9687243782137e-18,-1.1769884608955e-16,-1.9742852029912e-18,6.2538313193235e-20,-33.168056686341,69.534212726009,-52.710715224126,37.898839697418,-3.930295269357e-05,4.2196669233944e-19,2.3794670663261e-18,-3.3342513914514e-18,-1.7899800941783e-19,1.0849832764031e-12,-2.0524473994621e-11,-1.4616267377135e-12,1.2090095962095e-13,-1.0691208192776,1.500894258797,-4.2472210849543e-05,-1.4564947251806,1.1530578270701,9.2652226119806e-26,-2.6015428041376e-23,-6.6702587662007e-26,5.6018655320961e-28,-1.2078811050599,1.2681817321685,-1.0308631680199,1.2718799442526,-7.2578103039945e-45,6.9240490235528e-27,9.0553899761637e-26,-1.6164555453471e-25,-2.5430258119035e-27,5.2014916097096e-13,1.6385441576518e-12,-1.9277276975099e-12,-2.5769230351791e-13,-1.8979342740815e-45,-3.0470832451974e-45,1.5121628152456e-40,2.3277622378676e-05,-9.2316646637499e-05,234.16991577179,234.16991577179,233.76786835856,233.76786835856,268.13382074265,267.81454744863,267.98458656462,268.08612062657,203.53546985864,201.77419891739,202.33517395145,203.41792774895,233.23904947519,268.2482531276,267.72972639792,267.8714883637,268.17170023134,257.51143070678,257.2259814093,257.39348222197,257.5170002096,209.79927943938,208.83539546779,233.23904947519,209.15928656241,209.783486045,275.81033040724,275.51693924848,275.68136436964,275.71982349463,210.07550522829,208.57410733033,208.93696862595,209.99155270907,281.14757715505,275.85586002874,275.48343405787,275.636562523,275.75388212204,257.73156250719,257.0620060456,257.17552295752,257.6818421857,281.14757715505,281.00764581674,281.00764581674,233.63853009054,233.63853009054,393.81173899536,387.09261909889,0
0.00035325,180180831.30882,0.00010425602909702,1.0438716798169,2.217709706303e-05,-1.4742896981125e-05,1.0407947242667e-05,3.5554895215341e-05,2.0787094104755e-18,-1.2471018330233e-16,-2.0625701423858e-18,6.4592353285046e-20,-33.143975760936,69.549959049054,-52.707147279949,37.897463977497,-4.0010224471667e-05,4.3872067299944e-19,2.5318329582002e-18,-3.4860107250197e-18,-1.8479319433465e-19,1.1254460393846e-12,-2.1377229117727e-11,-1.5093781547763e-12,1.2364420851719e-13,-1.0694951381439,1.5022376033963,-4.300580919052e-05,-1.4570701565151,1.1538470218888,9.996806574975e-26,-2.8154000326782e-23,-7.0692496043276e-26,5.8636909505021e-28,-1.2080965142731,1.2681137125397,-1.0308828763606,1.2717674397805,-8.165164316427e-45,7.2860191680965e-27,9.8288805936633e-26,-1.7219367842444e-25,-2.6481932870985e-27,5.3559114033803e-13,1.7142391370388e-12,-1.9877835559505e-12,-2.6423447646019e-13,-2.0996717377255e-45,-3.5220472647418e-45,1.7388615801939e-40,2.3564318290105e-05,-9.3798432972988e-05,234.20137719822,234.20137719822,233.79873894817,233.79873894817,268.16856109217,267.84873830459,268.01915377965,268.12082659069,203.55369540171,201.78861810148,202.35115812076,203.43586116997,233.26896766486,268.28320191629,267.76380146162,267.90585764735,268.20653117034,257.54518096683,257.25924170699,257.4271423082,257.55084291093,209.82321676115,208.85742350235,233.26896766486,209.18215517576,209.80759661673,275.84566890636,275.55176753468,275.71653447366,275.75502449378,210.0999255445,208.59581288156,208.95965314461,210.01578820769,281.18322066413,275.8912820444,275.51821753915,275.67165520922,275.78913363847,257.76571392714,257.09504004202,257.2087983181,257.71592448855,281.18322066413,281.04302673462,281.04302673462,233.66900855196,233.66900855196,393.84185977581,387.10153677155,0
0.0003535,180408286.45602,0.00010433018383304,1.0439137474823,2.2497931874895e-05,-1.4939028418771e-05,1.0511567257151e-05,3.6080504121983e-05,2.1947873904707e-18,-1.3213096877302e-16,-2.1539831848503e-18,6.666484343371e-20,-33.122847908845,69.56190334631,-52.706944701043,37.893532400449,-4.0704314602928e-05,4.5585201954558e-19,2.6900773296736e-18,-3.6434526144365e-18,-1.9053802270337e-19,1.1673501722346e-12,-2.2264519088551e-11,-1.5582250158823e-12,1.2637278973156e-13,-1.0698838586908,1.5035019803801,-4.3539800140743e-05,-1.457572728466,1.1546020127019,1.0785612010381e-25,-3.0465246706082e-23,-7.4884309214274e-26,6.1323248749845e-28,-1.208270868727,1.267959059519,-1.0309193239353,1.2716694553671,-9.1794022527049e-45,7.6586369363787e-27,1.0654631907804e-25,-1.8335805167477e-25,-2.7520709815349e-27,5.5132934858749e-13,1.7910297689892e-12,-2.0492095303131e-12,-2.7076011315578e-13,-2.3209211658419e-45,-4.0676666563907e-45,1.9989834025009e-40,2.3848614079249e-05,-9.5301372585449e-05,234.23285307771,234.23285307771,233.82962599487,233.82962599487,268.20330577665,267.88293493823,268.05372602465,268.15553674425,203.57189423673,201.80305816887,202.3672331116,203.45388882706,233.29890533553,268.31815442949,267.7978827598,267.94023262639,268.241365902,257.57893865895,257.29251077607,257.46081031315,257.5846926426,209.84718593722,208.87948823556,233.29890533553,209.20505930748,209.83173891332,275.88100986559,275.58659952976,275.75170766533,275.79022803317,210.12437627176,208.61755708549,208.98237484702,210.04005390279,281.21886571332,275.9267062848,275.55300491683,275.70675125453,275.82438754511,257.79987158857,257.12808367993,257.24208286086,257.75001303629,281.21886571332,281.07840957613,281.07840957613,233.69950435848,233.69950435848,393.87205166525,387.11051167621,0
0.00035375,180635946.2716,0.00010440433852717,1.0439558406891,2.2824070043175e-05,-1.5122920543659e-05,1.0614437831913e-05,3.6608426114337e-05,2.3171456938119e-18,-1.3998616710925e-16,-2.2485712533463e-18,6.8796348421183e-20,-33.105441845319,69.574940427891,-52.702933404267,37.882573645969,-4.1387354720245e-05,4.734446080925e-19,2.854618535173e-18,-3.8066262320042e-18,-1.9590567955731e-19,1.2106774187664e-12,-2.3188471299132e-11,-1.6081787412469e-12,1.2914786226792e-13,-1.0702812877976,1.5046477538406,-4.4068465360467e-05,-1.4581238567085,1.1553684613278,1.1635295800098e-25,-3.2962371685845e-23,-7.9283651322461e-26,6.4125306931317e-28,-1.2084691158122,1.2678013694503,-1.0309727909581,1.2715763991863,-1.0312956962356e-44,8.0445169267148e-27,1.1536760667194e-25,-1.9516604825241e-25,-2.847433125803e-27,5.6739304822613e-13,1.8690550610995e-12,-2.1119402190116e-12,-2.7697288476067e-13,-2.5631325026196e-45,-4.6945617081486e-45,2.2971680365699e-40,2.4129425093106e-05,-9.6831716886215e-05,234.26434328632,234.26434328632,233.86052942351,233.86052942351,268.23805469964,267.91713730168,268.08830322145,268.19025102855,203.59002803405,201.81751611491,202.38332625033,203.47185334939,233.32886243369,268.35311056366,267.83197025217,267.97461322846,268.27620435886,257.61270368514,257.32578855821,257.4944861594,257.61854933866,209.8711868047,208.90158962105,233.32886243369,209.22799895366,209.85591295446,275.91635319124,275.62143519112,275.78688386445,275.82543406067,210.1488572379,208.63933994107,209.00513368992,210.06434973851,281.25451221583,275.9621326533,275.58779615118,275.74185058097,275.85964378635,257.83403538022,257.16113691622,257.27537651937,257.78410774567,281.25451221583,281.11379429781,281.11379429781,233.73001741501,233.73001741501,393.90241608254,387.11964423838,0
0.000354,180863886.83119,0.00010447849317891,1.0439979479066,2.3153168120365e-05,-1.5308721718238e-05,1.0722471851189e-05,3.7134447446329e-05,2.4462569272518e-18,-1.4829556327625e-16,-2.3459797769934e-18,7.1066460383172e-20,-33.092312942858,69.58871333372,-52.70028788645,37.876874213529,-4.2059921437114e-05,4.9153759205951e-19,3.0258524251349e-18,-3.9755786001955e-18,-2.0119096965673e-19,1.2554787869918e-12,-2.4149364303046e-11,-1.6589898029929e-12,1.3208848929704e-13,-1.0706378792516,1.5056211319097,-4.4594775854858e-05,-1.458603318114,1.1560991470229,1.2551509927366e-25,-3.5659499610363e-23,-8.3880259702549e-26,6.7137630939406e-28,-1.2086093345334,1.2676106368489,-1.0309980998606,1.2714448946631,-1.1578264714631e-44,8.4452537884322e-27,1.2479488332933e-25,-2.0764492385399e-25,-2.9389062890163e-27,5.8377959109135e-13,1.9484403845368e-12,-2.1759591385628e-12,-2.832289270515e-13,-2.8271218905273e-45,-5.4149112254117e-45,2.6389883797297e-40,2.4403366348791e-05,-9.8382757706916e-05,234.29584651216,234.29584651216,233.89144786117,233.89144786117,268.27280666689,267.95134426224,268.12288412575,268.22496824321,203.60816021926,201.83199088845,202.39942708148,203.49001722497,233.35883769614,268.38806910178,267.86606279307,268.00899822659,268.31104534813,257.64647485027,257.35907390633,257.52816857109,257.6524117544,209.89521808169,208.9237265114,233.35883769614,209.25097244425,209.88011715506,275.95169768749,275.65627339149,275.82206184815,275.86064140794,210.17336703887,208.66116022627,209.02792817336,210.0886742574,281.29015896806,275.99755994441,275.62259010913,275.77695197161,275.89490119593,257.86820406378,257.19419857983,257.30867805459,257.81820738966,281.29015896806,281.14917976347,281.14917976347,233.76054652185,233.76054652185,393.93278025901,387.12874837263,0
0.00035425,181092044.47839,0.00010455264788791,1.0440400936091,2.3485050048675e-05,-1.5531532867221e-05,1.0837552138486e-05,3.7657932154812e-05,2.5824277033243e-18,-1.5708810018737e-16,-2.4455107952445e-18,7.3473796256294e-20,-33.079402493989,69.601936762238,-52.701999414758,37.860041610398,-4.2725859908524e-05,5.101963565269e-19,3.204310220369e-18,-4.1495296209852e-18,-2.0795774367262e-19,1.3018336549074e-12,-2.5149789562406e-11,-1.710341738739e-12,1.3519627859468e-13,-1.0710207253673,1.5064711678391,-4.5124021196742e-05,-1.4592121475962,1.1567238879079,1.3538702709512e-25,-3.8572009490763e-23,-8.8639215093274e-26,7.0361864214173e-28,-1.2089690866496,1.2674227456886,-1.0310664212828,1.271276675034,-1.2986814880742e-44,8.8627113510323e-27,1.348789071762e-25,-2.2078864815701e-25,-3.0606977841402e-27,6.0052949790851e-13,2.0294008536602e-12,-2.2406887708397e-12,-2.9090144863877e-13,-3.1115607206102e-45,-6.2434404381123e-45,3.0304255556354e-40,2.4669186151759e-05,-9.9964301707117e-05,234.32736489647,234.32736489647,233.92238343307,233.92238343307,268.30756378962,267.98555794487,268.15747084194,268.25969050755,203.62618317764,201.84657256233,202.41553478982,203.50810536196,233.38883324402,268.42303215033,267.90016250185,268.04338972325,268.34589098818,257.6802542742,257.39236894993,257.56185965694,257.68628201016,209.91928203196,208.9459011524,233.38883324402,209.27398192878,209.90435374811,275.9870454598,275.69111625283,275.85724371822,275.89585219378,210.19790796241,208.68302012448,209.05076043295,210.11302977234,281.32580807025,276.03299026087,275.65738890967,275.8120575267,275.93016189139,257.90237975225,257.22727079054,257.34198957313,257.85231408961,281.32580807025,281.18456809177,281.18456809177,233.79109382775,233.79109382775,393.9632498006,387.13793994728,0
0.0003545,181320555.56968,0.00010462680220447,1.0440821862387,2.3818828511182e-05,-1.5766602959596e-05,1.0945903006896e-05,3.8176383824057e-05,2.7264182120867e-18,-1.6638593731039e-16,-2.5472702287435e-18,7.5887091422739e-20,-33.071318840649,69.605586016871,-52.705493220868,37.849137692454,-4.3385036157646e-05,5.2950104031592e-19,3.390416901812e-18,-4.3265865329641e-18,-2.1554483073311e-19,1.3503335290214e-12,-2.6189880543404e-11,-1.7622557108486e-12,1.3825022769845e-13,-1.0714287453864,1.5073799703374,-4.5649563860167e-05,-1.4597334269078,1.1573903496643,1.4603311075973e-25,-4.1716534196135e-23,-9.3567974919762e-26,7.3663565641368e-28,-1.209371232253,1.2672250744566,-1.0311554702035,1.2710494940812,-1.4536377655993e-44,9.2994148846426e-27,1.4566594260981e-25,-2.3448463166007e-25,-3.2005052597707e-27,6.1768355861268e-13,2.1120714090733e-12,-2.3054776273305e-12,-2.9928123896218e-13,-3.4177831365282e-45,-7.1959596245711e-45,3.4787852739781e-40,2.4960105402703e-05,-0.00010156715435115,234.35889701669,234.35889701669,233.95333465195,233.95333465195,268.34232470219,268.01977705667,268.19206195576,268.29441648958,203.64450526898,201.86119376047,202.4317179812,203.52630219777,233.41884765147,268.45799832993,267.93426806809,268.07778630918,268.38073995566,257.71404059648,257.42567238182,257.59555798476,257.72015873566,209.94337727178,208.96811229658,233.41884765147,209.297025642,209.92862107396,276.02239513626,275.72596249018,275.89242807363,275.93106511194,210.22247849541,208.70491831852,209.07362885684,210.13741471681,281.36145813712,276.06842222434,275.69219125982,275.84716584583,275.96542456865,257.93656105973,257.26035220956,257.37530965707,257.8864264954,281.36145813712,281.21995799725,281.21995799725,233.82165798384,233.82165798384,393.99380325881,387.14716839073,0
0.00035475,181548911.82546,0.00010470095630098,1.0441242266831,2.4157682895901e-05,-1.6005409225686e-05,1.1038885437755e-05,3.8723719299595e-05,2.8785227162693e-18,-1.7621362966482e-16,-2.658497034823e-18,7.8159178417082e-20,-33.04827278774,69.611753443395,-52.706012175035,37.8368497658,-4.4043520469242e-05,5.4961037222637e-19,3.5847671605878e-18,-4.5115993075261e-18,-2.2364659119967e-19,1.4011008374507e-12,-2.7270655495619e-11,-1.818275736589e-12,1.4104302454594e-13,-1.0718083634398,1.508482818574,-4.61803753426e-05,-1.4603025678973,1.1581097268961,1.5749404681176e-25,-4.5110016370783e-23,-9.9042486533396e-26,7.685750143955e-28,-1.2098405560229,1.2670613105779,-1.0312740674385,1.2709111883861,-1.6286781825909e-44,9.7590513638193e-27,1.5720680501775e-25,-2.491060669605e-25,-3.3525086541065e-27,6.3538529918005e-13,2.1967524767196e-12,-2.3720059626162e-12,-3.0806059549832e-13,-3.7732804619181e-45,-8.2903188177647e-45,3.9920161179479e-40,2.5283195955426e-05,-0.00010318731666042,234.39044335147,234.39044335147,233.98430204099,233.98430204099,268.37708990601,268.054002139,268.22665800469,268.32914674698,203.66282939753,201.87586070969,202.44791657878,203.54447744188,233.4488814236,268.49296814507,267.96838004436,268.11218852011,268.41559279844,257.74783430455,257.45898472168,257.62926408993,257.75404247978,209.9675041612,208.99036036826,233.4488814236,209.32010406488,209.95291967645,276.05774722985,275.7608126592,275.92761545072,275.96628072569,210.24707904748,208.72685525807,209.09653389223,210.16182962925,281.39710969683,276.1038563491,275.72699771984,275.88227746486,276.00068978722,257.97074848008,257.29344337771,257.40863883741,257.92054513682,281.39710969683,281.25535004604,281.25535004604,233.8522394459,233.8522394459,394.02466727878,387.15670690505,0
0.000355,181777116.94655,0.00010477511014697,1.0441662222393,2.449928457398e-05,-1.6242909324268e-05,1.1124168200866e-05,3.9284401818745e-05,3.0391176726766e-18,-1.8659537611409e-16,-2.7756366956193e-18,8.0323827417683e-20,-33.028983901832,69.618411988963,-52.707734046739,37.828786481936,-4.4701701320044e-05,5.7050890535893e-19,3.7878023353469e-18,-4.7037117083627e-18,-2.3211001776635e-19,1.4538905044644e-12,-2.839267884966e-11,-1.8766302069252e-12,1.4365650286396e-13,-1.0721832768963,1.5096367698998,-4.6713006690727e-05,-1.4608545804266,1.1588154817369,1.6984213251606e-25,-4.8770788552705e-23,-1.0488952437954e-25,7.996357993913e-28,-1.2102961559975,1.2668945305608,-1.0313983745993,1.2707702693571,-1.8251821895124e-44,1.02421073406e-26,1.6955335067724e-25,-2.6462671046598e-25,-3.5139285846614e-27,6.5358826695307e-13,2.2835701928473e-12,-2.4399138530326e-12,-3.1707685545493e-13,-4.1691696021608e-45,-9.5471521117216e-45,4.5793433201164e-40,2.5617753758985e-05,-0.0001048230477728,234.4220005618,234.4220005618,234.01528226151,234.01528226151,268.41185623969,268.0882299868,268.26125582396,268.36387808954,203.68118601098,201.89053169229,202.46412258647,203.56261179108,233.47893119738,268.52793844163,268.00249522477,268.14659318728,268.45044633027,257.7816321893,257.49230272635,257.66297476392,257.78793001681,209.99165906738,209.01264171773,233.47893119738,209.34321367814,209.97724592382,276.09309860906,275.79566358044,275.96280271383,276.00149586612,210.27170594787,208.74882728315,209.11947197975,210.18627080462,281.43275963544,276.13928950708,275.76180511045,275.91738924707,276.03595438041,258.00493881632,257.32654104931,257.44197389673,257.95466679365,281.43275963544,281.29074107956,281.29074107956,233.88283485539,233.88283485539,394.05569247501,387.16639457677,0
0.00035525,182005210.76494,0.00010484926388706,1.0442082118117,2.4841615288341e-05,-1.6476927654194e-05,1.1205645529726e-05,3.9853935211292e-05,3.2087849771218e-18,-1.9755628785237e-16,-2.8975252032992e-18,8.2412524472063e-20,-33.010061506971,69.628716362196,-52.709674602605,37.82454339746,-4.536096547109e-05,5.9216162398145e-19,3.9999745094032e-18,-4.9026797521075e-18,-2.4084950518245e-19,1.5087307843606e-12,-2.9556599368533e-11,-1.9367285720541e-12,1.461492596471e-13,-1.0725288000096,1.5107845359752,-4.7245956231517e-05,-1.4613506042341,1.1594922962912,1.8315595216631e-25,-5.2718223701035e-23,-1.1105544954709e-25,8.3010676461661e-28,-1.2106882923344,1.2666921310888,-1.0314861389062,1.2706060525277,-2.0452896648205e-44,1.0748504327398e-26,1.8275672530282e-25,-2.8106585146815e-25,-3.6832392530663e-27,6.7223529972007e-13,2.3726766845392e-12,-2.5090560069236e-12,-3.2624171013738e-13,-4.6040832660824e-45,-1.0989071022378e-44,5.2511899852567e-40,2.595693153968e-05,-0.00010647237196597,234.45357039862,234.45357039862,234.04627706883,234.04627706883,268.44662549141,268.12246236119,268.29585721269,268.39861230886,203.69949489243,201.90522099166,202.48032822711,203.58066836594,233.50899867355,268.5629110187,268.03661537152,268.18100210041,268.48530234315,257.81543601652,257.52562813933,257.69669179393,257.8218231307,210.01584363083,209.03495792613,233.50899867355,209.36635622567,210.00160154778,276.12845107655,275.83051702855,275.99799167002,276.03671232768,210.29636088095,208.77083595747,209.14244478114,210.210739958,281.46840976539,276.17472350549,275.79661520696,275.95250299611,276.07122014308,258.03913385507,257.35964696929,257.47531660287,257.98879324974,281.46840976539,281.32613288787,281.32613288787,233.9134459109,233.9134459109,394.08674634403,387.17610157268,0
0.0003555,182233409.32231,0.00010492341751839,1.0442502062058,2.518152076192e-05,-1.6702999006091e-05,1.1286011246432e-05,4.0430352513857e-05,3.3882145545486e-18,-2.0912569066059e-16,-3.024001539414e-18,8.4455538862372e-20,-32.994658062667,69.639352540559,-52.711439258254,37.824853146053,-4.602412375218e-05,6.1449178274613e-19,4.2222293162642e-18,-5.1078214417718e-18,-2.4972841731513e-19,1.5657317507243e-12,-3.0763519822298e-11,-1.9984478447977e-12,1.4857113212855e-13,-1.0728438642216,1.5118562924589,-4.7776981323252e-05,-1.4617319298498,1.1601187895706,1.9752614933656e-25,-5.6973950614457e-23,-1.1753899665213e-25,8.6031049770893e-28,-1.2109600225008,1.266439433817,-1.0315253649622,1.2703641688465,-2.2910804497171e-44,1.1277357578987e-26,1.9690004200249e-25,-2.9842044145501e-25,-3.8580785640926e-27,6.9122528545989e-13,2.4644334585751e-12,-2.5790977798145e-12,-3.3540200912467e-13,-5.0803778272822e-45,-1.2645019702539e-44,6.0195437586206e-40,2.6298746968579e-05,-0.00010813388648937,234.48515435633,234.48515435633,234.07728796092,234.07728796092,268.48139914377,268.15670071426,268.33046365861,268.43335086615,203.71767761087,201.91998799759,202.4964845913,203.5985948756,233.53908533068,268.5978873625,268.07074193792,268.21541674468,268.52016229805,257.849247266,257.55896241729,257.73041666871,257.85572329116,210.04005940744,209.05731049705,233.53908533068,209.38953333371,210.02598813474,276.1638061172,275.8653744533,276.0331838067,276.07193156578,210.32104543871,208.79288278009,209.16545386679,210.23523867444,281.5040615737,276.21015983075,275.83142945978,275.98762019855,276.10648853069,258.07333508297,257.39276259629,257.50866843889,258.02292597395,281.5040615737,281.36152692104,281.36152692104,233.94407408752,233.94407408752,394.11771017174,387.18570005316,0
0.00035575,182461773.00673,0.00010499757088059,1.0442921380391,2.5505516415514e-05,-1.6926819723413e-05,1.1368731658891e-05,4.1021809283794e-05,3.5781297216091e-18,-2.21326873829e-16,-3.1570798252029e-18,8.648222373628e-20,-32.986012753574,69.643253654373,-52.715513918323,37.831651427786,-4.670250680534e-05,6.3698978505884e-19,4.4569805098125e-18,-5.3180747453686e-18,-2.5887588157192e-19,1.6250631544683e-12,-3.201348303055e-11,-2.0628015574491e-12,1.5097628205714e-13,-1.0731542777938,1.5127253446889,-4.8299888407637e-05,-1.4619034005699,1.1606985941764,2.130476375768e-25,-6.1559168453016e-23,-1.2444376680504e-25,8.905274283228e-28,-1.2110775703059,1.2660591978805,-1.0315359382553,1.2699370126484,-2.5648041805984e-44,1.1818488581996e-26,2.1212968843453e-25,-3.1667056983439e-25,-4.0409713299275e-27,7.1003276221971e-13,2.560026238587e-12,-2.6495129277769e-12,-3.447044805359e-13,-5.6076146223454e-45,-1.4549974804845e-44,6.8978726290426e-40,2.6644745097195e-05,-0.00010980284283377,234.5167540136,234.5167540136,234.10831653463,234.10831653463,268.51617868185,268.19094651331,268.36507666882,268.46809525287,203.73582639756,201.9347610523,202.51268684249,203.61657811886,233.5691927233,268.63286896531,268.10487639616,268.24983862046,268.55502768196,257.88306743292,257.59230704165,257.76415091643,257.8896320152,210.06430813064,209.07970109135,233.5691927233,209.41274683868,210.0504075232,276.19916521111,275.90023731452,276.06838061676,276.10715505452,210.34576143833,208.81496941258,209.18850098571,210.25976880893,281.53971654082,276.2455999658,275.86624933076,276.02274234476,276.14176101558,258.10754400981,257.42588942087,257.54203091913,258.05706647482,281.53971654082,281.3969246381,281.3969246381,233.97472091992,233.97472091992,394.14846812428,387.1950592096,0
0.000356,182689926.51472,0.00010507172403058,1.0443340222243,2.5848247364688e-05,-1.7181570864394e-05,1.1457412296414e-05,4.1605144932686e-05,3.7790054411838e-18,-2.3421141598742e-16,-3.2927809174368e-18,8.8571458456858e-20,-32.975576463558,69.649346569667,-52.717067981604,37.831024898851,-4.7377892411535e-05,6.6131883619046e-19,4.7020192753957e-18,-5.5315042934759e-18,-2.6927610565155e-19,1.6867190505447e-12,-3.3311041208785e-11,-2.1275864900127e-12,1.5347120667693e-13,-1.0734442731981,1.5136596516681,-4.8805125800519e-05,-1.4619986589542,1.1612077711545,2.2980965217571e-25,-6.6502544082413e-23,-1.3159222965054e-25,9.2175784924711e-28,-1.2111549902683,1.2655731032229,-1.0314987621462,1.2694019470781,-2.868750799881e-44,1.240986009219e-26,2.2841683355383e-25,-3.3575658273548e-25,-4.2503189516527e-27,7.3020006982948e-13,2.6579053961785e-12,-2.7193146309382e-12,-3.5524209584167e-13,-6.1774008734567e-45,-1.6739630659141e-44,7.9015687292265e-40,2.6994531765022e-05,-0.00011148952646466,234.54837113403,234.54837113403,234.13936458914,234.13936458914,268.55096565406,268.22520128841,268.39969784362,268.50284706576,203.75417398888,201.94957155692,202.52900939599,203.63467516736,233.59932253416,268.66785739603,268.13902028696,268.28426930892,268.58990008242,257.91689808468,257.62566356362,257.79789618485,257.9235509504,210.08859178031,209.10213152367,233.59932253416,209.43599894076,210.07486199984,276.23452989734,275.93510713295,276.1035836684,276.14238435484,210.37051107815,208.83709768133,209.21158816159,210.28433270563,281.57537620717,276.28104545763,275.90107634495,276.05787099566,276.1770391551,258.14176224463,257.45902901437,257.57540565232,258.09121638259,281.57537620717,281.43232756542,281.43232756542,234.00538804527,234.00538804527,394.17919776872,387.20434371116,0
0.00035625,182917951.85739,0.00010514587706148,1.0443758823902,2.6222918458311e-05,-1.7442706964347e-05,1.1538855171273e-05,4.2174342198738e-05,3.9913919464771e-18,-2.4782035171999e-16,-3.4307186143262e-18,9.0652728716877e-20,-32.955928057449,69.657258557247,-52.711002387177,37.825201353384,-4.8036859370235e-05,6.8809927267957e-19,4.9547985765529e-18,-5.7425787524548e-18,-2.8030824478279e-19,1.7507371927742e-12,-3.4658595968022e-11,-2.1925159550979e-12,1.5589414050165e-13,-1.0737359109598,1.5146719041501,-4.9271613615495e-05,-1.4621536592742,1.1616792833217,2.4790031974331e-25,-7.1832185308624e-23,-1.3897521870652e-25,9.5360016079173e-28,-1.2112433616422,1.265231864565,-1.0314484011984,1.2689955538774,-3.2073206336325e-44,1.3066097886203e-26,2.4568347727208e-25,-3.5550088879861e-25,-4.4746517280043e-27,7.5230211719758e-13,2.7566389787898e-12,-2.785470661329e-12,-3.6631443937302e-13,-6.7921752639399e-45,-1.9245117059024e-44,9.0481113472539e-40,2.7343066774067e-05,-0.00011319750644041,234.58000389334,234.58000389334,234.17043029519,234.17043029519,268.58575818781,268.25946321544,268.43432530872,268.53760446199,203.77249552515,201.96439864547,202.54539215917,203.65267673744,233.62947296627,268.70285077908,268.17317179035,268.31870694505,268.62477765861,257.95073736491,257.65903016451,257.83165061039,257.95747825457,210.1129086356,209.12460015955,233.62947296627,209.45928787665,210.09934984942,276.26989829374,275.96998208014,276.13879108027,276.17761762565,210.39529263475,208.85926592199,209.23471364134,210.30892866841,281.61103868628,276.31649442377,275.93590867647,276.09300427441,276.21232110971,258.17598792329,257.49217956357,257.6087907907,258.12537385728,281.61103868628,281.46773386827,281.46773386827,234.0360736634,234.0360736634,394.2102033822,387.21388421233,0
0.0003565,183145980.58791,0.00010522003002047,1.0444177400691,2.6612366242439e-05,-1.7711155928342e-05,1.1616940967333e-05,4.2745451739187e-05,4.2164143472162e-18,-2.6218540330992e-16,-3.572168932641e-18,9.275939536862e-20,-32.940283463873,69.667719181806,-52.701239594173,37.825480012036,-4.8688712698092e-05,7.1649683223127e-19,5.2167692602199e-18,-5.9592786720195e-18,-2.9197267096942e-19,1.8173575062029e-12,-3.6056459562376e-11,-2.2584224875214e-12,1.583017435762e-13,-1.0740108819662,1.5156537613212,-4.974591934764e-05,-1.4623141226711,1.162127984624,2.6746387152698e-25,-7.7576444710512e-23,-1.466479740883e-25,9.8643575452331e-28,-1.2112666704791,1.2649789821257,-1.0314171572226,1.2686240651746,-3.5840363385143e-44,1.3768833675458e-26,2.6403010715112e-25,-3.7626242222659e-25,-4.7143084045618e-27,7.7555578364564e-13,2.857010199247e-12,-2.8523844568667e-12,-3.7791852037063e-13,-7.457402923387e-45,-2.2114178226404e-44,1.0357660169199e-39,2.7692365577079e-05,-0.00011492026697202,234.61164825291,234.61164825291,234.20150968153,234.20150968153,268.62055243536,268.29372841409,268.46895525599,268.57236359993,203.79067413911,201.97918590503,202.56172594365,203.67083468673,233.65964000065,268.73784527369,268.20732703447,268.35314771002,268.65965655672,257.98458137015,257.69240291773,257.86541034706,257.99141005705,210.13725429164,209.14710260607,233.65964000065,209.48260944586,210.12386682324,276.30526659061,276.00485830734,276.17399906621,276.21285104122,210.42010167083,208.88146978141,209.25787316915,210.33355230789,281.64670019954,276.35194305705,275.97074247959,276.12813839034,276.24760304869,258.21021715562,257.52533715901,257.64218246816,258.15953500443,281.64670019954,281.50313972445,281.50313972445,234.06677370916,234.06677370916,394.24135266035,387.22353152421,0
0.00035675,183374133.2236,0.00010529418334326,1.0444596438877,2.7012957317062e-05,-1.7978922661831e-05,1.169846708855e-05,4.3328613013163e-05,4.455551316371e-18,-2.7736267007793e-16,-3.7173329759404e-18,9.494335987615e-20,-32.934269855539,69.682727663752,-52.699671819589,37.812517235111,-4.9345150594643e-05,7.4619269100543e-19,5.4894520527891e-18,-6.1934503079165e-18,-3.039493514642e-19,1.8867063312646e-12,-3.7509016017167e-11,-2.3255155819358e-12,1.6078880263422e-13,-1.0742354887037,1.5163808947179,-5.029328786802e-05,-1.462594050172,1.1625076168075,2.8868529791209e-25,-8.3769722336487e-23,-1.5461841862988e-25,1.0207741995269e-27,-1.2115288774067,1.2648345609553,-1.031382617861,1.2680637521127,-4.0000278733016e-44,1.4510760683742e-26,2.8355836664219e-25,-3.9852546441567e-25,-4.9636597718471e-27,7.9968308620443e-13,2.9598331519724e-12,-2.9265665755169e-12,-3.8968668702366e-13,-8.1757111500342e-45,-2.5393393361332e-44,1.1852639930102e-39,2.803116166872e-05,-0.00011666684213142,234.64330574546,234.64330574546,234.23260431701,234.23260431701,268.65535003995,268.32799851308,268.50358934822,268.60712610623,203.80919706352,201.99409115781,202.57818770017,203.68910088277,233.68982521202,268.77284251714,268.241487652,268.38759326669,268.69453839374,258.01843171927,257.72578343327,257.89917703635,258.02534796958,210.16163018694,209.16964027101,233.68982521202,209.50596515909,210.14841435795,276.34063644845,276.03973745438,276.20920930064,276.24808623817,210.44493961988,208.90371066928,209.28106822698,210.35820503431,281.68236242328,276.38739301491,276.00557939502,276.16327501719,276.2828866041,258.24445155079,257.55850341981,257.67558232793,258.193701419,281.68236242328,281.53854677843,281.53854677843,234.0974897333,234.0974897333,394.27248559849,387.23313375823,0
0.000357,183602682.40275,0.00010536833643052,1.0445015934438,2.7419561552466e-05,-1.8245470938153e-05,1.1772986438483e-05,4.3915166576464e-05,4.7067373437557e-18,-2.9338308166814e-16,-3.8680560556758e-18,9.7103067768011e-20,-32.909418985072,69.688460467687,-52.694685784697,37.800560682428,-5.0011222488523e-05,7.7717717658816e-19,5.7741664799932e-18,-6.4379504723546e-18,-3.1618297804551e-19,1.9586589780678e-12,-3.9015638674143e-11,-2.3943412902105e-12,1.6319149703777e-13,-1.074545147397,1.5174896843551,-5.0858002827186e-05,-1.4628955050573,1.1633424101438,3.1143899652499e-25,-9.0444125453142e-23,-1.6300594265952e-25,1.0555178700938e-27,-1.2119116850367,1.264793457011,-1.0314691892193,1.2677852860886,-4.4643648607434e-44,1.5294211938815e-26,3.0439366290303e-25,-4.2209919865906e-25,-5.2214116360117e-27,8.2459046099923e-13,3.0656092925468e-12,-3.0036231131826e-12,-4.0157932561261e-13,-8.9608930763366e-45,-2.9150575422828e-44,1.3559145310609e-39,2.8389259455798e-05,-0.00011842950383326,234.67497819476,234.67497819476,234.26371583763,234.26371583763,268.69015271917,268.36227529291,268.5382291983,268.64189373491,203.82780400971,202.0089980782,202.59465996606,203.70743028954,233.72003023538,268.80784422154,268.27565538008,268.42204521798,268.72942495143,258.05229016455,257.75917350057,257.93295229269,258.05929372041,210.1860383568,209.19221518639,233.72003023538,209.52935634863,210.17299410766,276.37600955426,276.07462129736,276.24442340184,276.28332498538,210.46980851365,208.92599043279,209.30430028623,210.38288880507,281.71802699989,276.42284598006,276.04042117965,276.19841576694,276.31817355336,258.27869285514,257.59168005562,257.70899197196,258.22787489035,281.71802699989,281.57395680453,281.57395680453,234.12822356843,234.12822356843,394.30407652721,387.24317416594,0
0.00035725,183831629.3438,0.00010544248926163,1.0445436663012,2.7820650269328e-05,-1.8509611005151e-05,1.18436354514e-05,4.4501154005909e-05,4.9709753222214e-18,-3.1029130726968e-16,-4.0236508401722e-18,9.9262417129023e-20,-32.884531914909,69.698088492447,-52.69357647047,37.791335953144,-5.0684590408874e-05,8.0909064686262e-19,6.0717539356495e-18,-6.686494351546e-18,-3.2863686663987e-19,2.033230413981e-12,-4.0577277138711e-11,-2.4645505504965e-12,1.6554658560381e-13,-1.0748468428718,1.5187146556226,-5.1410134891175e-05,-1.4631912230892,1.1642993140095,3.3586160012157e-25,-9.7638083297627e-23,-1.7178195111014e-25,1.0909797954688e-27,-1.2123644158618,1.2647638028699,-1.0315507397338,1.2675873195178,-4.9825652440545e-44,1.6113182984257e-26,3.2663883929357e-25,-4.4670897276302e-25,-5.4869211854159e-27,8.498764784114e-13,3.1745570883889e-12,-3.0805275560052e-12,-4.1355917990888e-13,-9.8143891162486e-45,-3.3457521377808e-44,1.550763338683e-39,2.875459105604e-05,-0.00012020023156916,234.70665958166,234.70665958166,234.29483821463,234.29483821463,268.72495488065,268.39655311306,268.57286917323,268.67666076292,203.84631867941,202.02402160117,202.6111178103,203.72578079983,233.75024918446,268.84284477328,268.30982457969,268.45649796239,268.76431051567,258.08615104422,257.79256742833,257.96673038541,258.09324150765,210.21047243443,209.21482105337,233.75024918446,209.55277651589,210.19759934691,276.41138035933,276.10950422215,276.27963580094,276.31856161578,210.49470174924,208.94830276455,209.32756297091,210.40759681093,281.75368840697,276.4582963971,276.07526222148,276.23355508464,276.35345823464,258.31293536038,257.62486137434,257.74240572755,258.2620496289,281.75368840697,281.6093641899,281.6093641899,234.15896933763,234.15896933763,394.33593509196,387.253473111,0
0.0003575,184061414.01949,0.00010551664179417,1.0445854718132,2.8198550836268e-05,-1.8769073861898e-05,1.1916735926839e-05,4.5086524872352e-05,5.248958873672e-18,-3.2812711299248e-16,-4.1842515977862e-18,1.0148404708623e-19,-32.86835300172,69.698960951918,-52.695619908301,37.782540105009,-5.1379946651479e-05,8.4110886783858e-19,6.385603591317e-18,-6.9265692049048e-18,-3.4131607800883e-19,2.1103858315698e-12,-4.2193849624849e-11,-2.5362011828263e-12,1.679632337646e-13,-1.0751912595933,1.5199600206213,-5.1909030035263e-05,-1.4635884288847,1.1652030680392,3.6208345835165e-25,-1.0539078990741e-22,-1.8095994275393e-25,1.127781189983e-27,-1.2128734108125,1.2646440808033,-1.0316946711034,1.2672964578901,-5.5557857088936e-44,1.6950446422009e-26,3.505009475994e-25,-4.7161276574882e-25,-5.7605750342906e-27,8.747514974731e-13,3.2883496540622e-12,-3.1522054394735e-12,-4.2561526128539e-13,-1.0741380434144e-44,-3.8398976953687e-44,1.7732447435169e-39,2.9123071424298e-05,-0.00012196945608538,234.73835171068,234.73835171068,234.32597322859,234.32597322859,268.75975849813,268.43083391643,268.60751122328,268.7114291231,203.86467406374,202.03911462579,202.62759032432,203.74396307958,233.78048385451,268.87784614567,268.34399718863,268.49095345298,268.79919702677,258.12001629524,257.82596712949,258.00051322138,258.12719322668,210.23493401596,209.23745946606,233.78048385451,209.57622723197,210.22223158157,276.44675085914,276.14438819044,276.31484847794,276.35379808632,210.51962088528,208.97064926613,209.35085787325,210.43233054853,281.78934864925,276.49374626169,276.11010448048,276.26869495167,276.38874260825,258.3471810014,257.65804927872,257.77582550656,258.29622754309,281.78934864925,281.64477090801,281.64477090801,234.18972885806,234.18972885806,394.36801439282,387.2639724101,0
0.00035775,184289822.65078,0.00010559079437549,1.044627140877,2.8591100694596e-05,-1.9023486106135e-05,1.1996873610999e-05,4.5665029714583e-05,5.5418734973488e-18,-3.4692737329989e-16,-4.3496467492899e-18,1.038120768048e-19,-32.860572093495,69.700319285248,-52.696062049666,37.781767837029,-5.2038769634388e-05,8.7554163005049e-19,6.7066872966045e-18,-7.1131891722595e-18,-3.5439397340792e-19,2.1903533505661e-12,-4.3861331621858e-11,-2.609131154749e-12,1.7051771582224e-13,-1.0754938364309,1.5211233736957,-5.2230290718324e-05,-1.4639823274499,1.1659009507673,3.9026699788678e-25,-1.1375003191745e-22,-1.9053787163765e-25,1.1663732839951e-27,-1.2132717483233,1.2642837011142,-1.0317404200702,1.2668734514468,-6.1731250139171e-44,1.7862569804712e-26,3.7565832872628e-25,-4.9391252408301e-25,-6.0460908649868e-27,9.0119493161093e-13,3.4018824765595e-12,-3.2013206273002e-12,-4.3789920646135e-13,-1.1745663912024e-44,-4.4052670281616e-44,2.0276451743774e-39,2.9494562533807e-05,-0.00012369975447863,234.77005515968,234.77005515968,234.35712146907,234.35712146907,268.79456415438,268.46511831462,268.64215596126,268.74619948785,203.88324104888,202.05422278624,202.64412099593,203.76234910605,233.81073474764,268.91284894362,268.37817382506,268.5254122866,268.83408515675,258.15388647338,257.85937317783,258.03430140808,258.16114953278,210.25942341737,209.26013075826,233.81073474764,209.59970896595,210.246891377,276.48212165451,276.17927384266,276.35006204836,276.38903507642,210.54456632306,208.99303029868,209.37418539229,210.45709059134,281.82500834216,276.52919618409,276.14494860036,276.30383597798,276.42402735422,258.38143037554,257.69124435376,257.80925188361,258.3304092856,281.82500834216,281.68017763114,281.68017763114,234.22050260497,234.22050260497,394.40008176205,387.27443071807,0
0.000358,184517596.42511,0.00010566494673237,1.0446687419061,2.901861925493e-05,-1.9287444410819e-05,1.2072815774153e-05,4.625183352097e-05,5.8509075472339e-18,-3.6682200159717e-16,-4.5199459182187e-18,1.0613355267862e-19,-32.844157604443,69.705720858703,-52.695942984122,37.771329837184,-5.2664830041525e-05,9.1346169870352e-19,7.0347668848584e-18,-7.3775495247898e-18,-3.6796792356913e-19,2.2733033803004e-12,-4.559366611399e-11,-2.6835215299555e-12,1.7302702288571e-13,-1.075829283592,1.5223597777292,-5.2722626823538e-05,-1.4643764952934,1.1667804772816,4.2060317433619e-25,-1.2278563845918e-22,-2.0051985866143e-25,1.2055237428684e-27,-1.2136814636614,1.2641052301286,-1.0317687775117,1.2664770117782,-6.9189403811161e-44,1.8875204251371e-26,4.0217899901145e-25,-5.2264597400199e-25,-6.3453950078421e-27,9.3016223645186e-13,3.5148438818087e-12,-3.2768867334678e-12,-4.5057125691704e-13,-1.2830600876121e-44,-5.0517278976879e-44,2.3189230626972e-39,2.9867212668002e-05,-0.00012544099806179,234.80177281084,234.80177281084,234.38828590582,234.38828590582,268.82937455871,268.49940905928,268.67680618208,268.78097468032,203.90176452711,202.06938709359,202.66063150325,203.78091584328,233.84100473684,268.9478558983,268.41235726599,268.55987724489,268.86897771204,258.18776429715,257.89278832453,258.06809778553,258.19511328605,210.2839435469,209.28283783126,233.84100473684,209.62322497948,210.27158208949,276.51749545468,276.21416393496,276.38527927355,276.42427538297,210.56954112507,209.01544882447,209.39754862649,210.48188027076,281.86067021106,276.56464888315,276.17979734848,276.33898092094,276.45931526384,258.41568624254,257.72444939673,257.84268766893,258.36459768193,281.86067021106,281.71558712983,281.71558712983,234.25129334797,234.25129334797,394.43235997177,387.28508794414,0
0.00035825,184745121.33385,0.00010573909892657,1.0447103073923,2.9472784599092e-05,-1.9564244053206e-05,1.2146604523838e-05,4.6848034234217e-05,6.1770482572949e-18,-3.8789377677541e-16,-4.6950774083749e-18,1.0845988562041e-19,-32.836482038573,69.708553963864,-52.701534457339,37.752244866236,-5.3324254297907e-05,9.5458510462519e-19,7.3834380052146e-18,-7.7079583324798e-18,-3.8197059530925e-19,2.3593305263943e-12,-4.7408840996545e-11,-2.7593066282386e-12,1.7551438889683e-13,-1.0763452645328,1.5234831084362,-5.3386635404214e-05,-1.4648592181891,1.1677930645396,4.5328420637698e-25,-1.3253322607552e-22,-2.1091059885949e-25,1.2453510133425e-27,-1.2142335520191,1.2640601133553,-1.031993356091,1.2660423304904,-7.7802598848919e-44,1.9983765328616e-26,4.3081161466648e-25,-5.5675571296677e-25,-6.6575561539002e-27,9.6134698685418e-13,3.633614880959e-12,-3.3761917271069e-12,-4.6357593978387e-13,-1.400110167798e-44,-5.7935947677698e-44,2.6512059475105e-39,3.0242160295301e-05,-0.00012730188471921,234.83350178808,234.83350178808,234.4194636484,234.4194636484,268.86418695221,268.53370335583,268.71145911811,268.81575191796,203.92050348084,202.08455699699,202.67719852263,203.79952978712,233.87129091131,268.98286425702,268.44654471355,268.59434555618,268.90387191559,258.22164697348,257.92620974839,258.10189955432,258.22908167839,210.30849130172,209.30557756277,233.87129091131,209.64677223835,210.2963006607,276.55286952134,276.24905569075,276.42049740767,276.45951623845,210.59454219999,209.03790176322,209.42094452956,210.5066965184,281.89633152786,276.60010162322,276.21464794705,276.37412703332,276.4946035721,258.44994582085,257.75766158031,257.8761300548,258.39878993347,281.89633152786,281.75099664284,281.75099664284,234.28209818362,234.28209818362,394.4647905896,387.29587804303,0
0.0003585,184972580.35363,0.00010581325094103,1.0447518581977,2.9945437595411e-05,-1.983522083533e-05,1.2218392527192e-05,4.7451852966358e-05,6.521127399484e-18,-4.1017655474478e-16,-4.8751044183444e-18,1.1080533179475e-19,-32.820184195792,69.714576947888,-52.704937994107,37.733986269493,-5.400247223716e-05,9.986461740458e-19,7.7503457227479e-18,-8.0861003501268e-18,-3.9611204617287e-19,2.448418800026e-12,-4.9300075443517e-11,-2.83650784135e-12,1.7799476672533e-13,-1.0768429304235,1.5245956935395,-5.4156322668484e-05,-1.4653949110066,1.1689058179774,4.8850045667791e-25,-1.4304642336127e-22,-2.2171799055977e-25,1.2861103305249e-27,-1.2148825406108,1.2641709864796,-1.0322510252108,1.2656971148818,-8.7460174195542e-44,2.1184824619871e-26,4.6150370179151e-25,-5.950885854836e-25,-6.9776343363707e-27,9.9444567657059e-13,3.7570859192276e-12,-3.4917259269052e-12,-4.7653803040345e-13,-1.5261907550675e-44,-6.6445525430213e-44,3.0303485569474e-39,3.0614653730434e-05,-0.00012921573902321,234.86524273325,234.86524273325,234.45065527663,234.45065527663,268.89900201211,268.56800193602,268.74611540966,268.85053192603,203.93925953989,202.09967980733,202.6937571758,203.81799683997,233.90159385106,269.01787469609,268.48073688452,268.62881785765,268.93876850342,258.25553517419,257.95963815879,258.13570733831,258.26305540065,210.33306722962,209.3283505761,233.90159385106,209.67035108925,210.32104757464,276.58824453205,276.28394985684,276.45571710383,276.49475838927,210.61957005491,209.06038967877,209.44437348865,210.53153989733,281.93199296157,276.63555508098,276.24950113641,276.40927496635,276.52989302903,258.48420978141,257.79088158629,257.90957966108,258.43298675364,281.93199296157,281.78640692816,281.78640692816,234.31291775791,234.31291775791,394.49747141648,387.30690654906,0
0.00035875,185200090.82407,0.00010588740277152,1.0447934112218,3.0431415337319e-05,-2.0102058996622e-05,1.229126499659e-05,4.8057079653806e-05,6.8845285476629e-18,-4.3372821917254e-16,-5.0594034904021e-18,1.132182429546e-19,-32.803353437552,69.727153778735,-52.709550775195,37.727837689599,-5.4695469095084e-05,1.0455955593563e-18,8.1351299175127e-18,-8.4962572758774e-18,-4.1044107933227e-19,2.5408732734279e-12,-5.12643498568e-11,-2.9147808756386e-12,1.8053539401216e-13,-1.0772046680697,1.525682142136,-5.4961712856155e-05,-1.4657875982304,1.17000873576,5.2646993251012e-25,-1.5439441033351e-22,-2.3291598663931e-25,1.3284544581562e-27,-1.21546461295,1.264267796043,-1.0324210481295,1.2652050004045,-9.819331980312e-44,2.2481391829727e-26,4.9429836976786e-25,-6.3688462470443e-25,-7.3064311517985e-27,1.0293190576018e-12,3.885114228243e-12,-3.6161765379825e-12,-4.8951751388769e-13,-1.6614968948465e-44,-7.62012389766e-44,3.4637672621875e-39,3.098840477824e-05,-0.00013114614735677,234.8969941821,234.8969941821,234.48185927562,234.48185927562,268.93381850887,268.60230357017,268.78077375774,268.88531337962,203.95794232281,202.114918008,202.71035797081,203.83650307129,233.9319121834,269.05288595361,268.51493253261,268.66329287432,268.97366615895,258.28942765393,257.99307231382,258.1695197839,258.29703307718,210.3576698419,209.35115548104,233.9319121834,209.69395973306,210.3458209388,276.62361926399,276.31884520502,276.49093710073,276.53000054843,210.64462300031,209.08291113076,209.4678338806,210.55640854135,281.9676532837,276.67100801995,276.28435568075,276.44442346711,276.56518234992,258.51847681733,257.82410814287,257.94303518426,258.4671867852,281.9676532837,281.82181674004,281.82181674004,234.34375076694,234.34375076694,394.53009969681,387.31786074253,0
0.000359,185427747.74644,0.0001059615542587,1.0448349655443,3.0919424800764e-05,-2.0365857058822e-05,1.2365034058267e-05,4.8663289230893e-05,7.2673259911052e-18,-4.5859708551672e-16,-5.248723477565e-18,1.1567818333399e-19,-32.792614710544,69.729577542428,-52.712386451768,37.717179427996,-5.537556630901e-05,1.095559836241e-18,8.5315154431022e-18,-8.93203009404e-18,-4.2503312669279e-19,2.6366094977161e-12,-5.3300750241509e-11,-2.9944049465207e-12,1.8310132867269e-13,-1.0775365238868,1.5266493031549,-5.5773962807467e-05,-1.4661856297962,1.1710161226847,5.6727818913237e-25,-1.6663446763308e-22,-2.4455674363087e-25,1.3722022048585e-27,-1.2159669096006,1.2643480480142,-1.0325694369412,1.2649953702893,-1.1012145031908e-43,2.388521548707e-26,5.2884363455686e-25,-6.8189940135234e-25,-7.6457061448979e-27,1.06577958008e-12,4.0148857771946e-12,-3.7464925446483e-12,-5.0258330750353e-13,-1.8070751949043e-44,-8.7318599683662e-44,3.9587601525883e-39,3.1362144697501e-05,-0.00013307757677338,234.92875973485,234.92875973485,234.51307920871,234.51307920871,268.96864003861,268.63661181956,268.81543771717,268.92009979257,203.97656440427,202.13023075046,202.72700907095,203.85502217369,233.96224952121,269.08790161286,268.54913520978,268.69777417292,269.00856840449,258.32332802605,258.02651580093,258.20334044406,258.33101822952,210.38230296822,209.3739960558,233.96224952121,209.71760189356,210.37062443207,276.65899730015,276.35374527683,276.52616095722,276.56524622826,210.66970483314,209.10546985627,209.4913294322,210.58130614713,282.0033160624,276.70646401804,276.319215118,276.47957609923,276.60047505055,258.55275051712,257.8573448192,257.97650019971,258.50139356569,282.0033160624,281.85722959863,281.85722959863,234.37460087036,234.37460087036,394.56285223871,387.32891384305,0
0.00035924999999999,185655546.44222,0.00010603570530009,1.0448765131406,3.1406410560993e-05,-2.0621977631036e-05,1.243900011146e-05,4.9268679090413e-05,7.6703482820632e-18,-4.8482978806369e-16,-5.4433348204941e-18,1.181937806056e-19,-32.786258281614,69.729157701449,-52.714643717004,37.705317292093,-5.6027134692307e-05,1.1484294469227e-18,8.9351258368236e-18,-9.3904274985064e-18,-4.3980547877704e-19,2.7358031369355e-12,-5.5407384324846e-11,-3.0754294582179e-12,1.8570192253576e-13,-1.0778386672152,1.5275753886708,-5.6580618166328e-05,-1.4665852477998,1.1719345123608,6.1109940550488e-25,-1.7983058325431e-22,-2.5666705801078e-25,1.4175169906775e-27,-1.2164396899892,1.2643814529031,-1.0326229805285,1.2648198699693,-1.2333977861737e-43,2.5398062347537e-26,5.6494832604823e-25,-7.3005845365348e-25,-7.9941998212891e-27,1.1036542630273e-12,4.1445439805953e-12,-3.8812467943767e-12,-5.156303742498e-13,-1.963778708365e-44,-1.0000138011146e-43,4.5239931705283e-39,3.1739659591422e-05,-0.00013499344996556,234.96053738432,234.96053738432,234.54431312688,234.54431312688,269.00346462158,268.67092470777,268.85010533695,268.95488919716,203.99513062228,202.14557423358,202.74368155491,203.87361375216,233.99260389779,269.12291968699,268.58334294177,268.73225979557,269.04347325593,258.35723430378,258.05996663821,258.23716736942,258.36500889373,210.40696461602,209.39687031606,233.99260389779,209.74127570738,210.39545616518,276.69437666718,276.38864809885,276.56138671886,276.60049345843,210.69481358287,209.12806388725,209.51485822689,210.60623077834,282.03897933331,276.74192109726,276.35407747374,276.51473090381,276.63576915227,258.5870288849,257.89058964195,258.00997274861,258.53560510376,282.03897933331,281.8926435307,281.8926435307,234.40546606903,234.40546606903,394.59574018511,387.34007539002,0
0.00035949999999999,185883441.92419,0.00010610985607309,1.0449180555781,3.1887190081254e-05,-2.087493928894e-05,1.2515666281553e-05,4.9870829362588e-05,8.0950512236413e-18,-5.12327609254e-16,-5.6430863073115e-18,1.2079847112447e-19,-32.783599873281,69.730543137898,-52.717446218563,37.691553780716,-5.6755450335042e-05,1.2050945839847e-18,9.3818906964374e-18,-9.8713716811039e-18,-4.5490097888552e-19,2.8387090434199e-12,-5.757462565071e-11,-3.1577195152562e-12,1.8838627803227e-13,-1.0783132545313,1.5284006260084,-5.7380079089893e-05,-1.4670496851041,1.1727555743962,6.5820062000538e-25,-1.9398025547129e-22,-2.692501301299e-25,1.4648471818341e-27,-1.2169261478472,1.2643457129155,-1.0328817980033,1.2644952461295,-1.3798015303213e-43,2.7048936053999e-26,6.0539876253326e-25,-7.8151220607952e-25,-8.3550156083933e-27,1.1434897721349e-12,4.2872151244215e-12,-4.0201239728678e-12,-5.288076420757e-13,-2.13223682928e-44,-1.1488027595163e-43,5.1665884429344e-39,3.2124556851896e-05,-0.00013695042030124,234.99232701018,234.99232701018,234.57556097125,234.57556097125,269.03829210637,268.70524208966,268.88477652936,268.98968151671,204.01393621751,202.16090807417,202.76037345518,203.89214412081,234.02297516374,269.15794004179,268.61755559706,268.76674963589,269.07838062144,258.39114631629,258.09342465917,258.27100048209,258.39900500137,210.43165454654,209.41977799584,234.02297516374,209.76498113087,210.42031614387,276.72975722982,276.42355354375,276.59661428802,276.63574215284,210.71994913677,209.15069299823,209.53842013818,210.63118245036,282.07464298189,276.77737912888,276.38894262585,276.54988777563,276.67106456267,258.62131178434,257.92384247142,258.04345271722,258.56982130279,282.07464298189,281.92805843206,281.92805843206,234.43634614915,234.43634614915,394.62868404831,387.35127590215,0
0.00035974999999999,186111442.93379,0.00010618400649633,1.0449596055607,3.2340470446055e-05,-2.1128386574367e-05,1.2592434483891e-05,5.0472012494775e-05,8.5419581575044e-18,-5.4109021219407e-16,-5.8477810929049e-18,1.2349798765192e-19,-32.765116566029,69.737486525392,-52.718893476721,37.684771130687,-5.7511028961069e-05,1.2680739226728e-18,9.8609098618773e-18,-1.0376362878877e-17,-4.704720244433e-19,2.9451733162026e-12,-5.9789239109858e-11,-3.2412260349518e-12,1.9114023189444e-13,-1.0787424724319,1.5292747701408,-5.817721153301e-05,-1.4673990158009,1.1735513090446,7.0876827603301e-25,-2.0915760577599e-22,-2.8229578867471e-25,1.5145053025762e-27,-1.2172859578571,1.2642740264353,-1.0330811573086,1.2641169878823,-1.542459320846e-43,2.8922520227832e-26,6.4940204866968e-25,-8.3653942697079e-25,-8.7317053333568e-27,1.1866141229546e-12,4.4390799810236e-12,-4.1634000580208e-12,-5.4226196869059e-13,-2.3126696656938e-44,-1.320923821028e-43,5.8986540010529e-39,3.2508168477872e-05,-0.00013887930686557,235.02412944103,235.02412944103,234.60682355378,234.60682355378,269.0731232253,268.7395647208,268.91945205574,269.02447759034,204.03276061596,202.17632718268,202.77711802988,203.91069006732,234.05336399163,269.19296343661,268.65177393013,268.80124442715,269.11329134044,258.42506478429,258.12689059448,258.30484055624,258.4330073905,210.45637348487,209.44271969231,234.05336399163,209.78871891694,210.44520528483,276.76513972811,276.45846238991,276.63184441716,276.67099314498,210.74511241602,209.1733577565,209.56201578417,210.6561621901,282.11030775379,276.81283886338,276.42381135218,276.58504745593,276.70636211513,258.6555999897,257.95710403573,258.07694082525,258.6040430028,282.11030775379,281.96347511429,281.96347511429,234.46724179622,234.46724179622,394.66176848119,387.36259995394,0
0.00035999999999999,186339621.13501,0.00010625815647916,1.0450011959794,3.2855053083838e-05,-2.1380324477e-05,1.2671349520063e-05,5.1073462820458e-05,9.0114688965763e-18,-5.7087781270614e-16,-6.0576797117913e-18,1.2635494810997e-19,-32.748111036309,69.742015387849,-52.718579153187,37.67549415125,-5.8285938865542e-05,1.3298507032332e-18,1.0366175332836e-17,-1.0905900225752e-17,-4.8656033271746e-19,3.0551151178183e-12,-6.2004096035257e-11,-3.3260766529172e-12,1.9403585199405e-13,-1.0791184921067,1.530097565053,-5.8966518637399e-05,-1.4676924513396,1.1743096639192,7.6297803527282e-25,-2.2539532032291e-22,-2.9582226819725e-25,1.5675040196178e-27,-1.2176573264222,1.2641921126537,-1.0331578896305,1.2640979326513,-1.7232299562139e-43,3.0792720329662e-26,6.9695070427123e-25,-8.953404505037e-25,-9.1261638326964e-27,1.228800675274e-12,4.5962122395127e-12,-4.3108838418887e-12,-5.5599220813041e-13,-2.5059902557542e-44,-1.5197659891192e-43,6.7349825856079e-39,3.2889119342314e-05,-0.00014068190044339,235.05594362383,235.05594362383,234.63809991127,234.63809991127,269.10795700569,268.77389157489,268.95413098926,269.05927642024,204.05148687816,202.19175145641,202.79384590946,203.92929879513,234.08376938374,269.22798890548,268.68599693037,268.83574323879,269.1482044024,258.4589887064,258.1603634049,258.33868665628,258.46701507006,210.48112026148,209.4656941902,234.08376938374,209.81248828618,210.47012262954,276.80052321086,276.49337362012,276.66707618314,276.70624543232,210.77030226689,209.19605705216,209.5856442726,210.68116885929,282.14597272067,276.84829935279,276.45868264221,276.62020902078,276.74166080281,258.68989251108,257.99037332557,258.11043612765,258.63826918497,282.14597272067,281.99889256936,281.99889256936,234.49815193196,234.49815193196,394.69508731529,387.37413286886,0
0.00036024999999999,186568162.67615,0.00010633230639587,1.0450429307086,3.3384939023799e-05,-2.1624253447546e-05,1.2758757972091e-05,5.1669026073927e-05,9.5051203885327e-18,-6.0217864124241e-16,-6.2723824799696e-18,1.2950343843559e-19,-32.738604150149,69.749042839961,-52.723653894712,37.657239588731,-5.9050167144348e-05,1.3922883246703e-18,1.0896338498642e-17,-1.1458425907924e-17,-5.0285852469695e-19,3.1686705335956e-12,-6.4270393535644e-11,-3.4120550178085e-12,1.9724802921993e-13,-1.0794185474731,1.5306896151287,-5.9709209889958e-05,-1.468043293075,1.1749187536051,8.2115067476897e-25,-2.4290565021529e-22,-3.0981033563505e-25,1.6257584266686e-27,-1.2181612890321,1.2638948839875,-1.0331125482827,1.2641853773848,-1.923737391176e-43,3.2712310492798e-26,7.4814107765722e-25,-9.5806247945012e-25,-9.5320778368013e-27,1.271035428149e-12,4.757482760065e-12,-4.4608637898612e-12,-5.6968971122486e-13,-2.712378512186e-44,-1.7499530452794e-43,7.6922459208139e-39,3.3261280289767e-05,-0.00014240387437363,235.08776837801,235.08776837801,234.66938901933,234.66938901933,269.1427924198,268.80822162324,268.98881237454,269.09407697953,204.07026986069,202.20722572975,202.8104887546,203.94812751439,234.1141903485,269.26301540644,268.72022359079,268.87024511847,269.18311874747,258.49291702535,258.19384204107,258.37253781494,258.5010270114,210.5058935008,209.48870023226,234.1141903485,209.8362882988,210.49506701076,276.83590667481,276.52828621624,276.70230863211,276.74149799069,210.79551730697,209.21878981901,209.60930467428,210.70620111122,282.18163691135,276.88375958684,276.49355548482,276.65537151608,276.7769595872,258.72418826693,258.02364933815,258.14393766657,258.67249875909,282.18163691135,282.03430977916,282.03430977916,234.52907542871,234.52907542871,394.72853800444,387.38577602959,0
0.00036049999999999,186797656.24983,0.00010640645603571,1.0450844536608,3.3926704431672e-05,-2.18677568592e-05,1.2841730550853e-05,5.226690468528e-05,1.0024531574841e-17,-6.3635281387247e-16,-6.491662282331e-18,1.3277899152396e-19,-32.728194844826,69.752136509411,-52.736500791508,37.635027228825,-5.9832402929983e-05,1.4567103977506e-18,1.1447134043207e-17,-1.2038846867001e-17,-5.1957679280237e-19,3.2860532818619e-12,-6.6797671626058e-11,-3.499088787629e-12,2.0052997664901e-13,-1.0799742526384,1.5313833443056,-6.0472937444573e-05,-1.4684800448395,1.1754679977793,8.8364205488744e-25,-2.6197444411584e-22,-3.2425582448367e-25,1.6873467412224e-27,-1.2188074639604,1.263555793017,-1.0333579901063,1.2643018517774,-2.1452231170672e-43,3.4720607227859e-26,8.0275715024526e-25,-1.0250260190719e-24,-9.9542422324786e-27,1.3141780979956e-12,4.9221122170994e-12,-4.6166338158061e-12,-5.8356974069783e-13,-2.9324098644813e-44,-2.0167170114903e-43,8.7767715882423e-39,3.3638870304276e-05,-0.00014452028767812,235.11960473987,235.11960473987,234.70069185546,234.70069185546,269.17763056921,268.8425560252,269.02349725667,269.12888035355,204.08911953012,202.22271288473,202.82728663001,203.96685822615,234.14462798231,269.29804401476,268.7544550552,268.9047511289,269.21803546771,258.52685085753,258.22732766448,258.40639505992,258.53504427023,210.53069435742,209.51173908777,234.14462798231,209.8601197785,210.52003924915,276.87129120921,276.56320133176,276.73754282211,276.77675192848,210.82075863477,209.24155731418,209.63299800349,210.73125993029,282.21730139857,276.9192206432,276.5284310261,276.69053600543,276.81225957801,258.7584883251,258.05693320806,258.17744650845,258.70673279782,282.21730139857,282.06972787928,282.06972787928,234.56001344189,234.56001344189,394.76213367967,387.39753360535,0
0.00036074999999999,187026085.59351,0.00010648060510191,1.0451258888293,3.4471747688711e-05,-2.2115958204173e-05,1.2920992922369e-05,5.2875620123347e-05,1.0572537706335e-17,-6.7310353541685e-16,-6.7157243332081e-18,1.3611295251372e-19,-32.716803346834,69.757128369021,-52.741517998554,37.61968914517,-6.0536740004223e-05,1.5235675130945e-18,1.199891897011e-17,-1.2649594360483e-17,-5.3679071367285e-19,3.40777079554e-12,-6.9508363219881e-11,-3.5873206141724e-12,2.0381629801137e-13,-1.0803400509171,1.5321947552038,-6.1316572761486e-05,-1.4690333872786,1.1762391395514,9.5090254314924e-25,-2.82686307958e-22,-3.391747543183e-25,1.7511408104164e-27,-1.2195311942051,1.2634934538973,-1.0333770748111,1.2643929123176,-2.3876694134799e-43,3.683527959248e-26,8.5982886590308e-25,-1.096372498124e-24,-1.039257394227e-26,1.3584013294853e-12,5.081684230058e-12,-4.7803189580406e-12,-5.9779624539579e-13,-3.1668313664814e-44,-2.3299992213137e-43,1.001174028982e-38,3.4021619393803e-05,-0.0001467636309901,235.15145251542,235.15145251542,234.73200819549,234.73200819549,269.21247130944,268.87689469117,269.05818547712,269.16368648188,204.10812444485,202.23820046363,202.84413617628,203.9857425635,234.17508202176,269.3330745983,268.7886912267,268.93926110051,269.25295451114,258.5607900382,258.26082014743,258.44025821616,258.56906674915,210.55552236457,209.53481044107,234.17508202176,209.88398223088,210.5450389548,276.90667668039,276.5981189049,276.77277860685,276.8120072059,210.84602571711,209.26435921768,209.65672379612,210.75634491526,282.25296604982,276.95468239338,276.56330920147,276.72570233823,276.84756073902,258.79279254295,258.09022479338,258.21096245749,258.74097121903,282.25296604982,282.10514683491,282.10514683491,234.59096573919,234.59096573919,394.79584079362,387.40940071701,0
0.00036099999999999,187254151.06737,0.00010655475385131,1.0451672914648,3.5016924226406e-05,-2.2368903966351e-05,1.2988676187149e-05,5.3487780512208e-05,1.115004356733e-17,-7.1200222436149e-16,-6.9451111522877e-18,1.393552158589e-19,-32.69799036238,69.764998381874,-52.743776030012,37.603937135815,-6.1357290988568e-05,1.5931427349732e-18,1.2612231232086e-17,-1.3291726744875e-17,-5.5477902647614e-19,3.5345469228979e-12,-7.2354328761216e-11,-3.6768875145488e-12,2.0686200785e-13,-1.0809602322808,1.5332196107762,-6.2195814425373e-05,-1.4696054447348,1.1770309695791,1.0231536168591e-24,-3.0492418354512e-22,-3.5461117057016e-25,1.8156658590349e-27,-1.2201538908382,1.2634164011971,-1.0337030466963,1.2645153744382,-2.6549644884009e-43,3.9069921740604e-26,9.2322304231736e-25,-1.1725412280412e-24,-1.0855319859683e-26,1.40379690879e-12,5.259356257882e-12,-4.9507907448385e-12,-6.1255627029693e-13,-3.4168815803728e-44,-2.6841598562352e-43,1.140623157376e-38,3.4444852398879e-05,-0.00014914807351897,235.18331166145,235.18331166145,234.76333803288,234.76333803288,269.24731467959,268.91123761048,269.09287710058,269.1984953702,204.12724057195,202.2536665052,202.86097255384,204.00478618086,234.20555245513,269.36810720162,268.82293210437,268.97377509669,269.28787587793,258.59473457938,258.29431946692,258.47412733184,258.60309445141,210.5803773588,209.55791413316,234.20555245513,209.90787567086,210.57006597665,276.94206314665,276.63303893325,276.80801606031,276.84726382937,210.87131840533,209.28719543111,209.68048206181,210.78145587347,282.28863094098,276.99014489831,276.59819001278,276.76087058832,276.88286307493,258.82710094202,258.12352408973,258.24448555884,258.77521401396,282.28863094098,282.14056665119,282.14056665119,234.62193225842,234.62193225842,394.82978644669,387.42149442027,0
0.00036124999999999,187482165.20224,0.00010662890225856,1.0452086886461,3.5563434486776e-05,-2.263408529433e-05,1.3047504153258e-05,5.4098938714397e-05,1.1759004503921e-17,-7.5299234951552e-16,-7.1789320383153e-18,1.4242879388354e-19,-32.677124190287,69.775916827459,-52.750883109262,37.58514731137,-6.2222716954575e-05,1.665641100203e-18,1.3267538632084e-17,-1.3965616623467e-17,-5.7343962084759e-19,3.66620762144e-12,-7.5320370909093e-11,-3.7673914606617e-12,2.0965240391937e-13,-1.0817078013696,1.5344153986216,-6.3088849195594e-05,-1.4702860379227,1.1777870516858,1.1008557570154e-24,-3.2872649049455e-22,-3.7051552547157e-25,1.8788850968367e-27,-1.2210172562317,1.2633111585025,-1.0341827308495,1.2646741990335,-2.9476772705965e-43,4.1434363151112e-26,9.9194846839164e-25,-1.2537552071471e-24,-1.1338684838506e-26,1.4504701297746e-12,5.4468868009e-12,-5.1275216845988e-12,-6.2781262309712e-13,-3.6824357418252e-44,-3.0863894347692e-43,1.297605038546e-38,3.488025216499e-05,-0.00015161160289974,235.21518070785,235.21518070785,234.79467987905,234.79467987905,269.28215928971,268.94558337396,269.12757073933,269.2333056418,204.14636454773,202.26916235126,202.87776066322,204.02384179334,234.23603775549,269.40314045092,268.85717628079,269.00829172285,269.32279819894,258.62868305832,258.32782418279,258.5080009943,258.63712597543,210.60525764278,209.58104846293,234.23603775549,209.93179845908,210.59511865254,276.97744923869,276.66796003067,276.84325381156,276.88252043534,210.89663500842,209.31006425872,209.70427113055,210.80659111652,282.32429471503,277.02560679631,276.63307207573,276.79603938316,276.9181652264,258.86141212724,258.15682965757,258.27801438434,258.80945979265,282.32429471503,282.17598596601,282.17598596601,234.65291147629,234.65291147629,394.86389458118,387.43375464108,0
0.00036149999999999,187710281.38511,0.0001067030504341,1.0452501017668,3.6109663201994e-05,-2.2899773677384e-05,1.3096211771011e-05,5.470601305825e-05,1.2399735247897e-17,-7.9618736829652e-16,-7.4166082487491e-18,1.4540859975221e-19,-32.657492400891,69.785551889356,-52.763839305463,37.567922967014,-6.3098072510201e-05,1.7412056048412e-18,1.3959955937762e-17,-1.467156890226e-17,-5.9266852164455e-19,3.8023851347545e-12,-7.8405145137193e-11,-3.8586121988115e-12,2.1225649213758e-13,-1.0824269903066,1.5355426147881,-6.3983770199537e-05,-1.4709465060635,1.1784080958502,1.1842913874064e-24,-3.5423468125488e-22,-3.8685009743872e-25,1.9421552758288e-27,-1.2219366212394,1.2630490774077,-1.0346445315183,1.2648369245685,-3.2680202141855e-43,4.3938466535957e-26,1.0659783514611e-24,-1.3402691301655e-24,-1.1842590584978e-26,1.4984359301752e-12,5.6416629437764e-12,-5.3100280165283e-12,-6.4337927696579e-13,-3.9632804688847e-44,-3.5444312863297e-43,1.474665673446e-38,3.5316963329072e-05,-0.00015411738821893,235.2470600949,235.2470600949,234.82603414257,234.82603414257,269.31700573728,268.97993257272,269.16226696199,269.26811787674,204.16535411525,202.28474296315,202.89449687889,204.04268386483,234.26653835889,269.43817494167,268.89142433869,269.04281154893,269.35772206184,258.66263604269,258.3613348562,258.5418797329,258.67116186002,210.63016347853,209.60421373722,234.26653835889,209.95575074872,210.62019703045,277.01283557081,276.70288280755,276.87849245609,276.91777762987,210.92197570626,209.33296601419,209.72809123861,210.83175067287,282.35995799093,277.06106870096,276.66795599724,276.83120931849,276.95346780246,258.89572666117,258.19014204248,258.31154946757,258.84370910841,282.35995799093,282.21140540216,282.21140540216,234.68390386232,234.68390386232,394.89804597154,387.4460629388,0
0.00036174999999999,187938620.58486,0.00010677719827287,1.0452915228274,3.6657707494035e-05,-2.3174540297041e-05,1.3132414085684e-05,5.5290461501469e-05,1.3076418037342e-17,-8.4158726784869e-16,-7.6572239194356e-18,1.4832639896286e-19,-32.645076613156,69.788087060454,-52.779703587549,37.560624110251,-6.395096896543e-05,1.8204186656112e-18,1.4688869616814e-17,-1.5410038266531e-17,-6.1300241597681e-19,3.9440235113174e-12,-8.1598099224188e-11,-3.9499509757188e-12,2.14677789255e-13,-1.0829812698497,1.5366532555829,-6.4870499864514e-05,-1.4713900848723,1.1787553155812,1.2741577859608e-24,-3.8153390373837e-22,-4.0357716045471e-25,2.0064037121886e-27,-1.2227916464307,1.2625107454101,-1.0349351665476,1.2649001867263,-3.6163986881181e-43,4.6606751405852e-26,1.145716130017e-24,-1.4323471687575e-24,-1.2381335188063e-26,1.5480015926719e-12,5.8421962423863e-12,-5.4979875383271e-12,-6.5970811436071e-13,-4.2595704605179e-44,-4.0687555214665e-43,1.6743394772918e-38,3.5767737298459e-05,-0.00015661087475179,235.27895111244,235.27895111244,234.85740210682,234.85740210682,269.35185532918,269.01428656478,269.19696705089,269.30293339969,204.18435879164,202.30036347448,202.91130599341,204.06168726027,234.2970556015,269.47321196961,268.92567763077,269.07733586579,269.39264879389,258.69659485187,258.3948528454,258.57576482939,258.7052034164,210.65509624403,209.62741144236,234.2970556015,209.97973384643,210.64530240365,277.04822344062,276.73780862007,276.91373327764,276.95303674867,210.94734176695,209.35590219169,209.75194374134,210.85693577733,282.39562205657,277.0965319054,276.70284313118,276.86638168118,276.9887721397,258.9300458409,258.22346259311,258.34509210796,258.87796327734,282.39562205657,282.2468263086,282.2468263086,234.71491077288,234.71491077288,394.93206240267,387.45822476854,0
0.00036199999999999,188167139.01647,0.00010685134585519,1.0453329533831,3.7211152597736e-05,-2.343790614615e-05,1.3148893046683e-05,5.5875772776051e-05,1.3792045028309e-17,-8.894819674589e-16,-7.9005925525116e-18,1.5117039654206e-19,-32.632046719166,69.790784774691,-52.791958989915,37.546944670391,-6.4848147465236e-05,1.9037519456175e-18,1.5455029267994e-17,-1.6182605589518e-17,-6.3261797655334e-19,4.092150108551e-12,-8.4922076835205e-11,-4.041631804491e-12,2.168420614541e-13,-1.0837502187984,1.5377897702708,-6.5789811776448e-05,-1.4716770768109,1.1790970707667,1.3709078104788e-24,-4.1083471569647e-22,-4.2066931866767e-25,2.0722405851435e-27,-1.2236646387683,1.2619467063236,-1.0354372870167,1.2648252933226,-3.9933518563683e-43,4.9458638595063e-26,1.2310684550437e-24,-1.530201995852e-24,-1.2908409186719e-26,1.5994521728535e-12,6.0506643052118e-12,-5.6925596543602e-12,-6.7526112591975e-13,-4.5710774070447e-44,-4.6651162952e-43,1.8997987607118e-38,3.6248737654443e-05,-0.0001591898668152,235.31085611353,235.31085611353,234.88878624071,234.88878624071,269.38671029836,269.04864761789,269.23167330766,269.33775450195,204.20361111371,202.31606164373,202.92819208505,204.0808902049,234.32759192235,269.50825376918,268.9599384468,269.11186697371,269.42758066446,258.73056173827,258.42838043375,258.60965862745,258.73925297595,210.68005843104,209.65064413733,234.32759192235,210.00375065612,210.67043764425,277.08361507395,276.77273972612,276.94897854675,276.98830005848,210.97273573236,209.37887542013,209.77583140273,210.88214916592,282.43128914799,277.13199863606,276.73773574426,276.90155874151,277.02408049637,258.96437192232,258.25679363513,258.37864464459,258.91222458727,282.43128914799,282.28225093674,282.28225093674,234.74593454189,234.74593454189,394.96611114004,387.47041339253,0
0.00036224999999999,188395845.9178,0.00010692549349349,1.0453744040417,3.7773329046925e-05,-2.3691015925512e-05,1.3208273747877e-05,5.6406894710262e-05,1.4543541127055e-17,-9.4000071100518e-16,-8.1336826573463e-18,1.54421807689e-19,-32.610140288025,69.792321438505,-52.800569176541,37.526945595164,-6.5764014556682e-05,1.9917342449886e-18,1.626042721456e-17,-1.6988118227895e-17,-6.5188697712243e-19,4.2449094661002e-12,-8.8381156972486e-11,-4.128024254302e-12,2.1971212075571e-13,-1.0845604470861,1.5388561414639,-6.67154286482e-05,-1.4722176572087,1.1792832688338,1.4744476513447e-24,-4.4227853211556e-22,-4.3732223299854e-25,2.1426968954661e-27,-1.2245927238749,1.2614883902089,-1.0359560267381,1.2648326953483,-4.4033861747203e-43,5.2517999231747e-26,1.3225696214989e-24,-1.6340143654892e-24,-1.3432139384129e-26,1.6530615667193e-12,6.2666428123479e-12,-5.8925104034322e-12,-6.9038296854603e-13,-4.8861897202131e-44,-5.3447077345821e-43,2.1542727498152e-38,3.6698531219298e-05,-0.00016183319907207,235.34277314974,235.34277314974,234.92018457044,234.92018457044,269.42156867029,269.08301377252,269.26638375179,269.37257925275,204.22287451917,202.33182628902,202.94519318581,204.1001021423,234.35814529454,269.54329837675,268.99420482173,269.14640288095,269.4625157479,258.76453472113,258.46191564747,258.64355914636,258.77330859878,210.70504802468,209.67390978562,234.35814529454,210.02779918945,210.69560085145,277.11900849876,276.80767417804,276.98422628432,277.02356563199,210.99815564298,209.40188367186,209.79975219486,210.90738898185,282.46695729078,277.16746692509,276.77263188653,276.93673851588,277.05939094711,258.99870294627,258.29013318454,258.41220507528,258.94649110848,282.46695729078,282.31767735411,282.31767735411,234.77697316444,234.77697316444,395.00050153581,387.48295539668,0
0.00036249999999999,188624801.97118,0.00010699964111825,1.0454158881803,3.8338186427881e-05,-2.3935658271862e-05,1.3279619443485e-05,5.7007334689183e-05,1.533286925155e-17,-9.9314090784942e-16,-8.3841853269356e-18,1.5766563898717e-19,-32.59180819298,69.79387159372,-52.806614769582,37.511628951779,-6.6685307210103e-05,2.0843066019868e-18,1.7107861066906e-17,-1.7830838592205e-17,-6.7092412981238e-19,4.4026022642611e-12,-9.1966908262177e-11,-4.2206331366132e-12,2.2266396042635e-13,-1.0852905882335,1.5399848557129,-6.7649466708335e-05,-1.4728901942347,1.1798803733163,1.5853207600275e-24,-4.7594972775954e-22,-4.5530161008496e-25,2.2126150301987e-27,-1.225557531468,1.2611629268298,-1.0364367654747,1.2649106813425,-4.8496669448828e-43,5.579817929885e-26,1.4208456528758e-24,-1.7444194904459e-24,-1.3954992151818e-26,1.7085064179956e-12,6.4902111120614e-12,-6.0987767170031e-12,-7.0518728588909e-13,-5.232283570767e-44,-6.1210607155362e-43,2.441027903651e-38,3.7138018303105e-05,-0.00016450773541419,235.37469821219,235.37469821219,234.95159303021,234.95159303021,269.45642665571,269.11738127049,269.30109453178,269.40740381774,204.24214568437,202.34760020625,202.96227355861,204.11932395189,234.38871176295,269.5783419793,269.02847298167,269.18093975425,269.49745021993,258.79850999059,258.49545470109,258.67746248159,258.80736639055,210.73006089395,209.69720434824,234.38871176295,210.05187501299,210.72078753933,277.15439993536,276.84260823035,277.01947267522,277.05882967746,211.02359719646,209.42492287771,209.82370182707,210.93265075855,282.50262270172,277.20293298286,276.8075278056,276.97191719554,277.09469970347,259.03303505739,258.32347742705,258.44576953351,258.98075896787,282.50262270172,282.35310180949,282.35310180949,234.80802275378,234.80802275378,395.03513455888,387.49574351833,0
0.00036274999999999,188854084.12246,0.00010707378889912,1.0454574324279,3.8906446723395e-05,-2.4173351432611e-05,1.3354438447254e-05,5.767188623377e-05,1.6161825620196e-17,-1.0490402975197e-15,-8.6542632697335e-18,1.6083449627968e-19,-32.576185821912,69.798796890929,-52.810765921071,37.496009029765,-6.7611909570891e-05,2.181805195191e-18,1.7998416750291e-17,-1.8717334095248e-17,-6.8993170792257e-19,4.5654529994145e-12,-9.5684694977935e-11,-4.3207131015523e-12,2.2556213725645e-13,-1.085954041493,1.5410933208847,-6.8601656813916e-05,-1.4735442848606,1.1807504158122,1.704040966266e-24,-5.1200001465064e-22,-4.7471157686924e-25,2.2816526460178e-27,-1.2264342319143,1.2610020110361,-1.0369004689991,1.2649861439584,-5.3386872835443e-43,5.9318132654886e-26,1.5263154083848e-24,-1.8623285486045e-24,-1.4482544488576e-26,1.7659414170205e-12,6.7212454820398e-12,-6.3130284483468e-12,-7.1982853918707e-13,-5.611389352404e-44,-7.0078630564665e-43,2.7639198514552e-38,3.757538432927e-05,-0.00016721529802663,235.40663234366,235.40663234366,234.98301256029,234.98301256029,269.49128541838,269.15175124916,269.33580675396,269.44222931003,204.26142930536,202.3633649377,202.979332678,204.13857303788,234.41929228615,269.61338574077,269.06274404861,269.21547870539,269.53238521496,258.83248868674,258.52899871088,258.71136969592,258.84142742325,210.75509795387,209.72052864523,234.41929228615,210.07597871643,210.74599837984,277.18979055869,276.87754303364,277.05471885759,277.09409333451,211.04906129362,209.44799374343,209.84768091804,210.95793528825,282.53828655186,277.23839798508,276.84242464681,277.00709592151,277.13000791418,259.0673693943,258.35682744662,258.479339091,259.01502927747,282.53828655186,282.38852546145,282.38852546145,234.83908436053,234.83908436053,395.06995301052,387.50871071807,0
0.00036299999999999,189083845.50695,0.00010714793677604,1.0454991669289,3.9479424629781e-05,-2.44092012275e-05,1.3427885897116e-05,5.836724961313e-05,1.703278906334e-17,-1.1080356632193e-15,-8.9360451687378e-18,1.6392146274285e-19,-32.55896129627,69.807230249997,-52.819754210061,37.482615465097,-6.8555022908546e-05,2.2849676611405e-18,1.8934197332269e-17,-1.9648416105287e-17,-7.0907514733119e-19,4.733757937296e-12,-9.9551864220272e-11,-4.4248824813009e-12,2.2835926377991e-13,-1.0866582959171,1.5421839410998,-6.9566387007141e-05,-1.4741235200894,1.1817025488177,1.8312125569424e-24,-5.5072484290387e-22,-4.9507255990766e-25,2.3502176461645e-27,-1.2272626942552,1.2608699469884,-1.0374056911343,1.2650104598743,-5.8713598876765e-43,6.3113463428142e-26,1.6394519999757e-24,-1.9880935877685e-24,-1.5018470110652e-26,1.8257174431855e-12,6.9601464987485e-12,-6.5350767157883e-12,-7.3447458982707e-13,-6.0172630376031e-44,-8.0203291619083e-43,3.1285696112997e-38,3.8013741659145e-05,-0.00016997492176514,235.43857629537,235.43857629537,235.01444372808,235.01444372808,269.52614574313,269.18612444528,269.37052110258,269.47705643728,204.28078457878,202.37912785966,202.9964384868,204.15766204046,234.44988742777,269.64843044794,269.09701872588,269.25002041816,269.56732147572,258.86647158977,258.56254841254,258.74528143835,258.87549237186,210.78015999481,209.74388328315,234.44988742777,210.10011056499,210.77123383838,277.22518114904,276.91247932583,277.08996554568,277.12935733104,211.07454877289,209.47109668983,209.87168975422,210.98324326962,282.57394959683,277.27386271289,276.8773231351,277.04227540796,277.16531632101,259.10170674114,258.39018391301,258.51291439557,259.04930278118,282.57394959683,282.42394904993,282.42394904993,234.87015872258,234.87015872258,395.10481571899,387.52170750647,0
0.00036324999999999,189314833.25085,0.00010722208463775,1.0455408080772,4.0054886373046e-05,-2.464254948427e-05,1.3498940607345e-05,5.90766306104e-05,1.7948569533028e-17,-1.1701461041527e-15,-9.2259090775511e-18,1.6698442109764e-19,-32.535201031307,69.817180106108,-52.824915952834,37.480958452487,-6.9500999540424e-05,2.3949054942758e-18,1.9919287712617e-17,-2.0626910424755e-17,-7.2837875630525e-19,4.9078981877921e-12,-1.0356003840128e-10,-4.5314720905878e-12,2.3109961076544e-13,-1.087266580914,1.5433107818265,-7.0541698362239e-05,-1.4744556164692,1.1827333835325,1.9675241771753e-24,-5.9225198740138e-22,-5.1618247157095e-25,2.4196077602633e-27,-1.2279838975679,1.260813528214,-1.0378025217169,1.2650421308283,-6.4479414602229e-43,6.724376857442e-26,1.7610151879392e-24,-2.1222613504254e-24,-1.5563684727269e-26,1.8882190247086e-12,7.2072680624818e-12,-6.7653316021388e-12,-7.4913546820651e-13,-6.4480721732776e-44,-9.1766946238215e-43,3.5400364518139e-38,3.8456686084301e-05,-0.00017275922892187,235.47053178097,235.47053178097,235.04588822085,235.04588822085,269.56100932162,269.22050253245,269.40523926202,269.51188689214,204.30000887447,202.39490809477,203.01352401033,204.17700818763,234.48049883938,269.68347780125,269.13129868325,269.28456657015,269.60226070078,258.90046038773,258.59610547754,258.77919939236,258.90956292902,210.80524874094,209.76726993736,234.48049883938,210.12427224516,210.79649565523,277.26057339949,276.94741878397,277.12521442573,277.16462335798,211.10006140259,209.49423336508,209.89572998274,211.00857647958,282.60961352763,277.30932886313,276.9122249463,277.07745733872,277.20062661751,259.1360488022,258.42354848947,258.54649711696,259.08358118248,282.60961352763,282.45937425974,282.45937425974,234.90124751491,234.90124751491,395.13969094609,387.53469266034,0
0.00036349999999999,189545424.40472,0.00010729623248904,1.0455824737215,4.0628101759653e-05,-2.4874463200709e-05,1.355711284467e-05,5.9790101529357e-05,1.8912709413089e-17,-1.2355982740138e-15,-9.5216580742951e-18,1.6985220947845e-19,-32.521658604476,69.825047769788,-52.834488609485,37.462761193225,-7.048470080534e-05,2.5122657709652e-18,2.0962884351954e-17,-2.166935455595e-17,-7.4789990013696e-19,5.0881011869243e-12,-1.0772162816243e-10,-4.6395489207952e-12,2.335309570849e-13,-1.0878739897454,1.5443792094872,-7.1525196383607e-05,-1.474914622675,1.1836553126287,2.1138774621809e-24,-6.3680166609048e-22,-5.3790670009102e-25,2.4876470059632e-27,-1.2288146170372,1.2605510689741,-1.0381514986906,1.2649165098051,-7.0708774971733e-43,7.1733528285884e-26,1.891914507506e-24,-2.2669291867588e-24,-1.6119675678936e-26,1.9538095375007e-12,7.4662847471916e-12,-7.0073667383846e-12,-7.6385975956164e-13,-6.9023163863665e-44,-1.0494604586851e-42,4.0041341112571e-38,3.8896279060339e-05,-0.00017558307199915,235.50249931299,235.50249931299,235.07734653547,235.07734653547,269.59587666902,269.25488593155,269.43996174453,269.54672112399,204.31943410849,202.41082163854,203.03054968857,204.19634802776,234.51112694914,269.71852832473,269.16558433539,269.31911766014,269.63720334109,258.93445558091,258.62967033181,258.81312406326,258.943639557,210.83036473611,209.79068894867,234.51112694914,210.14846435957,210.82178442496,277.2959678335,276.98236182756,277.1604660161,277.19989185413,211.12559985043,209.51740410275,209.91980211136,211.0339355478,282.64527886953,277.34479696204,276.94713049682,277.11264222629,277.23593924249,259.17039609745,258.45692159149,258.58008773502,259.11786494819,282.64527886953,282.49480151557,282.49480151557,234.9323511867,234.9323511867,395.17464477059,387.54773599941,0
0.00036374999999999,189776297.49915,0.000107370380135,1.0456239605988,4.1245544940691e-05,-2.5103919426172e-05,1.3611187183953e-05,6.0507481031297e-05,1.9924653041125e-17,-1.3044538875753e-15,-9.8224853760623e-18,1.7276675829224e-19,-32.500585688819,69.825090138855,-52.850074535931,37.44553113755,-7.1463793532101e-05,2.6369815096123e-18,2.2055604730904e-17,-2.2741309555102e-17,-7.6764290421448e-19,5.2741234960517e-12,-1.120362331095e-10,-4.7487688696275e-12,2.3595724816673e-13,-1.0884888796808,1.5454819406373,-7.251654379244e-05,-1.4753242124468,1.1845980403809,2.2705346990271e-24,-6.8450284822004e-22,-5.6019789043581e-25,2.55799550629e-27,-1.2296872813136,1.2604284666707,-1.0385310809717,1.2648975700842,-7.740171488816e-43,7.6575440980983e-26,2.0319997236866e-24,-2.4187852807945e-24,-1.6687211293679e-26,2.0230397960513e-12,7.7328660307913e-12,-7.2526095861666e-12,-7.7863045431922e-13,-7.379722283076e-44,-1.1995493239117e-42,4.5264089016852e-38,3.9338655548555e-05,-0.00017844593290506,235.53447800924,235.53447800924,235.10881785658,235.10881785658,269.63074691233,269.28927385973,269.47468771364,269.58155833805,204.33888681334,202.4267317337,203.0475931482,204.21560164635,234.541771004,269.75358114136,269.19987491952,269.35367286638,269.67214859256,258.96845630097,258.66324218007,258.84705462309,258.97772145312,210.85550709473,209.814139672,234.541771004,210.17268609765,210.84709935488,277.3313635792,277.01730768079,277.19571947149,277.23516203235,211.15116309853,209.54060830416,209.94390541154,211.05931958752,282.68094476252,277.38026613766,276.9820390202,277.14782923253,277.27125340659,259.20474774638,258.49030245932,258.61368544756,259.15215325374,282.68094476252,282.53023004208,282.53023004208,234.96346890462,234.96346890462,395.20979365485,387.56097253901,0
0.00036399999999999,190006274.22827,0.0001074445275328,1.0456652628124,4.1883643655396e-05,-2.5329929417281e-05,1.3657086888046e-05,6.1228976197269e-05,2.0986341008234e-17,-1.3769488600051e-15,-1.0126963552133e-17,1.7572372638035e-19,-32.480253123737,69.829464950026,-52.864186394574,37.431539361597,-7.2442539200317e-05,2.767779462322e-18,2.3198271401441e-17,-2.3853044426329e-17,-7.8766702992637e-19,5.4658930883914e-12,-1.165122135711e-10,-4.8586782031713e-12,2.3834161765236e-13,-1.0890303107209,1.5466415670714,-7.3511690528517e-05,-1.4755878630341,1.1855077580391,2.4382161932785e-24,-7.356258647971e-22,-5.8295160237142e-25,2.6309942619798e-27,-1.2305566279923,1.260319682261,-1.0388496562936,1.2649886534335,-8.4585512132307e-43,8.1747348711421e-26,2.1817186291295e-24,-2.5791507232539e-24,-1.7268659487941e-26,2.0947415267731e-12,8.0069160275361e-12,-7.5034488240286e-12,-7.9347179015545e-13,-7.8786338111103e-44,-1.3702908871619e-42,5.1147169122465e-38,3.9779426287065e-05,-0.00018134420734392,235.56646621688,235.56646621688,235.14030059294,235.14030059294,269.66561846158,269.32366476163,269.50941560772,269.6163970022,204.35839731127,202.44268190128,203.06468801465,204.23525422217,234.57242937963,269.78863466132,269.23416888352,269.38823061708,269.70709490968,259.00246093742,258.69681943863,258.88098950401,259.01180707054,210.8806738761,209.83762028408,234.57242937963,210.19693585013,210.87243883063,277.36675906043,277.05225480688,277.23097323242,277.2704323688,211.17674927657,209.56384427919,209.96803823688,211.08472689914,282.71660964281,277.41573481253,277.01694897946,277.18301679259,277.30656757941,259.23910214236,258.52368952014,258.64728867028,259.18644452872,282.71660964281,282.56565831661,282.56565831661,234.99459899487,234.99459899487,395.24503140681,387.57429011773,0
0.00036424999999999,190235318.14134,0.000107518675026,1.0457064865237,4.2524240286932e-05,-2.5561458569875e-05,1.3706730331826e-05,6.1941564115689e-05,2.2101010699496e-17,-1.453138598991e-15,-1.0437211244905e-17,1.7859327500646e-19,-32.462536178588,69.833854692615,-52.877903435249,37.40148206476,-7.3425294658158e-05,2.903648521388e-18,2.4386250135596e-17,-2.5014078618051e-17,-8.0829768676815e-19,5.663599795725e-12,-1.2115090274968e-10,-4.9696269506197e-12,2.4062930627961e-13,-1.0896444561667,1.5476875065067,-7.4509696027807e-05,-1.4763415906735,1.1862956031286,2.6177816655002e-24,-7.9028733500451e-22,-6.0637064031942e-25,2.7035159060591e-27,-1.2315928450395,1.2601333249881,-1.0392411840964,1.2651441059494,-9.2397881653063e-43,8.7228783531525e-26,2.3411001149145e-24,-2.7496313293674e-24,-1.7872194916836e-26,2.1680498439391e-12,8.2866794423616e-12,-7.7616191597568e-12,-8.0868741438487e-13,-8.4049385750085e-44,-1.5641310683626e-42,5.7751658377545e-38,4.0203678203683e-05,-0.00018429511193204,235.59846510073,235.59846510073,235.17179592115,235.17179592115,269.70049256995,269.35805987701,269.5441466676,269.65123833094,204.37790416674,202.45870339168,203.08186167156,204.25491198334,234.60310328844,269.82369012547,269.26846746188,269.42279215642,269.74204350324,259.03647073406,258.73040334352,258.9149299301,259.04589761242,210.90586620198,209.86113196654,234.60310328844,210.22121478897,210.89780396653,277.40215553567,277.08720444561,277.26622855083,277.30570408683,211.20235946034,209.58711326514,209.99220181308,211.11015855533,282.75227477001,277.45120423909,277.05186161102,277.21820615852,277.34188298173,259.27346050789,258.55708400337,258.6808986371,259.22073997135,282.75227477001,282.60108757259,282.60108757259,235.02574267101,235.02574267101,395.28056327142,387.58791024439,0
0.00036449999999999,190464040.27001,0.0001075928224223,1.0457476761132,4.3155835430751e-05,-2.580182647985e-05,1.375913288369e-05,6.2640998406895e-05,2.3275681237532e-17,-1.5332049855355e-15,-1.0752156841234e-17,1.8141088530236e-19,-32.447117276267,69.835475454724,-52.889733371199,37.376619275894,-7.4406167303147e-05,3.0443418901672e-18,2.5620767245064e-17,-2.6226836884068e-17,-8.2974593509015e-19,5.8690498169666e-12,-1.2595458842678e-10,-5.0811042656568e-12,2.4286008979572e-13,-1.0902984457084,1.5486848298968,-7.5506926725924e-05,-1.4772918150883,1.1870481071014,2.8105600607301e-24,-8.4875163264038e-22,-6.3040080899049e-25,2.7761517422335e-27,-1.232677755824,1.2599141976287,-1.0396575470648,1.2653079095093,-1.0080022443699e-42,9.3029436709788e-26,2.5108034719496e-24,-2.9308128127176e-24,-1.8503992486977e-26,2.2425716340192e-12,8.5718367047828e-12,-8.0273459286406e-12,-8.2444355547913e-13,-8.9586375177812e-44,-1.7843231119656e-42,6.5171288723602e-38,4.0633846557262e-05,-0.00018728495577934,235.63047189123,235.63047189123,235.20330103498,235.20330103498,269.73536661976,269.39245664977,269.57887824448,269.68607974401,204.39734216988,202.47476930466,203.09895755129,204.27453306268,234.63378997833,269.85874491101,269.30276809232,269.45735484443,269.77699180283,259.07048305035,258.76399129908,258.94887321494,259.07999044287,210.93108110007,209.88467187698,234.63378997833,210.24551978218,210.92319158022,277.43755039995,277.12215406587,277.3014828032,277.34097464258,211.22799052466,209.61041238519,210.01639309063,211.13561133671,282.78793754246,277.48667181107,277.08677438182,277.25339471066,277.37719707411,259.30782018962,258.59048330012,258.71451267875,259.25503696338,282.78793754246,282.636515293,282.636515293,235.05689721704,235.05689721704,395.31634240254,387.60178367392,0
0.00036474999999999,190692695.86429,0.00010766696973314,1.0457888459904,4.3781285831453e-05,-2.6068211532458e-05,1.3812735043135e-05,6.3319692955941e-05,2.4511173090323e-17,-1.6173075730552e-15,-1.1069302089151e-17,1.8419018807326e-19,-32.437043840329,69.836236549351,-52.907573884131,37.354882711651,-7.5387699954902e-05,3.1904519691701e-18,2.6907718039281e-17,-2.7493257476354e-17,-8.5285248674221e-19,6.0816542107633e-12,-1.3092541483591e-10,-5.1920843054499e-12,2.4503848037745e-13,-1.0909695511707,1.5495890620216,-7.6487150964371e-05,-1.4783234369524,1.1876704273284,3.0172804097718e-24,-9.1126584679063e-22,-6.5488189791727e-25,2.8492769876916e-27,-1.2337661299714,1.2595385457543,-1.0400985978602,1.2654233420755,-1.0982786562868e-42,9.9185127311026e-26,2.6919461044304e-24,-3.1233390200029e-24,-1.9187375848054e-26,2.3185654589956e-12,8.8635760631227e-12,-8.3004933077656e-12,-8.4144658751231e-13,-9.537350935574e-44,-2.0348460546356e-42,7.35051327111e-38,4.1062352724655e-05,-0.00019030507958897,235.66248699461,235.66248699461,235.23481634157,235.23481634157,269.7702411182,269.42685559854,269.61361084627,269.72092175379,204.41673622951,202.49084881515,203.11618819934,204.29407804757,234.66448987456,269.89379952405,269.33707129619,269.49191919382,269.8119403218,259.10449837182,258.79758380019,258.98281984235,259.1140860483,210.95631887059,209.90824032947,234.66448987456,210.26985108539,210.94860188381,277.47294417485,277.15710420129,277.33673651251,277.37624456554,211.25364271172,209.63374193277,210.04061233257,211.16108545464,282.82359849243,277.52213805015,277.12168782712,277.28858297439,277.41251038692,259.34218166935,258.62388790896,258.74813128717,259.28933599191,282.82359849243,282.67194202023,282.67194202023,235.08806305534,235.08806305534,395.35215906957,387.61568816765,0
0.00036499999999999,190921367.99304,0.00010774111699285,1.0458300047577,4.440042202469e-05,-2.6291436757014e-05,1.3867247942254e-05,6.3979991383331e-05,2.5813387683403e-17,-1.7057153108701e-15,-1.1388095930073e-17,1.8696108779562e-19,-32.428789014116,69.838994146083,-52.917905555676,37.338156265213,-7.6365752287748e-05,3.3422984259408e-18,2.8247845404494e-17,-2.88175641468e-17,-8.7505998070595e-19,6.3022551132049e-12,-1.3607386935487e-10,-5.3024387043966e-12,2.4718672983825e-13,-1.0916180731258,1.5503816164924,-7.7500919497641e-05,-1.4793698997816,1.1882588008764,3.2392913698947e-24,-9.7814968002203e-22,-6.7977036707657e-25,2.9236369697395e-27,-1.2347253290798,1.2592092037047,-1.0404892863127,1.2655226631465,-1.1951552528872e-42,1.0572317273786e-25,2.8850377748729e-24,-3.3281290398256e-24,-1.9857596006097e-26,2.3961057514855e-12,9.1616980052955e-12,-8.5823656623125e-12,-8.5732941611769e-13,-1.0140480529872e-43,-2.3192729027136e-42,8.2868426694337e-38,4.1489902511332e-05,-0.00019335835320237,235.69451294073,235.69451294073,235.26634437242,235.26634437242,269.8051185591,269.46125924492,269.64834697364,269.75576689284,204.43602545669,202.5069370486,203.13341801635,204.31365059252,234.695205486,269.92885646215,269.3713795968,269.526487703,269.84689159245,259.13851919504,258.83118336316,259.01677231968,259.14818696063,210.98158206878,209.93183986769,234.695205486,210.29421128279,210.9740375073,277.50833935287,277.19205737781,277.37199217505,277.41151638838,211.2793186039,209.65710442721,210.06486207314,211.18658355439,282.85926011262,277.55760545047,277.15660447381,277.32377344541,277.44782545293,259.37654745091,258.65730034872,258.78175696413,259.32363958795,282.85926011262,282.70737028536,282.70737028536,235.11924269312,235.11924269312,395.38799602428,387.62960638396,0
0.00036524999999999,191150105.97776,0.00010781526443125,1.045871159606,4.5021473495546e-05,-2.6496479923875e-05,1.3927272217453e-05,6.463701607119e-05,2.7187321930905e-17,-1.798753527634e-15,-1.1707414105494e-17,1.899388712542e-19,-32.430277191364,69.842213152441,-52.928560143013,37.318584249697,-7.7348781185842e-05,3.5009181889886e-18,2.9647548941466e-17,-3.0203312144296e-17,-8.967068293824e-19,6.530850115143e-12,-1.4141336487762e-10,-5.4119637345072e-12,2.495256070577e-13,-1.0922181264837,1.5508451824777,-7.8537081168207e-05,-1.4803634510607,1.1889111981536,3.4781528575813e-24,-1.0497784504629e-21,-7.0496874193145e-25,3.0032442535949e-27,-1.2356395234336,1.2590483550154,-1.0408921960426,1.265505500115,-1.2973275210071e-42,1.126950578208e-25,3.091270061963e-24,-3.5458735974689e-24,-2.051977369045e-26,2.4757733554789e-12,9.467672284541e-12,-8.8734505561138e-12,-8.7257585905957e-13,-1.0765447733175e-43,-2.6423234224854e-42,9.3395813161002e-38,4.1899782096616e-05,-0.0001964505816134,235.72654999356,235.72654999356,235.29788535822,235.29788535822,269.83999916551,269.49566778337,269.68308684107,269.79061535914,204.45530870374,202.5230311109,203.15069340497,204.3332165764,234.72593702116,269.96391595036,269.4056931832,269.56106058255,269.88184581627,259.17254574719,258.86479019245,259.05073086376,259.18229338666,211.00687109027,209.95547077162,234.72593702116,210.31860063329,210.99949875862,277.54373615385,277.22701378395,277.40725000469,277.4467903028,211.30501868242,209.68050009352,210.08914254303,211.21210606558,282.89492261855,277.59307423231,277.19152450802,277.35896633582,277.48314246482,259.41091776685,258.69072081347,258.81538991906,259.35794796676,282.89492261855,282.74280027425,282.74280027425,235.15043637012,235.15043637012,395.42374279684,387.64341517117,0
0.00036549999999999,191378950.88711,0.00010788941202747,1.045912318067,4.564098654454e-05,-2.6692841805161e-05,1.3958805813334e-05,6.5270597822658e-05,2.8630183621084e-17,-1.8966233112633e-15,-1.2021928260814e-17,1.9228377226387e-19,-32.42921268938,69.845818942403,-52.937966215239,37.298077083582,-7.8337383621861e-05,3.6670850477759e-18,3.1107709594176e-17,-3.1652869850741e-17,-9.1798235814112e-19,6.767126447608e-12,-1.4694992119366e-10,-5.5185103484998e-12,2.5103335116706e-13,-1.0927551723262,1.5511908606494,-7.9584610016459e-05,-1.4812047679816,1.1895700718534,3.7339870128274e-24,-1.1264409637481e-21,-7.3010851251975e-25,3.0755060735803e-27,-1.2365189803858,1.2589120379746,-1.0412602134508,1.2654439250462,-1.40575363932e-42,1.201569471502e-25,3.3110607790711e-24,-3.7773229771366e-24,-2.1177083429391e-26,2.5577501889699e-12,9.7816470032751e-12,-9.1737960027348e-12,-8.8742155680804e-13,-1.1404164294158e-43,-3.008176585827e-42,1.0521978096193e-37,4.2317816480645e-05,-0.00019958751233768,235.75859967529,235.75859967529,235.32944070793,235.32944070793,269.87488436709,269.53008265898,269.71783181577,269.82546857179,204.47476363396,202.53916440326,203.1679108033,204.35264305792,234.75668587972,269.99897941079,269.44001347383,269.59563919596,269.91680442791,259.20657948677,258.89840575303,259.08469684803,259.21640674357,211.03218775551,209.9791347485,234.75668587972,210.3430204712,211.02498721716,277.57913598459,277.26197485187,277.44251136848,277.48206772925,211.3307447706,209.70393043604,210.1134550752,211.23765477551,282.93058738849,277.62854579802,277.22644935017,277.39416300987,277.51846284767,259.44529406492,258.72415071814,258.84903152093,259.3922625806,282.93058738849,282.77823340843,282.77823340843,235.18164562051,235.18164562051,395.45947886122,387.65719430247,0
0.00036574999999999,191607945.78419,0.00010796355911393,1.0459534716188,4.624986076006e-05,-2.688866467971e-05,1.3938068497752e-05,6.5803805528593e-05,3.0144781397215e-17,-1.9996081124884e-15,-1.2306283696348e-17,1.9342952478376e-19,-32.413226711524,69.847150706151,-52.950662321343,37.289094584305,-7.9323052116794e-05,3.8411009614685e-18,3.2630081510256e-17,-3.3168071069959e-17,-9.3907070013209e-19,7.0114905306245e-12,-1.5268728871343e-10,-5.6116943212053e-12,2.5099575836307e-13,-1.0931710669097,1.5518026479772,-8.0648019796183e-05,-1.4817660851278,1.1901881618156,4.008001276767e-24,-1.2085694836005e-21,-7.534765362929e-25,3.1325044546452e-27,-1.2373155317149,1.2588024155399,-1.0415237062631,1.2653966629006,-1.5187255777508e-42,1.2815586029069e-25,3.5451781281728e-24,-4.0229528879031e-24,-2.1832256945274e-26,2.6418527845954e-12,1.0103387587542e-11,-9.4838382196681e-12,-9.0209370896794e-13,-1.2020661786915e-43,-3.4219802264749e-42,1.1852257994098e-37,4.2766145158094e-05,-0.00020276406708461,235.79066112789,235.79066112789,235.36100959132,235.36100959132,269.90977329799,269.56450301804,269.75258103773,269.86032564774,204.49424916358,202.5552677691,203.18523864147,204.3723043653,234.78745127463,270.03404596148,269.47433961597,269.6302226903,269.95176653439,259.24061956362,258.93202920784,259.11866942059,259.25052615915,211.05753144614,210.00283120776,234.78745127463,210.36747006399,211.05050215288,277.61453797096,277.2969397147,277.47777539966,277.51734778016,211.35649617307,209.72739480996,210.13779895839,211.26322898287,282.96625354642,277.66401926614,277.26137813293,277.42936260264,277.55378570893,259.47967546575,258.75758922887,258.8826809337,259.42658254087,282.96625354642,282.81366880419,282.81366880419,235.21286965472,235.21286965472,395.4952542085,387.67098902115,0
0.00036599999999999,191837042.41263,0.00010803770586715,1.0459946236198,4.6842448307966e-05,-2.7078725030182e-05,1.3856599049098e-05,6.6500840952429e-05,3.1731766887194e-17,-2.1077300586406e-15,-1.2648113218258e-17,1.9360938941215e-19,-32.400686748443,69.852999010572,-52.960057245106,37.265117465704,-8.0317908238745e-05,4.0229346681762e-18,3.4218343851587e-17,-3.4754655595394e-17,-9.5992495767393e-19,7.2628445950463e-12,-1.5863108199623e-10,-5.7274138761735e-12,2.4945223427516e-13,-1.0935881763243,1.5523937273016,-8.1723414113923e-05,-1.4823419613474,1.1909459332234,4.3013686732941e-24,-1.2962257287158e-21,-7.8098103504061e-25,3.1802024437147e-27,-1.2381656277766,1.2586886881674,-1.0417679948069,1.2653197150514,-1.6367365208521e-42,1.3672528825365e-25,3.7945217774212e-24,-4.2841941617874e-24,-2.248587491598e-26,2.7277978399435e-12,1.0433823630252e-11,-9.8042506894063e-12,-9.1649228536929e-13,-1.2735084496253e-43,-3.8896891569751e-42,1.3340272623853e-37,4.3210933063526e-05,-0.00020597248356832,235.82273374435,235.82273374435,235.39259154826,235.39259154826,269.94466544223,269.59892829198,269.78733406392,269.89518603614,204.51383040939,202.57148281401,203.20257107488,204.39186611664,234.81823274303,270.06911508505,269.50867106644,269.66481062353,269.98673155908,259.2746654344,258.96565998221,259.15264813591,259.2846511018,211.08290138879,210.02655948286,234.81823274303,210.3919492168,211.07604315988,277.64994161984,277.33190780612,277.51304165247,277.55262989343,211.38227211327,209.75089272511,210.16217393369,211.28882806303,283.00192062961,277.69949414287,277.29631029977,277.46456466874,277.58911047641,259.51406142404,258.79103582199,258.91633771334,259.46090726449,283.00192062961,282.84910589422,282.84910589422,235.24410786559,235.24410786559,395.53122499752,387.6849687779,0
0.00036624999999999,192066259.92736,0.00010811185258294,1.0460357821257,4.7448915477313e-05,-2.7267541159572e-05,1.3825532273979e-05,6.7265842479961e-05,3.3400382282249e-17,-2.2212669689964e-15,-1.3015894528711e-17,1.9478975664419e-19,-32.384723641312,69.85327235846,-52.97105229338,37.250479774809,-8.1320924012136e-05,4.2165230089556e-18,3.5876815410719e-17,-3.6413737441276e-17,-9.8070554276798e-19,7.5216995859601e-12,-1.6478139370091e-10,-5.8528946585489e-12,2.4930795905189e-13,-1.0939913246576,1.5531228166403,-8.2807358323001e-05,-1.4829453415142,1.191695742626,4.6166576645558e-24,-1.3898827737353e-21,-8.1048756317254e-25,3.2402232256091e-27,-1.2390203912997,1.2585135953008,-1.0419833102962,1.2652744936035,-1.7573509849845e-42,1.4601992820829e-25,4.0599962120256e-24,-4.5617375118692e-24,-2.3141460062671e-26,2.8179510557178e-12,1.0773824870142e-11,-1.0134787419479e-11,-9.3077648186566e-13,-1.3505125432959e-43,-4.4171589282868e-42,1.5008070633537e-37,4.3662101085731e-05,-0.00020920046151564,235.85481539357,235.85481539357,235.42418441195,235.42418441195,269.97955883859,269.6333565326,269.82208888321,269.93004771367,204.53352400061,202.58772565096,203.21988390746,204.41152711636,234.84902824907,270.10418480098,269.54300587249,269.69940101128,270.02169749065,259.30871512783,258.99929611798,259.18663094331,259.31877950818,211.10829546902,210.05031758069,234.84902824907,210.41645560709,211.10160777927,277.68534497478,277.36687717997,277.54830814337,277.58791207642,211.40807026959,209.77442212624,210.18657779538,211.31444952008,283.03758667946,277.73496846532,277.33124390375,277.49976723614,277.62443516332,259.54844992692,258.82448852821,258.94999985964,259.49523470807,283.03758667946,282.88454272059,282.88454272059,235.27535824965,235.27535824965,395.56734948454,387.69910009025,0
0.00036649999999999,192295644.92683,0.00010818599905423,1.0460769587792,4.8085220692521e-05,-2.7457636349322e-05,1.3935085472399e-05,6.8067125039285e-05,3.5145537093096e-17,-2.3405145683157e-15,-1.3398250198148e-17,1.9879149657506e-19,-32.364386730545,69.854446668076,-52.985616348546,37.229782480301,-8.232026811071e-05,4.4227455551023e-18,3.7603196710024e-17,-3.814936104259e-17,-1.0015879710212e-18,7.7809497185386e-12,-1.711507579549e-10,-5.9835534975905e-12,2.5311216658574e-13,-1.0943959355132,1.5540308448799,-8.390465147819e-05,-1.4836585661755,1.1924069335929,4.9570868733674e-24,-1.4899256363616e-21,-8.4122829285718e-25,3.3339189119114e-27,-1.2398613972296,1.2582879133634,-1.0421771026165,1.2652920814898,-1.8729278008016e-42,1.560917037666e-25,4.3421944774081e-24,-4.8565681824026e-24,-2.3803679711175e-26,2.9128970169274e-12,1.1121790888056e-11,-1.0476188617978e-11,-9.4509148759308e-13,-1.4315839122404e-43,-5.0115774368266e-42,1.6875436245548e-37,4.4069598971416e-05,-0.00021246761736583,235.88690637173,235.88690637173,235.45578850419,235.45578850419,270.01445384199,269.66778808437,269.85684586012,269.96491102665,204.5532287188,202.60396475561,203.23729566364,204.43115817895,234.87983811511,270.1392554664,269.57734438482,269.73399422102,270.05666467424,259.34276898316,259.03293794716,259.22061819637,259.35291171658,211.13371387174,210.07410568181,234.87983811511,210.44098961652,211.12719630095,277.72074840123,277.40184818845,277.58357524375,277.62319468126,211.43389083844,209.79798325837,210.21101088641,211.34009356462,283.07325207061,277.77044260049,277.36617930011,277.53497067811,277.65976012211,259.58284131657,258.85794769067,258.98366772982,259.52956520518,283.07325207061,282.91997964046,282.91997964046,235.30662109723,235.30662109723,395.60372488062,387.71347837489,0
0.00036674999999999,192525264.80505,0.00010826014519805,1.0461181621009,4.8734710325158e-05,-2.7649772155648e-05,1.4095943810103e-05,6.8857705555362e-05,3.7009261366681e-17,-2.4654285093842e-15,-1.3781184515868e-17,2.0378962669356e-19,-32.345212437658,69.859164034244,-52.994686046623,37.2133462027,-8.3300662867882e-05,4.6408755841014e-18,3.9397833010592e-17,-3.9964689032122e-17,-1.0226804812611e-18,8.0572567686762e-12,-1.7772189160553e-10,-6.113544057799e-12,2.5828137787186e-13,-1.0948509724767,1.5550938836648,-8.5014767750782e-05,-1.4844523609599,1.1931257207769,5.3248944325804e-24,-1.5965715571346e-21,-8.7227897024258e-25,3.4404266031373e-27,-1.2406596287928,1.258054966839,-1.0422895368305,1.2653433416185,-1.987015282597e-42,1.6696423643541e-25,4.6421284170398e-24,-5.1696747838345e-24,-2.4476059863866e-26,3.0117607613629e-12,1.1476741716887e-11,-1.0828755275694e-11,-9.5950908850849e-13,-1.5149050345717e-43,-5.68204978865e-42,1.8962754894361e-37,4.4525875740317e-05,-0.00021573894053916,235.91900547591,235.91900547591,235.48740266948,235.48740266948,270.0493493101,269.70222179269,269.89160388725,269.99977486074,204.57296569205,202.62013146666,203.25468644741,204.4507605109,234.91066115041,270.1743259533,269.6116854612,269.76858913828,270.09163199045,259.37682582782,259.06658428813,259.25460877678,259.38704660358,211.15915513076,210.09792236391,234.91066115041,210.46555009417,211.15280749413,277.75615077793,277.43681969658,277.61884185187,277.65847659729,211.45973242412,209.82157486311,210.23547204077,211.36575885909,283.1089157009,277.80591543358,277.40111535942,277.57017389084,277.69508424102,259.61723444612,258.89141215133,259.01734019065,259.56389761968,283.1089157009,282.95541553919,282.95541553919,235.33789514821,235.33789514821,395.64029537386,387.72804191312,0
0.00036699999999999,192755168.59225,0.00010833429085305,1.0461594083005,4.9378254495137e-05,-2.7848740402147e-05,1.4270312819603e-05,6.9629784481166e-05,3.9022797779415e-17,-2.5963011709508e-15,-1.4159827794637e-17,2.089989701368e-19,-32.324234179581,69.869789371811,-53.006427594854,37.202195245364,-8.428112962911e-05,4.8705986408908e-18,4.1266631438162e-17,-4.186449005388e-17,-1.0442972810399e-18,8.363060505695e-12,-1.8451233917627e-10,-6.2411984730995e-12,2.6374874223642e-13,-1.0953570308366,1.5562724848105,-8.6140886443336e-05,-1.4852381545319,1.1938429025064,5.7215375871155e-24,-1.7101951659448e-21,-9.032614315909e-25,3.550103513901e-27,-1.2414033644884,1.2577675411848,-1.0423871098387,1.2653979637266,-2.1049200709524e-42,1.7868129699912e-25,4.9614458722752e-24,-5.5022630131653e-24,-2.5167313825811e-26,3.1138108526172e-12,1.1839755172465e-11,-1.1193204996096e-11,-9.7428217127788e-13,-1.5994370701212e-43,-6.439497722261e-42,2.1293257477007e-37,4.5097107430344e-05,-0.0002190521282341,235.95111331272,235.95111331272,235.51902752004,235.51902752004,270.08424588819,269.7366582824,269.92636362903,270.03463987,204.59259699645,202.63639577538,203.27203563485,204.47024620622,234.94149794006,270.20939692276,269.64602973699,269.80318642597,270.12660009701,259.41088628278,259.1002357452,259.28860333632,259.42118481356,211.18461970504,210.12176804228,234.94149794006,210.49013763408,211.17844190144,277.79155276691,277.47179234479,277.65410864001,277.69375848332,211.48559556278,209.84519740496,210.25996180097,211.39144591187,283.14457824696,277.84138763462,277.43605272796,277.60537754774,277.73040818207,259.65162996309,258.92488253103,259.05101788685,259.59823259872,283.14457824696,282.99085107447,282.99085107447,235.36918095314,235.36918095314,395.67687359065,387.74258907505,0
0.00036724999999999,192985449.63822,0.00010840843642387,1.0462007563009,5.0027311726124e-05,-2.8053100341062e-05,1.4439609826524e-05,7.0382301253479e-05,4.1159564640928e-17,-2.7335722546487e-15,-1.4530872551438e-17,2.1401540101908e-19,-32.308157188744,69.873793154209,-53.020479998036,37.197143203436,-8.5280703636277e-05,5.1138034982102e-18,4.3219094191154e-17,-4.3843094208873e-17,-1.0664167011905e-18,8.686117149841e-12,-1.9154263658112e-10,-6.3656006446666e-12,2.6898682714053e-13,-1.095957119428,1.5574196153999,-8.7273459267788e-05,-1.4859087817243,1.1944925954245,6.1473964079625e-24,-1.831344307367e-21,-9.3387976860796e-25,3.6574746239484e-27,-1.2420627005531,1.2573660258185,-1.0425514819847,1.2654027075509,-2.2196789275936e-42,1.9136219978772e-25,5.3018388982523e-24,-5.8539340086896e-24,-2.5877228420493e-26,3.2199179586133e-12,1.2213275105908e-11,-1.1567940008632e-11,-9.893795880938e-13,-1.6841374961643e-43,-7.2939846367942e-42,2.389632458479e-37,4.5701199321358e-05,-0.00022242654439172,235.98323214608,235.98323214608,235.55066533584,235.55066533584,270.11914585479,269.77109979951,269.96112737883,270.06950831521,204.61230857629,202.65274498474,203.28941890499,204.48971036882,234.97235075635,270.24447066164,269.68037946661,269.83778837843,270.16157125559,259.44495261541,259.1338945615,259.32260416475,259.45532861149,211.21010983861,210.1456449248,234.97235075635,210.51475462499,211.2041017974,277.82695665509,277.50676838201,277.68937790362,277.72904259703,211.51148253137,209.86885315698,210.28448252787,211.41715694662,283.18024200444,277.87686149498,277.47099365911,277.64058394583,277.76573420451,259.68603014811,258.95836108694,259.08470310736,259.63257240571,283.18024200444,283.02628850048,283.02628850048,235.40048075068,235.40048075068,395.713353431,387.75701187984,0
0.00036749999999999,193216447.17556,0.0001084825818634,1.0462421392624,5.0702619701142e-05,-2.825408141593e-05,1.4596632737911e-05,7.1101314673493e-05,4.340097920505e-17,-2.8772074778956e-15,-1.488411945798e-17,2.186920895953e-19,-32.288887732072,69.873932897128,-53.032016363085,37.189449625839,-8.6285266363659e-05,5.3715339961451e-18,4.5258699532041e-17,-4.591427076368e-17,-1.088729108159e-18,9.0193587420698e-12,-1.9879961164553e-10,-6.4834784342261e-12,2.7380335041725e-13,-1.096589938647,1.5586595517391,-8.8412340678417e-05,-1.4864638010932,1.1951191089807,6.6024326805865e-24,-1.9602332929534e-21,-9.6329035459574e-25,3.7603440158539e-27,-1.2425966434367,1.2569092942975,-1.0427227138383,1.2654994344591,-2.3345874976362e-42,2.0508754855237e-25,5.6650888141808e-24,-6.2279160930657e-24,-2.6598461477893e-26,3.3306982541139e-12,1.2596787933877e-11,-1.1954872759831e-11,-1.0045042659686e-12,-1.7664084855923e-43,-8.2597814130446e-42,2.6796727171345e-37,4.6301644320415e-05,-0.00022584004741587,236.01536329136,236.01536329136,235.58231746399,235.58231746399,270.15405044929,269.80554762885,269.99589638498,270.10438145543,204.63197137591,202.66918678606,203.30684608915,204.50935253033,235.00322098633,270.27954840071,269.714735942,269.87239625485,270.19654672032,259.47902609255,259.16756204142,259.35661253433,259.48947927354,211.23562705641,210.16955460635,235.00322098633,210.53940266667,211.22978877812,277.86236366598,277.54174907852,277.72465087473,277.76433018979,211.53739481442,209.89254373145,210.30903578949,211.44289350249,283.215908191,277.91233823518,277.50593942638,277.67579432185,277.80106355819,259.72043625042,258.99184913598,259.11839714396,259.66691830603,283.215908191,283.06172907133,283.06172907133,235.43179590096,235.43179590096,395.74993135085,387.77151821108,0
0.00036774999999999,193447777.88758,0.00010855672713488,1.046283355169,5.1395155321158e-05,-2.8456145797814e-05,1.4740609920444e-05,7.1772346422057e-05,4.5747752281232e-17,-3.0282254537386e-15,-1.5211122533225e-17,2.2299393811619e-19,-32.275625633976,69.868813578854,-53.042385270676,37.17658369006,-8.7301199468725e-05,5.6460217809913e-18,4.7391429983657e-17,-4.8102356560657e-17,-1.1114138064626e-18,9.3614865254372e-12,-2.063376860891e-10,-6.5920948777258e-12,2.7816057316143e-13,-1.0972736032371,1.5598875537544,-8.9561453743198e-05,-1.4871263668762,1.1956570087953,7.0883975746333e-24,-2.0978173169784e-21,-9.9078835989479e-25,3.8579358000757e-27,-1.2432012149355,1.2563692468472,-1.042934807108,1.2655329624011,-2.4563450458853e-42,2.2002249366931e-25,6.052777837733e-24,-6.6291604391007e-24,-2.7336282823708e-26,3.4467579733713e-12,1.2991447293374e-11,-1.2357860696122e-11,-1.0198071557656e-12,-1.8438874132774e-43,-9.3506769304742e-42,3.003342301268e-37,4.6886301122703e-05,-0.00022930889016923,236.04750441687,236.04750441687,235.61398160702,235.61398160702,270.18895732888,269.83999941997,270.03066833574,270.13925697451,204.65172068336,202.68565574833,203.32441762241,204.52899059235,235.03410628215,270.31462780904,269.74909682166,269.90700773574,270.23152417018,259.51310435809,259.20123582258,259.39062613678,259.52363448819,211.26116888993,210.19349461442,235.03410628215,210.56407956544,211.25550067167,277.89777146681,277.57673209339,277.75992523817,277.799618941,211.56333005698,209.91626673371,210.33361930191,211.46865335047,283.25157448525,277.94781552751,277.54088769278,277.7110063581,277.83639392108,259.7548459365,259.02534433262,259.15209767174,259.70126797724,283.25157448525,283.09717045833,283.09717045833,235.46312401078,235.46312401078,395.78668896608,387.78620206857,0
0.00036799999999999,193678279.54275,0.00010863087223199,1.0463244857013,5.2102184241692e-05,-2.8649191155595e-05,1.4873411822817e-05,7.2463885211016e-05,4.8209772674018e-17,-3.1872711866392e-15,-1.5561149026696e-17,2.2699198814615e-19,-32.260513113868,69.866544974402,-53.046334296628,37.164325937723,-8.8330634598505e-05,5.9398234885582e-18,4.9624412564031e-17,-5.0373355756158e-17,-1.1335731212898e-18,9.7132996877958e-12,-2.141919623489e-10,-6.7073049491926e-12,2.8212685350167e-13,-1.0978133083806,1.5611036259856,-9.0690751890996e-05,-1.4878338727259,1.1963004907291,7.6086127167205e-24,-2.2447326905e-21,-1.0204196099907e-24,3.9524075936882e-27,-1.2438613517302,1.2559064841475,-1.0430739658384,1.2655006912066,-2.5723456858652e-42,2.3635682637542e-25,6.4668264261076e-24,-7.0535677318318e-24,-2.8066204727242e-26,3.5688869354108e-12,1.3398497438947e-11,-1.2769018194968e-11,-1.0345889007359e-12,-1.9280456272095e-43,-1.0583524306542e-41,3.364124039263e-37,4.7457803951251e-05,-0.00023284515947863,236.07965442228,236.07965442228,235.64565666251,235.64565666251,270.22386537479,269.87445407425,270.06544213432,270.17413383349,204.67137116969,202.70211904005,203.34203975633,204.54853330501,235.06500544588,270.3497077884,269.78346100846,269.94162170635,270.26650256725,259.54718627356,259.2349147764,259.42464387436,259.55779320433,211.28673404979,210.21746360711,235.06500544588,210.58878414102,211.28123637495,277.93317895152,277.61171635201,277.79519989741,277.83490781521,211.58928706663,209.94002080145,210.35823178137,211.49443539912,283.28723979024,277.98329227431,277.57583738459,277.74621895129,277.87172425845,259.78925810739,259.05884555035,259.18580355699,259.73562036963,283.28723979024,283.13261161574,283.13261161574,235.49446387941,235.49446387941,395.82369423401,387.80114273207,0
0.00036824999999999,193908420.08211,0.00010870501709079,1.0463655698084,5.2815999873431e-05,-2.8842059805901e-05,1.4997722886236e-05,7.3145975402225e-05,5.0801241157399e-17,-3.3535857669544e-15,-1.5929861692621e-17,2.3077694903708e-19,-32.249613527232,69.86778346563,-53.048538748587,37.161174130465,-8.937930110872e-05,6.2559772452764e-18,5.195829285338e-17,-5.2742575958898e-17,-1.1557619707975e-18,1.0076279149254e-11,-2.2226871521255e-10,-6.8270191293157e-12,2.8579973562528e-13,-1.0983588575459,1.5622506593714,-9.1806119266839e-05,-1.4884075274866,1.1969069365798,8.1673905122058e-24,-2.4012823323461e-21,-1.0519346256691e-24,4.0453556209547e-27,-1.244413653555,1.2554303709573,-1.0431229821437,1.265340930562,-2.6778401801668e-42,2.5433117348233e-25,6.9075384485623e-24,-7.5042770138883e-24,-2.8802356790585e-26,3.6978816217323e-12,1.3818304507871e-11,-1.3191028834025e-11,-1.0493205230166e-12,-2.018359956649e-43,-1.1969014263245e-41,3.7674659784311e-37,4.8017054279181e-05,-0.00023640863946993,236.11181227957,236.11181227957,235.67734151132,235.67734151132,270.25877363297,269.90891061938,270.10021678549,270.20901105794,204.69120858045,202.71867422235,203.35967454391,204.56812937932,235.09591733448,270.38478738698,269.81782751265,269.97623716503,270.30148095044,259.58127086428,259.26859790922,259.45866471978,259.59195441485,211.31232140796,210.24146034572,235.09591733448,210.61351493957,211.30699455556,277.96858517574,277.64670089667,277.83047388041,277.87019585743,211.61526476429,209.96380456173,210.38287181298,211.52023850685,283.3229031579,278.01876753142,277.61078753676,277.78143112626,277.9070536198,259.82367179475,259.09235176211,259.21951376147,259.76997450484,283.3229031579,283.16805159773,283.16805159773,235.52581445446,235.52581445446,395.86072775037,387.81609797729,0
0.00036849999999999,194138423.1609,0.0001087791619966,1.0464066254893,5.3573983210632e-05,-2.9036828960861e-05,1.5112896254141e-05,7.3886552271608e-05,5.352446129518e-17,-3.5275604932741e-15,-1.6322211852035e-17,2.3438201182053e-19,-32.230143998374,69.866579363934,-53.051931264895,37.155946078559,-9.0413843790915e-05,6.5942668647738e-18,5.4389486041493e-17,-5.5216465476287e-17,-1.1781146013839e-18,1.0448649233418e-11,-2.3059101967987e-10,-6.9545926146136e-12,2.8920731861177e-13,-1.098907215344,1.5634678307147,-9.2957814223271e-05,-1.4889845592079,1.197639716667,8.7675667877544e-24,-2.5679394011688e-21,-1.0855325609415e-24,4.1374684566626e-27,-1.2449972707235,1.2551418959461,-1.0432449877963,1.2653440111065,-2.7566249473186e-42,2.7398463126243e-25,7.3763153825424e-24,-7.9817753523934e-24,-2.954768079028e-26,3.8338476906652e-12,1.424783733046e-11,-1.362687184537e-11,-1.0641236469537e-12,-2.1147730360185e-43,-1.3526948826543e-41,4.2173675380807e-37,4.8550229171234e-05,-0.00024000483193175,236.14398085289,236.14398085289,235.7090390431,235.7090390431,270.29368487978,269.94337179645,270.1349951028,270.24389142248,204.71100014011,202.73524966311,203.37734387856,204.58763451715,235.12684478136,270.41986939016,269.8521990843,270.01085691684,270.33646208581,259.61536091109,259.30228797538,259.49269150583,259.62612092412,211.33793401317,210.26548776014,235.12684478136,210.63827498916,211.33277831854,278.00399291591,277.68168846201,277.86574998644,277.90548582155,211.64126629208,209.98762087642,210.40754234968,211.54606585821,283.35856737171,278.05424407887,277.64574088769,277.81664567914,277.94238475565,259.85808979755,259.12586573808,259.2532311001,259.80433317159,283.35856737171,283.20349313985,283.20349313985,235.55717854462,235.55717854462,395.89795677777,387.83125634873,0
0.00036874999999999,194368392.26771,0.00010885330683884,1.0464476615863,5.4360799249654e-05,-2.9240957091221e-05,1.5222742689631e-05,7.4649481802095e-05,5.640671235263e-17,-3.7096753011303e-15,-1.6734374403192e-17,2.379073317804e-19,-32.215362205451,69.86784660234,-53.057497011654,37.156834681024,-9.1442206530105e-05,6.9566035388681e-18,5.6921958633053e-17,-5.779830673992e-17,-1.2010057025859e-18,1.0830300215728e-11,-2.3917767103021e-10,-7.0878450343367e-12,2.9246663639662e-13,-1.0994586344255,1.5646195652836,-9.4131255654493e-05,-1.4894069316702,1.1983822420188,9.4196699902027e-24,-2.7453897663552e-21,-1.1210434123706e-24,4.2304402794908e-27,-1.2455859015712,1.2548366332072,-1.043392022658,1.2653247535965,-2.7760608373958e-42,2.955172047444e-25,7.8748934820903e-24,-8.4877926077515e-24,-3.0312585074217e-26,3.9770121757841e-12,1.4687516644373e-11,-1.4076289848207e-11,-1.0793098189815e-12,-2.2170091426947e-43,-1.5278876094132e-41,4.7189351904169e-37,4.9038323951748e-05,-0.00024363853327532,236.17615788239,236.17615788239,235.74074703067,235.74074703067,270.3285969297,269.97783539499,270.16977493025,270.27877276502,204.7309702769,202.75184127222,203.3950490745,204.60713517732,235.15778547597,270.45495162241,269.88657351298,270.04547878636,270.37144380181,259.64945419451,259.33598273418,259.52672206067,259.66029055742,211.36356937342,210.28954327553,235.15778547597,210.66306196676,211.35858531681,278.03940000896,277.71667685978,277.90102606808,277.94077554989,211.66728924905,210.01146720445,210.43224097765,211.57191508146,283.39423028558,278.0897197564,277.68069524805,277.85186045373,277.97771550342,259.8925099185,259.15938524022,259.28695336584,259.83869417943,283.39423028558,283.23893407683,283.23893407683,235.58855382658,235.58855382658,395.93514524017,387.84636440591,0
0.00036899999999999,194598378.27751,0.00010892745145685,1.0464886862821,5.5149367048877e-05,-2.9427683303274e-05,1.5324375756316e-05,7.5423048786853e-05,5.9456918308593e-17,-3.9003353180028e-15,-1.7163424870758e-17,2.4132463142974e-19,-32.191307842472,69.871985153696,-53.060285489857,37.156043800716,-9.2455745167041e-05,7.3414887545108e-18,5.9548970005782e-17,-6.0496821066251e-17,-1.2232512407411e-18,1.12230172661e-11,-2.4804142949558e-10,-7.2255486891564e-12,2.9553021701985e-13,-1.1000338178251,1.5658242359133,-9.5326288540812e-05,-1.4898488656915,1.1991606756853,1.0126980250897e-23,-2.9342875454159e-21,-1.1582843039429e-24,4.3239293395049e-27,-1.2461073160271,1.2546078283447,-1.0435941734261,1.2654131995363,-2.7227465017069e-42,3.1898746548001e-25,8.4033643109876e-24,-9.0244800822563e-24,-3.1064098692358e-26,4.12577563534e-12,1.513506973243e-11,-1.4540636712949e-11,-1.093869573091e-12,-2.3245819650029e-43,-1.7242225837876e-41,5.2776158555675e-37,4.9492473827243e-05,-0.00024730831044304,236.20834631508,236.20834631508,235.77246846143,235.77246846143,270.36351267052,270.01230428582,270.20455918902,270.31365799081,204.75093766071,202.76844992618,203.41292947274,204.62690400086,235.18874234172,270.49003697723,269.92095367422,270.08010568243,270.40642899233,259.68355360299,259.3696850608,259.56075932179,259.69446624111,211.38923050257,210.31362981153,235.18874234172,210.68787903993,211.3844187278,278.07480934415,277.75166895973,277.93630503433,277.97606793231,211.69333676199,210.03534645546,210.45697073064,211.59778936151,283.42989479457,278.12519745463,277.71565348872,277.88707835347,278.01304874768,259.92693505985,259.19291315426,259.32068347316,259.87306043495,283.42989479457,283.27437728249,283.27437728249,235.61994319806,235.61994319806,395.97247632694,387.86159716459,0
0.00036924999999999,194828428.34902,0.00010900159602955,1.0465297093643,5.594097389206e-05,-2.959972643314e-05,1.5412605195541e-05,7.6204645735377e-05,6.2631374120346e-17,-4.0991774662265e-15,-1.7608703882638e-17,2.4457314098022e-19,-32.169622557898,69.878640168738,-53.057627260315,37.14325200185,-9.3443520499503e-05,7.7513281935047e-18,6.2265147743813e-17,-6.3324407609325e-17,-1.244784069794e-18,1.1643900104611e-11,-2.5716704495527e-10,-7.3674344874486e-12,2.9832412454289e-13,-1.1005913759989,1.5670853369458,-9.6529517953243e-05,-1.4904519046791,1.1999788243545,1.0860394898347e-23,-3.1344177111199e-21,-1.1972214162071e-24,4.4169282510298e-27,-1.246770390089,1.2543778307299,-1.0437290652916,1.2655895012831,-2.7374282538565e-42,3.4462602187521e-25,8.9617078578457e-24,-9.5951687049606e-24,-3.1798925285479e-26,4.2807871922763e-12,1.558907009627e-11,-1.5021019713051e-11,-1.1077948374313e-12,-2.4371189612845e-43,-1.9435745623865e-41,5.896292553986e-37,5.0088024747224e-05,-0.00025101612736828,236.24054398377,236.24054398377,235.80420115578,235.80420115578,270.3984300896,270.0467763893,270.23934584689,270.34854500721,204.77065639199,202.78506946062,203.43079599478,204.64675802917,235.21971321362,270.52512343752,269.95533748165,270.11473557373,270.4414155679,259.71765709225,259.40339286096,259.59480121948,259.72864586128,211.41491505822,210.33774496772,235.21971321362,210.7127238931,211.41027611713,278.11021892744,277.78666269025,277.97158487851,278.01136088993,211.71940649193,210.05925627921,210.48172933927,211.62368624143,283.46555891237,278.1606751773,277.75061353484,277.92229737152,278.04838241039,259.96136316973,259.22644737491,259.35441935556,259.90742983092,283.46555891237,283.30982068808,283.30982068808,235.65134450923,235.65134450923,396.01012616956,387.87715779157,0
0.00036949999999999,195058598.98975,0.00010907574086214,1.0465707340612,5.6739834081425e-05,-2.9769473415958e-05,1.5494863881495e-05,7.6985915876364e-05,6.5947898365131e-17,-4.3082577656739e-15,-1.8069480210856e-17,2.4780283031784e-19,-32.16028859287,69.885204695908,-53.061436928015,37.129801578417,-9.4448340891757e-05,8.190827593724e-18,6.5103005672043e-17,-6.6298575867487e-17,-1.2662230496553e-18,1.2084164115481e-11,-2.6664188102088e-10,-7.5130365496131e-12,3.0102832921529e-13,-1.1012805841532,1.568251435744,-9.7724423077467e-05,-1.4910651151277,1.2006433188057,1.1633325633846e-23,-3.3481347103639e-21,-1.237847082877e-24,4.5119568496118e-27,-1.2474740629433,1.254026588044,-1.0439598805289,1.2656268495121,-2.789709227623e-42,3.7282238617923e-25,9.5579405729049e-24,-1.0205306174939e-23,-3.2533233528677e-26,4.4435078102764e-12,1.6054885539381e-11,-1.5518285899227e-11,-1.1216177567389e-12,-2.5543130734331e-43,-2.1913143210862e-41,6.5864759755006e-37,5.0735192734102e-05,-0.0002548002068094,236.27274827101,236.27274827101,235.83594239016,235.83594239016,270.43334681311,270.0812493147,270.27413245983,270.38343136205,204.79042494875,202.80167380958,203.44860637411,204.6668738395,235.25069548141,270.56020861539,269.98972252802,270.14936603344,270.47640109618,259.75176225408,259.43710371374,259.62884524134,259.76282690037,211.44062029266,210.36188602021,235.25069548141,210.73759328142,211.43615414091,278.14562640332,277.82165567717,278.00686320349,278.04665201428,211.74549554322,210.08319387834,210.50651378368,211.64960254724,283.50122028395,278.19615056376,277.78557300599,277.95751511752,278.08371409103,259.99579181039,259.25998544834,259.38815853601,259.94179988863,283.50122028395,283.34526192187,283.34526192187,235.68275523723,235.68275523723,396.04781491256,387.89274770599,0
0.00036974999999999,195288908.8514,0.00010914988584291,1.046611770194,5.7559939463579e-05,-2.9933245293429e-05,1.5569646777813e-05,7.7780376727824e-05,6.9416904058427e-17,-4.5273952205701e-15,-1.8545074774362e-17,2.5099071352744e-19,-32.152328271518,69.892998048862,-53.07457399495,37.103507615054,-9.546968903325e-05,8.6669569322301e-18,6.8070045152537e-17,-6.9390364574825e-17,-1.2873839737357e-18,1.2540615391806e-11,-2.7646034110344e-10,-7.6622045284436e-12,3.0360895140781e-13,-1.1020079526695,1.5693062542028,-9.8943405047498e-05,-1.4918319402493,1.2012926763313,1.24531216973e-23,-3.5754289943632e-21,-1.2801242094615e-24,4.6087900025216e-27,-1.2483300953908,1.2535873370379,-1.0442650566479,1.2655279209523,-2.8120974046738e-42,4.0411043951679e-25,1.019397407127e-23,-1.0848027764443e-23,-3.3262183687531e-26,4.6163874365066e-12,1.6534060214955e-11,-1.6029835744544e-11,-1.1351791798304e-12,-2.6752651037955e-43,-2.4701968846764e-41,7.3525667303333e-37,5.140320253444e-05,-0.00025866861682768,236.30496260851,236.30496260851,235.86769556765,235.86769556765,270.46826616547,270.11572645489,270.30892236099,270.41832048887,204.81041803934,202.81833366211,203.46644991938,204.68692026106,235.28169249472,270.59529584904,270.02411220411,270.18400038169,270.51138901358,259.78587242342,259.47082100108,259.66289473914,259.79701278846,211.46634969507,210.38605650566,235.28169249472,210.76249050631,211.46205628417,278.18103508956,277.85665132471,278.04214333004,278.0819447376,211.77160741917,210.10716272341,210.5313273767,211.67554189118,283.53688222231,278.23162693735,277.82053530573,277.99273490704,278.11904722295,260.03022434284,259.29353075136,259.42190434156,259.97617404474,283.53688222231,283.38070440565,283.38070440565,235.71417875533,235.71417875533,396.08553827816,387.90838197167,0
0.00036999999999999,195519414.1983,0.00010922403064619,1.0466528068829,5.8392640507999e-05,-3.0092355525844e-05,1.5641794341875e-05,7.8585560227485e-05,7.3041777089805e-17,-4.757355891648e-15,-1.9035011130368e-17,2.5417651018001e-19,-32.135084245794,69.897129283906,-53.085939840975,37.083977289935,-9.6476827777164e-05,9.180893357498e-18,7.1159167017338e-17,-7.263688160125e-17,-1.3083685958155e-18,1.3011402514748e-11,-2.8664397422034e-10,-7.8147141873675e-12,3.0613467775881e-13,-1.1027288363331,1.5703351189399,-0.00010021833536827,-1.492639211611,1.2020868916028,1.332362217349e-23,-3.8174917895841e-21,-1.3240490445914e-24,4.7077866058363e-27,-1.2491434489793,1.2533231336315,-1.0445652290761,1.2653778786079,-2.8395326963626e-42,4.3878941947289e-25,1.0871329367759e-23,-1.1531946664035e-23,-3.3987746854794e-26,4.7988557883019e-12,1.7022656856049e-11,-1.6562913986741e-11,-1.1485692236102e-12,-2.7994351669767e-43,-2.7839859563489e-41,8.2040366083405e-37,5.2076159101998e-05,-0.00026261218218479,236.33718681487,236.33718681487,235.89946039417,235.89946039417,270.5031879378,270.15020768018,270.34371527768,270.45321224733,204.83060598288,202.83499922528,203.48427791244,204.7069823333,235.31270397731,270.630384933,270.05850636016,270.2186383452,270.54637920285,259.81998740348,259.50454457904,259.69694943301,259.83120334949,211.49210309299,210.41025637581,235.31270397731,210.78741502463,211.4879821397,278.21644476453,277.8916495144,278.07742499417,278.11723894126,211.79774185196,210.13116268016,210.55616968539,211.70150400789,283.57254448335,278.26710407825,277.855500308,278.027956476,278.15438169691,260.06466057474,259.32708310027,259.45565649235,260.01055216759,283.57254448335,283.416148032,283.416148032,235.7456148897,235.7456148897,396.12342989078,387.92419039785,0
0.00037024999999999,195750053.69328,0.00010929817499758,1.0466938411455,5.9236781711669e-05,-3.0255539500067e-05,1.5715607551045e-05,7.9397098730636e-05,7.6834450612212e-17,-4.9974923129301e-15,-1.9539220435448e-17,2.573506689019e-19,-32.112234395431,69.904168483215,-53.097716886886,37.069486707411,-9.746587846218e-05,9.7368189960515e-18,7.436718014336e-17,-7.6002207672205e-17,-1.3296012307914e-18,1.3496243897066e-11,-2.9712951087615e-10,-7.9704232028209e-12,3.0863319872339e-13,-1.1033921323045,1.5714303654036,-0.00010150758377729,-1.4934845315614,1.2029206618131,1.4250630355271e-23,-4.074454974692e-21,-1.369653402657e-24,4.8082126880533e-27,-1.249843051827,1.2531073229897,-1.0448138220264,1.2653559790875,-2.8329330416819e-42,4.7735939826583e-25,1.1590881250602e-23,-1.2253149831069e-23,-3.4718380749154e-26,4.9915587038755e-12,1.7519599976864e-11,-1.7108013521662e-11,-1.1621883469388e-12,-2.9259782328892e-43,-3.1366215275345e-41,9.1489295882981e-37,5.2739551174676e-05,-0.00026658154690562,236.36941939242,236.36941939242,235.9312352927,235.9312352927,270.53811065155,270.18469145209,270.37850970047,270.4881051417,204.85072299902,202.85165531527,203.50211017587,204.72706414041,235.34372826744,270.66547440843,270.09290344194,270.25327839574,270.58137018473,259.85410568992,259.53827289063,259.73100779298,259.86539707191,211.51787878351,210.43448379952,235.34372826744,210.81236513854,211.51393004365,278.25185396195,277.9266487236,278.11270670369,278.15253313496,211.82389728433,210.15519193505,210.58103897166,211.72748732555,283.60820559726,278.30258052773,277.8904664836,278.06317832457,278.18971602896,260.09909904099,259.36064090914,259.48941342263,260.04493277797,283.60820559726,283.4515913011,283.4515913011,235.77706203777,235.77706203777,396.1614367076,387.94012588112,0
0.00037049999999999,195980810.1902,0.00010937231902592,1.046734877237,6.0098006714958e-05,-3.0412816292157e-05,1.5790759265336e-05,8.0206596039324e-05,8.0801259583548e-17,-5.2485071028828e-15,-2.0054150764219e-17,2.6059242576049e-19,-32.095813370687,69.913013046621,-53.109377547899,37.053817861061,-9.843173998135e-05,1.0342500473503e-17,7.7697944871705e-17,-7.9502458467185e-17,-1.350737680698e-18,1.3995119104162e-11,-3.0794770696215e-10,-8.128109523377e-12,3.1116101611604e-13,-1.1039925500851,1.5724242723974,-0.00010280541827502,-1.4943438222739,1.2037255227649,1.5237836989694e-23,-4.3473178940175e-21,-1.4166598619479e-24,4.9119109090683e-27,-1.2504542035632,1.2528603543777,-1.0450174241388,1.2654233527378,-2.7895298092199e-42,5.2057195589641e-25,1.2355851942211e-23,-1.3015919316871e-23,-3.5447819786268e-26,5.196536060633e-12,1.8023988923758e-11,-1.7667209406188e-11,-1.175676535839e-12,-3.0523716716431e-43,-3.5332641964694e-41,1.0196780809514e-36,5.3390313030015e-05,-0.00027059564561104,236.40166077352,236.40166077352,235.96302070399,235.96302070399,270.57303483479,270.21917823658,270.41330615336,270.52299964041,204.87071363302,202.86828581303,203.52002846626,204.7472011071,235.37476580399,270.70056480617,270.12730391627,270.28792105765,270.61636242998,259.8882277855,259.57200639194,259.76507032074,259.89959441624,211.54367702878,210.45873899786,235.37476580399,210.837341345,211.53990033521,278.28726322514,277.96164942415,278.14798899805,278.18782779212,211.8500740086,210.179250814,210.60593571492,211.75349209329,283.64386611577,278.33805683049,277.92543430484,278.09840099262,278.22505069383,260.13354024953,259.39420463662,259.52317563416,260.07931633918,283.64386611577,283.48703468924,283.48703468924,235.80852061748,235.80852061748,396.19946354535,387.95607642212,0
0.00037074999999999,196211708.33464,0.00010944646279784,1.0467759290233,6.0988970060739e-05,-3.0550114556053e-05,1.5863131003566e-05,8.1010788111281e-05,8.4937751520824e-17,-5.5109183435534e-15,-2.0579584756408e-17,2.6376909963078e-19,-32.085096524028,69.923903552733,-53.11686683783,37.037521938442,-9.9367596236163e-05,1.1010331674765e-17,8.1133799411702e-17,-8.3151242790157e-17,-1.371560962438e-18,1.4507173715268e-11,-3.1910837262532e-10,-8.2876340966758e-12,3.1358488919991e-13,-1.1045362489715,1.5734104991442,-0.00010410881722299,-1.4952477151204,1.2044391072035,1.628570963371e-23,-4.6371137159391e-21,-1.4650723155398e-24,5.0163580871557e-27,-1.2509795696707,1.2525687813141,-1.045169302539,1.2654955139166,-2.7199317236607e-42,5.6956971289588e-25,1.3163171304989e-23,-1.3824268513245e-23,-3.618183479314e-26,5.4172599520466e-12,1.8532562696246e-11,-1.8242047345472e-11,-1.1886216850588e-12,-3.1761283522939e-43,-3.9750105627073e-41,1.1358989538339e-36,5.4035761819937e-05,-0.00027464853628957,236.43391218094,236.43391218094,235.99481788357,235.99481788357,270.60796175454,270.2536693007,270.44810590595,270.55789698589,204.89073111867,202.88497350626,203.53791565601,204.76740591855,235.40581788505,270.73565738205,270.16170905322,270.32256760902,270.65135717525,259.92235495828,259.60574635414,259.79913828233,259.93379662504,211.56949909969,210.48302328515,235.40581788505,210.8623449999,211.56589428423,278.32267382137,277.99665287815,278.18327314853,278.22312415743,211.87627323709,210.20334067649,210.63086128652,211.77951949529,283.67952730857,278.37353424905,277.96040503466,278.13362575451,278.26038693369,260.16798544718,259.42777556081,259.55694440995,260.11370408271,283.67952730857,283.52247944868,283.52247944868,235.83999190388,235.83999190388,396.23746319984,387.97199643238,0
0.00037099999999999,196442828.63759,0.00010952060671775,1.0468169909901,6.1918631916874e-05,-3.0654436467036e-05,1.593055540422e-05,8.1809939043702e-05,8.9259095615011e-17,-5.7857497960192e-15,-2.1114529544946e-17,2.6687601422308e-19,-32.075629470906,69.930935306541,-53.128029635304,37.018757896501,-0.00010026103905546,1.1756899002736e-17,8.467885033474e-17,-8.6948056896017e-17,-1.3910897817309e-18,1.5034002710586e-11,-3.3065062184789e-10,-8.4487242226841e-12,3.1589521496167e-13,-1.1050997212874,1.5743934038211,-0.00010542914832406,-1.4962079282081,1.2050908039454,1.7399645235176e-23,-4.9453121735218e-21,-1.5148061505518e-24,5.1215480658839e-27,-1.2514538227789,1.2522368624495,-1.0453646778936,1.265519465014,-2.5992869219776e-42,6.2596850831373e-25,1.4016942101754e-23,-1.4679016649792e-23,-3.6881413103559e-26,5.6579137091173e-12,1.9043346992424e-11,-1.8832376080533e-11,-1.2003971237153e-12,-3.2930111233183e-43,-4.4680167955836e-41,1.2648803954946e-36,5.4679214551848e-05,-0.00027876287888943,236.4661741956,236.4661741956,236.0266273625,236.0266273625,270.64289193649,270.28816517676,270.48290946009,270.59279770659,204.91088146776,202.90166665451,203.55584519596,204.78769695847,235.43688503679,270.77075266308,270.19611937645,270.35721855056,270.68635495781,259.95648774801,259.63949331948,259.83321218526,259.96800422823,211.59534575078,210.50733738871,235.43688503679,210.88737661757,211.59191251108,278.35808626597,278.03165961261,278.21855965497,278.25842275796,211.90249565135,210.22746214347,210.65581620241,211.80557021249,283.71518967939,278.40901329948,277.99537919689,278.16885310975,278.29572527914,260.20243517546,259.46135420581,259.59072025517,260.1480965559,283.71518967939,283.5579261045,283.5579261045,235.87147648012,235.87147648012,396.27545275852,387.9879105087,0
0.00037124999999999,196674139.76357,0.00010959475064386,1.0468580452274,6.2879889178903e-05,-3.0806466330916e-05,1.5989136838661e-05,8.2618925209477e-05,9.376550453261e-17,-6.0733259195891e-15,-2.1660246723178e-17,2.6989183178927e-19,-32.055666773936,69.938559839563,-53.138909411844,36.99701229508,-0.00010107285188135,1.2607485649716e-17,8.8310938183887e-17,-9.094038231231e-17,-1.414336019668e-18,1.5574724227582e-11,-3.425813262673e-10,-8.6123638105386e-12,3.1803882654347e-13,-1.1056774305943,1.5752892248156,-0.00010672925530979,-1.4971678408507,1.2057016120024,1.8582235675707e-23,-5.272693765364e-21,-1.5658555631842e-24,5.2276908909377e-27,-1.2520906299632,1.2518987426879,-1.0455474395828,1.2654613223824,-2.4738104201626e-42,6.923665475183e-25,1.4917678537066e-23,-1.5593369270323e-23,-3.7716744304663e-26,5.9240144493642e-12,1.9547581341715e-11,-1.9442495559154e-11,-1.2146607855495e-12,-3.3955177801995e-43,-5.0177061129031e-41,1.4077833731468e-36,5.5312665088126e-05,-0.00028294340655991,236.49844656472,236.49844656472,236.05844884352,236.05844884352,270.67782508586,270.32266558153,270.51771650564,270.62770153938,204.93120584119,202.91839026953,203.57369781154,204.80799600074,235.46796692321,270.80585036529,270.23053459609,270.3918735648,270.72135552457,259.99062586095,259.67324699964,259.86729172047,260.00221695649,211.62121676927,210.53168111181,235.46796692321,210.91243584887,211.61795480663,278.39350026228,278.06666935038,278.25384820848,278.29372333239,211.92874100357,210.25161491153,210.68080005825,211.83164405514,283.75085292568,278.44449368998,278.03035651235,278.20408274701,278.33106547334,260.2368891595,259.49494026852,259.62450284553,260.18249350784,283.75085292568,283.59337439055,283.59337439055,235.90297405761,235.90297405761,396.31367174721,388.00403790485,0
0.00037149999999999,196905538.36852,0.00010966889431716,1.0468990890372,6.3894289970785e-05,-3.0979090943036e-05,1.6044350277946e-05,8.3435471038754e-05,9.8450721189093e-17,-6.3756325106027e-15,-2.2215305567196e-17,2.7291517226997e-19,-32.031420998593,69.94728735998,-53.157893517395,36.979784514374,-0.00010169408409162,1.3624955123643e-17,9.1991179948373e-17,-9.5051850815364e-17,-1.4393605415737e-18,1.6128355909329e-11,-3.5496014208372e-10,-8.7780886868977e-12,3.2013874736643e-13,-1.1062128572626,1.5762633811085,-0.00010805066581813,-1.4980987463882,1.2062995044382,1.9833619806662e-23,-5.6222471078711e-21,-1.618097937867e-24,5.3362316231157e-27,-1.2527491051362,1.2514956384868,-1.0456237365636,1.2654419927283,-2.2359190019211e-42,7.7489921046335e-25,1.5868602526832e-23,-1.6547591564837e-23,-3.8620993849437e-26,6.2307677451952e-12,2.0026053890922e-11,-2.0065542235163e-11,-1.2300546390574e-12,-3.4671970351536e-43,-5.6334344847907e-41,1.567009648408e-36,5.594240976439e-05,-0.00028719108075987,236.53072658589,236.53072658589,236.09027964735,236.09027964735,270.71275866706,270.35716798875,270.55252449974,270.66260590789,204.95164073634,202.93522922363,203.59156839298,204.82841609526,235.49906097071,270.84094793383,270.26495218872,270.42653012536,270.75635629348,260.02476674483,259.70700485529,259.90137431401,260.03643220596,211.64710943158,210.55605186218,235.49906097071,210.937519824,211.64401815762,278.42891328624,278.10167956952,278.28913628486,278.32902332533,211.95500640635,210.27579640762,210.70581015428,211.85773795688,283.7865145328,278.4799728886,278.06533445976,278.23931214802,278.36640495821,260.27134480946,259.52853121644,259.65828964171,260.21689232461,283.7865145328,283.62882177594,283.62882177594,235.93448204163,235.93448204163,396.3519496265,388.02022394016,0
0.00037174999999999,197137009.64123,0.0001097430376213,1.046940158101,6.5030668712195e-05,-3.1137700498314e-05,1.6097232427423e-05,8.4217219218092e-05,1.0329428936211e-16,-6.6909778338451e-15,-2.2760286381715e-17,2.7594466534361e-19,-32.007427853234,69.947547966174,-53.173091973247,36.957733117751,-0.00010190944244859,1.4952711035349e-17,9.5608884574553e-17,-9.9303908232433e-17,-1.4641179628332e-18,1.6692133015362e-11,-3.6771167081137e-10,-8.9393711621407e-12,3.2220679234458e-13,-1.1066839541692,1.5772896245368,-0.00010937462477158,-1.4992159453916,1.2068833491572,2.114992407942e-23,-5.9924136615024e-21,-1.6698866244387e-24,5.4466189545571e-27,-1.2534262212214,1.2511489700802,-1.045587046456,1.2654393780824,-1.9132024229131e-42,8.875194588992e-25,1.6864809109848e-23,-1.7547709174667e-23,-3.9532102760334e-26,6.6138405655271e-12,2.0438227833552e-11,-2.0702964948367e-11,-1.2449798600254e-12,-3.4650473172044e-43,-6.3224113775956e-41,1.7428412729507e-36,5.6567686786991e-05,-0.00029145976870575,236.56301597499,236.56301597499,236.12212150908,236.12212150908,270.74769442104,270.39167410315,270.58733519095,270.69751255157,204.9720104726,202.95204362955,203.60957513892,204.84896882547,235.53016886383,270.87604712453,270.29937386138,270.46118997102,270.79135900664,260.0589121206,259.74076857866,259.93546170902,260.07065171582,211.673025207,210.58045115575,235.53016886383,210.96263033479,211.67010432242,278.4643270907,278.13669198487,278.32442563753,278.36432447426,211.98129337295,210.30000829712,210.73084825167,211.88385355632,283.82217625983,278.51545265465,278.1003147552,278.27454306287,278.40174547306,260.30580387361,259.56212874691,259.69208236671,260.25129474729,283.82217625983,283.66426998987,283.66426998987,235.96600208535,235.96600208535,396.39053092639,388.03674847737,0
0.00037199999999999,197368758.54423,0.0001098171806847,1.0469812609047,6.6229076760337e-05,-3.1285494079763e-05,1.6148258509894e-05,8.4976463825139e-05,1.0834596444172e-16,-7.0206112833615e-15,-2.330641116653e-17,2.7899918454678e-19,-31.990197060349,69.955255294754,-53.183836038289,36.932327582749,-0.00010291579476569,1.6229773558021e-17,9.9818666525836e-17,-1.0370856740066e-16,-1.4890813637587e-18,1.7270956175405e-11,-3.808729265381e-10,-9.0992429177996e-12,3.2426833964096e-13,-1.1072439165588,1.5783082267856,-0.00011069517876384,-1.5003921293813,1.2074811299452,2.2547721508443e-23,-6.3852118023015e-21,-1.7223561853401e-24,5.559233203971e-27,-1.254101045975,1.2508670492151,-1.0457766619901,1.265501433825,-1.4235910379923e-42,9.9695294788903e-25,1.7943698846872e-23,-1.8598095201998e-23,-4.0466285710927e-26,6.9849572135287e-12,2.1025025288445e-11,-2.1355395301109e-11,-1.2597320445001e-12,-3.4613637899501e-43,-7.0823514934585e-41,1.9373637907327e-36,5.7191024605505e-05,-0.00029578788713702,236.59531132898,236.59531132898,236.15397098824,236.15397098824,270.78262911445,270.4261806748,270.6221453201,270.73241821118,204.99231743106,202.96882185688,203.62766693528,204.86961573433,235.56128717461,270.91114470645,270.33379635948,270.49584984628,270.82636041555,260.09305871477,259.77453488215,259.96955059982,260.10487218185,211.69896037241,210.60487527292,235.56128717461,210.98776369655,211.69620958309,278.49973846576,278.17170337029,278.35971303929,278.39962354891,212.00759820755,210.32424690991,210.75591069974,211.9099871351,283.85783490675,278.55092977986,278.1352941713,278.30977226649,278.43708379262,260.34026308166,259.59572956249,259.72587772058,260.2856974905,283.85783490675,283.69971582179,283.69971582179,235.99753077997,235.99753077997,396.42931606199,388.05349513629,0
0.00037224999999999,197600835.66122,0.00010989132346577,1.0470224388149,6.7401207112147e-05,-3.1417462171786e-05,1.6197521419617e-05,8.5755262720838e-05,1.1366802402772e-16,-7.3649574419777e-15,-2.3881994712326e-17,2.8208610701162e-19,-31.977246746387,69.966751492529,-53.196891329959,36.903763307459,-0.00010424207154495,1.7469785360003e-17,1.04369966918e-16,-1.0828257486513e-16,-1.5137240162764e-18,1.7871984204528e-11,-3.9444876128297e-10,-9.2663047208913e-12,3.2633164849336e-13,-1.107859120008,1.5793200081423,-0.00011200752894544,-1.5016195027598,1.2080467158557,2.4045481920424e-23,-6.8017524746701e-21,-1.7781502348702e-24,5.674450036882e-27,-1.2548005201894,1.2505522789635,-1.0460371677732,1.2655805114638,-6.852010448903e-43,1.1054163386168e-24,1.9093636535702e-23,-1.9703853390438e-23,-4.1408084920384e-26,7.3415159786539e-12,2.1691488520309e-11,-2.2024510136472e-11,-1.2739154795137e-12,-3.4615118268193e-43,-7.9230832849091e-41,2.1523981446184e-36,5.7819589671752e-05,-0.00030016962537985,236.6276138585,236.6276138585,236.18582921315,236.18582921315,270.81756400194,270.46068893311,270.65695611125,270.76732414365,205.01274850487,202.98571845285,203.64562678064,204.89017584723,235.59241697136,270.94624194519,270.36822089497,270.5305109595,270.86136178991,260.12720775997,259.80830497333,260.00364218559,260.13909483481,211.72491604039,210.6293252251,235.59241697136,211.0129207434,211.72233488393,278.53514867706,278.20671497264,278.39499973271,278.43492181883,212.03392205704,210.34851313533,210.78099830737,211.93613977659,283.89349173674,278.58640553363,278.17027394748,278.34500099455,278.47242119072,260.37472368855,259.62933483754,259.75967687418,260.32010181227,283.89349173674,283.7351605391,283.7351605391,236.02906928248,236.02906928248,396.46820550142,388.07034058449,0
0.00037249999999999,197833483.10039,0.0001099654662029,1.047063662311,6.8536320094928e-05,-3.1537268580361e-05,1.6246113862008e-05,8.6551411377843e-05,1.1916237702876e-16,-7.7244389280933e-15,-2.4486456174631e-17,2.8524062631051e-19,-31.958059248277,69.97126429532,-53.220048849642,36.880190589119,-0.00010571008907466,1.8693825831947e-17,1.0916088822278e-16,-1.1304224368476e-16,-1.5387239606663e-18,1.8480141552009e-11,-4.0843638502847e-10,-9.4404232408752e-12,3.284288191801e-13,-1.1084923270266,1.580315030941,-0.00011331790401075,-1.5028153217791,1.2084878393396,2.562479682648e-23,-7.2432970464615e-21,-1.8372169077456e-24,5.7932147413936e-27,-1.2555108749915,1.2501278936436,-1.046370175727,1.2656651066597,2.5437697474389e-43,1.2149671388454e-24,2.0308346295519e-23,-2.0870746667662e-23,-4.2381881273938e-26,7.6880955564417e-12,2.2401210378395e-11,-2.2711882608442e-11,-1.2879270801742e-12,-3.4602392744878e-43,-8.8494222794188e-41,2.3900631661814e-36,5.842303985827e-05,-0.00030457830272703,236.65992495383,236.65992495383,236.21769752844,236.21769752844,270.8525004459,270.49520023986,270.69176892112,270.80223174628,205.03302858102,203.00261017402,203.66370790217,204.91082647217,235.6235595454,270.98134021579,270.40264882255,270.56517465406,270.89636453329,260.16136061184,259.84208020259,260.03773782028,260.17332106383,211.75089362643,210.65380236647,235.6235595454,211.03810265441,211.74848150336,278.57055909041,278.24172816487,278.43028707707,278.47022068278,212.06026633966,210.37280823467,210.80611227638,211.962312872,283.92914811414,278.62188128672,278.20525545389,278.38023060085,278.50775906838,260.40918707408,259.66294590809,259.79348115659,260.35450911513,283.92914811414,283.7706055317,283.7706055317,236.06061892958,236.06061892958,396.50716138377,388.0872560803,0
0.00037274999999999,198066529.34652,0.00011003960904522,1.0471047240831,6.9620371673198e-05,-3.1606166845279e-05,1.6290163274795e-05,8.7372626368611e-05,1.2506005336295e-16,-8.0988595999644e-15,-2.5123670755972e-17,2.8836605362694e-19,-31.946754306959,69.978461827637,-53.237178166415,36.851480858673,-0.00010722938395442,1.9905648726832e-17,1.1415146174555e-16,-1.1801036115453e-16,-1.5633093759359e-18,1.9129059844917e-11,-4.2282740008047e-10,-9.6229647457231e-12,3.3044228128007e-13,-1.1091297105786,1.5812205902534,-0.00011461815992575,-1.504015053608,1.2089192300918,2.7337870202042e-23,-7.7098983010058e-21,-1.8998902945633e-24,5.9143159920769e-27,-1.2562392915256,1.249656070404,-1.0466832149316,1.2656819272219,1.5392632572842e-42,1.3260848267343e-24,2.1590617324736e-23,-2.2105153778938e-23,-4.3386080933991e-26,8.0249708728237e-12,2.3136037211902e-11,-2.3420072737398e-11,-1.3006088576521e-12,-3.4568225052021e-43,-9.8735645376757e-41,2.6516390288819e-36,5.9070225851906e-05,-0.00030900139169927,236.69224497327,236.69224497327,236.24957632392,236.24957632392,270.88743874129,270.52971489234,270.72658407514,270.83714138134,205.05336951271,203.01946432748,203.68185109273,204.93147718415,235.65471517271,271.01643983121,270.43708044136,270.59984123294,270.93136900167,260.1955175556,259.8758608525,260.07183784408,260.20755124034,211.77689331579,210.67830683422,235.65471517271,211.06330993296,211.77465000576,278.60597000714,278.27674325796,278.46557538792,278.50552049294,212.08663140828,210.3971324099,210.83125295799,211.98850694051,283.96480434576,278.6573573469,278.24023900158,278.41546139158,278.54309777482,260.44365356069,259.6965630623,259.82729086496,260.38891975914,283.96480434576,283.80605113197,283.80605113197,236.09217997254,236.09217997254,396.54619558667,388.10425556449,0
0.00037299999999999,198298760.76609,0.00011011375197238,1.0471457226796,7.065903739223e-05,-3.156546121595e-05,1.6333892660628e-05,8.820499361219e-05,1.3132870282996e-16,-8.4899928790008e-15,-2.5791372643163e-17,2.9154095977056e-19,-31.935050390688,69.989018058387,-53.252143054418,36.825611527606,-0.00010875906994678,2.1110874491288e-17,1.1931942464122e-16,-1.2316020264031e-16,-1.5883739162351e-18,1.9812094479974e-11,-4.3765997351764e-10,-9.812702791619e-12,3.3246893769594e-13,-1.1097206499756,1.5820646095225,-0.00011588323316595,-1.5052128013752,1.2093702205046,2.9183526494993e-23,-8.2049490215352e-21,-1.9661053597816e-24,6.0391750569602e-27,-1.2568214156232,1.2491488452222,-1.046961138393,1.2656495755639,3.3189295434467e-42,1.4392234261154e-24,2.2940947139609e-23,-2.3402469280572e-23,-4.4508223219166e-26,8.3539575425234e-12,2.3887260769149e-11,-2.4143164769795e-11,-1.3111007254235e-12,-3.4503680855331e-43,-1.1003598312744e-40,2.9409352813675e-36,5.9747173309601e-05,-0.00031346184540168,236.72457370698,236.72457370698,236.28146542841,236.28146542841,270.92237869714,270.56423273354,270.76140141141,270.87205289892,205.07384734736,203.03630319935,203.70000137455,204.9520620501,235.68588369078,271.05154059949,270.47151560423,270.63451053584,270.96637503592,260.22967839471,259.9096467544,260.10594209541,260.24178520986,211.80291490149,210.70283846531,235.68588369078,211.0885423455,211.8008401846,278.64138124257,278.31176010257,278.5008645005,278.54082110241,212.11301701923,210.42148550176,210.85642015455,212.01472177577,284.00046025811,278.69283352926,278.27522444531,278.45069320273,278.57843715953,260.47812294933,259.73018614966,259.86110584069,260.42333357208,284.00046025811,283.84149719539,283.84149719539,236.12375221145,236.12375221145,396.58525810843,388.12128514677,0
0.00037324999999999,198530751.46691,0.00011018789472789,1.0471867150138,7.1656286248689e-05,-3.1749645816256e-05,1.6377582550333e-05,8.9046988289327e-05,1.3796545266666e-16,-8.9007829687241e-15,-2.6494355894131e-17,2.9481917445956e-19,-31.915816581462,70.00290209068,-53.268420429637,36.805041202742,-0.00011025001561335,2.2313003012767e-17,1.2464779637641e-16,-1.2849806606158e-16,-1.6137336336296e-18,2.0526714159353e-11,-4.5299776039778e-10,-1.0010875376023e-11,3.345482412068e-13,-1.1102436733759,1.582915397815,-0.00011720236780233,-1.506323341715,1.2098007144015,3.1167422096739e-23,-8.7335758337057e-21,-2.0363535107906e-24,6.1694479062525e-27,-1.2575735848979,1.2486573313253,-1.047142202598,1.2656422841686,5.5545504529678e-42,1.5546105619494e-24,2.4360717164064e-23,-2.4767480879812e-23,-4.5466124566995e-26,8.6763916219185e-12,2.4647377035205e-11,-2.4885239209393e-11,-1.3265612485042e-12,-3.4422116184225e-43,-1.2249130802649e-40,3.2631285230742e-36,6.0444345873869e-05,-0.00031792951406432,236.75691186032,236.75691186032,236.31336547156,236.31336547156,270.95732096212,270.598754369,270.79622155175,270.90696692481,205.09427320208,203.05332065522,203.71804551722,204.9726164807,235.71706568131,271.08664318301,270.505954906,270.66918317637,271.00138327798,260.26384377952,259.94343852091,260.1400511953,260.27602360162,211.82895922353,210.72739793257,235.71706568131,211.11380052005,211.82705271253,278.67679344215,278.34677930279,278.53615504016,278.57612313227,212.139424031,210.44586809205,210.88161447061,212.04095813878,284.03611648739,278.72831048544,278.31021238576,278.48592665715,278.61377785069,260.51259591494,259.76381575956,259.89492668704,260.45775121316,284.03611648739,283.8769443332,283.8769443332,236.15533629705,236.15533629705,396.62430671848,388.13830404419,0
0.00037349999999999,198762833.30839,0.00011026203730101,1.0472276847409,7.261597628459e-05,-3.2024054893558e-05,1.6424136026575e-05,8.9878435050699e-05,1.4494969943115e-16,-9.3311205150413e-15,-2.7252743207344e-17,2.9828012151688e-19,-31.901797337811,70.002824349975,-53.292663642195,36.786032583585,-0.00011175553032489,2.3515553558925e-17,1.3013903755959e-16,-1.3406074320954e-16,-1.6408999591828e-18,2.1269422880599e-11,-4.6887610920632e-10,-1.0222377045686e-11,3.3675076766682e-13,-1.1109230012596,1.5836835084671,-0.0001185290722255,-1.5073386840388,1.2100429919984,3.3287927807907e-23,-9.2958104778957e-21,-2.1126767343222e-24,6.3081705600962e-27,-1.2583735097256,1.2480708236869,-1.0474135070473,1.2655731285148,8.2381312776987e-42,1.6725124571432e-24,2.5848316950899e-23,-2.6211832255605e-23,-4.6428542634115e-26,8.9935445945563e-12,2.5420476208398e-11,-2.5647869738409e-11,-1.344769632929e-12,-3.4412346414356e-43,-1.3613867496228e-40,3.6203401434958e-36,6.1155765170864e-05,-0.00032253906824425,236.78925982746,236.78925982746,236.34527689975,236.34527689975,270.9922660018,270.63328024204,270.83104497041,270.94188386947,205.1147355715,203.07045742972,203.73618920351,204.99324713758,235.74826164978,271.12174803036,270.54039879455,270.70385963877,271.03639412679,260.29801417427,259.977236605,260.17416561163,260.31026683162,211.85502675348,210.75198577497,235.74826164978,211.13908502787,211.8532880031,278.71220707385,278.38180129218,278.57144748378,278.6114269923,212.16585285563,210.47028075359,210.90683650408,212.06721637148,284.07177350707,278.76378867583,278.34520325735,278.52116223479,278.6491202527,260.54707289076,259.79745235638,259.92875389349,260.49217307766,284.07177350707,283.91239296285,283.91239296285,236.18693269725,236.18693269725,396.6633485685,388.1553045044,0
0.00037374999999999,198994911.44262,0.0001103361798342,1.0472686290185,7.3550961559395e-05,-3.2326524201116e-05,1.6471636348538e-05,9.0734952062058e-05,1.523172689067e-16,-9.7811651191141e-15,-2.8028776238415e-17,3.0181446575987e-19,-31.888936942833,69.999453264013,-53.307964154359,36.762592705684,-0.00011329019101008,2.4726401926132e-17,1.3578624415078e-16,-1.3979182012724e-16,-1.6696203430467e-18,2.2042331210991e-11,-4.8530435716062e-10,-1.0436864544261e-11,3.38994498854e-13,-1.1116925580532,1.584329804067,-0.00011983088810701,-1.5083917312316,1.2102648540251,3.5561321380234e-23,-9.8923579347153e-21,-2.1917561868564e-24,6.4510524428018e-27,-1.2592326855116,1.2474285389505,-1.0478492870303,1.265489395999,1.1623496521538e-41,1.793515810203e-24,2.7400711190671e-23,-2.7723190048573e-23,-4.7436298307478e-26,9.3082186908631e-12,2.6207450555511e-11,-2.6422021558653e-11,-1.3642754037481e-12,-3.4341328258866e-43,-1.5100697409368e-40,4.0151778185065e-36,6.1867085053216e-05,-0.00032729329510222,236.82161778197,236.82161778197,236.37719995988,236.37719995988,271.02721391361,270.66781047716,270.86587180935,270.97680389903,205.1352601117,203.08762557421,203.75428789625,205.01391980074,235.77947177789,271.15685524698,270.57484740321,270.73854005175,271.0714077343,260.33218967942,260.01104112753,260.20828551253,260.34451508515,211.8811175865,210.77660211966,235.77947177789,211.16439636047,211.87954654341,278.74762223491,278.41682619927,278.60674195445,278.64673283479,212.19230371127,210.49472375306,210.93208666114,212.09349687745,284.1074314205,278.79926820003,278.38019719128,278.55640005286,278.68446451164,260.58155399551,259.8310960811,259.96258760341,260.5265993241,284.1074314205,283.9478432211,283.9478432211,236.21854152509,236.21854152509,396.70262564313,388.17254356272,0
0.00037399999999999,199226969.15583,0.00011041032232048,1.0473095542652,7.447939549884e-05,-3.2566507153699e-05,1.6516395893256e-05,9.1651404564842e-05,1.6005727012748e-16,-1.0251736980634e-14,-2.8790195594113e-17,3.0549562954583e-19,-31.875627464635,69.99831765134,-53.328428109585,36.738437954452,-0.00011483532946143,2.5951896825903e-17,1.4162888490803e-16,-1.4569360545835e-16,-1.6932277151437e-18,2.2843782880644e-11,-5.0227987997246e-10,-1.0646777500639e-11,3.4131748650753e-13,-1.112398834076,1.5850053054922,-0.00012115047669439,-1.50944027058,1.2105630901667,3.7988180152704e-23,-1.0525403992473e-20,-2.2703281070967e-24,6.5987448196995e-27,-1.2600842534714,1.2467441846013,-1.0482906762502,1.265306193213,1.5765389713596e-41,1.9180688063424e-24,2.9031965131046e-23,-2.9303875825328e-23,-4.8281527651198e-26,9.6229851185541e-12,2.7011110617651e-11,-2.7208791891782e-11,-1.3800630868189e-12,-3.4048986186395e-43,-1.6729357207717e-40,4.4516617261831e-36,6.2605144069129e-05,-0.0003321309891962,236.85398263076,236.85398263076,236.40913150805,236.40913150805,271.06216174183,270.70234212914,270.90069907085,271.01172402919,205.15566152297,203.10479096786,203.77230925178,205.03454700225,235.8106929532,271.19196186517,270.60929777329,270.77322142479,271.10642112501,260.36636732136,260.04484912206,260.24240786252,260.37876533758,211.90722858496,210.80124379316,235.8106929532,211.18973111717,211.90582498415,278.78303597866,278.45185109038,278.64203548073,278.6820377032,212.21877334366,210.51919375288,210.95736152396,212.11979635047,284.14308727974,278.83474610625,278.41519124821,278.59163714241,278.719807674,260.61603623302,259.86474394088,259.99642479568,260.56102694605,284.14308727974,283.98329217526,283.98329217526,236.25015974378,236.25015974378,396.74204379411,388.189917371,0
0.00037424999999999,199459043.8169,0.0001104844648931,1.0473504673239,7.5383424459764e-05,-3.2787342293847e-05,1.6560263008232e-05,9.2466686886055e-05,1.682823506892e-16,-1.0744011322907e-14,-2.9495174953426e-17,3.0923891401509e-19,-31.867080334192,70.000022269043,-53.350502578554,36.716380848689,-0.00011637072396332,2.7184121158533e-17,1.4765661398989e-16,-1.5162896090391e-16,-1.7147510625841e-18,2.3685957067563e-11,-5.1982057959069e-10,-1.0837849566821e-11,3.4366597763519e-13,-1.1130857253799,1.5856741574268,-0.00012230666964404,-1.5104510103138,1.2106552257735,4.0604907080763e-23,-1.1197608430486e-20,-2.3445533256006e-24,6.7495769374826e-27,-1.2609352414993,1.2457676717073,-1.0487166935008,1.2649955080217,2.1169529175546e-41,2.0455298695405e-24,3.0743481553648e-23,-3.0928381302426e-23,-4.9056433227819e-26,9.9352367454108e-12,2.782751678691e-11,-2.7977126150048e-11,-1.3944306948087e-12,-3.3437660579529e-43,-1.8511151440858e-40,4.9344951596889e-36,6.337690268266e-05,-0.00033703469175734,236.8863554878,236.8863554878,236.44107264147,236.44107264147,271.09711061561,270.73687636931,270.93552787071,271.04664540847,205.17656454756,203.12192928043,203.79042993154,205.05503691528,235.84192630813,271.22706900978,270.64375107649,270.80790488306,271.14143545218,260.40054823318,260.0786617541,260.27653377232,260.41301872316,211.93336088761,210.82591199531,235.84192630813,211.21509033459,211.93212440974,278.81844943148,278.48687713937,278.67732918215,278.71734275701,212.24526281468,210.54369190436,210.98266214237,212.14611587805,284.1787422086,278.87022351985,278.450186603,278.62687462741,278.75515090186,260.65052072615,259.89839709974,260.03026659738,260.59545708547,284.1787422086,284.01874099711,284.01874099711,236.28178849907,236.28178849907,396.78143377898,388.20724998999,0
0.00037449999999999,199691175.33971,0.00011055860705003,1.0473913786693,7.6265186184653e-05,-3.3002842898452e-05,1.6604965114589e-05,9.3431156058152e-05,1.7685338506491e-16,-1.1258356163892e-14,-3.0268999014617e-17,3.1306407444888e-19,-31.837386655545,70.00847652187,-53.365880792007,36.704027893305,-0.00011788762015831,2.8415152221344e-17,1.5384073811772e-16,-1.580027433681e-16,-1.7355460448215e-18,2.4548842462341e-11,-5.3791872669683e-10,-1.1049192944309e-11,3.4606437774542e-13,-1.1136237051859,1.586528967316,-0.00012373488869797,-1.5113381919155,1.2112422629531,4.3383425484697e-23,-1.1910669624997e-20,-2.4258020592494e-24,6.9042015940419e-27,-1.2616383488428,1.2452928850816,-1.0489692642625,1.2649013353993,2.7344731740524e-41,2.1751781903422e-24,3.2529225106441e-23,-3.26754522983e-23,-4.9807538932687e-26,1.0242833186632e-11,2.8652125375922e-11,-2.8813416724605e-11,-1.4082941013092e-12,-3.2825635944658e-43,-2.0448199444488e-40,5.4681282340021e-36,6.4147995767229e-05,-0.00034199660953167,236.91873843896,236.91873843896,236.47302545918,236.47302545918,271.13206252911,270.77141523269,270.97036022313,271.08157009388,205.19741788822,203.13908664662,203.80874445941,205.07569593883,235.87317390769,271.26217868391,270.67820935511,270.8425924376,271.17645277144,260.43473441958,260.11248105796,260.31066527658,260.44727730873,211.95951658808,210.85060885106,235.87317390769,211.24047622417,211.95844713928,278.85386458201,278.52190638352,278.71262505909,278.75265004644,212.27177430458,210.56822034682,211.0079906441,212.17245777043,284.2143981959,278.9057024337,278.48518529652,278.66211450779,278.79049624561,260.68500949593,259.93205760407,260.06411503451,260.62989180486,284.2143981959,284.05419172969,284.05419172969,236.31342983233,236.31342983233,396.82094593283,388.22471883394,0
0.00037474999999999,199923424.84763,0.00011063274886867,1.0474322978678,7.7137889804147e-05,-3.3191597989942e-05,1.6645259366796e-05,9.444139255452e-05,1.856998946365e-16,-1.1796096019174e-14,-3.1083331803749e-17,3.1680324023175e-19,-31.815589244511,70.017157814144,-53.372237754874,36.68584744733,-0.00011937361427107,2.9649760469743e-17,1.6013395816209e-16,-1.6470879490277e-16,-1.7548508571144e-18,2.5423129170422e-11,-5.5661466378078e-10,-1.1270692630866e-11,3.483406635211e-13,-1.1140833027063,1.5875016028024,-0.00012525613928721,-1.5122522550257,1.2119799986075,4.6309274263599e-23,-1.2667038656992e-20,-2.5117653156413e-24,7.0597522455628e-27,-1.2623108347335,1.2450717300135,-1.049135220979,1.2648961630603,3.4345813999418e-41,2.3073197880622e-24,3.4374301126858e-23,-3.4530957662822e-23,-5.0518624514386e-26,1.0547692104076e-11,2.9479584103937e-11,-2.9689891425645e-11,-1.4208936002306e-12,-3.2164055563038e-43,-2.2529701845162e-40,6.0575102963166e-36,6.4904768829025e-05,-0.0003470156511226,236.95112938823,236.95112938823,236.50498789114,236.50498789114,271.16701551465,270.80595659402,271.00519416467,271.11649598571,205.21817598238,203.15627576788,203.82709086881,205.09635320303,235.90443362542,271.29728892924,270.71267048381,270.87728211591,271.21147098345,260.46892387144,260.1463049051,260.3448003823,260.48153900185,211.98569340445,210.87533188363,235.90443362542,211.26588686767,211.98479102667,278.88927948831,278.55693670037,278.74792116881,278.78795746536,212.29830561607,210.59277670857,211.03334498211,212.19881973244,284.25005331476,278.94118090966,278.52018520628,278.69735483746,278.82584159963,260.71950055136,259.96572332632,260.0979680953,260.6643290102,284.25005331476,284.08964225737,284.08964225737,236.34508159876,236.34508159876,396.86068017535,388.24242910151,0
0.00037499999999999,200155848.32991,0.00011070689040758,1.0474732142487,7.8013254459319e-05,-3.3351235599161e-05,1.667786580738e-05,9.5448427881702e-05,1.9490647914105e-16,-1.2358367055203e-14,-3.1924452754966e-17,3.2032988237949e-19,-31.801227886866,70.023374153805,-53.379908837378,36.670254316053,-0.00012082207857991,3.089802832338e-17,1.6644208066613e-16,-1.717104487428e-16,-1.7724899597334e-18,2.6318625155222e-11,-5.759312239812e-10,-1.1497095394033e-11,3.5038953348557e-13,-1.114485116548,1.5885610345402,-0.00012681428728565,-1.5131616997482,1.2127800020712,4.940974640819e-23,-1.3469363603842e-20,-2.601447287296e-24,7.2129303156428e-27,-1.262890280742,1.2449160198858,-1.049221830361,1.2648556574046,4.2450602255096e-41,2.4428095111731e-24,3.6245760101745e-23,-3.6491073258608e-23,-5.1187187899148e-26,1.0853064667629e-11,3.0300710838155e-11,-3.0597210366746e-11,-1.4320617270401e-12,-3.1411920366834e-43,-2.4714741185375e-40,6.708197188225e-36,6.5656024589341e-05,-0.00035209166911148,236.98352704291,236.98352704291,236.5369585763,236.5369585763,271.20196835961,270.84049917668,271.04002845569,271.15142182762,205.23884535661,203.17350010361,203.84560581005,205.11694856822,235.93570405538,271.33239854297,270.74713317272,270.91197266718,271.24648884379,260.50311534757,260.180132001,260.37893781883,260.51580252454,212.01188993508,210.90007954458,235.93570405538,211.291320662,212.01115449714,278.92469295332,278.59196682725,278.78321629396,278.8232637681,212.32485537975,210.6173593725,211.05872354128,212.2252002784,284.2857063701,278.97665775435,278.55518506419,278.7325943944,278.86118572266,260.75399267056,259.99939294639,260.13182448844,260.69876744775,284.2857063701,284.12509133367,284.12509133367,236.37674245906,236.37674245906,396.90049165316,388.26023339816,0
0.00037524999999999,200388384.10683,0.00011078103182531,1.0475141456418,7.8888156552502e-05,-3.3488473539713e-05,1.670448239457e-05,9.6428726544892e-05,2.0444892326727e-16,-1.2947692732244e-14,-3.2782947169084e-17,3.236982579046e-19,-31.790437377095,70.030866879656,-53.380759789194,36.65814240781,-0.00012223362565546,3.2164011811194e-17,1.7269034620482e-16,-1.7899134354745e-16,-1.7910956271864e-18,2.7234161323614e-11,-5.9592871855755e-10,-1.1725362537264e-11,3.5226178874484e-13,-1.1147961897655,1.5895244366919,-0.00012838759056248,-1.5140503146889,1.2135428237786,5.2676095994691e-23,-1.4322619331882e-20,-2.694031098179e-24,7.3647218217845e-27,-1.2633167595665,1.2447357810295,-1.0492561253343,1.2647627576215,5.1589421816158e-41,2.5820110885195e-24,3.8114714144115e-23,-3.8555894818322e-23,-5.1933102369025e-26,1.1160079223214e-11,3.110922454138e-11,-3.1530752903996e-11,-1.4430659003849e-12,-3.052773984503e-43,-2.6959975971094e-40,7.4283574405938e-36,6.6405881840559e-05,-0.00035722124018065,237.01593313563,237.01593313563,236.56893914521,236.56893914521,271.23692275212,270.87504461601,271.07486475139,271.18634927162,205.25956912866,203.19073712684,203.86411678291,205.13769946994,235.96698678919,271.3675092259,270.7815990443,270.94666573869,271.28150802207,260.53731053306,260.21396398603,260.4130792327,260.55006952767,212.03810801498,210.92485350546,235.96698678919,211.31677911343,212.03753916542,278.96010666457,278.62699839888,278.81851209838,278.85857060452,212.35142550096,210.64196988739,211.08412784938,212.25160124233,284.32135904063,279.01213466067,278.59018650036,278.76783483968,278.89653027175,260.78848756282,260.03306807802,260.16568584446,260.73320880333,284.32135904063,284.16054060021,284.16054060021,236.40841408322,236.40841408322,396.94036636011,388.27811558295,0
0.00037549999999999,200621136.75485,0.00011085517308474,1.0475550709941,7.9739586439196e-05,-3.3535984979627e-05,1.6726756382792e-05,9.7400941136107e-05,2.1437818038772e-16,-1.3564030312956e-14,-3.365969252702e-17,3.2698443384014e-19,-31.775618087437,70.039417132371,-53.387178586224,36.637218475025,-0.00012357747293175,3.3430047752222e-17,1.7867702715172e-16,-1.865570484973e-16,-1.7991344261211e-18,2.8173276858612e-11,-6.1659684852482e-10,-1.1956171506333e-11,3.5402206779423e-13,-1.1150999816487,1.5904120676785,-0.00013000790819465,-1.5150047831584,1.2143094412366,5.6132211347114e-23,-1.5227794447622e-20,-2.7895638106539e-24,7.5169768234344e-27,-1.2636686533917,1.2445672824639,-1.0492978164102,1.2646637645358,6.2054652494856e-41,2.7232068221433e-24,3.9912258008257e-23,-4.0729468759956e-23,-5.2283928926763e-26,1.1463787004747e-11,3.1882304405005e-11,-3.2491921203431e-11,-1.4474190465305e-12,-2.9573135697879e-43,-2.9161899248303e-40,8.2231177430422e-36,6.7156458707567e-05,-0.00036241613755351,237.04834790079,237.04834790079,236.60092979891,236.60092979891,271.27187888338,270.90959309982,271.10970323927,271.22127851577,205.28030919526,203.20811392744,203.88256505924,205.15850608641,235.99828199567,271.40262117537,270.81606828321,270.98136151404,271.3165287219,260.57150962221,260.24780104987,260.44722481398,260.58434021101,212.06434800239,210.9496540335,235.99828199567,211.34226242991,212.06394534275,278.99552081134,278.66203160349,278.85380876837,278.89387817066,212.37801634098,210.66660837215,211.1095579983,212.27802297985,284.3570115135,279.04761182068,278.62518970229,278.8030763585,278.9318754454,260.82298543351,260.06674890243,260.19955234437,260.76765328732,284.3570115135,284.195990249,284.195990249,236.44009667887,236.44009667887,396.98041074963,388.29618022828,0
0.00037574999999999,200853983.35683,0.0001109293141532,1.0475959540636,8.0567362300403e-05,-3.3673835567775e-05,1.6745017041347e-05,9.8376328072705e-05,2.247367761093e-16,-1.4207738967112e-14,-3.4555194984372e-17,3.3017394953765e-19,-31.761256432085,70.039186369527,-53.401742003661,36.613862535573,-0.00012478138901733,3.4700918391569e-17,1.8381806301218e-16,-1.9439518717054e-16,-1.8139990992562e-18,2.9139150220626e-11,-6.3792066271436e-10,-1.2189769055116e-11,3.5566001560706e-13,-1.1154052668659,1.5912685170326,-0.00013158879042056,-1.5159659500948,1.2150840065937,5.9798412283172e-23,-1.6186923147599e-20,-2.8881373386561e-24,7.6693302351841e-27,-1.2642097041013,1.2444591253218,-1.0493758716291,1.2645187682967,7.4142701424089e-41,2.8670463488971e-24,4.1427427270891e-23,-4.3012998441597e-23,-5.2838311132373e-26,1.1765031029609e-11,3.2560029856734e-11,-3.3473773130392e-11,-1.4569374404666e-12,-2.8514224722707e-43,-3.0987605101175e-40,9.0993033272972e-36,6.7909881248948e-05,-0.00036764729290773,237.08077006983,237.08077006983,236.63292919816,236.63292919816,271.30683553552,270.94414341452,271.14454266546,271.25620833382,205.30112013965,203.22546038063,203.90105096428,205.17918208572,236.02958835283,271.43773317287,270.85053966404,271.01605874011,271.35154972887,260.60571138816,260.28164196643,260.48137328686,260.61861332229,212.09060859486,210.97447980955,236.02958835283,211.36776903275,212.09037152612,279.03093417905,278.69706523571,278.88910506624,278.92918525643,212.40462659191,210.6912734573,211.13501248264,212.30446411713,284.39266256875,279.08308801952,278.6601934599,278.83831771325,278.96722003802,260.85748505438,260.10043417058,260.23342271501,260.80209967164,284.39266256875,284.23143908014,284.23143908014,236.47178898503,236.47178898503,397.02066954524,388.31446681874,0
0.00037599999999999,201086711.03002,0.00011100345495015,1.0476368004802,8.1352752240668e-05,-3.3849505944024e-05,1.6758077218857e-05,9.9348876954676e-05,2.3557718295249e-16,-1.4881352384902e-14,-3.5469795671803e-17,3.3332290715031e-19,-31.742378610155,70.045398054615,-53.416026020578,36.59814606938,-0.00012579055429866,3.5973444457118e-17,1.8761564558557e-16,-2.0254790248095e-16,-1.8311232272303e-18,3.0136661059061e-11,-6.59961571023e-10,-1.2426259221794e-11,3.5720071749963e-13,-1.1156603313198,1.5921337432664,-0.0001331511630889,-1.5168245654946,1.2158244047113,6.3697732440975e-23,-1.7205277236951e-20,-2.9897985639147e-24,7.8235353486989e-27,-1.2647580932777,1.2443262905291,-1.0494386535961,1.2642808012452,8.8037051291482e-41,3.0134336810438e-24,4.2472398823197e-23,-4.5421896177377e-23,-5.3449890681197e-26,1.2062182655555e-11,3.3093437935373e-11,-3.4481504096755e-11,-1.4683594803089e-12,-2.7336336284537e-43,-3.2108952690013e-40,1.0067222103858e-35,6.8676355184921e-05,-0.00037291206450349,237.11319912726,237.11319912726,236.66493678793,236.66493678793,271.34179223979,270.97869508914,271.17938253003,271.29113824287,205.32193354587,203.24288651246,203.91950326019,205.20003455556,236.06090529547,271.47284474405,270.88501270094,271.05075691237,271.38657056477,260.63991535522,260.31548625646,260.5155241353,260.65288836114,212.11688923637,210.9993302288,236.06090529547,211.39329821131,212.11681709609,279.06634630071,278.73209882924,278.9244005045,278.96449139004,212.43125571617,210.71596451146,211.16049062543,212.33092412457,284.42831173275,279.11856278667,278.69519729976,278.87355841342,279.0025635784,260.89198594208,260.13412337722,260.26729643423,260.83654746804,284.42831173275,284.26688662869,284.26688662869,236.50349049435,236.50349049435,397.06100979636,388.3328240119,0
0.00037624999999999,201319352.18766,0.00011107759577613,1.0476776234709,8.2121883057679e-05,-3.4036870030563e-05,1.6763287198204e-05,0.0001003248501326,2.4689676204752e-16,-1.5578970721351e-14,-3.6404239925924e-17,3.3638054078806e-19,-31.72509232255,70.048895318158,-53.434569265197,36.57731093031,-0.00012718485255938,3.7252176115914e-17,1.9423575526904e-16,-2.1099022504578e-16,-1.8482910435578e-18,3.1164451770685e-11,-6.82515905827e-10,-1.2666078582179e-11,3.585821446273e-13,-1.1161160789664,1.5930143076047,-0.0001346969285585,-1.5176935293154,1.2165115665637,6.7835645025183e-23,-1.8275630595937e-20,-3.09460332188e-24,7.9788828740156e-27,-1.2653474326474,1.2440969652571,-1.0497461486812,1.2639927027537,1.0403530953147e-40,3.1625074396545e-24,4.4491812687213e-23,-4.7951512409367e-23,-5.4047851576662e-26,1.2357764103169e-11,3.392983827078e-11,-3.5511409114775e-11,-1.4800920220679e-12,-2.604828409497e-43,-3.4649834050738e-40,1.1126403930672e-35,6.9455075386619e-05,-0.00037828121104405,237.14563676182,237.14563676182,236.69695435877,236.69695435877,271.37675067013,271.01324978091,271.21422457748,271.32606995893,205.34281161308,203.2603084674,203.93797307152,205.22100852464,236.09223453976,271.50795757454,270.91948906827,271.08545775928,271.42159292419,260.67412318084,260.34933556619,260.54967911829,260.68716706376,212.14319149875,211.02420684212,236.09223453976,211.41885189802,212.14328391507,279.10175886488,278.76713405098,278.95969681429,278.99979827171,212.45790538499,210.74068320819,211.18599428177,212.35740477677,284.46396071534,279.15403781475,278.73020289495,278.90880018325,279.03790775783,260.92648977841,260.16781820356,260.30117523093,260.87099837207,284.46396071534,284.30233457575,284.30233457575,236.53520282785,236.53520282785,397.10145209148,388.35128076504,0
0.00037649999999999,201551984.03345,0.00011115173658639,1.0477184377364,8.2889523124011e-05,-3.4226746154883e-05,1.6759753885275e-05,0.00010130118166503,2.5871085920445e-16,-1.6311631586754e-14,-3.7359419840825e-17,3.3906797378938e-19,-31.704796171185,70.055971987841,-53.45035767686,36.555603196117,-0.00012870965973314,3.854303364868e-17,2.0235276995586e-16,-2.1972704111411e-16,-1.8650540266966e-18,3.2221936402101e-11,-7.0594493456808e-10,-1.2909232548196e-11,3.5961537926547e-13,-1.1166063497586,1.5939358926684,-0.00013624237893406,-1.5186379711066,1.2171566106468,7.2226030195984e-23,-1.9415157116483e-20,-3.2027508036563e-24,8.1279004886049e-27,-1.2659692259793,1.243781414875,-1.0501366593694,1.2637151122431,1.2250863054115e-40,3.3146934758528e-24,4.7082093528634e-23,-5.0603796290975e-23,-5.462122908121e-26,1.2654034957279e-11,3.4909326384632e-11,-3.6565172944849e-11,-1.4917417189726e-12,-2.4655713267805e-43,-3.8189561399498e-40,1.2297752599255e-35,7.0227164931993e-05,-0.00038379411911732,237.17808253918,237.17808253918,236.72898148385,236.72898148385,271.41171045462,271.04780716697,271.24906842997,271.36100314155,205.36379548228,203.27771928474,203.95637052583,205.24196586232,236.12357569469,271.54307128603,270.95396844385,271.12016090964,271.4566164663,260.70833448608,260.38318955447,260.58383784614,260.72144906658,212.16951480737,211.04910917733,236.12357569469,211.44442960522,212.16977144483,279.13717150367,278.8021705884,278.99499362521,279.03510557727,212.48457502588,210.7654291555,211.21152299952,212.38390550803,284.499609151,279.1895127333,278.76520993309,278.94404265493,279.07325225197,260.96099617221,260.20151831059,260.3350587287,260.90545201909,284.499609151,284.33778261163,284.33778261163,236.5669255809,236.5669255809,397.14203427264,388.36988535692,0
