time,disloc_density,disp_y,fp_yy,slip_increment_0,slip_increment_1,slip_increment_10,slip_increment_11,slip_increment_12,slip_increment_13,slip_increment_14,slip_increment_15,slip_increment_16,slip_increment_17,slip_increment_18,slip_increment_19,slip_increment_2,slip_increment_20,slip_increment_21,slip_increment_22,slip_increment_23,slip_increment_24,slip_increment_25,slip_increment_26,slip_increment_27,slip_increment_28,slip_increment_29,slip_increment_3,slip_increment_30,slip_increment_31,slip_increment_32,slip_increment_33,slip_increment_34,slip_increment_35,slip_increment_36,slip_increment_37,slip_increment_38,slip_increment_39,slip_increment_4,slip_increment_40,slip_increment_41,slip_increment_42,slip_increment_43,slip_increment_44,slip_increment_45,slip_increment_46,slip_increment_47,slip_increment_5,slip_increment_6,slip_increment_7,slip_increment_8,slip_increment_9,slip_resistance_0,slip_resistance_1,slip_resistance_10,slip_resistance_11,slip_resistance_12,slip_resistance_13,slip_resistance_14,slip_resistance_15,slip_resistance_16,slip_resistance_17,slip_resistance_18,slip_resistance_19,slip_resistance_2,slip_resistance_20,slip_resistance_21,slip_resistance_22,slip_resistance_23,slip_resistance_24,slip_resistance_25,slip_resistance_26,slip_resistance_27,slip_resistance_28,slip_resistance_29,slip_resistance_3,slip_resistance_30,slip_resistance_31,slip_resistance_32,slip_resistance_33,slip_resistance_34,slip_resistance_35,slip_resistance_36,slip_resistance_37,slip_resistance_38,slip_resistance_39,slip_resistance_4,slip_resistance_40,slip_resistance_41,slip_resistance_42,slip_resistance_43,slip_resistance_44,slip_resistance_45,slip_resistance_46,slip_resistance_47,slip_resistance_5,slip_resistance_6,slip_resistance_7,slip_resistance_8,slip_resistance_9,stress_vm,stress_yy,total_twin_volume_fraction
6.25e-07,20000000,1.8353783099306e-07,1,0,0,0,8.3510177888425e-213,0,-1.6931854931033e-194,-5.3596068893568e-205,0,-1.490227715861e-227,-7.1568181542042e-262,-3.6752415769936e-289,5.8312806493669e-240,-5.8310602450982e-279,-9.9287292363455e-231,1.3876230985438e-281,7.1253739128295e-268,7.7652373049656e-222,-6.6411206190323e-310,-1.320321426666e-195,-2.6636189037057e-206,0,-7.6565124787149e-215,-2.1331918458724e-266,1.6006655112956e-258,-3.4662098284624e-297,1.4164959979822e-226,0,-5.6883541009435e-195,-2.8012768871707e-205,0,-4.8792934477529e-248,-3.198170501565e-259,-9.4660440438381e-284,6.2445649052914e-262,1.072249952648e-298,-1.9608712975154e-220,8.7424316067964e-286,2.0331469092811e-275,4.9231527613992e-211,-1.9283860396136e-246,3.2733316195359e-279,8.0801452850312e-263,1.7422974174083e-238,-9.7392064285739e-210,-5.4395979631913e-299,8.374115905849e-200,-1.8660678186196e-280,-1.0465197264251e-201,703.92229164663,703.92229164663,703.92229164663,703.92229164663,703.92229164663,703.92229164663,703.92229164663,703.92229164663,703.92229164663,703.92229164663,703.92229164663,703.92229164663,703.92229164663,703.92229164663,703.92229164663,703.92229164663,703.92229164663,703.92229164663,703.92229164663,703.92229164663,703.92229164663,703.92229164663,703.92229164663,703.92229164663,703.92229164663,703.92229164663,703.92229164663,703.92229164663,703.92229164663,703.92229164663,703.92229164663,703.92229164663,703.92229164663,703.92229164663,703.92229164663,703.92229164663,703.92229164663,703.92229164663,703.92229164663,703.92229164663,703.92229164663,703.92229164663,703.92229164663,703.92229164663,703.92229164663,703.92229164663,703.92229164663,703.92229164663,14.67072731522,14.670727327293,0
1.875e-06,20000000,5.5061452531776e-07,1,-1.1369723626311e-278,6.9953002762067e-289,1.7823980310923e-274,4.3222849884565e-165,-4.6325407775381e-303,-8.789009283492e-147,-2.7712352086465e-157,0,-7.754445659258e-180,-3.7404395482285e-214,-1.9609666535155e-241,3.0248776472948e-192,-3.1142904647572e-231,-5.1203506066007e-183,7.4172766646411e-234,3.7129985085561e-220,4.0221543648184e-174,-3.4947048187086e-262,-6.8552953826911e-148,-1.3776966682076e-158,0,-3.9806922118776e-167,-1.1155887240747e-218,8.3541917365845e-211,-1.8483956264879e-249,7.3393203544185e-179,0,-2.9519738471093e-147,-1.4479671368983e-157,-1.8004648829152e-278,-2.5436123367851e-200,-1.6706065915561e-211,-5.0528076408627e-236,3.2477486567259e-214,5.5652554667054e-251,-1.0120647630798e-172,4.6748292728013e-238,1.0585301992431e-227,2.5517887269666e-163,-9.9301835512386e-199,1.7491430081273e-231,4.2133034093324e-215,9.0129465891845e-191,-5.0310666869449e-162,-2.9115052232884e-251,4.3436072624666e-152,-9.775158014748e-233,-5.4365219182222e-154,703.92229164663,703.92229164663,703.92229164663,703.92229164663,703.92229164663,703.92229164663,703.92229164663,703.92229164663,703.92229164663,703.92229164663,703.92229164663,703.92229164663,703.92229164663,703.92229164663,703.92229164663,703.92229164663,703.92229164663,703.92229164663,703.92229164663,703.92229164663,703.92229164663,703.92229164663,703.92229164663,703.92229164663,703.92229164663,703.92229164663,703.92229164663,703.92229164663,703.92229164663,703.92229164663,703.92229164663,703.92229164663,703.92229164663,703.92229164663,703.92229164663,703.92229164663,703.92229164663,703.92229164663,703.92229164663,703.92229164663,703.92229164663,703.92229164663,703.92229164663,703.92229164663,703.92229164663,703.92229164663,703.92229164663,703.92229164663,44.023728275671,44.023728318519,0
4.375e-06,20000000,1.2847720323478e-06,1,-6.802739029441e-242,4.1564919613169e-252,1.1929430995941e-237,2.7358728692659e-128,-3.1152565355753e-266,-5.5955577448191e-110,-1.7506157349545e-120,-1.4161600792626e-276,-4.9610735979353e-143,-2.4142586994282e-177,-1.3192827681255e-204,1.9232065841952e-155,-2.0993708208888e-194,-3.2177624058003e-146,5.0085415495419e-197,2.3823412530086e-183,2.5497858867772e-137,-2.2869715019126e-225,-4.3666803476005e-111,-8.7086838111213e-122,0,-2.5423993892607e-130,-7.2096105961447e-182,5.3772695425669e-174,-1.242149971835e-212,4.6555319629788e-142,1.5947979145601e-288,-1.878440427575e-110,-9.1411583446665e-121,-1.2254513996612e-241,-1.6332969848985e-163,-1.0771410814859e-174,-3.4022202136943e-199,2.0757209841592e-177,3.5424830429544e-214,-6.3704059748909e-136,3.1590902115662e-201,6.7797814893345e-191,1.6198807669581e-126,-6.2219937902733e-162,1.1803497173758e-194,2.7069266003373e-178,5.6989611870369e-154,-3.1722803747423e-125,-1.9714062218995e-214,2.7612632647339e-115,-6.3385056268391e-196,-3.466569423749e-117,703.92229164663,703.92229164663,703.92229164663,703.92229164663,703.92229164663,703.92229164663,703.92229164663,703.92229164663,703.92229164663,703.92229164663,703.92229164663,703.92229164663,703.92229164663,703.92229164663,703.92229164663,703.92229164663,703.92229164663,703.92229164663,703.92229164663,703.92229164663,703.92229164663,703.92229164663,703.92229164663,703.92229164663,703.92229164663,703.92229164663,703.92229164663,703.92229164663,703.92229164663,703.92229164663,703.92229164663,703.92229164663,703.92229164663,703.92229164663,703.92229164663,703.92229164663,703.92229164663,703.92229164663,703.92229164663,703.92229164663,703.92229164663,703.92229164663,703.92229164663,703.92229164663,703.92229164663,703.92229164663,703.92229164663,703.92229164663,102.77593429201,102.77593457753,0
9.375e-06,20000000,2.7531034127726e-06,1,-7.7790223547026e-209,4.6902652526695e-219,1.7068569671538e-204,3.4982620181764e-95,-4.5095546590291e-233,-7.2382778000767e-77,-2.2295925721149e-87,-2.164764533314e-243,-6.4802852451996e-110,-3.2106042404337e-144,-1.9068306517312e-171,2.4810533018181e-122,-3.0466307231483e-161,-4.0558890052572e-113,7.2940965079829e-164,3.1303818702571e-150,3.2703630798694e-104,-3.1280916447322e-192,-5.6543791678731e-78,-1.1105736831222e-88,5.0440641438086e-300,-3.3096953971537e-97,-9.6121816613821e-149,7.1110138306026e-141,-1.7913080252175e-179,5.9783178846096e-109,1.8500527114225e-255,-2.427471323103e-77,-1.1627566615957e-87,-1.8156016216039e-208,-2.1490793585917e-130,-1.4293522515076e-141,-4.9257154277441e-166,2.7058134159197e-144,4.5812365949961e-181,-8.0556502313491e-103,4.6080212170983e-168,8.8770521948656e-158,2.0833208815988e-93,-7.7967260850825e-129,1.7166574195551e-161,3.5663671590034e-145,7.2722300032116e-121,-4.0253394707178e-92,-2.8877734634251e-181,3.5613364182928e-82,-8.5084995493032e-163,-4.4981793774509e-84,703.92229164663,703.92229164663,703.92229164663,703.92229164663,703.92229164663,703.92229164663,703.92229164663,703.92229164663,703.92229164663,703.92229164663,703.92229164663,703.92229164663,703.92229164663,703.92229164663,703.92229164663,703.92229164663,703.92229164663,703.92229164663,703.92229164663,703.92229164663,703.92229164663,703.92229164663,703.92229164663,703.92229164663,703.92229164663,703.92229164663,703.92229164663,703.92229164663,703.92229164663,703.92229164663,703.92229164663,703.92229164663,703.92229164663,703.92229164663,703.92229164663,703.92229164663,703.92229164663,703.92229164663,703.92229164663,703.92229164663,703.92229164663,703.92229164663,703.92229164663,703.92229164663,703.92229164663,703.92229164663,703.92229164663,703.92229164663,220.46531363189,220.46531771043,0
1.4375e-05,20000000,4.2214566283081e-06,1,-2.5945865927102e-190,1.5449126662732e-200,7.1220861335044e-186,1.3031054107277e-76,-1.9091081223769e-214,-2.7276617184081e-58,-8.2726157117079e-69,-9.7198750968166e-225,-2.4657786758908e-91,-1.2441784766384e-125,-8.0346870662994e-153,9.3237852706211e-104,-1.2890596920215e-142,-1.4894783648382e-94,3.0976068402484e-145,1.1984575146993e-131,1.222010290969e-85,-1.2476794448736e-173,-2.1329434068583e-59,-4.1259216586436e-70,2.3011848166929e-281,-1.255107325178e-78,-3.7345974546976e-130,2.740059927484e-122,-7.5309383645529e-161,2.2363885613509e-90,6.2923932784798e-237,-9.1385379640915e-59,-4.3088658813071e-69,-7.8573849370861e-190,-8.2369811938898e-112,-5.5269381961483e-123,-2.0790720766214e-147,1.0274171053974e-125,1.7261608867802e-162,-2.9678324867862e-84,1.960217901211e-149,3.3864496316323e-139,7.8056321967726e-75,-2.8466328239433e-110,7.2798036517307e-143,1.3690433230411e-126,2.7035969582584e-102,-1.4880845973236e-73,-1.234040154741e-162,1.3381020277641e-63,-3.328820105601e-144,-1.7003155856892e-65,703.92229164663,703.92229164663,703.92229164663,703.92229164663,703.92229164663,703.92229164663,703.92229164663,703.92229164663,703.92229164663,703.92229164663,703.92229164663,703.92229164663,703.92229164663,703.92229164663,703.92229164663,703.92229164663,703.92229164663,703.92229164663,703.92229164663,703.92229164663,703.92229164663,703.92229164663,703.92229164663,703.92229164663,703.92229164663,703.92229164663,703.92229164663,703.92229164663,703.92229164663,703.92229164663,703.92229164663,703.92229164663,703.92229164663,703.92229164663,703.92229164663,703.92229164663,703.92229164663,703.92229164663,703.92229164663,703.92229164663,703.92229164663,703.92229164663,703.92229164663,703.92229164663,703.92229164663,703.92229164663,703.92229164663,703.92229164663,338.40161289697,338.40161252688,0
1.9375e-05,20000000,5.6898314997514e-06,1,-2.1749811676743e-177,1.2800232549143e-187,7.4687211142094e-173,1.2186319597109e-63,-2.0363063347381e-201,-2.5804814376642e-45,-7.7061223974288e-56,-1.1040258800618e-211,-2.3553174831679e-78,-1.2107237619911e-112,-8.5052668919971e-140,8.7961746010283e-91,-1.370317603923e-129,-1.3733660654352e-81,3.3055292827714e-132,1.152022534666e-118,1.1463835036965e-72,-1.2504924220416e-160,-2.0198840077513e-46,-3.8482830655921e-57,2.9475184398536e-268,-1.1948554469688e-65,-3.6437540757624e-117,2.6510908500897e-109,-7.9541478981434e-148,2.1002510443602e-77,5.4086147092896e-224,-8.6368742641992e-46,-4.0088155931339e-56,-8.558159581878e-177,-7.9251519524713e-99,-5.3664066565023e-110,-2.204650690389e-134,9.793103511145e-113,1.6330253206806e-149,-2.7451936058341e-71,2.0955279905977e-136,3.2435924029379e-126,7.3422469384551e-62,-2.6095891067993e-97,7.7568785978968e-130,1.3195606931319e-113,2.5235217290123e-89,-1.3811413162662e-60,-1.3256404218601e-149,1.2621976439502e-50,-3.2708876613438e-131,-1.6135057163243e-52,703.92229164663,703.92229164663,703.92229164663,703.92229164663,703.92229164663,703.92229164663,703.92229164663,703.92229164663,703.92229164663,703.92229164663,703.92229164663,703.92229164663,703.92229164663,703.92229164663,703.92229164663,703.92229164663,703.92229164663,703.92229164663,703.92229164663,703.92229164663,703.92229164663,703.92229164663,703.92229164663,703.92229164663,703.92229164663,703.92229164663,703.92229164663,703.92229164663,703.92229164663,703.92229164663,703.92229164663,703.92229164663,703.92229164663,703.92229164663,703.92229164663,703.92229164663,703.92229164663,703.92229164663,703.92229164663,703.92229164663,703.92229164663,703.92229164663,703.92229164663,703.92229164663,703.92229164663,703.92229164663,703.92229164663,703.92229164663,456.5851786594,456.58516556353,0
2.4375e-05,20000000,7.1582278485672e-06,1,-1.8550705638194e-167,1.0799679797469e-177,7.9659164259733e-163,1.1579865357537e-53,-2.2147217037714e-191,-2.4805184421937e-35,-7.294243783878e-46,-1.2833102988174e-201,-2.2858674779014e-68,-1.1974818649276e-102,-9.1537066148907e-130,8.4315064049403e-81,-1.4811318157088e-119,-1.2868476261834e-71,3.5871111224423e-122,1.1253946038553e-108,1.0928050085426e-62,-1.2746993181537e-150,-1.9435787805968e-36,-3.6472031156442e-47,4.2800489299917e-258,-1.1557512054756e-55,-3.6135421477536e-107,2.606868904655e-99,-8.5414313273713e-138,2.0040992676313e-67,4.7552863530827e-214,-8.2941301381765e-36,-3.7898747665058e-46,-9.4936711939056e-167,-7.7470719688306e-89,-5.2957912767149e-100,-2.3768878741846e-124,9.4836108891006e-103,1.5700199105371e-139,-2.5803776355073e-61,2.2782978994011e-126,3.1572230966148e-116,7.017764544921e-52,-2.4312197332141e-87,8.4045601931775e-120,1.2925750623403e-103,2.3935771290397e-79,-1.3026053332368e-50,-1.4486996670042e-139,1.209777947568e-40,-3.2671931915402e-121,-1.5557306190493e-42,703.92229164663,703.92229164663,703.92229164663,703.92229164663,703.92229164663,703.92229164663,703.92229164663,703.92229164663,703.92229164663,703.92229164663,703.92229164663,703.92229164663,703.92229164663,703.92229164663,703.92229164663,703.92229164663,703.92229164663,703.92229164663,703.92229164663,703.92229164663,703.92229164663,703.92229164663,703.92229164663,703.92229164663,703.92229164663,703.92229164663,703.92229164663,703.92229164663,703.92229164663,703.92229164663,703.92229164663,703.92229164663,703.92229164663,703.92229164663,703.92229164663,703.92229164663,703.92229164663,703.92229164663,703.92229164663,703.92229164663,703.92229164663,703.92229164663,703.92229164663,703.92229164663,703.92229164663,703.92229164663,703.92229164663,703.92229164663,575.01636046461,575.01633144305,0
2.6875e-05,20000000,7.8924340121715e-06,1,-3.0849030286053e-163,1.7868334831389e-173,1.4813220506213e-158,2.0317619717356e-49,-4.1621547054001e-187,-4.3773610407171e-31,-1.2773496533404e-41,-2.4964445217076e-197,-4.0531578293889e-64,-2.1437132093507e-98,-1.7096247734499e-125,1.4857903833129e-76,-2.7722862175522e-115,-2.2421511295532e-67,6.7278356681956e-118,2.0021477330997e-104,1.9204635581574e-58,-2.3171387105671e-146,-3.4315331550799e-32,-6.3909084946564e-43,9.6371478863282e-254,-2.045892858333e-51,-6.4776343599748e-103,4.6531028782997e-95,-1.5934976938274e-133,3.5236562504644e-63,8.0463909541531e-210,-1.4629446006116e-31,-6.6326599554709e-42,-1.8012073216604e-162,-1.3786051573802e-84,-9.4696995518432e-96,-4.443181315878e-120,1.6797316523445e-98,2.7709865112179e-135,-4.5030058222953e-57,4.2772081461835e-122,5.6067649622276e-112,1.2349176974782e-47,-4.2239994204364e-83,1.5750649209299e-115,2.30271728172e-99,4.1959481895482e-75,-2.2769892140384e-46,-2.7270233134242e-135,2.131800060895e-36,-5.8781208954046e-117,-2.7495577603067e-38,703.92229164663,703.92229164663,703.92229164663,703.92229164663,703.92229164663,703.92229164663,703.92229164663,703.92229164663,703.92229164663,703.92229164663,703.92229164663,703.92229164663,703.92229164663,703.92229164663,703.92229164663,703.92229164663,703.92229164663,703.92229164663,703.92229164663,703.92229164663,703.92229164663,703.92229164663,703.92229164663,703.92229164663,703.92229164663,703.92229164663,703.92229164663,703.92229164663,703.92229164663,703.92229164663,703.92229164663,703.92229164663,703.92229164663,703.92229164663,703.92229164663,703.92229164663,703.92229164663,703.92229164663,703.92229164663,703.92229164663,703.92229164663,703.92229164663,703.92229164663,703.92229164663,703.92229164663,703.92229164663,703.92229164663,703.92229164663,634.32491437899,634.32487500322,0
2.9375e-05,20000000,8.6266454930801e-06,1,-2.1518717801615e-159,1.2403502274591e-169,1.1553893056784e-154,1.4948803547492e-45,-3.2826988740186e-183,-3.2392472425395e-27,-9.3800763514458e-38,-2.0396987796023e-193,-3.0136486382198e-60,-1.6093630089945e-94,-1.3391434113297e-121,1.097914325632e-72,-2.1762663284291e-111,-1.6382400291831e-63,5.2923685898471e-114,1.4937005693078e-100,1.415261990796e-54,-1.7666646506986e-142,-2.5405951924405e-28,-4.6960357274162e-39,9.3000662159718e-250,-1.5186570942134e-47,-4.8696021172066e-99,3.4829573004483e-91,-1.2467974114313e-129,2.5979410180552e-59,5.7189731983849e-206,-1.082050027997e-27,-4.8676413297927e-38,-1.4337950645306e-158,-1.0287165755732e-80,-7.1011382232385e-92,-3.4834010074223e-116,1.2475520063927e-94,2.0508728434043e-131,-3.2952935660682e-53,3.3679312223662e-118,4.1753568751149e-108,9.1126089893335e-44,-3.0775364550969e-79,1.2379972413204e-111,1.7202980492189e-95,3.0844944390867e-71,-1.6690865023993e-42,-2.1531852649026e-131,1.5752551986029e-32,-4.4351583012529e-113,-2.037752027353e-34,703.92229164663,703.92229164663,703.92229164663,703.92229164663,703.92229164663,703.92229164663,703.92229164663,703.92229164663,703.92229164663,703.92229164663,703.92229164663,703.92229164663,703.92229164663,703.92229164663,703.92229164663,703.92229164663,703.92229164663,703.92229164663,703.92229164663,703.92229164663,703.92229164663,703.92229164663,703.92229164663,703.92229164663,703.92229164663,703.92229164663,703.92229164663,703.92229164663,703.92229164663,703.92229164663,703.92229164663,703.92229164663,703.92229164663,703.92229164663,703.92229164663,703.92229164663,703.92229164663,703.92229164663,703.92229164663,703.92229164663,703.92229164663,703.92229164663,703.92229164663,703.92229164663,703.92229164663,703.92229164663,703.92229164663,703.92229164663,693.69550415896,693.69545267538,0
3.1875e-05,20000000,9.360862270894e-06,1,-7.2580815937216e-156,4.1642004335876e-166,4.3571971061536e-151,5.3166813750606e-42,-1.252497045946e-179,-1.1587075478733e-23,-3.3297093061603e-34,-8.0680017645637e-190,-1.0831393446193e-56,-5.8407178558254e-91,-5.0711790570441e-118,3.9216983944042e-69,-8.2593881853259e-108,-5.7863061126441e-60,2.0127984370573e-110,5.3869588000679e-97,5.0416345223486e-51,-6.5124679891947e-139,-9.0924334843626e-25,-1.6680253104393e-35,4.4228745493479e-246,-5.4491770485694e-44,-1.7696984487599e-95,1.260293141194e-87,-4.7162576683075e-126,9.2589722776806e-56,1.9682469644152e-202,-3.8687033933515e-24,-1.7268462943351e-34,-5.5198673472833e-155,-3.7105725366398e-77,-2.574196435901e-88,-1.3202913089988e-112,4.4788473450877e-91,7.3376360438169e-128,-1.1657203974398e-49,1.2821825500847e-114,1.5030932149042e-104,3.2504932245714e-40,-1.0839234654718e-75,4.7044660986909e-108,6.2127128524106e-92,1.0960882488121e-67,-5.914292263823e-39,-8.2202581998778e-128,5.6267195193978e-29,-1.617785147925e-109,-7.3002205476335e-31,703.92229164663,703.92229164663,703.92229164663,703.92229164663,703.92229164663,703.92229164663,703.92229164663,703.92229164663,703.92229164663,703.92229164663,703.92229164663,703.92229164663,703.92229164663,703.92229164663,703.92229164663,703.92229164663,703.92229164663,703.92229164663,703.92229164663,703.92229164663,703.92229164663,703.92229164663,703.92229164663,703.92229164663,703.92229164663,703.92229164663,703.92229164663,703.92229164663,703.92229164663,703.92229164663,703.92229164663,703.92229164663,703.92229164663,703.92229164663,703.92229164663,703.92229164663,703.92229164663,703.92229164663,703.92229164663,703.92229164663,703.92229164663,703.92229164663,703.92229164663,703.92229164663,703.92229164663,703.92229164663,703.92229164663,703.92229164663,753.12817312529,753.12810731437,0
3.4375e-05,20000000,1.0095084327839e-05,1,-1.3212533684985e-152,7.5470130386735e-163,8.8677146922e-148,1.0202424200159e-38,-2.5803206465419e-176,-2.2362970319982e-20,-6.3773108129693e-31,-1.7243413293912e-186,-2.1003736757926e-53,-1.1437490821251e-87,-1.0362667971594e-114,7.5579273283671e-66,-1.6914939344098e-104,-1.1027179591174e-56,4.1309543465914e-107,1.048248183386e-93,9.6903067007024e-48,-1.2955452736721e-135,-1.7556990982792e-21,-3.1967176674574e-32,1.1540350849606e-242,-1.0549317861533e-40,-3.4702532768479e-92,2.4605969942828e-84,-9.6267937683034e-123,1.7804180010959e-52,3.6611511963971e-199,-7.4629419918868e-21,-3.3053771558028e-31,-1.1471175182243e-151,-7.2211001309525e-74,-5.0350622755049e-85,-2.7003372204403e-109,8.6754231264473e-88,1.416493298315e-124,-2.2250066514596e-46,2.6341740870269e-111,2.9195573534305e-101,6.2558381764357e-37,-2.0598615772148e-72,9.6470619237597e-105,1.2106009457306e-88,2.1015639479419e-64,-1.1307347357031e-35,-1.6936524089233e-124,1.0843947600764e-25,-3.184203403422e-106,-1.4110574407032e-27,703.92229164663,703.92229164663,703.92229164663,703.92229164663,703.92229164663,703.92229164663,703.92229164663,703.92229164663,703.92229164663,703.92229164663,703.92229164663,703.92229164663,703.92229164663,703.92229164663,703.92229164663,703.92229164663,703.92229164663,703.92229164663,703.92229164663,703.92229164663,703.92229164663,703.92229164663,703.92229164663,703.92229164663,703.92229164663,703.92229164663,703.92229164663,703.92229164663,703.92229164663,703.92229164663,703.92229164663,703.92229164663,703.92229164663,703.92229164663,703.92229164663,703.92229164663,703.92229164663,703.92229164663,703.92229164663,703.92229164663,703.92229164663,703.92229164663,703.92229164663,703.92229164663,703.92229164663,703.92229164663,703.92229164663,703.92229164663,812.62296530684,812.62288275003,0
3.6875e-05,20000000,1.0829311648317e-05,1,-1.4157052116058e-149,8.0526245498264e-160,1.062177262313e-144,1.1520087692325e-35,-3.1302929666359e-173,-2.5396406261867e-17,-7.1872270396727e-28,-2.1716279082637e-183,-2.3965723142197e-50,-1.317981789189e-84,-1.2461563641088e-111,8.570673843504e-63,-2.0386280397853e-101,-1.2365966395368e-53,4.9895237144546e-104,1.2002883060446e-90,1.0959646475834e-44,-1.516836939609e-132,-1.9948330104121e-18,-3.6049355219894e-29,1.7971707087766e-239,-1.2017145444719e-37,-4.0044346944384e-89,2.8269372874174e-81,-1.1563927967654e-119,2.0145029414617e-49,4.0140425974106e-196,-8.471151498546e-18,-3.7229037484052e-28,-1.4034045212197e-148,-8.2688341192086e-71,-5.795341792531e-82,-3.2501697825475e-106,9.8876396478444e-85,1.609061788716e-121,-2.4989996903207e-43,3.1849737691569e-108,3.3369304683496e-98,7.0845565490226e-34,-2.3034722258053e-69,1.1642128388827e-101,1.388109689163e-85,2.3710268348405e-61,-1.2720786708987e-32,-2.05379378847e-121,1.229726592848e-22,-3.6881756589214e-103,-1.6048656647542e-24,703.92229164663,703.92229164663,703.92229164663,703.92229164663,703.92229164663,703.92229164663,703.92229164663,703.92229164663,703.92229164663,703.92229164663,703.92229164663,703.92229164663,703.92229164663,703.92229164663,703.92229164663,703.92229164663,703.92229164663,703.92229164663,703.92229164663,703.92229164663,703.92229164663,703.92229164663,703.92229164663,703.92229164663,703.92229164663,703.92229164663,703.92229164663,703.92229164663,703.92229164663,703.92229164663,703.92229164663,703.92229164663,703.92229164663,703.92229164663,703.92229164663,703.92229164663,703.92229164663,703.92229164663,703.92229164663,703.92229164663,703.92229164663,703.92229164663,703.92229164663,703.92229164663,703.92229164663,703.92229164663,703.92229164663,703.92229164663,872.17992534586,872.17982565977,0
3.9375e-05,20000000,1.1563535197193e-05,1,-9.5634587849899e-147,5.4198846583477e-157,7.980118040885e-142,8.2026716931997e-33,-2.4400531934961e-170,-1.818906906061e-14,-5.1077385632563e-25,-1.768242285752e-180,-1.7246593905444e-47,-9.5913489740885e-82,-9.4436000896722e-109,6.1288995997257e-60,-1.5510333156436e-98,-8.7443149321872e-51,3.8100005210574e-101,8.659796553487e-88,7.8168799447208e-42,-1.127656271139e-129,-1.4294228299052e-15,-2.5635123471563e-26,1.4886080383209e-236,-8.6335324140323e-35,-2.9196050296199e-86,2.0488975834573e-78,-8.7450800427816e-117,1.4373577739945e-46,2.6964541346508e-193,-6.0641236895667e-15,-2.6441431464103e-25,-1.0933455209533e-145,-5.9720556263445e-68,-4.2108184264083e-79,-2.4670287939161e-103,7.106560916448e-82,1.148188740582e-118,-1.7698567639446e-40,2.4361995351083e-105,2.4015143543932e-95,5.059679542004e-31,-1.6242645497232e-66,8.8773124548983e-99,1.0033834919818e-82,1.6869375758343e-58,-9.0241719724501e-30,-1.5783301718086e-118,8.794653386041e-20,-2.7026576657889e-100,-1.1511586199834e-21,703.92229164663,703.92229164663,703.92229164663,703.92229164663,703.92229164663,703.92229164663,703.92229164663,703.92229164663,703.92229164663,703.92229164663,703.92229164663,703.92229164663,703.92229164663,703.92229164663,703.92229164663,703.92229164663,703.92229164663,703.92229164663,703.92229164663,703.92229164663,703.92229164663,703.92229164663,703.92229164663,703.92229164663,703.92229164663,703.92229164663,703.92229164663,703.92229164663,703.92229164663,703.92229164663,703.92229164663,703.92229164663,703.92229164663,703.92229164663,703.92229164663,703.92229164663,703.92229164663,703.92229164663,703.92229164663,703.92229164663,703.92229164663,703.92229164663,703.92229164663,703.92229164663,703.92229164663,703.92229164663,703.92229164663,703.92229164663,931.79825752403,931.80289364055,0
4.1875e-05,20000000,1.2297781999724e-05,1,-4.3229028079384e-144,2.4400232731444e-154,4.0522402607313e-139,3.9030401597543e-30,-1.2266580941209e-167,-8.7034551959652e-12,-2.4258249864e-22,-9.1881804177172e-178,-8.2907948221488e-45,-4.651294854398e-79,-4.7902425859239e-106,2.9286338063552e-57,-7.8717066299875e-96,-4.1326523230135e-48,1.9351126286026e-98,4.1822040871767e-85,3.7253378282913e-39,-5.5282820303663e-127,-6.8430778522907e-13,-1.2182370343984e-23,1.1991423892959e-233,-4.1436028366098e-32,-1.4171588493161e-83,9.9164655458337e-76,-4.4355084146399e-114,6.8532071417347e-44,1.2890310100699e-190,-2.9003002711783e-12,-1.2550371514471e-22,-5.588964400054e-143,-2.8809383339753e-65,-2.0404551999846e-76,-1.2516033438015e-100,3.4127520755954e-79,5.5178970307339e-116,-8.3772621568062e-38,1.2378831762069e-102,1.1584596264206e-92,2.4144169373103e-28,-7.6552727129136e-64,4.5073523926794e-96,4.850095671881e-80,8.0202331593861e-56,-4.278375422249e-27,-8.0305340244815e-116,4.2023324037392e-17,-1.3151734786557e-97,-5.5163905106654e-19,703.92229164663,703.92229164663,703.92229164663,703.92229164663,703.92229164663,703.92229164663,703.92229164663,703.92229164663,703.92229164663,703.92229164663,703.92229164663,703.92229164663,703.92229164663,703.92229164663,703.92229164663,703.92229164663,703.92229164663,703.92229164663,703.92229164663,703.92229164663,703.92229164663,703.92229164663,703.92229164663,703.92229164663,703.92229164663,703.92229164663,703.92229164663,703.92229164663,703.92229164663,703.92229164663,703.92229164663,703.92229164663,703.92229164663,703.92229164663,703.92229164663,703.92229164663,703.92229164663,703.92229164663,703.92229164663,703.92229164663,703.92229164663,703.92229164663,703.92229164663,703.92229164663,703.92229164663,703.92229164663,703.92229164663,703.92229164663,991.48052283218,991.48037349797,0
4.3125e-05,20000000,1.2664902847923e-05,1,-8.0153486155968e-143,4.5161405194674e-153,7.9430950035072e-138,7.4259928762102e-29,-2.4213315029233e-166,-1.6606743406069e-10,-4.6110561406657e-21,-1.8494584287391e-176,-1.5856491808926e-43,-8.9406338639346e-78,-9.4068702613897e-105,5.5839141021784e-56,-1.5475549825674e-94,-7.8361071517855e-47,3.8086386899638e-97,8.0132100719689e-84,7.0937267588778e-38,-1.0713168101173e-125,-1.3060212541405e-11,-2.3163608891883e-22,2.7184897567425e-232,-7.9183182334179e-31,-2.7259531980889e-82,1.9032307419922e-74,-8.7055378036912e-113,1.3052337128502e-42,2.4225496117397e-189,-5.5326271402493e-11,-2.3848839895386e-21,-1.1075059595304e-141,-5.5196794342355e-64,-3.9198163090037e-75,-2.4589448572601e-99,6.5232676797602e-78,1.0530425008447e-114,-1.5896656879164e-36,2.4376947651065e-101,2.2176083921321e-91,4.6004728235915e-27,-1.4495372771191e-62,8.8673181550789e-95,9.2993876422087e-79,1.5253467894544e-54,-8.1252777124155e-26,-1.5838440060515e-114,8.0126276730226e-16,-2.5346237401036e-96,-1.0533454947547e-17,703.92229164663,703.92229164663,703.92229164663,703.92229164663,703.92229164663,703.92229164663,703.92229164663,703.92229164663,703.92229164663,703.92229164663,703.92229164663,703.92229164663,703.92229164663,703.92229164663,703.92229164663,703.92229164663,703.92229164663,703.92229164663,703.92229164663,703.92229164663,703.92229164663,703.92229164663,703.92229164663,703.92229164663,703.92229164663,703.92229164663,703.92229164663,703.92229164663,703.92229164663,703.92229164663,703.92229164663,703.92229164663,703.92229164663,703.92229164663,703.92229164663,703.92229164663,703.92229164663,703.92229164663,703.92229164663,703.92229164663,703.92229164663,703.92229164663,703.92229164663,703.92229164663,703.92229164663,703.92229164663,703.92229164663,703.92229164663,1021.3445954194,1021.3444323506,0
4.4375e-05,20000000,1.3032024996334e-05,1,-1.3664764573602e-141,7.6859514775e-152,1.4315426858649e-136,1.2989881978321e-27,-4.3950036606181e-165,-2.9132368403686e-09,-8.0582593877543e-20,-3.4236777709345e-175,-2.7881445907937e-42,-1.5800390366669e-76,-1.6984083443453e-103,9.7883628067857e-55,-2.7972679734848e-93,-1.3660726078988e-45,6.89203051077e-96,1.411593400742e-82,1.241890137308e-36,-1.9088262502864e-124,-2.2916453049157e-10,-4.0493032260298e-21,5.6770363890332e-231,-1.3911867881833e-29,-4.8208577160293e-81,3.3583752834732e-73,-1.5709322887015e-111,2.2854995274373e-41,4.1876145249742e-188,-9.7032793331671e-10,-4.1665640032454e-20,-2.0179259876295e-140,-9.7227745305852e-63,-6.9232286551215e-74,-4.4416107419721e-98,1.1463619746103e-76,1.8476494131897e-113,-2.7733888092701e-35,4.4136179130791e-100,3.9029239524995e-90,8.059203627886e-26,-2.5234882184134e-61,1.6038937556202e-93,1.639308560392e-77,2.6671722919773e-53,-1.4187246785811e-24,-2.8721174891541e-113,1.404618936132e-14,-4.4911039533355e-95,-1.8492037987262e-16,703.92229164663,703.92229164663,703.92229164663,703.92229164663,703.92229164662,703.92229164662,703.92229164663,703.92229164662,703.92229164662,703.92229164662,703.92229164663,703.92229164663,703.92229164662,703.92229164663,703.92229164662,703.92229164663,703.92229164662,703.92229164662,703.92229164662,703.92229164663,703.92229164662,703.92229164662,703.92229164662,703.92229164662,703.92229164663,703.92229164663,703.92229164662,703.92229164662,703.92229164663,703.92229164662,703.92229164663,703.92229164662,703.92229164663,703.92229164663,703.92229164663,703.92229164663,703.92229164662,703.92229164663,703.92229164662,703.92229164663,703.92229164662,703.92229164663,703.92229164663,703.92229164663,703.92229164662,703.92229164662,703.92229164662,703.92229164662,1051.2242492065,1051.2240717082,0
4.5625e-05,20000000,1.3399148441216e-05,1.0000000000001,-2.1520020789142e-140,1.2084075523592e-150,2.3832358022214e-135,2.0988597816942e-26,-7.3699492511106e-164,-4.7205649923524e-08,-1.3007993943585e-18,-5.8559751409022e-174,-4.5284442033679e-41,-2.5792919723689e-75,-2.8325420169065e-102,1.584920423773e-53,-4.670471188794e-92,-2.199770887408e-44,1.1520364018073e-94,2.2969037627523e-81,2.0082611376801e-35,-3.1416890702456e-123,-3.7142511935917e-09,-6.5385642017309e-20,1.0969593032836e-229,-2.2576879238887e-28,-7.8752502074511e-80,5.4739201278977e-72,-2.6185267859824e-110,3.6965859345815e-40,6.6892050875129e-187,-1.5719281400039e-08,-6.7238395047966e-19,-3.3965312365446e-139,-1.5819447650181e-61,-1.1294944314953e-72,-7.4108794902267e-97,1.860813678603e-75,2.9944917426084e-112,-4.4693598290205e-34,7.3816512663725e-99,6.3449025527064e-89,1.304096095669e-24,-4.0579309760689e-60,2.6797803005445e-92,2.6693015274267e-76,4.3078721046246e-52,-2.2881630612243e-23,-4.8110652830314e-112,2.2744134221016e-13,-7.3507190036773e-94,-2.9986455045726e-15,703.92229164662,703.92229164662,703.92229164661,703.92229164661,703.92229164656,703.92229164647,703.92229164661,703.92229164655,703.92229164659,703.92229164652,703.92229164662,703.92229164662,703.92229164657,703.92229164662,703.92229164652,703.92229164662,703.92229164658,703.92229164654,703.92229164648,703.92229164661,703.92229164658,703.92229164656,703.92229164651,703.92229164657,703.92229164663,703.92229164662,703.92229164658,703.92229164647,703.92229164661,703.92229164653,703.92229164661,703.92229164654,703.92229164661,703.92229164662,703.92229164661,703.92229164662,703.9222916465,703.92229164663,703.92229164655,703.92229164662,703.92229164653,703.92229164661,703.9222916466,703.92229164661,703.9222916465,703.9222916465,703.92229164651,703.92229164651,1081.1194892826,1081.1192972538,0
4.6875e-05,20000000,1.376627307908e-05,1.0000000000009,-3.1441549362641e-139,1.7626663893505e-149,3.6804605325087e-134,3.1459398770378e-25,-1.1469952391466e-162,-7.0957961833001e-07,-1.9479099209867e-17,-9.2979440001638e-173,-6.8229348984753e-40,-3.9060468394759e-74,-4.3823215818313e-101,2.3806316553027e-52,-7.2342566371592e-91,-3.2860375225356e-43,1.7865064362928e-93,3.4670568508349e-80,3.0126374210008e-34,-4.7975294762025e-122,-5.5844967177061e-08,-9.794307129659e-19,1.9641304501965e-228,-3.3988420580565e-27,-1.193474220863e-78,8.2768036673613e-71,-4.0489642581142e-109,5.5463662212673e-39,9.911627998429e-186,-2.3623044938699e-07,-1.0065753818223e-17,-5.3047202083608e-138,-2.3877054386091e-60,-1.7094646848735e-71,-1.1470908122538e-95,2.802011069649e-74,4.5018376561492e-111,-6.6814490085479e-33,1.1453490795775e-97,9.5684052894511e-88,1.9575662946137e-23,-6.0534174246214e-59,4.1537188602176e-91,4.0320287772916e-75,6.4545321754342e-51,-3.4234654173948e-22,-7.4769299602381e-111,3.4164060328028e-12,-1.1161622833004e-92,-4.5108070325106e-14,703.9222916466,703.9222916466,703.92229164638,703.92229164638,703.92229164555,703.92229164408,703.92229164634,703.92229164542,703.92229164604,703.9222916449,703.92229164656,703.92229164651,703.92229164578,703.92229164656,703.92229164482,703.92229164655,703.9222916459,703.92229164521,703.9222916442,703.92229164634,703.92229164581,703.92229164561,703.92229164474,703.92229164578,703.92229164662,703.92229164646,703.92229164591,703.92229164414,703.92229164636,703.92229164506,703.92229164638,703.92229164517,703.92229164636,703.92229164655,703.92229164643,703.92229164652,703.92229164463,703.92229164662,703.92229164544,703.92229164659,703.92229164512,703.92229164634,703.92229164628,703.92229164643,703.92229164464,703.92229164464,703.92229164479,703.92229164479,1111.0303138286,1111.0301784948,0
4.8125e-05,20000000,1.4133397045699e-05,1.0000000000122,-4.2780149451305e-138,2.3947269036891e-148,5.2881154683714e-133,4.3912858533404e-24,-1.6681293175127e-161,-9.9332646694355e-06,-2.7164507067293e-16,-1.3812124559198e-171,-9.5737220883427e-39,-5.5102276339202e-73,-6.3133222389938e-100,3.3300515969443e-51,-1.0437215443933e-89,-4.571327034333e-42,2.581148790582e-92,4.8729752552058e-79,4.2087654384627e-33,-6.8311810347837e-121,-7.8195340953891e-07,-1.3662790914539e-17,3.1537862341614e-227,-4.7652322795813e-26,-1.6849817760285e-77,1.1655687350177e-69,-5.8288280040037e-108,7.7497990773095e-38,1.3598385266227e-184,-3.3061492514906e-06,-1.4032974073077e-16,-7.7289750217177e-137,-3.3563002999368e-59,-2.4098995748177e-70,-1.6535110012931e-94,3.9292571951703e-73,6.2984068822125e-110,-9.3018774509357e-32,1.6559339602603e-96,1.3434327148453e-86,2.7365619428835e-22,-8.4095246654512e-58,5.9979382007261e-90,5.6715878990387e-74,9.0063057149395e-50,-4.7700116736026e-21,-1.0830812727666e-109,4.7791682178166e-11,-1.579286803879e-91,-6.3192883608865e-13,703.92229164622,703.92229164622,703.92229164295,703.92229164295,703.92229163041,703.92229160819,703.92229164236,703.92229162841,703.92229163784,703.92229162052,703.92229164565,703.92229164488,703.92229163381,703.92229164563,703.92229161927,703.9222916454,703.92229163559,703.9222916252,703.92229161003,703.92229164233,703.92229163425,703.92229163121,703.92229161814,703.92229163381,703.92229164657,703.92229164414,703.92229163586,703.92229160906,703.92229164265,703.92229162295,703.92229164295,703.92229162456,703.92229164265,703.92229164554,703.9222916437,703.92229164499,703.92229161642,703.92229164657,703.92229162864,703.92229164607,703.92229162381,703.92229164233,703.92229164134,703.9222916437,703.92229161657,703.92229161657,703.92229161882,703.92229161882,1140.9565538775,1140.9575179965,0
4.9375e-05,20000000,1.4500518261212e-05,1.0000000001619,-5.4402703024729e-137,3.0413196180884e-147,7.0942714648596e-132,5.7291286505954e-23,-2.2757135435269e-160,-0.0001299712071592,-3.5407066004867e-15,-1.9272288748234e-170,-1.2556206812532e-37,-7.2674251435695e-72,-8.4998904300156e-99,4.3537771135933e-50,-1.4077113280105e-88,-5.9438254665856e-41,3.4871845612363e-91,6.4005398801921e-78,5.4957160295579e-32,-9.1033024719244e-120,-1.0233927571517e-05,-1.7813957750894e-16,4.5199696771354e-226,-6.2445881289728e-25,-2.224315785442e-76,1.5342766907932e-68,-7.8404445467317e-107,1.0121114990879e-36,1.7316498215091e-183,-4.3248690933097e-05,-1.8285555427445e-15,-1.0544124000679e-135,-4.4097335662416e-58,-3.1760162882099e-69,-2.227797879155e-93,5.150014990233e-72,8.2300513452285e-109,-1.2103888803716e-30,2.2389957277151e-95,1.7624823001548e-85,3.5756626156969e-21,-1.0919319058872e-56,8.0979727804061e-89,7.4561939948965e-73,1.1745976062594e-48,-6.2119461898319e-20,-1.4677127407923e-108,6.2488262922707e-10,-2.0898778901973e-90,-8.2746088823735e-12,703.92229164093,703.92229164093,703.92229159486,703.92229159486,703.92229141839,703.92229110572,703.92229158653,703.92229139027,703.92229152295,703.92229127931,703.92229163288,703.92229162206,703.92229146633,703.9222916326,703.92229126174,703.92229162937,703.92229149132,703.92229134509,703.92229113162,703.92229158621,703.92229147252,703.92229142963,703.92229124575,703.92229146633,703.92229164581,703.92229161159,703.92229149511,703.92229111806,703.92229159073,703.92229131346,703.92229159489,703.92229133617,703.92229159073,703.92229163134,703.9222916054,703.92229162364,703.92229122165,703.92229164581,703.92229139348,703.92229163887,703.92229132562,703.92229158621,703.92229157229,703.9222916054,703.92229122371,703.92229122371,703.92229125534,703.92229125534,1170.8981360403,1170.9014955006,0
5.0625e-05,20000000,1.486764258902e-05,1.0000000020124,-6.4904699039257e-136,3.6233986076677e-146,8.9365878150375e-131,7.010867480481e-22,-2.9014824800313e-159,-0.0015950423966747,-4.3287909117058e-14,-2.510216718054e-169,-1.5445382727199e-36,-8.9874531380048e-71,-1.0734790121813e-97,5.3390375638529e-49,-1.78041359262e-87,-7.2491075656377e-40,4.4166543232181e-90,7.8864348829549e-77,6.7308509793602e-31,-1.1363013392397e-118,-0.00012562410397851,-2.1785585399462e-15,6.3701674405327e-225,-7.6751820935952e-24,-2.7529695637686e-75,1.8941127972389e-67,-9.8948970592143e-106,1.2397960812513e-35,2.0835897871468e-182,-0.0005306328737019,-2.2348885617201e-14,-1.3467095723537e-134,-5.4340143539178e-57,-3.9250625671992e-68,-2.8151860606775e-92,6.3311548164406e-71,1.0094550700336e-107,-1.4773112327097e-29,2.8376974078629e-94,2.1693741939728e-84,4.3820966921227e-20,-1.3298973456799e-55,1.0250699638189e-87,9.1944845399276e-72,1.4368495725647e-47,-7.5879879357115e-19,-1.8637259444612e-107,7.6633153617303e-09,-2.5922370631421e-89,-1.016235574035e-10,703.92229157176,703.92229157176,703.92229096566,703.92229096566,703.92228864427,703.92228453155,703.92229085606,703.92228827456,703.92229001967,703.9222868149,703.92229146585,703.92229132351,703.92228927493,703.92229146216,703.92228658382,703.92229141964,703.92228960374,703.92228768007,703.92228487211,703.92229085191,703.92228935643,703.9222887922,703.92228637337,703.92228927493,703.92229163593,703.92229118581,703.92228965353,703.92228469386,703.92229091133,703.92228726413,703.922290966,703.92228756281,703.92229091133,703.92229144556,703.92229110431,703.92229134426,703.92228605647,703.92229163593,703.92228831685,703.92229154459,703.92228742417,703.92229085191,703.9222906689,703.92229110431,703.92228608364,703.92228608364,703.92228649957,703.92228649957,1200.8551306431,1200.859826854,0
5.125e-05,20000000,1.505121998975e-05,1.0000000051825,-2.1922713216248e-135,1.2227057740568e-145,3.1161548505105e-130,2.3974493167785e-21,-9.9685536042825e-159,-0.0054617355735103,-1.4795979642306e-13,-8.6726426352308e-169,-5.2946647913062e-36,-3.0858441756087e-70,-3.7321177971124e-97,1.8276462868651e-48,-6.1854030316269e-87,-2.4748024872745e-39,1.5336344992479e-89,2.7082335610228e-76,2.3025501264542e-30,-3.9016291886253e-118,-0.00043021107324268,-7.4475174007929e-15,2.853500295119e-224,-2.6300269735421e-23,-9.452165423747e-75,6.5038081913822e-67,-3.4418122248164e-105,4.2417455550267e-35,7.2970963371344e-182,-0.0018167834430372,-7.6378197897925e-14,-4.6685612065122e-134,-1.8643335566884e-56,-1.3476961780898e-67,-9.784257531157e-92,2.1699314771207e-70,3.4680746557289e-107,-5.0453308948216e-29,9.8516358250178e-94,7.4502698704733e-84,1.4995281606277e-19,-4.5371308287691e-55,3.5600893207037e-87,3.1572756473575e-71,4.9124719890897e-47,-2.5924928253515e-18,-6.4673171384489e-107,2.6231856865783e-08,-8.9000988803649e-89,-3.4810131584038e-10,703.92229114735,703.92229114735,703.92228710517,703.92228710517,703.9222716223,703.92224419321,703.92228637403,703.92226915729,703.92228079538,703.92225942158,703.92229044093,703.92228949183,703.92227582882,703.92229041621,703.92225788095,703.92229013281,703.92227802225,703.92226519155,703.92224646439,703.92228634642,703.9222763727,703.9222726088,703.92225647675,703.92227582882,703.9222915753,703.92228857343,703.92227835351,703.92224527591,703.92228674258,703.92226241842,703.92228710696,703.92226440983,703.92228674258,703.92229030579,703.92228802955,703.92228962986,703.92225436389,703.9222915753,703.92226943951,703.92229096606,703.92226348545,703.92228634642,703.92228512615,703.92228802955,703.92225454518,703.92225454518,703.92225731831,703.92225731831,1215.8401445032,1215.8398845385,0
5.1875e-05,20000000,1.5234785190067e-05,1.0000000159081,-7.2901853960313e-135,4.0631743248858e-145,1.0652648706488e-129,8.0737281422379e-21,-3.4220781729168e-158,-0.018419381893637,-4.9804178879352e-13,-3.0079910972134e-168,-1.7876625933347e-35,-1.0445844821609e-69,-1.2769407247023e-96,6.1612997866874e-48,-2.1175872322225e-86,-8.3202246496736e-39,5.2535921484144e-89,9.1524266349204e-76,7.7573703035841e-30,-1.3263592578788e-117,-0.0014510364524071,-2.5072605311304e-14,1.0531428125354e-223,-8.8762819289633e-23,-3.2008059589212e-74,2.1998622632082e-66,-1.1772860716006e-104,1.4291834969525e-34,2.4454995877312e-181,-0.0061262658754377,-2.5705565806307e-13,-1.6052057259846e-133,-6.300169295006e-56,-4.5606734092937e-67,-3.3484574358154e-91,7.3242623412749e-70,1.1696621820896e-106,-1.6968674475036e-28,3.3757510014759e-93,2.5166268268461e-83,5.0535849878817e-19,-1.5243297896345e-54,1.2192465907897e-86,1.0673778173286e-70,1.6540357132544e-46,-8.7227065760997e-18,-2.2179364559201e-106,8.8434217566305e-08,-3.0168569681814e-88,-1.1743818976369e-09,703.92228969421,703.92228969421,703.92227388658,703.92227388658,703.92221333635,703.92210606965,703.92227102696,703.92220369799,703.92224920965,703.92216562302,703.92228693141,703.92228322021,703.92222978764,703.92228683459,703.92215959904,703.92228572661,703.9222383665,703.92218818741,703.9221149512,703.92227091914,703.92223191527,703.92221719406,703.92215410645,703.92222978764,703.92229136771,703.9222796286,703.92223966038,703.92211030414,703.92227246816,703.92217734426,703.92227389271,703.92218513086,703.92227246816,703.9222864033,703.92227750097,703.92228375932,703.92214584501,703.92229136771,703.92220480189,703.922288985,703.92218151647,703.92227091914,703.9222661476,703.92227750097,703.92214655422,703.92214655422,703.92215739737,703.92215739737,1230.8267565533,1230.8265543142,0
5.25e-05,20000000,1.5418351036552e-05,1.0000000516559,-2.3886206026006e-134,1.330340541288e-144,3.5870694387667e-129,2.6787845039781e-20,-1.1579973420275e-157,-0.061201247193913,-1.6516867015994e-12,-1.0285709426321e-167,-5.946594750194e-35,-3.4838268164271e-69,-4.3041006226492e-96,2.0463952640111e-47,-7.142239315387e-86,-2.7559474179524e-38,1.773094934553e-88,3.0471892749202e-75,2.5748795478283e-29,-4.4430939873133e-117,-0.0048218706654379,-8.3162394115414e-14,3.8202465944813e-223,-2.9514733841229e-22,-1.0679156189532e-73,7.3308116888758e-66,-3.9669894466267e-104,4.7442693872715e-34,8.0701610935308e-181,-0.020353039179165,-8.5236371773707e-13,-5.4389565647305e-133,-2.0975651483733e-55,-1.5205611179454e-66,-1.128931095113e-90,2.4356605209743e-69,3.8860865834647e-106,-5.6227270398319e-28,1.1396795789532e-92,8.3747316323666e-83,1.6779631924743e-18,-5.0456725777927e-54,4.1139147582298e-86,3.555028853814e-70,5.4868874155929e-46,-2.8915140267023e-17,-7.4945856403127e-106,2.9373202888521e-07,-1.0075804128727e-87,-3.9034806983695e-09,703.92228479393,703.92228479393,703.92222930948,703.92222930948,703.92201677254,703.9216402657,703.922219271,703.92198294716,703.92214268871,703.92184929822,703.92227509575,703.92226207094,703.92207451973,703.92227475546,703.92182815735,703.92227086758,703.92210463517,703.92192849863,703.92167143892,703.922218893,703.92208199013,703.92203031252,703.9218088741,703.92207451973,703.92229066767,703.92224946439,703.92210917123,703.92165513024,703.92222432922,703.92189044508,703.92222932792,703.92191777203,703.92222432922,703.92227324344,703.92224199399,703.92226396097,703.92177988091,703.92229066767,703.92198682275,703.9222823038,703.92190508751,703.922218893,703.92220214682,703.92224199399,703.92178237104,703.92178237104,703.92182042461,703.92182042461,1245.8126645848,1245.8127461152,0
5.3125e-05,20000000,1.5601918682383e-05,1.0000001690174,-7.708640157306e-134,4.2895894979537e-144,1.1887052414372e-128,8.7528211470692e-20,-3.8633331155337e-157,-0.20026029237512,-5.3943475763738e-12,-3.4685267895046e-167,-1.947975252003e-34,-1.1442015736764e-68,-1.4281764365773e-95,6.6934025110608e-47,-2.3717947879451e-85,-8.9900250864722e-38,5.8926882743762e-88,9.9889262406131e-75,8.4165736164672e-29,-1.4662212112339e-116,-0.015779783033183,-2.7164585779552e-13,1.3624501418406e-222,-9.6645786946491e-22,-3.5088328068559e-73,2.4054952608195e-65,-1.3158201634008e-103,1.550936752766e-33,2.6195843426921e-180,-0.066590415352618,-2.7833814455484e-12,-1.8156799790858e-132,-6.8771316636046e-55,-4.9922691693652e-66,-3.7471631633072e-90,7.9763350392904e-69,1.2709894790696e-105,-1.8348412320795e-27,3.7889984557996e-92,2.7438498022789e-82,5.4866164548435e-18,-1.6448140058073e-53,1.3667964266674e-85,1.1658421941295e-69,1.7924247017676e-45,-9.4395281232655e-17,-2.4942122922436e-105,9.6078804405286e-07,-3.3142870874691e-87,-1.2777268111406e-08,703.92226851322,703.92226851322,703.92208120127,703.92208120127,703.92136366641,703.92009259208,703.92204730765,703.92124949146,703.92178875707,703.92079827822,703.92223577003,703.92219180406,703.92155862938,703.9222346196,703.92072691881,703.92222149818,703.92166031033,703.92106565352,703.92019782806,703.92204603309,703.9215838574,703.92140937477,703.92066180465,703.92155862938,703.92228834185,703.92214924481,703.92167560508,703.92014277931,703.92206438261,703.92093720662,703.92208125301,703.92102944745,703.92206438261,703.92222952136,703.92212401682,703.92219817686,703.92056394029,703.92228834185,703.92126257841,703.92226010389,703.92098663182,703.92204603309,703.92198950539,703.92212401682,703.92057234964,703.92057234964,703.92070079662,703.92070079662,1260.7874755701,1260.7885082973,0
5.375e-05,20000000,1.5785491756951e-05,1.0000005474828,-2.446016760834e-133,1.3592299486501e-143,3.8634415465373e-128,2.810490131547e-19,-1.2703781203336e-156,-0.64396582912593,-1.731340116744e-11,-1.1535702905508e-166,-6.2701164958921e-34,-3.6923938225429e-68,-4.6516711669212e-95,2.151336291609e-46,-7.7342880712156e-85,-2.8820209343594e-37,1.9237750870724e-87,3.2157700073852e-74,2.7033539708002e-28,-4.7587531187965e-116,-0.050747683211441,-8.7198499906715e-13,4.7918862301964e-222,-3.1096907843974e-21,-1.1328938637532e-72,7.7537705584551e-65,-4.2832585969084e-103,4.9823307177397e-33,8.3348915540013e-180,-0.2141048453724,-8.932120388182e-12,-5.9629345251207e-132,-2.2154607788086e-54,-1.6103245518438e-65,-1.2210514487397e-89,2.5666935188311e-68,4.0804948392982e-105,-5.8842503781694e-27,1.2376300536811e-91,8.8276773680098e-82,1.7628969644693e-17,-5.2695240936855e-53,4.4601814139829e-85,3.7551324024113e-69,5.7535666813905e-45,-3.0283922039837e-16,-8.1583709867831e-105,3.0883315040721e-06,-1.0715220074329e-86,-4.1099577806909e-08,703.92221524435,703.92221524435,703.92159658927,703.92159658927,703.91922662824,703.91502846103,703.92148463054,703.91884958753,703.9206306418,703.91735923615,703.92210709077,703.92196189622,703.91987059497,703.92210328575,703.91712358498,703.92205996093,703.92020647203,703.9182423272,703.91537602774,703.92148042612,703.91995394658,703.91937758859,703.91690847405,703.91987059497,703.92228073202,703.92182133022,703.92025692515,703.91519423907,703.92154102169,703.91781815567,703.92159672507,703.9181227661,703.92154102169,703.92208646809,703.92173797889,703.92198291829,703.91658529501,703.92228073202,703.91889282205,703.92218746059,703.9179813756,703.92148042612,703.9212937472,703.92173797889,703.91661307904,703.91661307904,703.91703725147,703.91703725147,1275.718345909,1275.7222474985,0
5.4375e-05,20000000,1.5969066496724e-05,1.0000017378686,-7.5622885493886e-133,4.2059163855719e-143,1.2341748905684e-127,8.8076250105901e-19,-4.0344668942764e-156,-2.0221317179571,-5.4231166977045e-11,-3.7055422686265e-166,-1.9700230406317e-33,-1.1629035086415e-67,-1.4828209894279e-94,6.7492000282667e-46,-2.4651044634738e-84,-9.015229417685e-37,6.1322623252772e-87,1.0117499935454e-73,8.4761707610643e-28,-1.5016215314179e-115,-0.15936716425745,-2.7317796727066e-12,1.7602641073031e-221,-9.7677551238957e-21,-3.5686718357674e-72,2.4407067068898e-64,-1.3657780406766e-102,1.5621817887021e-32,2.6458344224907e-179,-0.67222652547459,-2.7973734428875e-11,-1.9024715676094e-131,-6.966130109814e-54,-5.0706791467211e-65,-3.891877071659e-89,8.0627299072372e-68,1.2832853727033e-104,-1.8414077427244e-26,3.9452086713915e-91,2.7769570257123e-81,5.5298813885054e-17,-1.6471449489695e-52,1.4216748234486e-84,1.1816407662591e-68,1.8027451227062e-44,-9.4812982348027e-16,-2.6008020919108e-104,9.692890470996e-06,-3.3767245386833e-86,-1.2907811799013e-07,703.92204396696,703.92204396696,703.92003833829,703.92003833829,703.9123548235,703.89874436181,703.91967532934,703.91113266497,703.91690661272,703.90630075571,703.92169331202,703.92122265757,703.914442659,703.92168095927,703.90553689887,703.92154054483,703.9155316951,703.90916370232,703.89987114052,703.91966171591,703.91471297172,703.91284421005,703.90483935065,703.914442659,703.92225626382,703.92076695081,703.91569505748,703.89928187302,703.9198581315,703.90778876614,703.92003866487,703.9087761579,703.9198581315,703.92162650572,703.92049664094,703.92129072456,703.90379177264,703.92225626382,703.91127286424,703.92195386388,703.9083178459,703.91966171591,703.91905658655,703.92049664094,703.90388187857,703.90388187857,703.9052568241,703.9052568241,1290.5092288238,1290.5089023282,0
5.5e-05,20000000,1.6152670118993e-05,1.000005310073,-2.2367845295582e-132,1.2443525819837e-142,3.7507627988677e-127,2.6382928433799e-18,-1.2364059250024e-155,-6.0749816795864,-1.6237860343952e-10,-1.1542871713125e-165,-5.9142069257685e-33,-3.4993554508964e-67,-4.5020638760631e-94,2.0235557116757e-45,-7.4923693489138e-84,-2.6955670793907e-36,1.8664996166278e-86,3.0355897674919e-73,2.5398396072951e-27,-4.5383977321877e-115,-0.47877857411214,-8.1807119816504e-12,6.4279418042347e-221,-2.9324409386757e-20,-1.0743982720897e-71,7.3333216620024e-64,-4.1462942312387e-102,4.6814486532293e-32,8.0351452010253e-179,-2.0192029482846,-8.3745024079932e-11,-5.8205032676883e-131,-2.0923847444589e-53,-1.5250396563356e-64,-1.1819681862351e-88,2.4202410463422e-67,3.8456066603835e-104,-5.5080969582211e-26,1.2014101566503e-90,8.3282911079757e-81,1.6581916255475e-16,-4.9215367693577e-52,4.3249811857634e-84,3.5469875738574e-68,5.3969533096058e-44,-2.8374391892152e-15,-7.9282199693321e-104,2.9095492342526e-05,-1.0175886295392e-85,-3.8766518198403e-07,703.92150621326,703.92150621326,703.91514570822,703.91514570822,703.89077753363,703.84761149008,703.91399433129,703.88690213871,703.90521327595,703.87157709775,703.92039407498,703.91890165395,703.89739934078,703.92035484909,703.86915489795,703.91990967704,703.90085356449,703.88065686799,703.85118506023,703.91395121253,703.89825690414,703.8923295267,703.86694209464,703.89739934078,703.92217944192,703.91745644755,703.90137100123,703.8493164406,703.91457401627,703.87629696998,703.91514638559,703.87942799852,703.91457401627,703.92018237594,703.91659891286,703.91911724587,703.8636201912,703.92217944192,703.88734688476,703.92122037052,703.87797469975,703.91395121253,703.91203236325,703.91659891286,703.86390606262,703.86390606262,703.86826605477,703.86826605477,1304.8718631715,1304.8715320866,0
5.5625e-05,20001460.300828,1.6336338607853e-05,1.0000150333838,-6.0144580953816e-132,3.3512418257131e-142,1.0352688015773e-126,7.1869283821962e-18,-3.4695677057873e-155,-16.654928018352,-4.4218173077538e-10,-3.3272145220558e-165,-1.6138255241081e-32,-9.5711076609059e-67,-1.2375430644513e-93,5.5159344515829e-45,-2.0640251010533e-83,-7.3271861550903e-36,5.1586504864482e-86,8.2546735366667e-73,6.9211343972787e-27,-1.2469250394338e-114,-1.3122697031267,-2.2280714306806e-11,2.55139451209e-220,-8.0092339627203e-20,-2.9408915368787e-71,1.9994742966781e-63,-1.1399473580566e-101,1.2756018012575e-31,2.2909415745133e-178,-5.534301010608,-2.2800463074084e-10,-1.6209035902545e-130,-5.7082234749291e-53,-4.1668912578587e-64,-3.2505152011391e-88,6.6043765496858e-67,1.045929387567e-103,-1.4979624140949e-25,3.3235024931818e-90,2.2638558911692e-80,4.5257910584264e-16,-1.336785251453e-51,1.1940200932526e-83,9.6525242171728e-68,1.4683633739633e-43,-7.7215429600888e-15,-2.1962132310398e-103,7.9616637163458e-05,-2.7879102012813e-85,-1.0609752411701e-06,703.9204363888,703.9204363888,703.90099547246,703.90099547246,703.8265076352,703.69454650785,703.89747576412,703.8146631048,703.87063426072,703.76781320808,703.9170368198,703.91247582923,703.84675017797,703.91691679969,703.76040964785,703.91555650044,703.85731017158,703.79556964756,703.70547149315,703.89734413773,703.84937242673,703.83125157871,703.75364340874,703.84675017797,703.92249394978,703.90805851242,703.85888979648,703.69975956298,703.89924746518,703.7822438151,703.90099647047,703.79181374686,703.89924746519,703.91639031181,703.90543653177,703.91313394349,703.74348967958,703.92249394978,703.81602297777,703.91956241543,703.78737180801,703.89734413774,703.89147979909,703.90543653177,703.74436392112,703.74436392112,703.75769063348,703.75769063348,1318.1137976308,1318.1135338737,0
5.625e-05,20008448.718175,1.6520140731239e-05,1.0000372238785,-1.3488669864376e-131,7.5442005849609e-142,2.379623805109e-126,1.6351490240804e-17,-8.2608813704294e-155,-38.562848524057,-1.0059239970164e-09,-8.3222523692282e-165,-3.6763257075125e-32,-2.1896066416014e-66,-2.812924772858e-93,1.2548581932635e-44,-4.7184325893996e-83,-1.6617804162028e-35,1.189441391053e-85,1.8613603039882e-72,1.5766050082547e-26,-2.8645799735125e-114,-3.0354472554092,-5.0694762642685e-11,1.2100863630677e-219,-1.8309951373538e-19,-6.738967918816e-71,4.5380972989567e-63,-2.5929068914777e-101,2.9016550576161e-31,5.850030064429e-178,-12.806777374585,-5.1852685684681e-10,-3.7823312243121e-130,-1.2972788588661e-52,-9.5090464074993e-64,-7.3965116715211e-88,1.5037133834446e-66,2.3665897096813e-103,-3.3998151487099e-25,7.6789696811129e-90,5.1028394897741e-80,1.0352657306806e-15,-3.0289889125742e-51,2.7453282244136e-83,2.1801408297658e-67,3.33271192472e-43,-1.7544932113287e-14,-5.0843831934666e-103,0.00018342181654247,-6.3927181876317e-85,-2.4421967555008e-06,703.92007442159,703.92007442159,703.8647927728,703.8647927728,703.65294368211,703.27752134363,703.85478242554,703.61925888026,703.77844693225,703.48598056221,703.91040642919,703.89743912997,703.71052161303,703.9100650386,703.46492166233,703.90619782636,703.74055968197,703.56494005964,703.30860721034,703.85440863232,703.71798243313,703.66643644897,703.44566734545,703.71052161303,703.9259242648,703.88487805033,703.7450460752,703.2923568143,703.85982017585,703.52703870261,703.86479270301,703.55425775716,703.85982017586,703.9085700084,703.87741939979,703.89930795338,703.41678434065,703.92592426479,703.62312807352,703.91758836797,703.54162401448,703.85440863233,703.83773470944,703.87741939979,703.41927256532,703.41927256532,703.45718104621,703.45718104621,1329.0307360962,1329.0306497887,0
5.6875e-05,20026644.482014,1.6704143409808e-05,1.0000776428676,-2.3311755745448e-131,1.3116849780771e-141,4.2138741374858e-126,2.875930115133e-17,-1.5712352096409e-154,-71.234759158123,-1.7700350298538e-09,-1.7328792973111e-164,-6.4841185990084e-32,-3.9186239652866e-66,-4.8606137156491e-93,2.2027653364271e-44,-8.281614535524e-83,-2.9054933430658e-35,2.1352169737793e-85,3.2078300716576e-72,2.7887487065492e-26,-5.1360666236429e-114,-5.5911666977939,-8.9220068635719e-11,7.4269206314847e-219,-3.2627785898864e-19,-1.210771957181e-70,7.9550685041117e-63,-4.4866525098217e-101,5.0966114805756e-31,1.3042636774339e-177,-23.623726305198,-9.1183995911817e-10,-6.9114819152602e-130,-2.2705048796759e-52,-1.6909598664684e-63,-1.2820994162021e-87,2.6402684237435e-66,4.1179412286495e-103,-5.9525436447034e-25,1.385359879445e-89,8.7872985305881e-80,1.8514817072821e-15,-5.2885748691804e-51,4.8926279492137e-83,3.7730372794342e-67,5.8410873407944e-43,-3.079368261435e-14,-9.1983698480155e-103,0.0003343478331346,-1.1485864789237e-84,-4.4369383248794e-06,703.92119423875,703.92119423875,703.78305139696,703.78305139696,703.25346948096,702.31429118026,703.75803000407,703.1692563193,703.56723306639,702.8358979379,703.89703060923,703.86463575652,703.39743613001,703.89617886889,702.78322778443,703.88651644672,703.47254423444,703.03339469303,702.39208907879,703.75709744576,703.41609725688,703.28720555785,702.73504575199,703.39743613001,703.9358066164,703.83324655664,703.48374039082,702.35142673177,703.77061866895,702.93861761726,703.78304426319,703.00668272691,703.77061866897,703.89244952517,703.81459899482,703.86929765848,702.6627984407,703.93580661639,703.17893559383,703.91497940456,702.97509063747,703.75709744577,703.71543642442,703.81459899482,702.66902686316,702.66902686316,702.76384855853,702.76384855853,1336.4804193259,1336.4802677281,0
5.75e-05,20061240.067396,1.6888397326715e-05,1.0001384056329,-3.0540705848078e-131,1.7306080257052e-141,5.6811988741164e-126,3.8460653445058e-17,-2.439614425676e-154,-107.14104247132,-2.3709427136367e-09,-3.1900737440108e-164,-8.7532027339792e-32,-5.5236555207676e-66,-6.2543907243534e-93,2.9289249582827e-44,-1.1058999133579e-82,-3.840806849853e-35,3.0033347673502e-85,4.1438325892194e-72,3.7956389244832e-26,-7.2225623206295e-114,-8.3529495552315,-1.1953960630825e-10,6.1086434301274e-218,-4.5119605694682e-19,-1.7218935653784e-70,1.069030491618e-62,-5.7847561753474e-101,6.7905469973793e-31,2.6465672756986e-177,-35.417690831767,-1.2198737322347e-09,-1.0004496035071e-129,-3.008917607078e-52,-2.3488572103204e-63,-1.6626996920622e-87,3.5078020600429e-66,5.4242404132823e-103,-7.8901201176626e-25,1.9704395675027e-89,1.1327467569904e-79,2.5844593058779e-15,-6.974820245925e-51,6.7683675946087e-83,4.9221485938497e-67,7.7860433095686e-43,-4.102767366929e-14,-1.3143275862196e-102,0.00048769806319549,-1.6319368316364e-84,-6.4189326947264e-06,703.92459075078,703.92459075078,703.63392570274,703.63392570274,702.51891626455,700.53878774693,703.58125490289,702.34156586607,703.17965381803,701.63896583178,703.87372859517,703.80560355216,702.82215367057,703.87194663558,701.5279575406,703.85161515529,702.98036093979,702.05523453071,700.70294053189,703.57929780487,702.86148156865,702.58997578148,701.426326604,702.82215367057,703.95530930979,703.73955634147,703.00387024682,700.61716692019,703.60774271695,701.85554960751,703.63389417769,701.99895501121,703.60774271699,703.86412217276,703.70028864702,703.81538511239,701.27402446879,703.95530930978,702.36197206479,703.91150603858,701.93239456741,703.57929780491,703.49166199096,703.70028864702,701.28716960233,701.28716960233,701.48705322623,701.48705322623,1340.1280937411,1340.1277009508,0
5.8125e-05,20114173.59951,1.7072988902966e-05,1.0002195500499,-3.1489434695036e-131,1.7953640572661e-141,6.1056818569348e-126,4.0295218789759e-17,-3.421234317742e-154,-140.13243627663,-2.4923614088887e-09,-6.2059196826933e-164,-9.3670871254172e-32,-6.4786337730905e-66,-6.186816057209e-93,3.0341481771875e-44,-1.1718905315144e-82,-3.9448591566037e-35,3.5053328330973e-85,4.1333371753302e-72,4.1260807853981e-26,-8.4435724435086e-114,-10.788491968973,-1.2570433048425e-10,7.2269693235609e-217,-5.0485102247793e-19,-2.0534579401041e-70,1.1473277109749e-62,-5.7412249256415e-101,7.063338630547e-31,5.3877095493492e-177,-46.04920406383,-1.2795549219492e-09,-1.2406370831175e-129,-3.1114769216418e-52,-2.6806569248197e-63,-1.6689500827959e-87,3.6261259157804e-66,5.597570098431e-103,-8.1414622022625e-25,2.3485566478422e-89,1.1251828160844e-79,2.9434622705474e-15,-7.1383794347435e-51,7.6583678034542e-83,5.0003096285796e-67,8.1463916975328e-43,-4.2721713768887e-14,-1.5817144420049e-102,0.00060257223345495,-1.9435788197192e-84,-7.80928565353e-06,703.93067633125,703.93067633125,703.41216526609,703.41216526609,701.4212308836,697.87821685269,703.31813579065,701.10446793679,702.60135870708,699.84794116762,703.83987011294,703.71846712922,701.96301314362,703.83673191792,699.64943741057,703.80045144441,702.24572397516,700.59242307853,698.17227174731,703.31466113798,702.03335465402,701.54819453075,699.46745102623,701.96301314362,703.98537926752,703.60064237349,702.28749643836,698.01869395427,703.36538478031,700.23553367411,703.41206612172,700.49183032908,703.36538478038,703.82284576455,703.53049329689,703.73582793188,699.19501738551,703.98537926751,701.14098623413,703.90730772029,700.37287103153,703.31466113804,703.15842364469,703.53049329689,699.21857968183,699.21857968183,699.57610725643,699.57610725643,1340.3040750463,1340.3034346269,0
5.875e-05,20185540.827773,1.7258057495041e-05,1.0003217652314,-2.7273277489802e-131,1.5572682120866e-141,5.6524491212996e-126,3.449272508092e-17,-5.0723301559148e-154,-168.19063656314,-2.1446272615713e-09,-1.6595523965848e-163,-8.2992726993288e-32,-6.6678211062212e-66,-4.9622280878476e-93,2.5533803659145e-44,-1.0395969720592e-82,-3.2816551633521e-35,3.6020078679027e-85,3.3327561204835e-72,3.7434375757122e-26,-8.7931553067231e-114,-12.702665261726,-1.0821289704462e-10,1.4123492071971e-215,-4.7828279973877e-19,-2.1688680810213e-70,1.0320155960798e-62,-4.6403300698517e-101,5.9806401405583e-31,1.2276193710071e-176,-54.770497426391,-1.0975407159269e-09,-1.4832590545635e-129,-2.6191911799224e-52,-2.6460538162838e-63,-1.3662715024775e-87,3.0432380320452e-66,4.7672958314213e-103,-6.8173952022603e-25,2.4958545346255e-89,9.0210735986069e-80,2.8641789118827e-15,-5.9114109730663e-51,7.5019472581453e-83,4.1424872603629e-67,6.9807558714534e-43,-3.6252917859435e-14,-1.7205066190433e-102,0.00066319233127289,-2.0541173032447e-84,-8.395722264047e-06,703.9395806559,703.9395806559,703.12622574373,703.12622574373,699.99933913087,694.41975946478,702.97855501228,699.50175996835,701.85346459149,697.5241711813,703.7969324841,703.60681637434,700.85092791643,703.79211990412,697.21187359499,703.73517183166,701.29548042984,698.69587510831,694.88352866583,702.9731481849,700.96170066796,700.19890755295,696.92492533893,700.85092791643,704.02514276225,703.42198100844,701.36055019564,694.6414977269,703.05265944518,698.13477895006,703.12596483735,698.53770028094,703.05265944528,703.77052306614,703.3116851105,703.63382002666,696.49613276306,704.02514276223,699.55930773865,703.90285097808,698.35067775865,702.97314818498,702.72834884265,703.3116851105,696.53334422014,696.53334422014,697.09603067239,697.09603067239,1337.5624334987,1337.5614660746,0
5.9375e-05,20276060.139625,1.7443816294247e-05,1.0004482888204,-2.1726241132172e-131,1.2255888365173e-141,5.0250216331309e-126,2.5103439852181e-17,-9.8966846603752e-154,-191.28174952809,-1.571650331799e-09,-8.3782560351083e-163,-6.3227258036889e-32,-6.2749580568276e-66,-3.445091269917e-93,1.818825424957e-44,-8.1673305606407e-83,-2.3045862196774e-35,3.4469083481028e-85,2.2798273310855e-72,2.9415837831013e-26,-8.8373363358881e-114,-14.080944914687,-7.9341199733513e-11,5.3992358424572e-214,-3.9764623832306e-19,-2.1160167821024e-70,8.1237630914722e-63,-3.2827933490334e-101,4.292084916705e-31,3.4336999697961e-176,-61.53664218008,-8.010683926865e-10,-2.069885372922e-129,-1.8679252091614e-52,-2.354243716333e-63,-9.6969362340976e-88,2.1648999471764e-66,3.553281478275e-103,-4.8259833397509e-25,2.5119238436516e-89,6.1389936856793e-80,2.4662759317361e-15,-4.1325698393219e-51,6.7197816059815e-83,2.9316550546406e-67,5.0950794874466e-43,-2.6098974433132e-14,-1.8368477580331e-102,0.00067188148022731,-2.0209393355444e-84,-8.2459127521611e-06,703.95136728024,703.95136728024,702.7892205983,702.7892205983,698.31488135429,690.30503883441,702.57788174242,697.60292252245,700.96909343816,694.76590855563,703.74710935499,703.47612253744,699.53464457378,703.74045936812,694.31822107851,703.65901172934,700.17183183752,696.4467034953,690.97198311612,702.57024774468,699.69375316451,698.60072157268,693.90555845542,699.53464457378,704.07312020274,703.21200151113,700.26382104132,690.62430054683,702.68373040839,695.64302152276,702.7886261908,696.22008541214,702.68373040852,703.70998507098,703.05387641739,703.51423079434,693.29055080834,704.07312020272,697.685644992,703.89873214424,695.95221110374,702.57024774479,702.22109101556,703.05387641739,693.34418421136,693.34418421136,694.15116586881,694.15116586881,1332.4645789453,1332.4630316731,0
6e-05,20643815.651238,1.7631091593499e-05,1.0007759674794,-4.1879450732692e-131,2.2373064276607e-141,1.085286723311e-125,1.5827008036494e-17,-1.5520135755575e-148,-215.25252638274,-1.0002410109401e-09,-6.2504098923033e-157,-4.1699184187965e-32,-6.8132797910422e-66,-2.6053071289012e-93,1.1253797978425e-44,-7.5019383153943e-83,-1.4106652175489e-35,5.4064420983948e-85,1.4484818254229e-72,2.0307399825557e-26,-2.0272486915473e-112,-15.243818310051,-5.0498035496593e-11,1.5381064191952e-199,-2.921777400362e-19,-2.637157291466e-70,6.3105086472332e-63,-2.650548819573e-101,2.6651138592857e-31,6.2787422508504e-170,-68.007432628472,-5.0766659770107e-10,-5.9997831923814e-127,-1.1397394545685e-52,-2.2511123448597e-63,-7.5013018061559e-88,1.3717676345381e-66,2.9469563433536e-103,-2.9649729336451e-25,5.4525738319756e-89,3.9063563623907e-80,1.9050141329658e-15,-2.5554103147733e-51,8.3223262179099e-83,1.9489437091787e-67,3.2292050415315e-43,-1.6295774868949e-14,-1.2422092270269e-101,0.00064119246227839,-3.8536512963567e-84,-7.5232941884019e-06,703.96695109738,703.96695109738,702.39778259507,702.39778259507,696.34509021179,685.4649331598,702.11178541211,695.3822941529,699.93740416641,691.53188105008,703.69033375367,703.32566121639,697.99724874382,703.68175877371,690.92500453779,703.57166163424,698.86118740835,693.81273445882,686.37291646442,702.10165419528,698.21361979755,696.73220711834,690.36304268753,697.99724874382,704.13043323165,702.96899408015,698.98346097325,685.90032232541,702.25463107655,692.72444121913,702.39651562639,693.50575786663,702.25463107669,703.64134663433,702.75447344219,703.37620447374,689.52878548316,704.13043323163,695.4948897408,703.89558135453,693.14303052677,702.1016541954,701.63140549957,702.75447344219,689.60204621361,689.60204621361,690.69659793306,690.69659793306,1324.9802196085,1324.9748713315,0
6.03125e-05,23444379.297588,1.7730120946974e-05,1.0027164648592,-6.5926646450212e-115,4.0116012043434e-122,6.7387434481706e-109,2.7226418386417e-16,-7.177442558118e-111,-399.85310282043,-6.5979406941718e-09,-5.1931769974422e-112,-3.6086407095041e-32,-1.2990757258681e-58,-1.7771440527095e-88,2.5818137459729e-42,-4.6475632261855e-78,-9.593951429598e-35,6.0449702673745e-74,8.3643812984416e-70,2.3383535830153e-26,-1.240896197012e-90,-21.347651112429,-4.4388734289532e-10,-1.4690236265683e-134,-2.5089459009054e-19,-2.5337328176752e-61,9.3064820738072e-60,-1.6958504359949e-94,1.5242296693765e-29,6.4212901357567e-124,-106.71226374847,-2.625422001799e-09,-1.8246146408473e-97,-3.0813503198159e-52,-1.2684991162017e-57,-1.8702669470929e-84,8.0286941218382e-63,1.2930593076017e-91,-1.2166400356909e-24,1.8896913557809e-75,1.6807215389939e-75,2.0048113259313e-15,-7.3996550337528e-50,4.6030321745918e-74,7.1035348296613e-66,8.5740200821002e-43,-6.2240530566259e-14,-1.4905061006248e-82,0.0007725443649829,-4.3712902848649e-71,-7.9734294743948e-06,703.98773954951,703.98773954951,702.10826168978,702.10826168978,694.82310757303,681.55000018875,701.76409449995,693.66436968366,699.15236135154,688.98642906171,703.65484167833,703.22064705851,696.81852031209,703.64516383775,688.25043839911,703.51338619444,697.86328446857,691.75752003953,682.6689045251,701.75239225464,697.08123587081,695.29035460757,687.56077489891,696.81852031209,704.18182493704,702.79334664485,698.0049009749,682.0891942302,701.93502746372,690.44243790031,702.10509819398,691.38654681419,701.93502746387,703.59854221524,702.53391642818,703.27897046964,686.54649501474,704.18182493701,693.80177072117,703.90153889956,690.94827030712,701.75239225477,701.19149529286,702.53391642818,686.63707071277,686.63707071277,687.96726694104,687.96726694104,1312.7141487236,1312.5506368223,0
6.033203125e-05,23749346.760518,1.7736538608152e-05,1.0028936040484,-1.6816590231665e-114,2.4882713616458e-121,5.8999382986157e-108,5.0539076603026e-16,-2.2429525221495e-108,-583.32313755695,-1.0646231441525e-08,-1.4819130994161e-109,-3.8638912960148e-32,-7.0847498100463e-58,-2.7038179323337e-88,6.4659379207897e-42,-1.340464844457e-77,-1.3515946165652e-34,6.5033789352469e-73,1.730640750224e-69,2.6540693337254e-26,-6.4855162328865e-89,-30.978823192597,-7.5214114880907e-10,-1.059346347764e-131,-2.8230458655902e-19,-1.9142109871021e-60,2.0500534996847e-59,-3.044962262606e-94,3.2540170281481e-29,1.4646716560421e-121,-156.32768842956,-4.0286310633346e-09,-1.6496175065233e-95,-4.0147074598798e-52,-5.0088355355841e-57,-2.6489299891934e-84,2.9322338394918e-62,8.2565159133266e-91,-1.6455781517979e-24,3.0650421797061e-74,4.3786451324763e-75,2.3982346381033e-15,-1.1862316836781e-49,3.1787235870222e-73,1.1480061855592e-65,1.0133370321746e-42,-8.7585363479181e-14,-4.9211819084747e-81,0.0010620822579277,-6.4542900408029e-70,-1.039641683662e-05,703.9898164887,703.9898164887,702.08828290166,702.08829096592,694.71460690062,681.26469921966,701.73977922374,693.5427369968,699.09665019018,688.80387034583,703.65265629665,703.21389081139,696.73499222142,703.64296541615,688.05909956699,703.50968281935,697.79336643736,691.61048857738,682.3996605116,701.72803933744,697.00152875906,695.18754760172,687.35921512024,696.73499222142,704.18586301216,702.7815579915,697.93541803457,681.81233938608,701.91265141069,690.28010641043,702.08467980808,691.23516977413,701.91265141084,703.59618963991,702.5185415567,703.27240606015,686.33260879849,704.18586301213,693.68212578795,703.90243436961,690.79179647345,701.72803933756,701.16118121623,702.5185415567,686.42466141599,686.42466141599,687.77097189211,687.77097189211,1311.3898700706,1311.2021069049,0
6.03515625e-05,26181310.594505,1.7743461796759e-05,1.0035789005981,-3.9202879875074e-113,3.0162872972086e-119,4.0288557223758e-106,5.2519592911073e-15,-2.1282217495158e-98,-840.49330051874,-4.4305890958772e-08,-7.8300624961098e-100,-4.355242417031e-32,-4.3828196170181e-55,-6.5777701484978e-88,7.4090370881645e-40,-7.1317731233264e-75,-8.1751619870016e-34,2.1237873579833e-68,1.7620791800599e-68,4.1099304248231e-26,-7.9258655952721e-82,-34.098303273672,-4.0375043643013e-09,-9.1655681689644e-111,-2.9808334347102e-19,-4.631287048034e-57,8.1678964427966e-58,-9.8948847191189e-94,1.0869309690789e-27,-1.0064240014992e-112,-177.64949312252,-1.4050856531379e-08,-1.4057117974274e-87,-7.918109593769e-52,-9.8767993026829e-55,-5.3410581747942e-84,4.0862125668369e-59,5.6582273009952e-88,-7.2547071956199e-24,3.7635001220709e-69,1.127092673948e-73,2.9860045647907e-15,-1.2005907307222e-48,2.7058695097458e-69,6.5663554519645e-65,2.9847686638114e-42,-2.8417492492501e-13,-8.1620643610941e-75,0.0012025468011723,-3.5721597931333e-65,-1.0953374376006e-05,703.99798508047,703.99798508047,702.05744708566,702.05745514992,694.52063812677,680.67918224351,701.70064804531,693.32690022319,699.00010632255,688.46564167556,703.65272035475,703.206747363,696.5886351196,703.64305217859,687.70507657982,703.5073392224,697.67381246225,691.3425749679,681.86093751247,701.68904413675,696.86342657314,695.00399166471,686.98090926111,696.5886351196,704.19708070736,702.76547412144,697.81394787094,681.25497600071,701.87681142034,689.98578965318,702.05202004404,690.95976432869,701.8768114205,703.5967819468,702.49502688613,703.26462157147,685.9312798951,704.19708070733,693.47056626267,703.90817336459,690.50760142803,701.68904413687,701.11272307308,702.49502688613,686.02718437467,686.02718437467,687.40338272455,687.40338272455,1309.4756200834,1309.1891852466,0
6.03564453125e-05,28552564.198849,1.7745433686014e-05,1.003945422546,-5.0731755186455e-110,1.0634426967298e-115,-3.0388956837955e-96,1.9837313868132e-14,-1.0818558495492e-93,-1342.3657265324,-9.9725922713366e-08,-1.2348999959295e-94,-5.0089302333226e-32,-2.6858530621764e-53,-1.0479126123601e-87,7.6501430218043e-39,-2.472619862537e-73,-3.2221646763294e-33,7.0187102856586e-66,7.6670043326073e-68,6.8970517692432e-26,-3.038367017547e-78,-42.631942273018,-1.0648038179712e-08,-6.8598881902755e-102,-3.2955994746019e-19,-5.442328791057e-55,1.2688490438352e-56,-5.1482148257175e-94,6.9045418357538e-27,-9.426722472609e-104,-235.21492007166,-2.8247870424766e-08,-3.0423488426247e-83,-1.2467534931523e-51,-3.4116716183818e-53,-8.5030405450031e-84,1.090912109079e-57,2.1744385307882e-86,-2.0436295711538e-23,2.6779476287262e-66,1.115991836627e-72,4.0705770776604e-15,-7.9446723375643e-48,4.0367853798047e-67,2.0272160062663e-64,8.8234561292492e-42,-5.7126068261917e-13,-2.399361934514e-71,0.0015161052818066,-1.5897409385829e-62,-1.2463320954108e-05,704.00438320456,704.00438320456,702.05222335863,702.05223142288,694.46522882821,680.46188806172,701.69279863834,693.26545108095,698.97466517275,688.36385442761,703.65657033093,703.20866029526,696.54827303473,703.64690942493,687.59862336537,703.5105417006,697.64211813827,691.26370711089,681.67795255908,701.68128736898,696.82590292478,694.95175111143,686.86523060235,696.54827303473,704.20429649495,702.76471388526,697.78099004356,681.06191990731,701.86990573039,689.89942152784,702.04597352542,690.87877243029,701.86990573055,703.60098664251,702.49177394364,703.26609473982,685.80758693216,704.20429649492,693.41059016471,703.91376133742,690.42411335388,701.68128736911,701.10241544473,702.49177600421,685.90598017683,685.90598017683,687.29131101643,687.29131101643,1308.7126715205,1308.351272983,0
6.035888671875e-05,30328081.943307,1.7746544563618e-05,1.0043180908756,-1.827226562594e-106,7.5612540955099e-113,-3.0202344700913e-95,4.2274728096778e-14,-4.4620783289828e-89,-1874.6986031362,-1.5195749799809e-07,-8.0080097428073e-89,-5.7845032595233e-32,-1.8169164432999e-51,-1.4555498860857e-87,2.9674972528592e-38,-4.3828801836428e-72,-1.0185972718174e-32,1.9827849231208e-63,5.7715145585713e-67,1.3114439991827e-25,-1.1152844743216e-74,-48.91205624868,-1.8124220342276e-08,-1.089379618938e-96,-3.6046061536586e-19,-6.6041052466171e-53,2.5359882101923e-55,3.60150282339e-92,1.9976411527234e-26,-5.3847240166029e-101,-280.28669787385,-3.9719474681675e-08,-1.7678439238521e-78,-1.8442845866637e-51,-1.4362403421158e-51,-1.413438962221e-83,7.6391718097264e-57,7.9621404272278e-85,-4.4239068510751e-23,1.9862822212838e-63,1.8926065974191e-71,5.9271145575091e-15,-5.475874609637e-47,4.1480431063302e-65,7.1826671201293e-64,2.8438317198877e-41,-8.5380540974285e-13,-1.0930993953362e-67,0.0018806465328201,-7.0162888348046e-60,-1.3580848545008e-05,704.00937772839,704.00941093301,702.04872628271,702.04874233911,694.42413330133,680.29625872132,701.68730284932,693.22014063284,698.95605317191,688.28704758621,703.65961948978,703.21042717398,696.5186735646,703.64997380783,687.51843770645,703.51315883345,697.61925570497,691.20464542994,681.53766544704,701.67588901487,696.79859945433,694.91301911883,686.77744128489,696.5186735646,704.20982230805,702.76452397996,697.7567927837,680.91451523948,701.86507854112,689.83503465001,702.04173620741,690.81820042004,701.86507854128,703.6044182488,702.48960652398,703.26739727416,685.71459953059,704.20982230802,693.36649162802,703.91811507631,690.36176928111,701.675889015,701.09531774699,702.48960858454,685.81430825415,685.81430825415,687.20631767033,687.20631767033,1308.1761433115,1307.7607592604,0
6.0360107421875e-05,33488884.512041,1.7747158449346e-05,1.0046268400845,-1.3273446168673e-103,5.3217259262066e-111,-8.2463934010829e-94,7.6866347970659e-14,-2.0064115956591e-85,-2366.6555601312,-1.975911541335e-07,-1.617394027646e-84,-6.8946677802327e-32,-4.8375183608811e-50,-1.7434510669264e-87,1.0031836691082e-37,-3.3425939706338e-71,-2.6983695220349e-32,1.4102173766152e-61,5.0219134938141e-66,2.3925512407057e-25,-7.8013319940311e-72,-55.61893477297,-2.6263032136612e-08,-1.8952933659933e-95,-3.9686568004192e-19,-2.8992115430371e-51,2.5382756190471e-54,2.0854452574134e-91,4.9816615964641e-26,-2.7137623783558e-98,-334.86542458998,-4.8196683084467e-08,-6.6855438094761e-75,-2.6299326444512e-51,-2.5813085324585e-50,-2.6940870020685e-83,4.7263410778836e-56,1.2250121869099e-83,-8.2073942863489e-23,2.9900806811313e-61,2.0796874877543e-70,8.7668444896324e-15,-2.9439372975301e-46,1.3267105492872e-63,3.4909599361874e-63,7.1431112201472e-41,-1.1462469875219e-12,-6.5169923394467e-65,0.0023612080950017,-9.0084135093428e-58,-1.4668047254802e-05,704.01375732041,704.01379052504,702.0486781115,702.0486941679,694.40465008135,680.19591294497,701.68624014766,693.19836565015,698.94822920833,688.24887967927,703.66301328577,703.21310513157,696.50509880108,703.65337702351,687.47844922263,703.51631111466,697.60908849857,691.17582672062,681.4605641265,701.67486588031,696.78616096057,694.89477225546,686.73337073327,696.50509880108,704.21449814323,702.76618296043,697.74606288434,680.83199510827,701.86437328662,689.80334953024,702.0413604629,690.78856709187,701.86437328678,703.60796771877,702.49029294781,703.2698896022,685.66769614436,704.2144981432,693.34532566571,703.92218040779,690.33118163942,701.67486588044,701.09335037428,702.49029696909,685.76815820597,685.76812734968,687.16376559013,687.16376559013,1307.8355061694,1307.3845026809,0
6.0361328125e-05,36437580.320593,1.7747693950424e-05,1.0047580797419,-1.9423716315747e-102,2.0791592506562e-110,-3.8830792940049e-93,1.0897402167102e-13,-4.942062060715e-84,-1684.0869597163,-2.4285632635196e-07,-6.8877165281245e-83,-7.5152123923997e-32,-1.5448985654977e-49,-1.9201902096899e-87,1.8482801252272e-37,-5.6683381797091e-71,-4.4821910349017e-32,5.5597218026094e-61,1.3808591234384e-65,2.5335987505804e-25,-9.5042949157619e-71,-55.392614744653,-3.3840554517591e-08,-6.4180381995961e-95,-4.1337425323787e-19,-1.1854360006497e-50,3.9084658494706e-54,6.8031692390754e-91,8.0686134876171e-26,-3.154376271696e-97,-330.58877898107,-5.7336362566533e-08,-1.4505021565061e-73,-3.2451848810088e-51,-6.2759940604073e-50,-3.4402517364061e-83,1.1238908543835e-55,4.8988193200738e-83,-1.1616579635498e-22,1.6612735241075e-60,6.4245012289744e-70,9.0473930110323e-15,-6.4701691171382e-46,3.611101199278e-63,7.0080201382749e-63,8.14650458673e-41,-1.4144083590889e-12,-6.6002151886803e-64,0.0024194436017207,-5.7016656923737e-57,-1.5045055908961e-05,704.01733716829,704.01737091576,702.04818144343,702.04819749983,694.38764356133,680.12830679353,701.68494922151,693.17882595486,698.94116105065,688.21747944082,703.66580096558,703.21504826444,696.49278324836,703.65618084891,687.44530453713,703.5188121915,697.59931125756,691.1514248957,681.40876901631,701.67356380532,696.77455534576,694.87885573973,686.69811569128,696.49278324836,704.2184242909,702.76719648501,697.73640940735,680.77748986664,701.86344563836,689.77595967474,702.04082753946,690.76330934733,701.86344563853,703.6107250792,702.4906659513,703.27189038157,685.6299458883,704.21842429087,693.32616462095,703.92555077353,690.3035576034,701.67356380546,701.09094269624,702.49066997258,685.7307300166,685.73069916024,687.12958680904,687.12958680904,1307.5803716383,1307.1088780773,0
6.036376953125e-05,37368954.487367,1.7748827282389e-05,1.0050496358944,-3.574638730046e-100,1.0696363435941e-108,-2.0810686291637e-92,3.0598078711122e-13,-2.6097572846446e-81,-1938.5773034722,-4.617422185339e-07,-1.4851025470466e-80,-9.130968513077e-32,-9.047277936513e-49,-2.5516546283618e-87,1.0885268885946e-36,-1.6919403369632e-70,-1.4726729015627e-31,5.2539030325181e-60,1.5369192513312e-64,3.4036014030348e-25,-1.0940336997516e-68,-57.940096364453,-7.2785350185822e-08,-1.4136161107881e-93,-4.5684643666974e-19,-1.1960278491171e-49,6.3920566687061e-54,6.5272653419373e-91,3.310489809959e-25,-2.6434989918402e-96,-359.77164403358,-1.0080602943576e-07,-1.3238647066401e-71,-5.0142134533451e-51,-2.1149668303713e-49,-4.751793289097e-83,1.3299426933819e-54,1.5945360841561e-81,-2.8606941286743e-22,2.5176146985743e-59,9.7809463295265e-69,1.0712334427139e-14,-3.4177965349844e-45,2.0468860947187e-62,5.1380847102025e-62,1.4456341308966e-40,-2.6740686741231e-12,-2.240053463499e-62,0.0026559245050449,-1.532436597186e-55,-1.6021652685711e-05,704.01998651979,704.02002026732,702.03883043203,702.03884648845,694.3272048403,679.94721476601,701.67298445082,693.11161383102,698.91136168825,688.11109734109,703.66588705885,703.21302205047,696.44742502069,703.65630068621,687.3339769177,703.5181723914,697.56253195379,691.06746271032,681.24104410806,701.66165906544,696.73189690261,694.82170563893,686.57898685428,696.44742502069,704.22192659462,702.76241590252,697.69882099008,680.60460210953,701.85248400499,689.68374826914,702.03086551666,690.67699319708,701.85248400516,703.61107173094,702.48349861609,703.26957746464,685.50364534014,704.22192659459,693.26036893213,703.92742295472,690.21449541035,701.66165906559,701.07625539725,702.48350263737,685.60566623339,685.60563534009,687.01384587041,687.01384587041,1306.9821954737,1306.4725168789,0
6.0364990234375e-05,39615135.922296,1.7749749986491e-05,1.0056247326841,-5.1726126788361e-96,9.3820472001131e-105,-1.4510281491559e-91,2.0198473617712e-12,-1.6497835048088e-76,-4886.8955403287,-1.4130035956241e-06,-1.5516576118035e-76,-1.819288474785e-31,-2.5848816475552e-47,-2.2418113645413e-85,2.9712071138905e-35,-2.1888685657841e-69,-1.3423239359029e-30,5.7416817874582e-58,1.5793177962689e-62,1.2615747045869e-24,-5.5174600231813e-65,-78.997487795221,-2.8487941780799e-07,-8.5054718074358e-89,-6.7172578953237e-19,-8.6479187962582e-48,3.1065004657757e-53,-4.2093203047194e-87,4.5217751701557e-24,-4.4936287802984e-94,-540.1971419353,-2.7142156965112e-07,-4.1543556178932e-68,-1.4362399266221e-50,-2.5880682412585e-48,-1.4196372849679e-82,1.3698864769581e-52,6.9518129285282e-79,-1.5086192040966e-21,5.7156408065301e-57,1.4860446072678e-66,2.718372128289e-14,-7.519283933974e-44,1.0002466587776e-60,3.6731443451237e-60,1.0417764761283e-39,-8.8181094667456e-12,-1.7022212962369e-59,0.0048831408940958,-6.2623790429139e-53,-2.0754126712489e-05,704.02587876195,704.02591250949,702.03449580261,702.03451185903,694.27505292781,679.72817223508,701.66604027518,693.05459827236,698.88798346429,688.01049382347,703.66925126401,703.21512448975,696.41041493657,703.65971396203,687.22899461769,703.52108992848,697.53458503033,690.99130310506,681.04972728881,701.6548935359,696.6981532753,694.77258191776,686.46270104458,696.41041493657,704.22830882236,702.76214805225,697.66846685794,680.40459860259,701.8463067386,689.60105694098,702.02533911854,690.59897656478,701.84630673878,703.61516234088,702.48051712327,703.2708244314,685.38038802841,704.22830882233,693.20509548478,703.93244177398,690.13430731668,701.65489353605,701.06777979643,702.48052114455,685.48443067575,685.48437932443,686.90149879311,686.90149872086,1306.2713081386,1305.6907854227,0
6.0365295410156e-05,41614508.520138,1.7750053966082e-05,1.005877459542,-2.5895469838674e-94,3.9375350542055e-103,-4.4378423956161e-87,4.5747218258425e-12,-8.159448595468e-75,-7265.5511831813,-2.3766115075492e-06,-5.3702392149372e-75,-2.671812907152e-31,-8.8971735588003e-47,-6.461374302874e-84,1.158014678194e-34,-5.0204779939339e-69,-3.4073939686924e-30,3.3798981051353e-57,1.2235012544832e-61,2.322638381293e-24,-1.1776619585932e-63,-96.396573815086,-5.2871325568644e-07,-6.3757340665844e-87,-8.4383694022023e-19,-4.193610766006e-47,5.0323725078561e-53,-1.979591809585e-85,1.3507541129605e-23,-7.0525521379504e-90,-706.76663162698,-4.3179420635691e-07,-9.1894480405909e-67,-2.5162421109654e-50,-6.4179682853103e-48,-2.4683290703603e-82,8.9048048542951e-52,9.8083244824555e-78,-3.0398497677307e-21,4.554569682152e-56,1.3561551213756e-65,4.3432294267881e-14,-2.7330298361503e-43,4.1855988117369e-60,2.45178479033e-59,2.4947551053308e-39,-1.475852442531e-11,-2.1969940696742e-58,0.0068996527424292,-5.6477211655818e-52,-2.4133820982771e-05,704.02985926172,704.02989700614,702.03555498534,702.03553321004,694.26206279499,679.64425972443,701.66629580048,693.04026245024,698.88343547633,687.98278988355,703.67249650272,703.21801485972,696.40191346916,703.66297268247,687.20000027372,703.5242508573,697.52877060764,690.97112677536,680.98619451436,701.65520428052,696.69063817407,694.7604779785,686.42991139538,696.40191346916,704.23243285734,702.76435130963,697.66188512655,680.33595314678,701.84678199508,689.57904064272,702.02599496756,690.57827758003,701.84678095629,703.61862802524,702.48191741478,703.27345282961,685.34544459436,704.23243285731,693.19129014534,703.93616855271,690.11299659266,701.65520428068,701.06761154078,702.48192143607,685.45019002087,685.45013866953,686.86998168787,686.86998161563,1306.0173160964,1305.4012068845,0
6.0365600585938e-05,45389509.362883,1.7750388452829e-05,1.0061823961244,-1.9409870256123e-92,1.6854735905097e-101,-6.7214306714467e-73,1.5574471328391e-11,-4.2354106299468e-73,-8153.6949101493,-5.5167445575182e-06,-1.829573234533e-73,-3.8466891640315e-31,-2.7605160160857e-46,3.0746585996294e-72,7.5922487306193e-34,-8.482185991762e-69,-9.7993195793407e-30,1.6433558145868e-56,1.2000892600309e-60,3.8757080955647e-24,-2.5516619394129e-62,-108.3026592079,-1.4148404354051e-06,-2.088985330532e-76,-1.0410307733767e-18,-1.8824260344628e-46,6.5618978894508e-53,6.07322406122e-72,6.3863551389702e-23,-1.3008585081585e-77,-814.37962861837,-8.8153928481213e-07,-1.8989960062264e-65,-4.4975256167259e-50,-1.3374670019086e-47,3.4862066775479e-73,1.1367605090428e-50,2.1731252581864e-76,-6.6529481219898e-21,3.0352531975241e-55,1.7063988292134e-64,6.2057832081911e-14,-1.18239535013e-42,1.4310148749186e-59,1.9198978869128e-58,5.5321853632237e-39,-2.7844197557008e-11,-2.4695335595995e-57,0.0086073882966896,-4.8992911476203e-51,-2.7209950194421e-05,704.03587476031,704.03591227282,702.03845616983,702.03838905865,694.25041122117,679.55033299641,701.66839103285,693.02698413752,698.88057387739,687.95606643491,703.67776944921,703.22283549161,696.39481623173,703.66826555286,687.17182138953,703.52936771769,697.52432623039,690.95210609838,680.92236259561,701.65733902281,696.6844697823,694.74976830853,686.39808131447,696.39481623173,704.23862363251,702.76844294541,697.65687249335,680.26585875382,701.8491259998,689.55752511511,702.02857226574,690.55864256919,701.84912496103,703.62406654621,702.48525647393,703.27808849757,685.31122735732,704.23862410798,693.1785175797,703.94194228983,690.09264608846,701.65733902298,701.06914059734,702.48526049521,685.41664338213,685.41659198011,686.83946404523,686.83946397299,1305.7435180318,1305.0745545067,0
6.0365905761719e-05,47735456.380795,1.7750629138545e-05,1.0063115531929,-1.2014132752899e-91,5.2884509923913e-101,-1.1054191528431e-67,2.8627488359944e-11,-3.2550092107371e-72,-5029.5443914429,-8.5935421330686e-06,-1.0858328523358e-72,-3.9639377723079e-31,-4.6299907848398e-46,6.6701271932535e-66,1.8600181313422e-33,-5.117116927256e-69,-1.617585366673e-29,3.0118215165671e-56,3.1089048147973e-60,3.6929661599597e-24,-1.1118239191125e-61,-107.64858739424,-2.3498153148941e-06,-4.5908931907622e-72,-1.0630028501233e-18,-3.866011880245e-46,5.2852675778866e-53,5.1516639061338e-66,1.3520507432001e-22,-4.2380719422764e-73,-796.8606053959,-1.2846592563253e-06,-8.5486532388727e-65,-4.9137257780171e-50,-1.6936761299059e-47,2.1230844694932e-66,3.8144301892137e-50,-2.5294164796557e-75,-9.7361070496265e-21,6.9551297196538e-55,5.0566064913874e-64,5.8771578555882e-14,-2.3228876921798e-42,2.0278481628642e-59,4.3983476878618e-58,5.622214600193e-39,-3.8754990812111e-11,-7.9040177435313e-57,0.0083798802012713,-1.3964456352061e-50,-2.7832448342449e-05,704.03918011597,704.03921787329,702.03944177967,702.03937466849,694.24195592893,679.50224267769,701.66894989656,693.01693089054,698.87790119926,687.93883422116,703.68063894525,703.22519752865,696.38905305268,703.67115814365,687.15343412573,703.53206183432,697.51996796184,690.93923364184,680.88972057573,701.65788186859,696.67907695675,694.74196922485,686.37836319474,696.38905305268,704.24212659113,702.770277954,697.65269194778,680.23050226274,701.84990026778,689.54273628306,702.02960576018,690.54521712217,701.84989922903,703.62689326708,702.48677915316,703.28053246242,685.28982454295,704.24212758427,693.16867571542,703.9451466969,690.07857858471,701.65788186879,701.06901503124,702.48678317445,685.3954554299,685.39540408561,686.82045809248,686.82045802024,1305.5643884241,1304.8632900787,0
6.0366516113281e-05,48523200.736317,1.77510649653e-05,1.006459526598,-1.1340733534772e-90,1.2850983191929e-100,-6.8276456233414e-67,7.9032002388373e-11,-3.7565745506155e-71,-4307.1511850321,-1.8130941792215e-05,-1.2153122461024e-71,-3.8980151043845e-31,-8.9302833651938e-46,4.3798956343389e-65,7.9423047503225e-33,1.2439114331126e-68,-3.0564895393863e-29,6.1854393809426e-56,1.3140389358452e-59,3.0333876009502e-24,-7.556900218137e-61,-106.45387393432,-5.4916005555328e-06,-2.6572579644716e-71,-1.058234240931e-18,-9.6967260394967e-46,3.7375834409741e-53,3.3201356259319e-65,4.6721336277911e-22,-4.8491641453047e-72,-754.22180584349,-2.4214348826803e-06,-6.3906971716129e-64,-5.1017492244371e-50,-2.2716063877675e-47,1.4173827999526e-65,2.4144308701485e-49,-2.9618045400204e-74,-1.706174205071e-20,1.9499935069432e-54,2.6989500196471e-63,4.9371759843489e-14,-5.1028109357561e-42,2.9192302953302e-59,1.5003543690662e-57,4.7342323588125e-39,-6.6479993415274e-11,-3.5728595025754e-56,0.0074461965111669,-5.406037087201e-50,-2.8044708974439e-05,704.041121154,704.0411539605,702.03504459778,702.03497748661,694.21078898616,679.40393513014,701.66324204406,692.98184415547,698.86295801573,687.88306263607,703.68126602193,703.2246327649,696.36573469679,703.67183044462,687.09478349349,703.53227722031,697.50099377857,690.89555731354,680.80038065691,701.65218048578,696.65705995956,694.71258798015,686.31575712338,696.36573460038,704.24452866849,702.76826447527,697.63361038503,680.13802068268,701.84474279802,689.49427577266,702.02504946462,690.50016814481,701.84474175935,703.62758525674,702.48364116222,703.27994161499,685.22304408693,704.24453073975,693.13429306842,703.94671797238,690.03193806461,701.65226474841,701.0617330589,702.4836451835,685.32929673088,685.32924528086,686.75972376339,686.75972369114,1305.2348891953,1304.4965797928,0
6.0366821289063e-05,49303641.113294,1.7751414574905e-05,1.0066607344862,-1.0450769721511e-88,5.8777455200541e-100,-1.8493997815352e-66,3.9563515966817e-10,-7.4736687719925e-70,-8500.9817724562,-5.999042274561e-05,-2.515608981487e-70,-4.8110732104684e-31,-2.8215312991195e-45,1.0088126492741e-64,7.7929696536441e-32,2.6373429856816e-68,-6.5919649131164e-29,2.6599623522045e-55,8.7771712962455e-59,3.7106370641702e-24,-9.1441702423475e-60,-127.4844681409,-2.1262122665654e-05,-8.2212014766091e-71,-1.242266608779e-18,-4.1447859038131e-45,4.3177859214067e-53,8.1069674299502e-65,3.3110178492257e-21,-4.4647399283462e-71,-938.24541083343,-6.7526698537019e-06,-9.4875185706934e-63,-6.7978348829279e-50,-4.8733602014584e-47,3.0642380751156e-65,4.2992928102349e-48,2.4677458491095e-74,-3.7158561942574e-20,1.1824595634262e-53,2.4871803790284e-62,6.0967114737588e-14,-1.213653104756e-41,8.3629251452059e-59,7.5375265205603e-57,6.0254726627929e-39,-1.6260024875088e-10,-3.4785814874605e-55,0.0096029735504211,-3.7070771895845e-49,-3.2399202279161e-05,704.04365716948,704.04369185625,702.03301908483,702.03295481391,694.18751659332,679.30792602044,701.66006574846,692.9563763588,698.85248159954,687.83832376948,703.68268347039,703.22547447787,696.34917764512,703.67327082039,687.04808796356,703.53349547125,697.48844379921,690.86163806918,680.71614166931,701.64908048266,696.64194179683,694.6906660405,686.2641095062,696.34917754871,704.24728738217,702.76805031625,697.62002354649,680.04999009576,701.84191093166,689.45742612429,702.02251494577,690.46541465925,701.84190989308,703.62931394615,702.48223563462,703.28041894807,685.16828911661,704.24729000373,693.10959662579,703.94887073645,689.99621032175,701.64916737371,701.05785442799,702.4822396559,685.27541633603,685.275364886,686.70981587467,686.70981580243,1304.9437560233,1304.1509328611,0
6.0366973876953e-05,50700636.539022,1.7751634027103e-05,1.006816197134,-9.0004418600989e-87,2.1473559077424e-99,-4.5644562542031e-66,1.2291640620932e-09,-5.1850226303671e-69,-11340.617279989,-0.00014256821409735,-1.7734927143463e-69,-5.6659507051612e-31,-5.8472120653829e-45,2.0744953736374e-64,3.8219088554171e-31,4.6576128102277e-68,-1.2681473487787e-28,6.8294618890186e-55,3.7348829265768e-58,4.4985388054669e-24,-4.5609357755994e-59,-139.74451714868,-5.5685555288542e-05,-2.3737338882799e-70,-1.3914269467288e-18,-1.03578138473e-44,4.803741848715e-53,1.7774890555113e-64,1.3025199638485e-20,-1.8067772272624e-70,-1069.6839705238,-1.4625427709134e-05,-5.3172350116905e-62,-8.6904932902666e-50,-7.9291670183497e-47,5.8882273645372e-65,3.1470655578178e-47,1.3321608789608e-72,-7.3629429976858e-20,3.6948524022395e-53,1.3493703618723e-61,7.1421818159526e-14,-2.3177210032417e-41,1.70972288604e-58,2.5840609859668e-56,7.8754353957555e-39,-3.3874739974262e-10,-1.4554070517089e-54,0.011026443070916,-1.2592838841332e-48,-3.5504424010192e-05,704.0474114177,704.04744229638,702.03467244198,702.03460804776,694.17942485919,679.24310970388,701.66120828556,692.94721263663,698.85030480002,687.81991754906,703.68594044214,703.22843660223,696.34416864877,703.67654101942,687.02869737014,703.53665068675,697.48523040136,690.84853242497,680.67093828402,701.65025085805,696.63756687589,694.68320866596,686.24213011768,696.34416852438,704.25115562834,702.77052749291,697.61640674928,680.00029407808,701.84321796603,689.44288670228,702.0239745352,690.45190008055,701.84321695557,703.63268640772,702.48420283537,703.2832511204,685.14466911759,704.25115848225,693.10077976533,703.95246184341,689.98221907855,701.65033774928,701.05862940411,702.48420834429,685.25227936092,685.25222787254,686.68875213132,686.68875205908,1304.7693746173,1303.9234038115,0
6.0367126464844e-05,52098956.839607,1.7751784318103e-05,1.0068901538821,-5.3771219137907e-86,3.4379423546928e-99,-9.6069130172691e-66,1.8148465414157e-09,-1.3591216622035e-68,-6927.441411235,-0.00019431668126679,-5.0109461326325e-69,-5.7790627305481e-31,-8.0290691411262e-45,3.920509986714e-64,6.5438969773708e-31,8.628005354417e-68,-1.8107688611716e-28,9.8036603787606e-55,7.1735928343957e-58,4.4210967235459e-24,-1.013217704308e-58,-138.31487851088,-7.7907611398522e-05,-5.4976398863481e-70,-1.4070180706826e-18,-1.5832843832019e-44,4.0762162854328e-53,3.4876274219605e-64,2.0762408099704e-20,-3.763797840418e-70,-1052.4561648384,-1.960583773274e-05,-1.29450555951e-61,-9.2912017977468e-50,-9.3794999076887e-47,1.0697956624976e-64,6.1322230229966e-47,3.8089586943347e-72,-1.0284927678548e-19,6.0875674856267e-53,2.8799417542398e-61,6.9868921858881e-14,-3.3357705129161e-41,2.0889832833043e-58,4.508867163356e-56,7.8810859557937e-39,-4.5217546465538e-10,-2.9265822931212e-54,0.01084847771004,-2.2813623499154e-48,-3.5910324308301e-05,704.05028078667,704.05031166776,702.03607039274,702.03600599853,694.17486663011,679.21073076833,701.66234285001,692.94160938592,698.84940778955,687.8084955632,703.68853924108,703.23070397294,696.34130015312,703.67915558331,687.01783051179,703.53913484898,697.48322997107,690.84118009645,680.65098377056,701.65137266011,696.63491974282,694.67906953472,686.23044241839,696.34129999263,704.25415339739,702.77246109768,697.61455200484,679.97848187849,701.84449122007,689.43428200468,702.02541815952,690.4441861658,701.84449020994,703.63524901638,702.48595226131,703.28558323341,685.1318841688,704.25415658173,693.09530387787,703.95527160417,689.97408816641,701.65145955174,701.05931438158,702.48595777023,685.23962211697,685.23957325946,686.67751917693,686.67751910469,1304.6508516116,1303.7775159622,0
6.0367431640625e-05,52313190.933011,1.7751990224571e-05,1.0069323208115,-7.3669543764455e-86,2.8355270017903e-99,-1.6785816185394e-65,2.1693583874043e-09,-2.6678924503405e-68,-4036.4042238744,-0.00022555601431939,-1.0700007961644e-68,-5.3320394506408e-31,-8.6737926016409e-45,6.6167625299397e-64,8.2329867732666e-31,1.5033390162225e-67,-2.1980724753109e-28,1.001735587704e-54,9.9358586465527e-58,3.5272859594888e-24,-1.7079872761133e-58,-125.8690724552,-9.1333261060191e-05,-9.8906010559302e-70,-1.3190931427496e-18,-1.8977845509574e-44,2.474228178399e-53,5.9587914471956e-64,2.5498582516823e-20,-6.5470533333093e-70,-913.72252753144,-2.254509787422e-05,-2.3579775813065e-61,-9.0238532673719e-50,-8.6896911977514e-47,1.7821276245829e-64,8.0177680384233e-47,6.1531957781632e-72,-1.2081300946085e-19,7.2532745922308e-53,4.2224071523385e-61,5.7157168572388e-14,-4.2726503051401e-41,1.7819876206382e-58,5.9010589818796e-56,6.0234126244687e-39,-5.1519395401957e-10,-4.3411083294726e-54,0.009207455434545,-3.2043914014388e-48,-3.4144968009923e-05,704.05091594895,704.05094668783,702.03405002518,702.03398563097,694.16250744745,679.17445532226,701.65988928302,692.92723772686,698.84342049286,687.78694738151,703.6887209115,703.23023141348,696.33176808779,703.67936785672,686.99492087193,703.53909044708,697.47508556656,690.82413401127,680.61814662736,701.64888172445,696.62567475001,694.6674515065,686.20655554418,696.33176792731,704.25504262271,702.77138881593,697.60686238276,679.94433873794,701.84229825676,689.41487647612,702.02355972461,690.42645748681,701.84229724754,703.63531280162,702.48462396797,703.2852965356,685.10607847344,704.25504648837,693.08110781814,703.95582311511,689.9555736986,701.64896861717,701.05596338383,702.48462947689,685.21394434794,685.21389549038,686.65434813794,686.65434806569,1304.4868899415,1303.5986091949,0
6.0368041992188e-05,52435092.764002,1.7752354925795e-05,1.0069785241619,-7.6243450756948e-86,1.6023399185021e-99,-2.8914646945543e-65,2.6298216265211e-09,-6.0270693182848e-68,-3185.9443322845,-0.00026762262657669,-2.7093443992963e-68,-4.9355912575044e-31,-9.7061165470601e-45,1.0320902917764e-63,1.0368738829985e-30,2.1411314878915e-67,-2.7599087465343e-28,1.0601974420918e-54,1.4061390612028e-57,2.6761052087551e-24,-3.2672091602581e-58,-115.45261952429,-0.0001091010674877,-1.8535624698944e-69,-1.2286596685327e-18,-2.4420471577689e-44,1.28909844711e-53,9.6258285601987e-64,3.1554157484844e-20,-1.1385983438216e-69,-799.02305286262,-2.6553586876324e-05,-5.0450887354998e-61,-9.3310569294868e-50,-7.9593525591266e-47,2.6783385194707e-64,1.0344050267012e-46,1.0921037410477e-71,-1.4515658548707e-19,9.4592380694186e-53,6.4411553133277e-61,4.4751241138687e-14,-5.7917387584439e-41,1.4656798744391e-58,7.7388229242405e-56,4.2422235018597e-39,-5.9623569668126e-10,-7.4463765005634e-54,0.0076777476627709,-5.0149668998461e-48,-3.2277660708471e-05,704.05155542375,704.05158616256,702.03005112833,702.02998645308,694.1405186499,679.11336487692,701.6551333502,692.90176038546,698.8324927893,687.74914644368,703.68857150272,703.22893576673,696.31468125466,703.67926690309,686.954776186,703.53853637433,697.46040479544,690.79405680949,680.56148730492,701.64406086313,696.60908334069,694.64674479627,686.16477375927,696.31468109418,704.256120936,702.76904541763,697.59297313256,679.88557701867,701.83799678844,689.38072142866,702.01983481647,690.39520200499,701.83799578131,703.63495434258,702.48183144248,703.28432332426,685.06100414532,704.25613735668,693.05592899326,703.95631562459,689.92296001619,701.64414775828,701.04963693707,702.4818369514,685.16907930628,685.16903044869,686.61378749963,686.61378714637,1304.2188068075,1303.3098805597,0
6.0369262695313e-05,52568691.900193,1.7753150766352e-05,1.0070750241825,-1.2228462563097e-85,9.0349056667373e-100,-5.5966852568748e-65,4.0791815189407e-09,-3.31972504743e-67,-3655.867355813,-0.00036707710817235,-2.9750506589526e-64,-6.1607688962841e-31,-2.1664058067631e-44,9.9535656859242e-64,1.9772418576459e-30,8.968412325878e-68,-7.2104199742508e-28,3.2960716045493e-54,9.6436203107325e-57,3.6926935830182e-24,-1.4713722441513e-57,-117.16287847823,-0.00015666835913303,-6.5380858889673e-69,-1.3479886183259e-18,-6.6688636453357e-44,1.9484811616138e-54,1.1857519221166e-63,5.4488665366821e-20,-2.4936337775494e-69,-1062.3701983174,-3.4187094552924e-05,-2.16295076712e-57,-1.5648844326483e-49,-1.1726914231276e-46,1.9936000353516e-64,2.3460560166852e-46,9.4003187345922e-71,-2.5031292898966e-19,5.1079725220793e-51,4.604367340246e-60,4.7866499115939e-14,-2.7691576525363e-40,1.6071912714047e-59,4.9925209707654e-55,7.7491458458994e-39,-7.418905628471e-10,-8.5065508296039e-51,0.007232686881865,-1.7651038951171e-47,-3.323645730441e-05,704.05312569431,704.05313941718,702.01774461471,702.01766566024,694.0766305078,678.92765043803,701.64112944607,692.82444980305,698.80161970904,687.6366127434,703.68820167389,703.22443064257,696.26416382298,703.67919986886,686.83299368517,703.53669051417,697.41533952624,690.70590658223,680.38944146091,701.62965078461,696.5588508771,694.58705031642,686.04023828389,696.26416099897,704.25918543553,702.76144245206,697.55300737246,679.7051787536,701.82552580726,689.2766639435,702.00969041012,690.30241434942,701.82552480511,703.63329488084,702.47400874486,703.28181664083,684.92337426962,704.25920452846,692.97905156917,703.95781428898,689.82487778805,701.62973768552,701.02976739137,702.47401425379,685.03163997761,685.03158534524,686.49344173462,686.49344138136,1303.5761423216,1302.6256210512,0
6.0369567871094e-05,52603711.954474,1.7753389663349e-05,1.007106347117,-2.1694838435878e-85,1.3973022817207e-99,-7.324866147873e-65,4.6182840856193e-09,-8.7782698709524e-67,-4860.222767415,-0.00040223880426732,-3.676980933587e-63,-7.0397817949767e-31,-4.4516479938783e-44,1.0013742131111e-63,2.3548816069288e-30,6.4877810181808e-68,-1.1014363217945e-27,3.7354494824015e-54,2.1351704215665e-56,5.2776253538292e-24,-3.8827722788083e-57,-141.11320107726,-0.00017398104175668,-1.074582343975e-68,-1.4861917281212e-18,-1.5772862921688e-43,2.5435517538302e-54,1.3086565703785e-63,6.3337519772577e-20,-2.8703779973415e-69,-1408.0914027543,-3.6567767453576e-05,-1.7922301120991e-56,-1.9322188928011e-49,-2.0039385486331e-46,1.81781097364e-64,2.9146413236259e-46,2.0918229353475e-70,-3.1435820752517e-19,9.2155900589078e-51,1.0206938208909e-59,6.0744438351939e-14,-5.3519913559172e-40,1.2193288277574e-59,1.098976604363e-54,1.3686427491352e-38,-7.8407087016012e-10,-4.2693881339572e-50,0.0089126808097853,-4.6784083014491e-47,-3.7146109734623e-05,704.05358981171,704.05359922616,702.01482820205,702.0147491613,694.06109509572,678.88060688192,701.63780847071,692.80544716033,698.7942089108,687.6088291307,703.68819102305,703.22341461933,696.25189244825,703.67926595659,686.80268488615,703.53632031299,697.4043731717,690.68433140074,680.34616216189,701.62622858025,696.54661741805,694.57256571559,686.00941271916,696.25188972044,704.26000636028,702.75967314652,697.54336260046,679.65940048813,701.82258001024,689.25086047015,702.00731941024,690.27961567379,701.82256973381,703.63297044959,702.47219477406,703.28129222607,684.88890137954,704.26002410266,692.96013864115,703.95825876597,689.80067232752,701.62631548314,701.02500369467,702.47220028298,684.99717010527,684.9971154729,686.46372124853,686.46372089527,1303.3626612114,1302.3964434837,0
6.0369720458984e-05,52626469.491694,1.775356741261e-05,1.0071354009874,-4.0273955302972e-84,1.2437877272103e-97,-9.7742139129349e-65,5.1718702636676e-09,-2.8803292801563e-66,-8949.1808770117,-0.00042778641657031,-2.4260341668064e-55,-8.7159112558587e-31,-9.3154986603189e-44,9.2523425148085e-64,2.8393765390647e-30,3.1570771152353e-68,-2.3582521408871e-27,8.8605619511425e-54,9.4577305784207e-56,1.1312014933466e-23,-9.0606732052354e-57,-157.40415934611,-0.00018941275794689,-5.8244802198379e-62,-1.6976686003964e-18,-3.4408167376804e-43,4.4319666537061e-54,1.3759974374885e-63,7.3655820987897e-20,-2.6559383256762e-69,-1803.0231576257,-3.7089974053486e-05,-8.1780601433842e-50,-2.5486179999898e-49,-3.9759714211269e-46,1.4638736023293e-64,3.7651734048988e-46,7.386724960255e-70,-4.6626508026969e-19,3.2867485753526e-50,4.2568825263071e-59,9.5091205017716e-14,-1.7473165427947e-39,1.5821019712135e-59,5.1027520870452e-54,4.5519573593209e-38,-7.9161094534711e-10,-7.3092115610846e-45,0.011193121581699,-1.0656541282523e-46,-4.0410050094917e-05,704.05473963092,704.05474743467,702.01281467407,702.01273625274,694.04682574547,678.82240237577,701.63543387666,692.78732829579,698.78802003857,687.58097630168,703.68890327989,703.22317917418,696.24084706967,703.68006712104,686.77146257943,703.5366887675,697.39454900464,690.6636705631,680.29580017244,701.62375036401,696.53554755242,694.55939822052,685.97784993896,696.24084434187,704.26147744573,702.75873293939,697.53498069785,679.60336983842,701.82056646302,689.22507065163,702.00588509469,690.25750048158,701.82055382377,703.63338190896,702.47125122058,703.28154973655,684.85205340641,704.26149518826,692.94208637613,703.9594043142,689.77685948445,701.62383559272,701.02122897416,702.47125672951,684.96024856871,684.96019393634,686.43359843835,686.43359808509,1303.1849660979,1302.1989381508,0
