time,disloc_density,disp_x,disp_y,disp_z,fp_yy,gd_0,gd_1,gd_10,gd_11,gd_12,gd_13,gd_14,gd_15,gd_16,gd_17,gd_18,gd_19,gd_2,gd_20,gd_21,gd_22,gd_23,gd_24,gd_25,gd_26,gd_27,gd_28,gd_29,gd_3,gd_30,gd_31,gd_32,gd_33,gd_34,gd_35,gd_36,gd_37,gd_38,gd_39,gd_4,gd_40,gd_41,gd_42,gd_43,gd_44,gd_45,gd_46,gd_47,gd_5,gd_6,gd_7,gd_8,gd_9,slip_increment_0,slip_increment_1,slip_increment_10,slip_increment_11,slip_increment_12,slip_increment_13,slip_increment_14,slip_increment_15,slip_increment_16,slip_increment_17,slip_increment_18,slip_increment_19,slip_increment_2,slip_increment_20,slip_increment_21,slip_increment_22,slip_increment_23,slip_increment_24,slip_increment_25,slip_increment_26,slip_increment_27,slip_increment_28,slip_increment_29,slip_increment_3,slip_increment_30,slip_increment_31,slip_increment_32,slip_increment_33,slip_increment_34,slip_increment_35,slip_increment_36,slip_increment_37,slip_increment_38,slip_increment_39,slip_increment_4,slip_increment_40,slip_increment_41,slip_increment_42,slip_increment_43,slip_increment_44,slip_increment_45,slip_increment_46,slip_increment_47,slip_increment_5,slip_increment_6,slip_increment_7,slip_increment_8,slip_increment_9,slip_resistance_0,slip_resistance_1,slip_resistance_10,slip_resistance_11,slip_resistance_12,slip_resistance_13,slip_resistance_14,slip_resistance_15,slip_resistance_16,slip_resistance_17,slip_resistance_18,slip_resistance_19,slip_resistance_2,slip_resistance_20,slip_resistance_21,slip_resistance_22,slip_resistance_23,slip_resistance_24,slip_resistance_25,slip_resistance_26,slip_resistance_27,slip_resistance_28,slip_resistance_29,slip_resistance_3,slip_resistance_30,slip_resistance_31,slip_resistance_32,slip_resistance_33,slip_resistance_34,slip_resistance_35,slip_resistance_36,slip_resistance_37,slip_resistance_38,slip_resistance_39,slip_resistance_4,slip_resistance_40,slip_resistance_41,slip_resistance_42,slip_resistance_43,slip_resistance_44,slip_resistance_45,slip_resistance_46,slip_resistance_47,slip_resistance_5,slip_resistance_6,slip_resistance_7,slip_resistance_8,slip_resistance_9,sliprate,stress_vm,stress_xx,stress_yy,stress_zz,total_twin_volume_fraction
6.25e-07,20000000,4.2958148457236e-08,1.855038506653e-07,3.8163536013985e-08,1,0,0,0,0,0,0,0,0,0,0,0,0,0,0,0,0,0,0,0,0,0,0,0,0,0,0,0,0,0,0,0,0,0,0,0,0,0,0,0,0,0,0,0,0,0,0,0,0,-3.0748456666777e-22,-1.5518802958902e-24,-2.0878645692249e-22,-9.078591908885e-23,6.743230062006e-23,1.2049841105671e-21,-4.952281954751e-22,2.7686047173334e-24,1.9655218687072e-23,5.8147084175213e-24,6.2797009732439e-23,-5.525187025662e-21,-1.3000616048589e-25,-3.7323819557488e-24,8.8835205555201e-23,-4.5138564438878e-21,-9.733717162202e-24,1.0024786552117e-22,1.1276988181896e-21,-8.1161136835383e-22,-1.8977640287098e-23,1.5345808434095e-23,2.7053282489399e-24,-2.3752712201779e-21,1.810197585409e-22,-4.1818820803433e-21,2.0412111812783e-23,6.098189662483e-22,-1.5433778939917e-22,-8.8987678983299e-24,1.1935030797635e-23,8.9261436433775e-23,9.9317982624649e-24,-3.6793636776993e-21,-4.8456155863244e-23,-8.4812515467545e-24,1.8774807917819e-22,-1.4888238744041e-21,-1.8171604710286e-24,-2.1300809260728e-24,2.0638688594722e-23,-6.6166414544753e-21,-1.1188408060547e-23,-9.0734930553296e-24,-1.3736222310941e-22,-2.1300069205123e-23,4.5203391032125e-23,1.3771621888333e-22,124.52252896804,124.52252896804,124.52252896804,124.52252896804,124.52252896804,124.52252896804,124.52252896804,124.52252896804,124.52252896804,124.52252896804,124.52252896804,124.52252896804,124.52252896804,124.52252896804,124.52252896804,124.52252896804,124.52252896804,124.52252896804,124.52252896804,124.52252896804,124.52252896804,124.52252896804,124.52252896804,124.52252896804,124.52252896804,124.52252896804,124.52252896804,124.52252896804,124.52252896804,124.52252896804,124.52252896804,124.52252896804,124.52252896804,124.52252896804,124.52252896804,124.52252896804,124.52252896804,124.52252896804,124.52252896804,124.52252896804,124.52252896804,124.52252896804,124.52252896804,124.52252896804,124.52252896804,124.52252896804,124.52252896804,124.52252896804,0,13.328577388016,-5.9128789018024e-06,12.933934269828,-9.3568241800305e-06,0
1.25e-06,20000000,8.5915563346555e-08,3.7100765045266e-07,7.6327030642197e-08,1,0,0,0,0,0,0,0,0,0,0,0,0,0,0,0,0,0,0,0,0,0,0,0,0,0,0,0,0,0,0,0,0,0,0,0,0,0,0,0,0,0,0,0,0,0,0,0,0,-3.2259884628696e-16,-1.6280647118431e-18,-2.1902801784738e-16,-9.5032611085097e-17,7.075281416496e-17,1.2628681079859e-15,-5.1987746663502e-16,2.9053984215741e-18,2.0625813227218e-17,6.1008393512378e-18,6.5887608623739e-17,-5.7968136390522e-15,-1.3641527886957e-19,-3.914175408759e-18,9.3209776967617e-17,-4.7361685807002e-15,-1.0215095241343e-17,1.0518312090306e-16,1.1818889488871e-15,-8.5201030532422e-16,-1.9904171298561e-17,1.6102784103162e-17,2.838319684095e-18,-2.4923274138289e-15,1.89918586801e-16,-4.3874697396883e-15,2.1419320822872e-17,6.3908923472237e-16,-1.6201348364913e-16,-9.335073679584e-18,1.2524104598935e-17,9.3663262862471e-17,1.0421166875357e-17,-3.8602378108482e-15,-5.0835005873807e-17,-8.8954164698142e-18,1.969899905089e-16,-1.562136969689e-15,-1.9079516610457e-18,-2.2342916064936e-18,2.1655149274694e-17,-6.9425694023062e-15,-1.1740834854956e-17,-9.5207246289193e-18,-1.4411478962787e-16,-2.2315009832444e-17,4.7428483543255e-17,1.4430912688726e-16,124.52252896804,124.52252896804,124.52252896804,124.52252896804,124.52252896804,124.52252896804,124.52252896804,124.52252896804,124.52252896804,124.52252896804,124.52252896804,124.52252896804,124.52252896804,124.52252896804,124.52252896804,124.52252896804,124.52252896804,124.52252896804,124.52252896804,124.52252896804,124.52252896804,124.52252896804,124.52252896804,124.52252896804,124.52252896804,124.52252896804,124.52252896804,124.52252896804,124.52252896804,124.52252896804,124.52252896804,124.52252896804,124.52252896804,124.52252896804,124.52252896804,124.52252896804,124.52252896804,124.52252896804,124.52252896804,124.52252896804,124.52252896804,124.52252896804,124.52252896804,124.52252896804,124.52252896804,124.52252896804,124.52252896804,124.52252896804,3.6004832522277e-20,26.660677664737,-2.4474463803127e-05,25.87143483768,-3.8753529530057e-05,0
1.875e-06,20000000,1.2887200400996e-07,5.5651139835505e-07,1.1449030198932e-07,1,0,0,0,0,0,0,0,0,0,0,0,0,0,0,0,0,0,0,0,0,0,0,0,0,0,0,0,0,0,0,0,0,0,0,0,0,0,0,0,0,0,0,0,0,0,0,0,0,-1.0733173879137e-12,-5.416361299528e-15,-7.2866753386384e-13,-3.1546882386266e-13,2.3542102756675e-13,4.197063799065e-12,-1.7306956157478e-12,9.6687732731393e-15,6.8639606639777e-14,2.0299033369243e-14,2.1923067065381e-13,-1.9286678522457e-11,-4.5392748935766e-16,-1.301726899567e-14,3.1014400358196e-13,-1.5759078039472e-11,-3.3996274664425e-14,3.4997955285723e-13,3.9280528802671e-12,-2.836387838776e-12,-6.620333074799e-14,5.3585363251451e-14,9.4433862749768e-15,-8.293183526391e-12,6.3189024791186e-13,-1.4597626245108e-11,7.1277082431882e-14,2.1238628521963e-12,-5.3932963958423e-13,-3.1054968734329e-14,4.1677311498417e-14,3.1167285317752e-13,3.4676689453086e-14,-1.284343415254e-11,-1.691221429235e-13,-2.9586791944173e-14,6.554481424099e-13,-5.1977945166241e-12,-6.352808064885e-15,-7.4320694024628e-15,7.2055291327373e-14,-2.3100805525166e-11,-3.9071027823828e-14,-3.1680379694844e-14,-4.7948523845809e-13,-7.4130410753549e-14,1.5780946973529e-13,4.7954906919982e-13,124.52252896804,124.52252896804,124.52252896804,124.52252896804,124.52252896804,124.52252896804,124.52252896804,124.52252896804,124.52252896804,124.52252896804,124.52252896804,124.52252896804,124.52252896804,124.52252896804,124.52252896804,124.52252896804,124.52252896804,124.52252896804,124.52252896804,124.52252896804,124.52252896804,124.52252896804,124.52252896804,124.52252896804,124.52252896804,124.52252896804,124.52252896804,124.52252896804,124.52252896804,124.52252896804,124.52252896804,124.52252896804,124.52252896804,124.52252896804,124.52252896804,124.52252896804,124.52252896804,124.52252896804,124.52252896804,124.52252896804,124.52252896804,124.52252896804,124.52252896804,124.52252896804,124.52252896804,124.52252896804,124.52252896804,124.52252896804,3.7773989482477e-14,39.996300611582,-5.5061090365664e-05,38.812502539273,-8.7184485285141e-05,0
2.5e-06,20000000,1.718276209522e-07,7.4201509472209e-07,1.5265347858393e-07,1,0,0,0,0,0,0,0,0,0,0,0,0,0,0,0,0,0,0,0,0,0,0,0,0,0,0,0,0,0,0,0,0,0,0,0,0,0,0,0,0,0,0,0,0,0,0,0,0,-3.3864374567454e-10,-1.7088077056244e-12,-2.2988399590266e-10,-9.930867458356e-11,7.428417943206e-11,1.3227653505665e-09,-5.4637385791615e-10,3.0513111070512e-12,2.1661474452167e-11,6.4048759330449e-12,6.9174883683898e-11,-6.0852032644274e-09,-1.4323842888237e-13,-4.1053391652559e-12,9.7862179553063e-11,-4.9726053737606e-09,-1.0729259658688e-11,1.1043044915695e-10,1.2380198821504e-09,-8.9543876114414e-10,-2.0881667156238e-11,1.6909896532254e-11,2.9795025177731e-12,-2.6168992223131e-09,1.9937256580421e-10,-4.6057450327952e-09,2.2492806801136e-11,6.6933127464615e-10,-1.702577754213e-10,-9.7970203080782e-12,1.3152315826951e-11,9.835087544736e-11,1.0942296072892e-11,-4.0522647281118e-09,-5.3356537406511e-11,-9.3320927823525e-12,2.0681502337118e-10,-1.640093616956e-09,-2.0059191189121e-12,-2.34438656406e-12,2.2736319177372e-11,-7.2892618861391e-09,-1.2329919076248e-11,-9.9967846989468e-12,-1.5128347539115e-10,-2.3353141677902e-11,4.979393269698e-11,1.5111995132937e-10,124.52252896804,124.52252896804,124.52252896804,124.52252896804,124.52252896804,124.52252896804,124.52252896804,124.52252896804,124.52252896804,124.52252896804,124.52252896804,124.52252896804,124.52252896804,124.52252896804,124.52252896804,124.52252896804,124.52252896804,124.52252896804,124.52252896804,124.52252896804,124.52252896804,124.52252896804,124.52252896804,124.52252896804,124.52252896804,124.52252896804,124.52252896804,124.52252896804,124.52252896804,124.52252896804,124.52252896804,124.52252896804,124.52252896804,124.52252896804,124.52252896804,124.52252896804,124.52252896804,124.52252896804,124.52252896804,124.52252896804,124.52252896804,124.52252896804,124.52252896804,124.52252896804,124.52252896804,124.52252896804,124.52252896804,124.52252896804,1.2567502072243e-10,53.335447193771,-9.7875696653439e-05,51.757137961975,-0.00015497541564709,0
3.125e-06,20000000,2.1478268451334e-07,9.2751873962574e-07,1.9081680468365e-07,1.000000000001,0,0,0,0,0,0,0,0,0,0,0,0,0,0,0,0,0,0,0,0,0,0,0,0,0,0,0,0,0,0,0,0,0,0,0,0,0,0,0,0,0,0,0,0,0,0,0,0,-2.9386499369037e-08,-1.4828724836259e-10,-1.9948653290054e-08,-8.5965264056328e-09,6.4472267665567e-09,1.1466818173684e-07,-4.744429742319e-08,2.6486644537639e-10,1.8802984245411e-09,5.5586446194666e-10,6.003727760915e-09,-5.2805915991704e-07,-1.243249364393e-11,-3.561260151544e-10,8.4936026404403e-09,-4.3157349540282e-07,-9.3139396305461e-10,9.5843034934366e-09,1.0732496976263e-07,-7.775544079526e-08,-1.8116576671274e-09,1.467780135313e-09,2.5857427639344e-10,-2.2712843637336e-07,1.7302728893349e-08,-3.996779430446e-07,1.9523733741581e-09,5.802011758871e-08,-1.4783755099109e-08,-8.5012458092604e-10,1.1416432128541e-09,8.5364612404057e-09,9.4973992710325e-10,-3.5164374131889e-07,-4.6301569260786e-09,-8.0962843796142e-10,1.7949460298876e-08,-1.4234279151938e-07,-1.7421444885002e-10,-2.0340210866341e-10,1.9733312550264e-09,-6.3264188105932e-07,-1.0702643503325e-09,-8.6767210784195e-10,-1.3129050653581e-08,-2.0235602192185e-09,4.321607996564e-09,1.3098838000647e-08,124.52252896804,124.52252896804,124.52252896804,124.52252896804,124.52252896804,124.52252896804,124.52252896804,124.52252896804,124.52252896804,124.52252896804,124.52252896804,124.52252896804,124.52252896804,124.52252896804,124.52252896804,124.52252896804,124.52252896804,124.52252896804,124.52252896804,124.52252896804,124.52252896804,124.52252896804,124.52252896804,124.52252896804,124.52252896804,124.52252896804,124.52252896804,124.52252896804,124.52252896804,124.52252896804,124.52252896804,124.52252896804,124.52252896804,124.52252896804,124.52252896804,124.52252896804,124.52252896804,124.52252896804,124.52252896804,124.52252896804,124.52252896804,124.52252896804,124.52252896804,124.52252896804,124.52252896804,124.52252896804,124.52252896804,124.52252896804,3.9651048933382e-08,66.678117909999,-0.00015291323705186,64.705341606504,-0.00024211929108584,0
3.75e-06,20000000,2.5773735142859e-07,1.1130223363589e-06,2.2898059605047e-07,1.0000000000381,0,0,0,0,0,0,0,0,0,0,0,0,0,0,0,0,0,0,0,0,0,0,0,0,0,0,0,0,0,0,0,0,0,0,0,0,0,0,0,0,0,0,0,0,0,0,0,0,-1.1243496768251e-06,-5.6875063269762e-09,-7.6513464287143e-07,-3.262515984452e-07,2.4732879570275e-07,4.3928285869379e-06,-1.8208093472861e-06,1.0162421433496e-08,7.2142506964915e-08,2.1318960427074e-08,2.3030896451583e-07,-2.0203932684935e-05,-4.7695430782165e-10,-1.3654692599288e-08,3.258268042086e-07,-1.6546451189495e-05,-3.5736662484826e-08,3.6766978611821e-07,4.1116393792569e-06,-2.9840396679133e-06,-6.9471623563577e-08,5.6311582918086e-08,9.9186689458442e-09,-8.7090563406125e-06,6.637150635197e-07,-1.529501282799e-05,7.4904361573321e-08,2.2225727863279e-06,-5.6735603810717e-07,-3.2605545116911e-08,4.3801330550837e-08,3.2737144737292e-07,3.6434934696792e-08,-1.345277816422e-05,-1.7753501155788e-07,-3.1046810561464e-08,6.8855492181124e-07,-5.4572488888763e-06,-6.6867156251863e-09,-7.7900212591553e-09,7.5700372955145e-08,-2.4256193112584e-05,-4.1062416614561e-08,-3.3285708210667e-08,-5.0360959064669e-07,-7.748235442074e-08,1.6578334041194e-07,5.0172793082604e-07,124.52252896804,124.52252896804,124.52252896804,124.52252896804,124.52252896804,124.52252896804,124.52252896804,124.52252896804,124.52252896804,124.52252896804,124.52252896804,124.52252896804,124.52252896804,124.52252896804,124.52252896804,124.52252896804,124.52252896804,124.52252896804,124.52252896804,124.52252896804,124.52252896804,124.52252896804,124.52252896804,124.52252896804,124.52252896804,124.52252896804,124.52252896804,124.52252896804,124.52252896804,124.52252896804,124.52252896804,124.52252896804,124.52252896804,124.52252896804,124.52252896804,124.52252896804,124.52252896804,124.52252896804,124.52252896804,124.52252896804,124.52252896804,124.52252896804,124.52252896804,124.52252896804,124.52252896804,124.52252896804,124.52252896804,124.52252896804,3.4408742112068e-06,80.024303169442,-0.0002201708375636,77.65710484647,-0.00034860889851569,0
4.0625e-06,20000000,2.7921893821194e-07,1.2057741218362e-06,2.4806681624677e-07,1.00000000013,0,0,0,0,0,0,0,0,0,0,0,0,0,0,0,0,0,0,0,0,0,0,0,0,0,0,0,0,0,0,0,0,0,0,0,0,0,0,0,0,0,0,0,0,0,0,0,0,-5.5445017968036e-06,-2.8198872381882e-08,-3.7937874400797e-06,-1.586622887823e-06,1.2264621959814e-06,2.175947856022e-05,-9.0295971430851e-06,5.0398523949348e-08,3.577700930896e-07,1.0566739963918e-07,1.1420201703556e-06,-9.9630580725501e-05,-2.365151577977e-09,-6.7693721077192e-08,1.6156701568281e-06,-8.1945442928336e-05,-1.7722313559488e-07,1.8232097269695e-06,2.0366956561551e-05,-1.4797619753075e-05,-3.4442835390456e-07,2.792408990037e-07,4.9183508808677e-08,-4.3139915534352e-05,3.2910525906968e-06,-7.5456000528926e-05,3.7145559275685e-07,1.1008921333333e-05,-2.8136286263975e-06,-1.6166500412561e-07,2.1722059652466e-07,1.6220560680758e-06,1.8067222664605e-07,-6.6324546118269e-05,-8.7963431672708e-07,-1.5392587024045e-07,3.4142893892705e-06,-2.7025501422587e-05,-3.3158210134135e-08,-3.8511267188397e-08,3.7537590994439e-07,-0.00012013496622919,-2.0363252758257e-07,-1.6504712023193e-07,-2.4971414481981e-06,-3.8365818672855e-07,8.2209281141146e-07,2.4848902401299e-06,124.52252896804,124.52252896804,124.52252896804,124.52252896804,124.52252896804,124.52252896804,124.52252896804,124.52252896804,124.52252896804,124.52252896804,124.52252896804,124.52252896804,124.52252896804,124.52252896804,124.52252896804,124.52252896804,124.52252896804,124.52252896804,124.52252896804,124.52252896804,124.52252896804,124.52252896804,124.52252896804,124.52252896804,124.52252896804,124.52252896804,124.52252896804,124.52252896804,124.52252896804,124.52252896804,124.52252896804,124.52252896804,124.52252896804,124.52252896804,124.52252896804,124.52252896804,124.52252896804,124.52252896804,124.52252896804,124.52252896804,124.52252896804,124.52252896804,124.52252896804,124.52252896804,124.52252896804,124.52252896804,124.52252896804,124.52252896804,0.00013182102974996,86.698694850237,-0.00025727543743757,84.134304920764,-0.000408754507546,0
4.375e-06,20001400.566373,3.0070015052335e-07,1.298525924556e-06,2.6715396927312e-07,1.0000000005303,0,0,0,0,0,0,0,0,0,0,0,0,0,0,0,0,0,0,0,0,0,0,0,0,0,0,0,0,0,0,0,0,0,0,0,0,0,0,0,0,0,0,0,0,0,0,0,0,-2.3917589185825e-05,-1.2412751319179e-07,-1.6703964288525e-05,-6.5080081647847e-06,5.4011283959465e-06,9.5601283501603e-05,-3.9742706323255e-05,2.219850057062e-07,1.5757077743826e-06,4.6447015072504e-07,5.0284633191637e-06,-0.00042976783559279,-1.0414895479048e-08,-2.9802900832925e-07,7.1141382207826e-06,-0.00035896981471346,-7.8042224714551e-07,8.0291736557391e-06,8.9484244013144e-05,-6.511928189151e-05,-1.5163826184117e-06,1.2295873259298e-06,2.1659485076295e-07,-0.00018912740063584,1.4490701916263e-05,-0.00032601755767509,1.6358922795979e-06,4.8365651850599e-05,-1.2385445958405e-05,-7.1180983064855e-07,9.5674424996847e-07,7.1186725654624e-06,7.9554228639854e-07,-0.00028586356613471,-3.8614524619433e-06,-6.7772832359449e-07,1.5033739738137e-05,-0.00011836705412075,-1.4588387321629e-07,-1.677470889024e-07,1.6528763912956e-06,-0.00052638986015336,-8.9678387322986e-07,-7.2658971476756e-07,-1.0995253252499e-05,-1.684372573437e-06,3.6204615596987e-06,1.091306739855e-05,124.52252899191,124.52252899191,124.52252899191,124.52252899191,124.52252899191,124.52252899191,124.52252899191,124.52252899191,124.52252899191,124.52252899191,124.52252899191,124.52252899191,124.52252899191,124.52252899191,124.52252899191,124.52252899191,124.52252899191,124.52252899191,124.52252899191,124.52252899191,124.52252899191,124.52252899191,124.52252899191,124.52252899191,124.52252899191,124.52252899191,124.52252899191,124.52252899191,124.52252899191,124.52252899191,124.52252899191,124.52252899191,124.52252899191,124.52252899191,124.52252899191,124.52252899191,124.52252899191,124.52252899191,124.52252899191,124.52252899191,124.52252899191,124.52252899191,124.52252899191,124.52252899191,124.52252899191,124.52252899191,124.52252899191,124.52252899191,0.00065188171031312,93.373876461493,-0.00029965146558206,90.612312839377,-0.0004744402192066,0
4.6875e-06,20009851.401442,3.2218039428723e-07,1.3912778273401e-06,2.8624431105186e-07,1.0000000020734,0,0,0,0,0,0,0,0,0,0,0,0,0,0,0,0,0,0,0,0,0,0,0,0,0,0,0,0,0,0,0,0,0,0,0,0,0,0,0,0,0,0,0,0,0,0,0,0,-8.9892639314948e-05,-4.9279259590313e-07,-6.6375725273201e-05,-2.108629151283e-05,2.1472477339207e-05,0.00037732028880106,-0.0001575687633165,8.8302146661051e-07,6.2652632678208e-06,1.8341809218796e-06,1.9979527754753e-05,-0.0016152611270361,-4.139007358422e-08,-1.1844674932465e-06,2.8267927447533e-05,-0.0014001129191119,-3.1016043354712e-06,3.1921932024645e-05,0.00035318039155525,-0.00025801750411657,-6.0254146035506e-06,4.8854815225657e-06,8.6116694342108e-07,-0.00073973483819025,5.7576768317318e-05,-0.0012308972467712,6.5037044531513e-06,0.00019086457429796,-4.9130907775151e-05,-2.8284071703001e-06,3.8049968835025e-06,2.7948203012458e-05,3.1609437167762e-06,-0.0010719094596601,-1.5180023306628e-05,-2.693790507115e-06,5.973612846564e-05,-0.00046138868626131,-5.7803478381055e-07,-6.4771818743405e-07,6.5678829571086e-06,-0.002054883089432,-3.5650306070844e-06,-2.8849080082727e-06,-4.3691025908066e-05,-6.6332668445223e-06,1.4395225261021e-05,4.3012705854361e-05,124.52252913871,124.52252913871,124.52252913871,124.52252913871,124.52252913871,124.52252913871,124.52252913871,124.52252913871,124.52252913871,124.52252913871,124.52252913871,124.52252913871,124.52252913871,124.52252913871,124.52252913871,124.52252913871,124.52252913871,124.52252913871,124.52252913871,124.52252913871,124.52252913871,124.52252913871,124.52252913871,124.52252913871,124.52252913871,124.52252913871,124.52252913871,124.52252913871,124.52252913871,124.52252913871,124.52252913871,124.52252913871,124.52252913871,124.52252913871,124.52252913871,124.52252913871,124.52252913871,124.52252913871,124.52252913871,124.52252913871,124.52252913871,124.52252913871,124.52252913871,124.52252913871,124.52252913871,124.52252913871,124.52252913871,124.52252913871,0.0028414517422397,100.04959566419,-0.00034397548073074,97.090901629857,-0.00054461691101713,0
5e-06,20038871.824475,3.4365856581618e-07,1.4840301055816e-06,3.0534476828147e-07,1.0000000073412,0,0,0,0,0,0,0,0,0,0,0,0,0,0,0,0,0,0,0,0,0,0,0,0,0,0,0,0,0,0,0,0,0,0,0,0,0,0,0,0,0,0,0,0,0,0,0,0,-0.00029725902393851,-1.7849204234589e-06,-0.00024103454804883,-5.2060761311575e-05,7.8086591620408e-05,0.0013414815568239,-0.00056752984794713,3.2186198222573e-06,2.2791720952788e-05,6.5333687814181e-06,7.2518664679428e-05,-0.0053412624333676,-1.5031592134644e-07,-4.3061306489888e-06,0.00010261657393766,-0.0047980494827692,-1.1271350967528e-05,0.00011610642485739,0.0012556401078955,-0.00092736624307825,-2.1882979792454e-05,1.7731557902804e-05,3.1330639641799e-06,-0.0025570631228612,0.00020900812871332,-0.0041021393296836,2.3650336222352e-05,0.00067831999442151,-0.0001772756966902,-1.0267915680159e-05,1.3851336368023e-05,9.7741235318611e-05,1.1472770989966e-05,-0.0035302272523043,-5.3351143785911e-05,-9.7941355506255e-06,0.00021685229764029,-0.0015781205676934,-2.0880892053951e-06,-2.2452650325745e-06,2.3844638627083e-05,-0.0070607634183325,-1.2962460481213e-05,-1.0448734452357e-05,-0.00015863815276336,-2.3425343166886e-05,5.2372930395766e-05,0.00015223594734657,124.52253112718,124.52253112718,124.52253112718,124.52253112718,124.52253112718,124.52253112718,124.52253112718,124.52253112718,124.52253112718,124.52253112718,124.52253112718,124.52253112718,124.52253112718,124.52253112718,124.52253112718,124.52253112718,124.52253112718,124.52253112718,124.52253112718,124.52253112718,124.52253112718,124.52253112718,124.52253112718,124.52253112718,124.52253112718,124.52253112718,124.52253112718,124.52253112718,124.52253112718,124.52253112718,124.52253112718,124.52253112718,124.52253112718,124.52253112718,124.52253112718,124.52253112718,124.52253112718,124.52253112718,124.52253112718,124.52253112718,124.52253112718,124.52253112718,124.52253112718,124.52253112718,124.52253112718,124.52253112718,124.52253112718,124.52253112718,0.010966560853084,106.72507979566,-0.00039125317201602,103.5693656147,-0.00061969444754658,0
5.3125e-06,20106500.904854,3.6513325374918e-07,1.5767834704891e-06,3.2447660633778e-07,1.0000000233221,0,0,0,0,0,0,0,0,0,0,0,0,0,0,0,0,0,0,0,0,0,0,0,0,0,0,0,0,0,0,0,0,0,0,0,0,0,0,0,0,0,0,0,0,0,0,0,0,-0.00090808321890378,-5.9471883408732e-06,-0.00080699281935744,-0.00012665587654067,0.00026254768370593,0.0042308900858067,-0.0018548708230869,1.0904068099151e-05,7.6693165096348e-05,2.0881531722708e-05,0.00024244422439893,-0.016283968182272,-5.0314313760065e-07,-1.4477296116077e-05,0.00034313413791422,-0.013907570045951,-3.7865686008552e-05,0.000390567118534,0.0039596490019575,-0.0030138162007732,-7.3295981433192e-05,5.9294474797555e-05,1.0549778908513e-05,-0.0075740878171545,0.00069900515165548,-0.012589154292573,7.9504880477685e-05,0.0021371429520575,-0.00058219347455588,-3.4330319433678e-05,4.6686983452363e-05,0.00029808740080744,3.835241624663e-05,-0.010728727232283,-0.00016542419748567,-3.2927291026013e-05,0.00072514326715359,-0.004552877426442,-6.959814166763e-06,-7.2042530812877e-06,7.9756716077508e-05,-0.020604596821949,-4.3575378471006e-05,-3.4730050473453e-05,-0.00053083512900678,-7.2459282570464e-05,0.00017631461445155,0.00047359172588757,124.52254034439,124.52254034439,124.52254034439,124.52254034439,124.52254034439,124.52254034439,124.52254034439,124.52254034439,124.52254034439,124.52254034439,124.52254034439,124.52254034439,124.52254034439,124.52254034439,124.52254034439,124.52254034439,124.52254034439,124.52254034439,124.52254034439,124.52254034439,124.52254034439,124.52254034439,124.52254034439,124.52254034439,124.52254034439,124.52254034439,124.52254034439,124.52254034439,124.52254034439,124.52254034439,124.52254034439,124.52254034439,124.52254034439,124.52254034439,124.52254034439,124.52254034439,124.52254034439,124.52254034439,124.52254034439,124.52254034439,124.52254034439,124.52254034439,124.52254034439,124.52254034439,124.52254034439,124.52254034439,124.52254034439,124.52254034439,0.03749212424298,113.39826654768,-0.00044221646737227,110.04580793127,-0.00069952353614901,0
5.625e-06,20218521.646594,3.8660420860321e-07,1.6695392846942e-06,3.4370364872621e-07,1.0000000665211,0,0,0,0,0,0,0,0,0,0,0,0,0,0,0,0,0,0,0,0,0,0,0,0,0,0,0,0,0,0,0,0,0,0,0,0,0,0,0,0,0,0,0,0,0,0,0,0,-0.0026542320593281,-1.838377042791e-05,-0.0025009270616405,-0.0004873902425148,0.00082304188061882,0.011402192750853,-0.0054212053051528,3.484216000044e-05,0.00024085531617226,5.9978443329882e-05,0.00074902965095751,-0.047257277017949,-1.556254528507e-06,-4.5425137196619e-05,0.0010594685553158,-0.033143425768579,-0.00011866839140962,0.0012257456189592,0.010663062953877,-0.0087109961172811,-0.00022729302127521,0.00018375557494726,3.3216901456356e-05,-0.018797747843194,0.0021609894652602,-0.036574203656351,0.00024916128652498,0.0057464318748012,-0.0017179409997895,-0.00010596441842584,0.00014703663882016,0.00078208995943155,0.00011849968163964,-0.031156035216553,-0.00045325776138623,-0.00010329604087994,0.0022390310432866,-0.010759386394137,-2.1630764538474e-05,-2.183909471755e-05,0.00024647576644351,-0.049732776793311,-0.00013663604150596,-0.00010575807707025,-0.0016420089501054,-0.00018556741104541,0.00055436918173862,0.0012278742916186,124.52257388398,124.52257388398,124.52257388398,124.52257388398,124.52257388398,124.52257388398,124.52257388398,124.52257388398,124.52257388398,124.52257388398,124.52257388398,124.52257388398,124.52257388398,124.52257388398,124.52257388398,124.52257388398,124.52257388398,124.52257388398,124.52257388398,124.52257388398,124.52257388398,124.52257388398,124.52257388398,124.52257388398,124.52257388398,124.52257388398,124.52257388398,124.52257388398,124.52257388398,124.52257388398,124.52257388398,124.52257388398,124.52257388398,124.52257388398,124.52257388398,124.52257388398,124.52257388398,124.52257388398,124.52257388398,124.52257388398,124.52257388398,124.52257388398,124.52257388398,124.52257388398,124.52257388398,124.52257388398,124.52257388398,124.52257388398,0.1136572853838,120.06442887656,-0.00049647198418206,116.51581722431,-0.00078435981465008,0
5.9375e-06,20365407.486924,4.0807783931658e-07,1.7622996206e-06,3.6318890783854e-07,1.0000001721853,0,0,0,0,0,0,0,0,0,0,0,0,0,0,0,0,0,0,0,0,0,0,0,0,0,0,0,0,0,0,0,0,0,0,0,0,0,0,0,0,0,0,0,0,0,0,0,0,-0.0073572967257287,-5.3257444692701e-05,-0.0071484840538703,-0.0023211165571999,0.0024193376212479,0.025342851717635,-0.013779702455313,0.00010664799924859,0.00071069862194307,0.00015909857267204,0.0021326440185991,-0.12923487633022,-4.4162397790968e-06,-0.00013405196429915,0.0030045761050745,-0.066987483000187,-0.00034945283748953,0.0036114777690784,0.023617915419144,-0.021800962010327,-0.0006485588375509,0.00053137381414015,9.8707440442362e-05,-0.040224957787144,0.0061547730027275,-0.099605319162031,0.00073248299682699,0.012727033424257,-0.0044252021942407,-0.00030045264930938,0.00043528948982195,0.0018169076240274,0.00033786634921208,-0.085600232067305,-0.001138482623554,-0.00030475546998841,0.0063497033696835,-0.021525634366955,-6.3199622998657e-05,-6.2400074115858e-05,0.0007004507807125,-0.10233140759862,-0.00040246493586334,-0.00029194844159811,-0.0046755895758793,-0.00036555224100851,0.0016396277979096,0.0024631971263662,124.52268009199,124.52268009199,124.52268009199,124.52268009199,124.52268009199,124.52268009199,124.52268009199,124.52268009199,124.52268009199,124.52268009199,124.52268009199,124.52268009199,124.52268009199,124.52268009199,124.52268009199,124.52268009199,124.52268009199,124.52268009199,124.52268009199,124.52268009199,124.52268009199,124.52268009199,124.52268009199,124.52268009199,124.52268009199,124.52268009199,124.52268009199,124.52268009199,124.52268009199,124.52268009199,124.52268009199,124.52268009199,124.52268009199,124.52268009199,124.52268009199,124.52268009199,124.52268009199,124.52268009199,124.52268009199,124.52268009199,124.52268009199,124.52268009199,124.52268009199,124.52268009199,124.52268009199,124.52268009199,124.52268009199,124.52268009199,0.30588219686536,126.71387761804,-0.00055477450408568,122.97018501859,-0.00087423681236021,0
6.25e-06,20534498.301847,4.2957610977961e-07,1.8550672036333e-06,3.8325755333731e-07,1.0000004090561,0,0,0,0,0,0,0,0,0,0,0,0,0,0,0,0,0,0,0,0,0,0,0,0,0,0,0,0,0,0,0,0,0,0,0,0,0,0,0,0,0,0,0,0,0,0,0,0,-0.018770031886992,-0.00014570136862675,-0.018573984999292,-0.0090031806090049,0.0066813324498097,0.046480727232708,-0.029613772995522,0.00031731408959974,0.0019788829279203,0.00040156469572994,0.0055351621040178,-0.32303717250173,-1.129175470783e-05,-0.00037429778517827,0.0077545996410465,-0.1214858739582,-0.00097223220789536,0.010018238709575,0.04280843210264,-0.046136770595936,-0.0016617708506479,0.0014484124557514,0.00027869967242557,-0.077824188377419,0.015949607611277,-0.24689919355796,0.0020263514790837,0.023273668804191,-0.0096258793556434,-0.00077738477089432,0.0012149840967746,0.0038998152719931,0.00088104768972571,-0.21571936133151,-0.0026931813894074,-0.00085087212178578,0.016401143061804,-0.038730658549867,-0.00017462503853276,-0.00016580265562833,0.0018130961168066,-0.18930150719138,-0.0011194853252299,-0.00072453086153143,-0.012180225969967,-0.00050290230742154,0.0045818352886516,0.0034122580075044,124.52298677432,124.52298677432,124.52298677432,124.52298677432,124.52298677432,124.52298677432,124.52298677432,124.52298677432,124.52298677432,124.52298677432,124.52298677432,124.52298677432,124.52298677432,124.52298677432,124.52298677432,124.52298677432,124.52298677432,124.52298677432,124.52298677432,124.52298677432,124.52298677432,124.52298677432,124.52298677432,124.52298677432,124.52298677432,124.52298677432,124.52298677432,124.52298677432,124.52298677432,124.52298677432,124.52298677432,124.52298677432,124.52298677432,124.52298677432,124.52298677432,124.52298677432,124.52298677432,124.52298677432,124.52298677432,124.52298677432,124.52298677432,124.52298677432,124.52298677432,124.52298677432,124.52298677432,124.52298677432,124.52298677432,124.52298677432,0.74274792142137,133.32841869149,-0.00061775560857902,129.39135414956,-0.00096939942701333,0
6.5625e-06,20717307.866417,4.5113164515597e-07,1.9478450300152e-06,4.0438938329497e-07,1.000000893519,0,0,0,0,0,0,0,0,0,0,0,0,0,0,0,0,0,0,0,0,0,0,0,0,0,0,0,0,0,0,0,0,0,0,0,0,0,0,0,0,0,0,0,0,0,0,0,0,-0.042548242791597,-0.00037953774244976,-0.042781808163099,-0.025576565587356,0.017267766411071,0.072885002091659,-0.053745973265084,0.00091675207607585,0.005207729672565,0.00097233770940279,0.012793122023104,-0.71472720635679,-2.545715635815e-05,-0.00099184519752388,0.018178431124253,-0.20394192169995,-0.0025639978846532,0.026107143295726,0.065044623733376,-0.083003603446524,-0.0036540376109116,0.0037556222752876,0.00074821119069444,-0.13954252136795,0.036726545262713,-0.54019577539358,0.0052565028057952,0.036548498286393,-0.017531966117135,-0.0018488082862596,0.0031961978978267,0.0079100214919573,0.0020531112614738,-0.48216963595261,-0.0059341551996077,-0.0022561323308429,0.038624650925442,-0.064826414787971,-0.00045697522152765,-0.00040290690129747,0.0042518105063728,-0.32401477997469,-0.0029500423181158,-0.001649109679272,-0.029163698577487,-0.00029521680161914,0.012100593237038,0.0017021713165367,124.52373926455,124.52373926455,124.52373926455,124.52373926455,124.52373926455,124.52373926455,124.52373926455,124.52373926455,124.52373926455,124.52373926455,124.52373926455,124.52373926455,124.52373926455,124.52373926455,124.52373926455,124.52373926455,124.52373926455,124.52373926455,124.52373926455,124.52373926455,124.52373926455,124.52373926455,124.52373926455,124.52373926455,124.52373926455,124.52373926455,124.52373926455,124.52373926455,124.52373926455,124.52373926455,124.52373926455,124.52373926455,124.52373926455,124.52373926455,124.52373926455,124.52373926455,124.52373926455,124.52373926455,124.52373926455,124.52373926455,124.52373926455,124.52373926455,124.52373926455,124.52373926455,124.52373926455,124.52373926455,124.52373926455,124.52373926455,1.6514732680737,139.87814601381,-0.00068608999947453,135.75017030492,-0.001070249638419,0
6.875e-06,20910011.712589,4.7274165853772e-07,2.0406361633354e-06,4.2706359814178e-07,1.0000017891266,0,0,0,0,0,0,0,0,0,0,0,0,0,0,0,0,0,0,0,0,0,0,0,0,0,0,0,0,0,0,0,0,0,0,0,0,0,0,0,0,0,0,0,0,0,0,0,0,-0.083151613537177,-0.00095033254863386,-0.085316261361706,-0.053100050428773,0.04131457145387,0.10279463614429,-0.085498165991353,0.0024770004380823,0.012928150406933,0.0022141766099478,0.025517115750673,-1.3686319609845,-4.9948942589899e-05,-0.0024901287463035,0.039088201832772,-0.32233032301007,-0.0064122987990149,0.063370601350331,0.085347851386462,-0.13272723598241,-0.0065580165255633,0.0092911233735166,0.001892182241575,-0.23554509505017,0.073089317136898,-1.023102652201,0.012599512134929,0.05214698771607,-0.027567485546851,-0.0041276054453597,0.0078864585943899,0.015291786103419,0.004127185622309,-0.9317576113661,-0.011926267283799,-0.0056789322967294,0.08395228665921,-0.10257820259179,-0.0011263705956677,-0.00088659768146448,0.0090904349562298,-0.52174949458052,-0.0073668275446245,-0.0036294803891493,-0.065032378397507,0.00086897163463785,0.030035305892256,-0.0075943261280789,124.52533599887,124.52533599887,124.52533599887,124.52533599887,124.52533599887,124.52533599887,124.52533599887,124.52533599887,124.52533599887,124.52533599887,124.52533599887,124.52533599887,124.52533599887,124.52533599887,124.52533599887,124.52533599887,124.52533599887,124.52533599887,124.52533599887,124.52533599887,124.52533599887,124.52533599887,124.52533599887,124.52533599887,124.52533599887,124.52533599887,124.52533599887,124.52533599887,124.52533599887,124.52533599887,124.52533599887,124.52533599887,124.52533599887,124.52533599887,124.52533599887,124.52533599887,124.52533599887,124.52533599887,124.52533599887,124.52533599887,124.52533599887,124.52533599887,124.52533599887,124.52533599887,124.52533599887,124.52533599887,124.52533599887,124.52533599887,3.3534248184246,146.32210331815,-0.00076058036903152,142.0064842002,-0.0011771932734117,0
7.1875e-06,21111168.287905,4.9428908980812e-07,2.1334442427853e-06,4.5151058911348e-07,1.0000032823285,0,0,0,0,0,0,0,0,0,0,0,0,0,0,0,0,0,0,0,0,0,0,0,0,0,0,0,0,0,0,0,0,0,0,0,0,0,0,0,0,0,0,0,0,0,0,0,0,-0.13847881681929,-0.0022748150213588,-0.14767845898739,-0.080420617666919,0.090285443614167,0.13592032062268,-0.12578391552906,0.0058944542797657,0.030127969635872,0.0044918735799556,0.04341532318268,-2.2541917591898,-8.3962363263193e-05,-0.0058716724442591,0.078422098105868,-0.48468768924729,-0.015155555222317,0.14156954985864,0.096711423376299,-0.20012155680765,-0.0093926686086866,0.021835827591845,0.0044265405134144,-0.37796691800138,0.12497581746912,-1.6708619215668,0.027328498650062,0.071027207203165,-0.039385547813641,-0.0087757447619391,0.018133191726421,0.027695239726864,0.0070350932446016,-1.5434336199999,-0.021882593385023,-0.013480278429693,0.17067797274248,-0.15473309636757,-0.0025776662319179,-0.0017795352995932,0.018066235988548,-0.79910427782323,-0.017367177980881,-0.0080673714198438,-0.13583129856083,0.0042110843148148,0.069305759824873,-0.033649567587433,124.52834372692,124.52834372692,124.52834372692,124.52834372692,124.52834372692,124.52834372692,124.52834372692,124.52834372692,124.52834372692,124.52834372692,124.52834372692,124.52834372692,124.52834372692,124.52834372692,124.52834372692,124.52834372692,124.52834372692,124.52834372692,124.52834372692,124.52834372692,124.52834372692,124.52834372692,124.52834372692,124.52834372692,124.52834372692,124.52834372692,124.52834372692,124.52834372692,124.52834372692,124.52834372692,124.52834372692,124.52834372692,124.52834372692,124.52834372692,124.52834372692,124.52834372692,124.52834372692,124.52834372692,124.52834372692,124.52834372692,124.52834372692,124.52834372692,124.52834372692,124.52834372692,124.52834372692,124.52834372692,124.52834372692,124.52834372692,6.1697751115705,152.6151344804,-0.00084188916170353,148.11586289164,-0.0012905174192213,0
7.5e-06,21319705.197284,5.1549917717209e-07,2.2262740535474e-06,4.7756865047935e-07,1.0000055559751,0,0,0,0,0,0,0,0,0,0,0,0,0,0,0,0,0,0,0,0,0,0,0,0,0,0,0,0,0,0,0,0,0,0,0,0,0,0,0,0,0,0,0,0,0,0,0,0,-0.19894588618863,-0.0050628499708087,-0.23054639566023,-0.081313347178963,0.17902590494431,0.1717998170025,-0.17875801281242,0.011946153884529,0.065559776387573,0.0077079491026847,0.064964198540367,-3.2308673773477,-0.0001069985286435,-0.012819169721612,0.14864790160889,-0.69732532852694,-0.033586041970643,0.2887467059383,0.086939559254878,-0.2971035873456,-0.011043501133229,0.048267694921375,0.0094423857292323,-0.57882452040147,0.1899013138245,-2.3804375704884,0.053047789936786,0.095041459893821,-0.053618330371729,-0.017666266553921,0.038748222682888,0.0455224248536,0.010458043911874,-2.2171845801395,-0.037698120699995,-0.029814010095579,0.3262437584982,-0.22366144047367,-0.0053253520236144,-0.0033152808137514,0.033995215141007,-1.1713303847967,-0.03835112717992,-0.018060702661497,-0.26421419132628,0.012122905765921,0.14702629936372,-0.092174445622292,124.53341923707,124.53341923707,124.53341923707,124.53341923707,124.53341923707,124.53341923707,124.53341923707,124.53341923707,124.53341923707,124.53341923707,124.53341923707,124.53341923707,124.53341923707,124.53341923707,124.53341923707,124.53341923707,124.53341923707,124.53341923707,124.53341923707,124.53341923707,124.53341923707,124.53341923707,124.53341923707,124.53341923707,124.53341923707,124.53341923707,124.53341923707,124.53341923707,124.53341923707,124.53341923707,124.53341923707,124.53341923707,124.53341923707,124.53341923707,124.53341923707,124.53341923707,124.53341923707,124.53341923707,124.53341923707,124.53341923707,124.53341923707,124.53341923707,124.53341923707,124.53341923707,124.53341923707,124.53341923707,124.53341923707,124.53341923707,10.26799516057,158.71520133445,-0.00093040860775306,154.03678429037,-0.0014102204468343,0
7.8125e-06,21534852.317617,5.3599911047576e-07,2.3191316058626e-06,5.0479279613188e-07,1.0000087975448,0,0,0,0,0,0,0,0,0,0,0,0,0,0,0,0,0,0,0,0,0,0,0,0,0,0,0,0,0,0,0,0,0,0,0,0,0,0,0,0,0,0,0,0,0,0,0,0,-0.25357004279011,-0.01018639758733,-0.3419547533205,-0.020377362803229,0.32334560363153,0.20822155602543,-0.25117450267555,0.02087033429373,0.13252816414219,0.011194051619603,0.090501587433432,-4.1304887131579,-2.6770490328375e-05,-0.025715597562618,0.26617639427996,-0.96599573242078,-0.069011538349396,0.53792661418204,0.036061737214997,-0.44134406776399,-0.011650750634453,0.099033212900726,0.018385798218759,-0.85012361032367,0.27104917892579,-3.0272787107124,0.092579533153227,0.12646334931437,-0.071958327992161,-0.033028122210389,0.077029327653372,0.067518126085233,0.014378082322196,-2.8346205409839,-0.062911639371423,-0.061005110590905,0.58416059964746,-0.31219144178968,-0.0094308852625679,-0.0058134440803369,0.06070427955915,-1.6537762202784,-0.078606738911093,-0.039477910493195,-0.47471880071824,0.028884392058573,0.28546740485158,-0.20750803723244,124.54124685596,124.54124685596,124.54124685596,124.54124685596,124.54124685596,124.54124685596,124.54124685596,124.54124685596,124.54124685596,124.54124685596,124.54124685596,124.54124685596,124.54124685596,124.54124685596,124.54124685596,124.54124685596,124.54124685596,124.54124685596,124.54124685596,124.54124685596,124.54124685596,124.54124685596,124.54124685596,124.54124685596,124.54124685596,124.54124685596,124.54124685596,124.54124685596,124.54124685596,124.54124685596,124.54124685596,124.54124685596,124.54124685596,124.54124685596,124.54124685596,124.54124685596,124.54124685596,124.54124685596,124.54124685596,124.54124685596,124.54124685596,124.54124685596,124.54124685596,124.54124685596,124.54124685596,124.54124685596,124.54124685596,124.54124685596,15.648378800117,164.58161207975,-0.0010261758070741,159.72904846915,-0.0015359729042007,0
8.125e-06,21756993.968421,5.55444343474e-07,2.4120236999304e-06,5.3269445215203e-07,1.000013234996,0,0,0,0,0,0,0,0,0,0,0,0,0,0,0,0,0,0,0,0,0,0,0,0,0,0,0,0,0,0,0,0,0,0,0,0,0,0,0,0,0,0,0,0,0,0,0,0,-0.2959542758661,-0.018416758666758,-0.49823784932572,0.13690989082175,0.53619690855045,0.24067225940442,-0.35004622138463,0.032428300645877,0.24733054360553,0.014399659033937,0.12319698731229,-4.8485028181747,0.00042506705409871,-0.048053386551398,0.4482395883326,-1.2940153353409,-0.13002204182591,0.9201900509745,-0.083510932683026,-0.65155859636318,-0.012887061832489,0.1863156797992,0.032992673074587,-1.2018383115357,0.37931685430549,-3.5298882536138,0.14678329269605,0.16765550834922,-0.096755568405104,-0.056628677448521,0.14218391131173,0.092561572714853,0.019290715903661,-3.324034881366,-0.10292945832005,-0.11662946053939,0.97672540159919,-0.42325678654331,-0.012827047955904,-0.0097833790536512,0.10218998805163,-2.2569152400973,-0.14851896280387,-0.082329785909331,-0.78685729948807,0.061384848562156,0.50836452841357,-0.41285103733345,124.5525552257,124.5525552257,124.5525552257,124.5525552257,124.5525552257,124.5525552257,124.5525552257,124.5525552257,124.5525552257,124.5525552257,124.5525552257,124.5525552257,124.5525552257,124.5525552257,124.5525552257,124.5525552257,124.5525552257,124.5525552257,124.5525552257,124.5525552257,124.5525552257,124.5525552257,124.5525552257,124.5525552257,124.5525552257,124.5525552257,124.5525552257,124.5525552257,124.5525552257,124.5525552257,124.5525552257,124.5525552257,124.5525552257,124.5525552257,124.5525552257,124.5525552257,124.5525552257,124.5525552257,124.5525552257,124.5525552257,124.5525552257,124.5525552257,124.5525552257,124.5525552257,124.5525552257,124.5525552257,124.5525552257,124.5525552257,22.374009896144,170.16647045735,-0.0011288866330541,165.14550454122,-0.0016671947737962,0
8.4375e-06,21987964.764799,5.7361556063219e-07,2.5049571010577e-06,5.6089706338821e-07,1.0000191566158,0,0,0,0,0,0,0,0,0,0,0,0,0,0,0,0,0,0,0,0,0,0,0,0,0,0,0,0,0,0,0,0,0,0,0,0,0,0,0,0,0,0,0,0,0,0,0,0,-0.32512084795051,-0.030206317504551,-0.71444300437989,0.41614432239765,0.82121237629053,0.26352790467036,-0.47976892992088,0.045950887059855,0.42395684875249,0.017296740386803,0.16671611422582,-5.3629712107684,0.0018579120018319,-0.085979229166608,0.70831985219119,-1.6751000867935,-0.22245473981772,1.4518299349299,-0.30065938907276,-0.94149578298124,-0.017224770378912,0.31952020072905,0.05491646409881,-1.6348702396646,0.52602478226323,-3.8656391457247,0.21306877130024,0.22044937763077,-0.13031677905522,-0.089172540688127,0.24239910228339,0.12059013400496,0.025890605422872,-3.6723549703701,-0.16425550239526,-0.21234411765222,1.5270462783457,-0.55741911377592,-0.0082132180148397,-0.016321359198706,0.16122399555545,-2.9725299642366,-0.25744758670171,-0.16213347715461,-1.2103184900246,0.11960781591235,0.83310709345987,-0.74422002939721,124.56824389616,124.56824389616,124.56824389616,124.56824389616,124.56824389616,124.56824389616,124.56824389616,124.56824389616,124.56824389616,124.56824389616,124.56824389616,124.56824389616,124.56824389616,124.56824389616,124.56824389616,124.56824389616,124.56824389616,124.56824389616,124.56824389616,124.56824389616,124.56824389616,124.56824389616,124.56824389616,124.56824389616,124.56824389616,124.56824389616,124.56824389616,124.56824389616,124.56824389616,124.56824389616,124.56824389616,124.56824389616,124.56824389616,124.56824389616,124.56824389616,124.56824389616,124.56824389616,124.56824389616,124.56824389616,124.56824389616,124.56824389616,124.56824389616,124.56824389616,124.56824389616,124.56824389616,124.56824389616,124.56824389616,124.56824389616,30.748394304878,175.41046925584,-0.0012379717082162,170.22777763677,-0.0018031320094182,0
8.75e-06,22230891.790313,5.9043616144642e-07,2.5979372683392e-06,5.8915778863024e-07,1.0000268870707,0,0,0,0,0,0,0,0,0,0,0,0,0,0,0,0,0,0,0,0,0,0,0,0,0,0,0,0,0,0,0,0,0,0,0,0,0,0,0,0,0,0,0,0,0,0,0,0,-0.34326339812242,-0.045263043998766,-0.99445527657621,0.8279993437337,1.166298521906,0.27486490476894,-0.64044018644303,0.060547833527015,0.66730917273919,0.02023530494599,0.22265143262864,-5.7029885323618,0.0054495278462725,-0.14947107869758,1.0471778771479,-2.0893934451573,-0.34232751469127,2.1191479426443,-0.62929997019922,-1.3153612663478,-0.026896153677188,0.50090708493852,0.084974051088124,-2.1370961277045,0.7150448264734,-4.0512776737911,0.28465975151901,0.28580004485876,-0.17431689824056,-0.12968709956292,0.38061160059423,0.15212915911482,0.034736140093284,-3.9014912670316,-0.25323866510098,-0.37128577522675,2.2344128106478,-0.71104381200341,0.021147261182553,-0.027495931388571,0.23662525886183,-3.7669643845533,-0.40762753054848,-0.29921711361667,-1.7382185760362,0.21658870376084,1.2597931765626,-1.2234336876782,124.58942651956,124.58942651956,124.58942651956,124.58942651956,124.58942651956,124.58942651956,124.58942651956,124.58942651956,124.58942651956,124.58942651956,124.58942651956,124.58942651956,124.58942651956,124.58942651956,124.58942651956,124.58942651956,124.58942651956,124.58942651956,124.58942651956,124.58942651956,124.58942651956,124.58942651956,124.58942651956,124.58942651956,124.58942651956,124.58942651956,124.58942651956,124.58942651956,124.58942651956,124.58942651956,124.58942651956,124.58942651956,124.58942651956,124.58942651956,124.58942651956,124.58942651956,124.58942651956,124.58942651956,124.58942651956,124.58942651956,124.58942651956,124.58942651956,124.58942651956,124.58942651956,124.58942651956,124.58942651956,124.58942651956,124.58942651956,41.196768222237,180.24897302037,-0.001352673820442,174.91195367239,-0.0019429217491564,0
9.0625e-06,22489969.323087,6.0594163939337e-07,2.6909668037253e-06,6.1733946011436e-07,1.0000367239425,0,0,0,0,0,0,0,0,0,0,0,0,0,0,0,0,0,0,0,0,0,0,0,0,0,0,0,0,0,0,0,0,0,0,0,0,0,0,0,0,0,0,0,0,0,0,0,0,-0.35356230638054,-0.061981489190583,-1.3296186154707,1.3613811454039,1.5433815644524,0.28231407201083,-0.82700725618721,0.075753162046253,0.96925500307426,0.023645755746443,0.28990732025447,-5.9150828181741,0.013119280285305,-0.25020160381249,1.4406705160996,-2.5087278665255,-0.46957263377776,2.8731005288241,-1.0488244180761,-1.7635611488369,-0.043063818817581,0.72482432151756,0.12234312505904,-2.6860689494958,0.94118441722999,-4.1210823962414,0.35198608197269,0.36384301540603,-0.22934750673,-0.17462051100324,0.55174356283285,0.18773936799463,0.046180149840224,-4.0442644990274,-0.37425401230871,-0.6187396850069,3.0531903944099,-0.87715557273078,0.10391143454442,-0.045964141091369,0.3196771926614,-4.5898478398901,-0.58804619743852,-0.51377967729001,-2.3359915551596,0.36732064886554,1.7641409002731,-1.8345988843393,124.61733487528,124.61733487528,124.61733487528,124.61733487528,124.61733487528,124.61733487528,124.61733487528,124.61733487528,124.61733487528,124.61733487528,124.61733487528,124.61733487528,124.61733487528,124.61733487528,124.61733487528,124.61733487528,124.61733487528,124.61733487528,124.61733487528,124.61733487528,124.61733487528,124.61733487528,124.61733487528,124.61733487528,124.61733487528,124.61733487528,124.61733487528,124.61733487528,124.61733487528,124.61733487528,124.61733487528,124.61733487528,124.61733487528,124.61733487528,124.61733487528,124.61733487528,124.61733487528,124.61733487528,124.61733487528,124.61733487528,124.61733487528,124.61733487528,124.61733487528,124.61733487528,124.61733487528,124.61733487528,124.61733487528,124.61733487528,53.963203984299,184.62617719236,-0.0014722429077894,179.14231694388,-0.0020857627997695,0
9.375e-06,22847266.362487,6.2024885738558e-07,2.7840443408562e-06,6.4604495315879e-07,1.0000488635116,0,0,0,0,0,0,0,0,0,0,0,0,0,0,0,0,0,0,0,0,0,0,0,0,0,0,0,0,0,0,0,0,0,0,0,0,0,0,0,0,0,0,0,0,0,0,0,0,-0.35900527658436,-0.077467852826529,-1.7033179736813,1.9806518916837,1.9157981559948,0.30196044090707,-1.0298827295607,0.091716710568089,1.3085989216851,0.027649208076816,0.36531027960474,-6.0441200720512,0.027446346509849,-0.39585110277203,1.8378325376734,-2.9052181060869,-0.57027841572784,3.6406727187365,-1.5013117734886,-2.2616988630871,-0.065930591884468,0.9791207562703,0.16422502674248,-3.2531075093153,1.1926703622706,-4.1134177643532,0.40558226475011,0.4531855837922,-0.29451399267663,-0.21803225933865,0.74248401459101,0.22727939299967,0.060382313809355,-4.1314673063601,-0.52770772465348,-0.9700474172445,3.8896855365964,-1.0473734515307,0.2747143771148,-0.073676535316455,0.39344606575575,-5.3879200471835,-0.77448087990001,-0.81677333964424,-2.9403777068743,0.58420420589832,2.3007577546311,-2.5153104339054,124.65309811435,124.65309811435,124.65309811435,124.65309811435,124.65309811435,124.65309811435,124.65309811435,124.65309811435,124.65309811435,124.65309811435,124.65309811435,124.65309811435,124.65309811435,124.65309811435,124.65309811435,124.65309811435,124.65309811435,124.65309811435,124.65309811435,124.65309811435,124.65309811435,124.65309811435,124.65309811435,124.65309811435,124.65309811435,124.65309811435,124.65309811435,124.65309811435,124.65309811435,124.65309811435,124.65309811435,124.65309811435,124.65309811435,124.65309811435,124.65309811435,124.65309811435,124.65309811435,124.65309811435,124.65309811435,124.65309811435,124.65309811435,124.65309811435,124.65309811435,124.65309811435,124.65309811435,124.65309811435,124.65309811435,124.65309811435,68.843361766685,188.51040199511,-0.0015962639231465,182.88639820501,-0.0022312101881033,0
9.6875e-06,23242069.665545,6.3453143537645e-07,2.8771646616816e-06,6.7575383020533e-07,1.0000633550831,0,0,0,0,0,0,0,0,0,0,0,0,0,0,0,0,0,0,0,0,0,0,0,0,0,0,0,0,0,0,0,0,0,0,0,0,0,0,0,0,0,0,0,0,0,0,0,0,-0.36189904794055,-0.0882865924628,-2.0951608503653,2.634370343415,2.2488832622317,0.34850478943581,-1.2376340142471,0.10865049324684,1.6546400274489,0.031927869337698,0.4443995806628,-6.1248646714828,0.051382590688714,-0.58516636716955,2.1788137302052,-3.2567501800111,-0.60931285441928,4.3469928020822,-1.9159922346193,-2.7769291610508,-0.095163624467383,1.2457592879503,0.20648044059201,-3.8080574318028,1.4540893322641,-4.0625550530362,0.43868447263364,0.54996373361992,-0.36723682402848,-0.25382108053393,0.93380873355281,0.2695530851549,0.077254483518823,-4.1866545259822,-0.70894900965796,-1.4202004973788,4.6360716934097,-1.2129666206757,0.55773547959295,-0.11071578470793,0.43742592352004,-6.1157096139994,-0.93712779962424,-1.2018124572303,-3.4814618203945,0.86809686630821,2.8164553948964,-3.1798980598298,124.6974643386,124.6974643386,124.6974643386,124.6974643386,124.6974643386,124.6974643386,124.6974643386,124.6974643386,124.6974643386,124.6974643386,124.6974643386,124.6974643386,124.6974643386,124.6974643386,124.6974643386,124.6974643386,124.6974643386,124.6974643386,124.6974643386,124.6974643386,124.6974643386,124.6974643386,124.6974643386,124.6974643386,124.6974643386,124.6974643386,124.6974643386,124.6974643386,124.6974643386,124.6974643386,124.6974643386,124.6974643386,124.6974643386,124.6974643386,124.6974643386,124.6974643386,124.6974643386,124.6974643386,124.6974643386,124.6974643386,124.6974643386,124.6974643386,124.6974643386,124.6974643386,124.6974643386,124.6974643386,124.6974643386,124.6974643386,85.117730566591,191.90238013691,-0.0017248095212432,186.14325596104,-0.0023793989612121,0
1e-05,23649435.866817,6.4848988363818e-07,2.97031985966e-06,7.0550273978895e-07,1.0000801065804,0,0,0,0,0,0,0,0,0,0,0,0,0,0,0,0,0,0,0,0,0,0,0,0,0,0,0,0,0,0,0,0,0,0,0,0,0,0,0,0,0,0,0,0,0,0,0,0,-0.36374988695685,-0.091186846177636,-2.4833243914002,3.2720607598959,2.5190651948053,0.425901073177,-1.4401032082634,0.12630299229469,1.9756814197772,0.035991291909159,0.52233533797694,-6.1797364256964,0.088099936403465,-0.80867776724875,2.4201380812323,-3.5489233589969,-0.5647528840742,4.9371134482146,-2.2426352974262,-3.2781494860504,-0.1298787919992,1.5032727328556,0.24507673499157,-4.3246036132426,1.7091465267497,-3.9937131683445,0.44872732871642,0.64841817538329,-0.44374266490808,-0.27839231912503,1.1068498669013,0.31273433119006,0.096466236679512,-4.2249723755841,-0.90856376805283,-1.9450921266123,5.2181457717702,-1.3652451586175,0.95101784439549,-0.15546329221425,0.43409566414114,-6.7416602559126,-1.0504349011211,-1.645814314264,-3.9131298968206,1.2019568930787,3.2670657160836,-3.7590158824173,124.75062710183,124.75062710183,124.75062710183,124.75062710183,124.75062710183,124.75062710183,124.75062710183,124.75062710183,124.75062710183,124.75062710183,124.75062710183,124.75062710183,124.75062710183,124.75062710183,124.75062710183,124.75062710183,124.75062710183,124.75062710183,124.75062710183,124.75062710183,124.75062710183,124.75062710183,124.75062710183,124.75062710183,124.75062710183,124.75062710183,124.75062710183,124.75062710183,124.75062710183,124.75062710183,124.75062710183,124.75062710183,124.75062710183,124.75062710183,124.75062710183,124.75062710183,124.75062710183,124.75062710183,124.75062710183,124.75062710183,124.75062710183,124.75062710183,124.75062710183,124.75062710183,124.75062710183,124.75062710183,124.75062710183,124.75062710183,101.75295060168,194.83242298841,-0.001858194147615,188.94093457858,-0.0025309825567253,0
1.03125e-05,24066053.475631,6.6203652490024e-07,3.0635006480817e-06,7.3536940162951e-07,1.0000989293667,0,0,0,0,0,0,0,0,0,0,0,0,0,0,0,0,0,0,0,0,0,0,0,0,0,0,0,0,0,0,0,0,0,0,0,0,0,0,0,0,0,0,0,0,0,0,0,0,-0.36537483860024,-0.083357629907805,-2.8470583523084,3.8580461203255,2.7182587910484,0.52650024263007,-1.6304165750977,0.144116326087,2.2494859948104,0.039492434910109,0.59498875801217,-6.2207148642787,0.14100212134708,-1.0535356364123,2.5459817389188,-3.7750653458385,-0.43427107995645,5.3878944708909,-2.466462056155,-3.7436668664822,-0.16822878982472,1.733100753868,0.27743071202754,-4.7840228441888,1.9437217001716,-3.921869457933,0.43761177894484,0.74248111811703,-0.52012635281598,-0.2914044141749,1.2495462076447,0.35499576335895,0.11761515301278,-4.2545562176967,-1.1141743799357,-2.5118912914433,5.6155778782157,-1.4965443369393,1.4250203472531,-0.20563336299548,0.3723085729294,-7.2498618214605,-1.0992856857695,-2.1173159387714,-4.225045729667,1.5547584426559,3.6290504694861,-4.2220928089365,124.81225255569,124.81225255569,124.81225255569,124.81225255569,124.81225255569,124.81225255569,124.81225255569,124.81225255569,124.81225255569,124.81225255569,124.81225255569,124.81225255569,124.81225255569,124.81225255569,124.81225255569,124.81225255569,124.81225255569,124.81225255569,124.81225255569,124.81225255569,124.81225255569,124.81225255569,124.81225255569,124.81225255569,124.81225255569,124.81225255569,124.81225255569,124.81225255569,124.81225255569,124.81225255569,124.81225255569,124.81225255569,124.81225255569,124.81225255569,124.81225255569,124.81225255569,124.81225255569,124.81225255569,124.81225255569,124.81225255569,124.81225255569,124.81225255569,124.81225255569,124.81225255569,124.81225255569,124.81225255569,124.81225255569,124.81225255569,117.75610619136,197.34960308499,-0.0019966036488414,191.32616373438,-0.002686825133901,0
1.0625e-05,24489188.076126,6.9385823946335e-07,3.1566973671199e-06,7.6541851388691e-07,1.000119590457,0,0,0,0,0,0,0,0,0,0,0,0,0,0,0,0,0,0,0,0,0,0,0,0,0,0,0,0,0,0,0,0,0,0,0,0,0,0,0,0,0,0,0,0,0,0,0,0,-0.36709725747847,-0.062631289617294,-3.1694940175672,4.3754364047943,2.8516981748222,0.63734647355413,-1.805225189513,0.16186285583197,2.4682739711222,0.042350511780391,0.65961309593857,-6.2530629268169,0.21300027197027,-1.3063715408368,2.5628159711875,-3.9351655931579,-0.23183451602372,5.7050919996061,-2.5997401281188,-4.1630319992675,-0.20697916685658,1.9252354717102,0.30283329250909,-5.1765306201728,2.1481624289199,-3.853872198586,0.4104269138323,0.82746578215972,-0.59305586104339,-0.29458102517644,1.3591416995307,0.3949183664889,0.14034628473183,-4.2789954131616,-1.3133296007854,-3.0866717232663,5.848600978053,-1.6015034259717,1.9352762440153,-0.25866634082071,0.24797583062688,-7.6384735948665,-1.0800945041722,-2.5840702740895,-4.432798049263,1.8929202987807,3.9002676248692,-4.572186608001,124.88164681745,124.88164681745,124.88164681745,124.88164681745,124.88164681745,124.88164681745,124.88164681745,124.88164681745,124.88164681745,124.88164681745,124.88164681745,124.88164681745,124.88164681745,124.88164681745,124.88164681745,124.88164681745,124.88164681745,124.88164681745,124.88164681745,124.88164681745,124.88164681745,124.88164681745,124.88164681745,124.88164681745,124.88164681745,124.88164681745,124.88164681745,124.88164681745,124.88164681745,124.88164681745,124.88164681745,124.88164681745,124.88164681745,124.88164681745,124.88164681745,124.88164681745,124.88164681745,124.88164681745,124.88164681745,124.88164681745,124.88164681745,124.88164681745,124.88164681745,124.88164681745,124.88164681745,124.88164681745,124.88164681745,124.88164681745,132.44635410162,199.50993657965,-0.002139884513282,193.35301571529,-0.0028476810193414,0
1.09375e-05,24916646.446704,7.2580481127913e-07,3.2499008375562e-06,7.956927939363e-07,1.0001418489625,0,0,0,0,0,0,0,0,0,0,0,0,0,0,0,0,0,0,0,0,0,0,0,0,0,0,0,0,0,0,0,0,0,0,0,0,0,0,0,0,0,0,0,0,0,0,0,0,-0.36892191635871,-0.028088056895091,-3.4398714862542,4.8215222745145,2.931453582517,0.747018722397,-1.9636280955633,0.17994973875687,2.6359349315399,0.044677536655907,0.71478592344175,-6.2786247370208,0.30431921078155,-1.5533402445906,2.4897145526649,-4.0341851555917,0.019775673859609,5.9104488356644,-2.6651630780951,-4.5341010011033,-0.24203184795137,2.0788366239247,0.32193762931488,-5.500021667704,2.3177563494276,-3.7918433591577,0.3731981314625,0.90121078044139,-0.6599474582917,-0.29021606645117,1.4396117800065,0.43154323694216,0.16422262478029,-4.2994447669539,-1.4962053182126,-3.6368978917566,5.9548420685318,-1.6777338314057,2.4376537248124,-0.3114368910801,0.065392075016341,-7.9160438169617,-0.99900631695912,-3.0173576357527,-4.5620094954092,2.1899822473129,4.0921000340228,-4.828556629414,124.95794911756,124.95794911756,124.95794911756,124.95794911756,124.95794911756,124.95794911756,124.95794911756,124.95794911756,124.95794911756,124.95794911756,124.95794911756,124.95794911756,124.95794911756,124.95794911756,124.95794911756,124.95794911756,124.95794911756,124.95794911756,124.95794911756,124.95794911756,124.95794911756,124.95794911756,124.95794911756,124.95794911756,124.95794911756,124.95794911756,124.95794911756,124.95794911756,124.95794911756,124.95794911756,124.95794911756,124.95794911756,124.95794911756,124.95794911756,124.95794911756,124.95794911756,124.95794911756,124.95794911756,124.95794911756,124.95794911756,124.95794911756,124.95794911756,124.95794911756,124.95794911756,124.95794911756,124.95794911756,124.95794911756,124.95794911756,145.50829361543,201.36840970725,-0.002287580696611,195.07514817638,-0.0030140102584837,0
1.125e-05,25346647.141986,7.5757007323306e-07,3.3431031860817e-06,8.2621710471736e-07,1.0001654736202,0,0,0,0,0,0,0,0,0,0,0,0,0,0,0,0,0,0,0,0,0,0,0,0,0,0,0,0,0,0,0,0,0,0,0,0,0,0,0,0,0,0,0,0,0,0,0,0,-0.37067767416496,0.019205979724377,-3.654431801688,5.2007832578484,2.9706572787236,0.848721302421,-2.105991395226,0.19908497978346,2.7618879526156,0.046626092326164,0.7601265009182,-6.2977460808505,0.4104942225389,-1.7810603674594,2.351630828437,-4.0804252945804,0.29558195715449,6.0294338453169,-2.6839254283141,-4.8589426920269,-0.26990658895792,2.1989612838866,0.3359491773448,-5.7574913147419,2.4519946892139,-3.7357898479232,0.33114237850586,0.96396860379402,-0.71914603891526,-0.28034160050828,1.4974721182154,0.46421947433816,0.18854040998803,-4.3159006509462,-1.6569246107468,-4.1345805343354,5.9733665704204,-1.7258627405707,2.8977098468589,-0.3604147396625,-0.16177550032734,-8.0973108815601,-0.86924181307774,-3.3956426462203,-4.6375877185205,2.4301798299943,4.2205389766601,-5.0124101237346,125.04026758455,125.04026758455,125.04026758455,125.04026758455,125.04026758455,125.04026758455,125.04026758455,125.04026758455,125.04026758455,125.04026758455,125.04026758455,125.04026758455,125.04026758455,125.04026758455,125.04026758455,125.04026758455,125.04026758455,125.04026758455,125.04026758455,125.04026758455,125.04026758455,125.04026758455,125.04026758455,125.04026758455,125.04026758455,125.04026758455,125.04026758455,125.04026758455,125.04026758455,125.04026758455,125.04026758455,125.04026758455,125.04026758455,125.04026758455,125.04026758455,125.04026758455,125.04026758455,125.04026758455,125.04026758455,125.04026758455,125.04026758455,125.04026758455,125.04026758455,125.04026758455,125.04026758455,125.04026758455,125.04026758455,125.04026758455,156.88426509445,202.97538509603,-0.0024391135493491,196.54217051209,-0.0031859658858601,0
1.15625e-05,25777740.452042,7.8904063840561e-07,3.4362984790944e-06,8.5700572207061e-07,1.000190249937,0,0,0,0,0,0,0,0,0,0,0,0,0,0,0,0,0,0,0,0,0,0,0,0,0,0,0,0,0,0,0,0,0,0,0,0,0,0,0,0,0,0,0,0,0,0,0,0,-0.37214497965512,0.076024052178872,-3.8153668052554,5.5202388189985,2.9808781844621,0.94005096173517,-2.2332250280607,0.21980453943272,2.8561967620865,0.048274821854847,0.79605921027639,-6.3102221234227,0.52334557120431,-1.9792957722158,2.1747450022468,-4.0842891789248,0.57296804874731,6.0851991751237,-2.6713020353788,-5.1410752792331,-0.28879496369724,2.2927510781401,0.34607066595654,-5.9550502300335,2.5533735460277,-3.6848297404447,0.28808010560807,1.0174184486735,-0.77010331120618,-0.26650196392688,1.5388927078383,0.49252787288988,0.21238032799588,-4.3279605947206,-1.7933931947113,-4.5610425379549,5.9375725879753,-1.7491892538945,3.2940020671294,-0.40252439515417,-0.41341152738533,-8.1999106197059,-0.70796056971324,-3.7075554737107,-4.6793400645206,2.6080930598178,4.3011161284521,-5.1406241500799,125.12774626725,125.12774626725,125.12774626725,125.12774626725,125.12774626725,125.12774626725,125.12774626725,125.12774626725,125.12774626725,125.12774626725,125.12774626725,125.12774626725,125.12774626725,125.12774626725,125.12774626725,125.12774626725,125.12774626725,125.12774626725,125.12774626725,125.12774626725,125.12774626725,125.12774626725,125.12774626725,125.12774626725,125.12774626725,125.12774626725,125.12774626725,125.12774626725,125.12774626725,125.12774626725,125.12774626725,125.12774626725,125.12774626725,125.12774626725,125.12774626725,125.12774626725,125.12774626725,125.12774626725,125.12774626725,125.12774626725,125.12774626725,125.12774626725,125.12774626725,125.12774626725,125.12774626725,125.12774626725,125.12774626725,125.12774626725,166.64241144283,204.3754964498,-0.0025939510625917,197.79838961005,-0.0033634470931244,0
1.1875e-05,26208790.941303,8.2016218096039e-07,3.5294829389381e-06,8.882115723974e-07,1.0002159841456,0,0,0,0,0,0,0,0,0,0,0,0,0,0,0,0,0,0,0,0,0,0,0,0,0,0,0,0,0,0,0,0,0,0,0,0,0,0,0,0,0,0,0,0,0,0,0,0,-0.37315784968344,0.13769787015845,-3.9284387439926,5.7874808171727,2.9715808013318,1.0214460959974,-2.3464082793985,0.24230105533575,2.9271663277957,0.049597344358325,0.82353838905031,-6.3159536067897,0.63441513829945,-2.1427202815899,1.9825360000417,-4.05712432519,0.83447899203992,6.0970468132144,-2.6371429591747,-5.3842961465056,-0.29846512510433,2.3668112898176,0.35330671467821,-6.1006654883213,2.6260595194989,-3.6377984827697,0.24654041957325,1.0636809715287,-0.8132127936584,-0.24978901047136,1.5685544764055,0.51630254460981,0.23487709077804,-4.335387543498,-1.9063270101283,-4.9089947903929,5.8731151494403,-1.7529420575319,3.6176778918111,-0.43584103577985,-0.66889799219058,-8.2420006613032,-0.53273285036335,-3.9518896215786,-4.701324662639,2.7266848646637,4.347269314488,-5.2255258035731,125.21959245125,125.21959245125,125.21959245125,125.21959245125,125.21959245125,125.21959245125,125.21959245125,125.21959245125,125.21959245125,125.21959245125,125.21959245125,125.21959245125,125.21959245125,125.21959245125,125.21959245125,125.21959245125,125.21959245125,125.21959245125,125.21959245125,125.21959245125,125.21959245125,125.21959245125,125.21959245125,125.21959245125,125.21959245125,125.21959245125,125.21959245125,125.21959245125,125.21959245125,125.21959245125,125.21959245125,125.21959245125,125.21959245125,125.21959245125,125.21959245125,125.21959245125,125.21959245125,125.21959245125,125.21959245125,125.21959245125,125.21959245125,125.21959245125,125.21959245125,125.21959245125,125.21959245125,125.21959245125,125.21959245125,125.21959245125,174.90227594662,205.60739969069,-0.0027516939596765,198.88242092866,-0.0035461991720728,0
1.21875e-05,26638978.840732,8.5091992027519e-07,3.6226546624255e-06,9.2029904055149e-07,1.0002425057269,0,0,0,0,0,0,0,0,0,0,0,0,0,0,0,0,0,0,0,0,0,0,0,0,0,0,0,0,0,0,0,0,0,0,0,0,0,0,0,0,0,0,0,0,0,0,0,0,-0.37365576683918,0.19936385804218,-4.0007621558199,6.009920950924,2.9501732705265,1.0945473518842,-2.4466606718765,0.2665023315544,2.9807455685589,0.050501484982814,0.84379137460372,-6.3154079200012,0.73759828003045,-2.2702995634613,1.7932366117383,-4.0098739112976,1.0689482424847,6.0803310421579,-2.5879208667059,-5.592471456299,-0.29960509181434,2.4260398310286,0.35846256189969,-6.2030797132014,2.6748206351177,-3.5937929071942,0.20804258057023,1.1046685828082,-0.84937565376361,-0.23093787241016,1.5895844664121,0.53564664104549,0.25545578495325,-4.3384326562149,-1.9981159242914,-5.1801810961515,5.7980436836658,-1.7431631829596,3.8697564945503,-0.45958178445168,-0.91175980611921,-8.2403728914288,-0.35841930578596,-4.1345000326016,-4.7126983207487,2.7943696859255,4.370034147413,-5.2766474627922,125.31509078991,125.31509078991,125.31509078991,125.31509078991,125.31509078991,125.31509078991,125.31509078991,125.31509078991,125.31509078991,125.31509078991,125.31509078991,125.31509078991,125.31509078991,125.31509078991,125.31509078991,125.31509078991,125.31509078991,125.31509078991,125.31509078991,125.31509078991,125.31509078991,125.31509078991,125.31509078991,125.31509078991,125.31509078991,125.31509078991,125.31509078991,125.31509078991,125.31509078991,125.31509078991,125.31509078991,125.31509078991,125.31509078991,125.31509078991,125.31509078991,125.31509078991,125.31509078991,125.31509078991,125.31509078991,125.31509078991,125.31509078991,125.31509078991,125.31509078991,125.31509078991,125.31509078991,125.31509078991,125.31509078991,125.31509078991,181.81050901903,206.70385271566,-0.002912097688275,199.82716329832,-0.0037338979059235,0
1.25e-05,27067786.015526,8.8132402908733e-07,3.7158129564893e-06,9.5265673888193e-07,1.0002696681924,0,0,0,0,0,0,0,0,0,0,0,0,0,0,0,0,0,0,0,0,0,0,0,0,0,0,0,0,0,0,0,0,0,0,0,0,0,0,0,0,0,0,0,0,0,0,0,0,-0.37368661037191,0.25708577589679,-4.0395199194368,6.1944581631734,2.9221446574922,1.1610054888361,-2.5351908103733,0.29219240849974,3.0208997499184,0.050896488736643,0.85816194532487,-6.3096853967686,0.82959139988688,-2.3635687212628,1.6190471962281,-3.951829223537,1.2711454746774,6.0466049382084,-2.5283457756342,-5.7696516826576,-0.29329333218113,2.4736257376031,0.36217328849791,-6.2709259895553,2.704403227129,-3.5524772782942,0.17337373976862,1.141747873518,-0.87963486118726,-0.21042505364988,1.603965029477,0.55090995345905,0.27390185454296,-4.3378264796586,-2.0718619579582,-5.3812558930027,5.7238562228531,-1.7255422334134,4.0574241912249,-0.47373916559761,-1.1312039882951,-8.2091754354469,-0.19536407322229,-4.2644146422565,-4.7189411044653,2.8218407344267,4.3779853497366,-5.3017945216307,125.41361245564,125.41361245564,125.41361245564,125.41361245564,125.41361245564,125.41361245564,125.41361245564,125.41361245564,125.41361245564,125.41361245564,125.41361245564,125.41361245564,125.41361245564,125.41361245564,125.41361245564,125.41361245564,125.41361245564,125.41361245564,125.41361245564,125.41361245564,125.41361245564,125.41361245564,125.41361245564,125.41361245564,125.41361245564,125.41361245564,125.41361245564,125.41361245564,125.41361245564,125.41361245564,125.41361245564,125.41361245564,125.41361245564,125.41361245564,125.41361245564,125.41361245564,125.41361245564,125.41361245564,125.41361245564,125.41361245564,125.41361245564,125.41361245564,125.41361245564,125.41361245564,125.41361245564,125.41361245564,125.41361245564,125.41361245564,187.53009123135,207.69206765861,-0.0030750581437335,200.66007496894,-0.0039262117711151,0
1.28125e-05,27494956.723739,9.1139885842461e-07,3.8089575539979e-06,9.8528314531298e-07,1.0002973482968,0,0,0,0,0,0,0,0,0,0,0,0,0,0,0,0,0,0,0,0,0,0,0,0,0,0,0,0,0,0,0,0,0,0,0,0,0,0,0,0,0,0,0,0,0,0,0,0,-0.37338405189877,0.30839783776335,-4.0514656015716,6.3473331461999,2.8912913843562,1.2219569547118,-2.6133661320727,0.31907927501273,3.0502943076147,0.050740970730225,0.86802056400558,-6.3002250018675,0.90919464065548,-2.4253742662021,1.4666248781324,-3.8899468324052,1.440512093608,6.0039741155992,-2.4621489774854,-5.9200714653835,-0.28077167935779,2.5115799899473,0.36492132603229,-6.3120994404344,2.7192276491574,-3.5139678976312,0.14282644562798,1.1756975215349,-0.90502084129569,-0.18855859750467,1.6130192031628,0.56261699714707,0.2903101715193,-4.3345487843692,-2.1307192456618,-5.5207199773284,5.6569162049443,-1.7046270315073,4.1907081080627,-0.4788253750243,-1.3216743738565,-8.1594127235607,-0.049163505600778,-4.3510684993236,-4.7230129784474,2.8196124528895,4.3773337165805,-5.3073528531435,125.51461745133,125.51461745133,125.51461745133,125.51461745133,125.51461745133,125.51461745133,125.51461745133,125.51461745133,125.51461745133,125.51461745133,125.51461745133,125.51461745133,125.51461745133,125.51461745133,125.51461745133,125.51461745133,125.51461745133,125.51461745133,125.51461745133,125.51461745133,125.51461745133,125.51461745133,125.51461745133,125.51461745133,125.51461745133,125.51461745133,125.51461745133,125.51461745133,125.51461745133,125.51461745133,125.51461745133,125.51461745133,125.51461745133,125.51461745133,125.51461745133,125.51461745133,125.51461745133,125.51461745133,125.51461745133,125.51461745133,125.51461745133,125.51461745133,125.51461745133,125.51461745133,125.51461745133,125.51461745133,125.51461745133,125.51461745133,192.22857796226,208.59425691586,-0.0032405755725707,201.40367017638,-0.0041228378045488,0
1.3125e-05,27920440.083388,9.4117526945837e-07,3.9020880092268e-06,1.0181668226733e-06,1.0003254442467,0,0,0,0,0,0,0,0,0,0,0,0,0,0,0,0,0,0,0,0,0,0,0,0,0,0,0,0,0,0,0,0,0,0,0,0,0,0,0,0,0,0,0,0,0,0,0,0,-0.37293732444756,0.35222886785969,-4.0427764603486,6.4740320928,2.8600412188654,1.2780270350967,-2.682671718559,0.34682127928303,3.0708584376611,0.050047148853661,0.87467893879032,-6.2884138910271,0.97656715521806,-2.4593666253735,1.3382725955534,-3.8288598596519,1.5795969865709,5.9577004873512,-2.3923820642187,-6.0479193870335,-0.2633735203574,2.5412102798196,0.36705399533442,-6.3333284634037,2.723228876168,-3.4784918312159,0.11638345065169,1.2068763352495,-0.92651324140992,-0.16555457581939,1.6177508864685,0.57134876727125,0.30498271999062,-4.3295712437397,-2.1775354027036,-5.6075339425994,5.5999480972161,-1.6835889686671,4.280222848005,-0.47578341336957,-1.4817163475211,-8.099092039455,0.078408724511598,-4.403030466319,-4.7262807359059,2.7966984476896,4.3722484415444,-5.2985780907443,125.61765118951,125.61765118951,125.61765118951,125.61765118951,125.61765118951,125.61765118951,125.61765118951,125.61765118951,125.61765118951,125.61765118951,125.61765118951,125.61765118951,125.61765118951,125.61765118951,125.61765118951,125.61765118951,125.61765118951,125.61765118951,125.61765118951,125.61765118951,125.61765118951,125.61765118951,125.61765118951,125.61765118951,125.61765118951,125.61765118951,125.61765118951,125.61765118951,125.61765118951,125.61765118951,125.61765118951,125.61765118951,125.61765118951,125.61765118951,125.61765118951,125.61765118951,125.61765118951,125.61765118951,125.61765118951,125.61765118951,125.61765118951,125.61765118951,125.61765118951,125.61765118951,125.61765118951,125.61765118951,125.61765118951,125.61765118951,196.0677834693,209.42826566549,-0.003408711447015,202.07612421846,-0.0043235168651874,0
1.34375e-05,28344327.778301,9.7068566088817e-07,3.995203475265e-06,1.0512884039798e-06,1.0003538733312,0,0,0,0,0,0,0,0,0,0,0,0,0,0,0,0,0,0,0,0,0,0,0,0,0,0,0,0,0,0,0,0,0,0,0,0,0,0,0,0,0,0,0,0,0,0,0,0,-0.37255837990836,0.38851018766169,-4.0189449472126,6.5792472306562,2.8298126854124,1.3295354220032,-2.7445742962848,0.3750506973199,3.0841156024798,0.048853608492748,0.87929242039496,-6.2753241751058,1.0327041746471,-2.4697819967019,1.2333681088242,-3.7713216299487,1.6926031419431,5.9109270808599,-2.32152115259,-6.1570400774827,-0.24244556290247,2.5634231425451,0.36880474982007,-6.3399593337699,2.7197476810254,-3.446092509464,0.093849083321417,1.2354341748692,-0.94501021713725,-0.14159418443113,1.6190062678919,0.57762399057339,0.31831405750499,-4.32369251304,-2.2147106059362,-5.6506673134902,5.5533812675518,-1.6643759960682,4.3359145020676,-0.46590853001263,-1.6126926088178,-8.0337237116426,0.18804944764944,-4.4277050111888,-4.729183731293,2.7602189799706,4.3653233152563,-5.2798922225802,125.72233790497,125.72233790497,125.72233790497,125.72233790497,125.72233790497,125.72233790497,125.72233790497,125.72233790497,125.72233790497,125.72233790497,125.72233790497,125.72233790497,125.72233790497,125.72233790497,125.72233790497,125.72233790497,125.72233790497,125.72233790497,125.72233790497,125.72233790497,125.72233790497,125.72233790497,125.72233790497,125.72233790497,125.72233790497,125.72233790497,125.72233790497,125.72233790497,125.72233790497,125.72233790497,125.72233790497,125.72233790497,125.72233790497,125.72233790497,125.72233790497,125.72233790497,125.72233790497,125.72233790497,125.72233790497,125.72233790497,125.72233790497,125.72233790497,125.72233790497,125.72233790497,125.72233790497,125.72233790497,125.72233790497,125.72233790497,199.19702251021,210.20822565546,-0.0035795509128065,202.69191122619,-0.0045280374874975,0
1.375e-05,28766798.849836,9.9996116726746e-07,4.088302879087e-06,1.0846236922819e-06,1.0003825692529,0,0,0,0,0,0,0,0,0,0,0,0,0,0,0,0,0,0,0,0,0,0,0,0,0,0,0,0,0,0,0,0,0,0,0,0,0,0,0,0,0,0,0,0,0,0,0,0,-0.37244657877818,0.41777752861532,-3.9846494966489,6.6669401966372,2.8013375225424,1.376675760211,-2.8003956131869,0.40340796304562,3.0913580905225,0.047195142542212,0.88278056732773,-6.2616387994968,1.0790481617482,-2.4611632353268,1.1496551350029,-3.7187196882306,1.7842630734715,5.8653519289756,-2.2514948272784,-6.2507505383963,-0.21923433960824,2.5789718426147,0.37031567229171,-6.3359662742599,2.711464939632,-3.4165094229433,0.07493568685271,1.261453874628,-0.96129146132434,-0.1168580360101,1.6175266490865,0.58182785699658,0.33069328158901,-4.3174828142751,-2.2441788084335,-5.6588219800321,5.5163866419492,-1.6479788903462,4.366446062622,-0.45070341727187,-1.7175823039646,-7.9668925790467,0.28173752183481,-4.4313913708164,-4.73168214664,2.7155111842531,4.3580453007677,-5.2549370583031,125.8283724504,125.8283724504,125.8283724504,125.8283724504,125.8283724504,125.8283724504,125.8283724504,125.8283724504,125.8283724504,125.8283724504,125.8283724504,125.8283724504,125.8283724504,125.8283724504,125.8283724504,125.8283724504,125.8283724504,125.8283724504,125.8283724504,125.8283724504,125.8283724504,125.8283724504,125.8283724504,125.8283724504,125.8283724504,125.8283724504,125.8283724504,125.8283724504,125.8283724504,125.8283724504,125.8283724504,125.8283724504,125.8283724504,125.8283724504,125.8283724504,125.8283724504,125.8283724504,125.8283724504,125.8283724504,125.8283724504,125.8283724504,125.8283724504,125.8283724504,125.8283724504,125.8283724504,125.8283724504,125.8283724504,125.8283724504,201.7490136592,210.94519637221,-0.0037531779609472,203.26243239689,-0.0047362340767757,0
1.40625e-05,29188077.687964,1.0290303284857e-06,4.1813852935423e-06,1.1181467351006e-06,1.0004114794053,0,0,0,0,0,0,0,0,0,0,0,0,0,0,0,0,0,0,0,0,0,0,0,0,0,0,0,0,0,0,0,0,0,0,0,0,0,0,0,0,0,0,0,0,0,0,0,0,-0.37275356277146,0.44087731867686,-3.9436762993928,6.7404380502816,2.7749116268286,1.419609874483,-2.8512550135226,0.43157910344049,3.0937245429968,0.045087390212543,0.88579898448533,-6.2477166022006,1.1171830346396,-2.4379880873969,1.0841906016113,-3.6714944390259,1.859102079146,5.8217591176135,-2.183707223035,-6.3318057386327,-0.19478776958381,2.5886225472879,0.37165917471024,-6.3241350409028,2.7004056000999,-3.389238606554,0.059317097827364,1.2850135661916,-0.97599679166406,-0.091534783049896,1.6139558720682,0.5842026094717,0.34244030654696,-4.3113013212422,-2.2674541254924,-5.6400645580046,5.4875822629996,-1.6346891591505,4.3789582506082,-0.43169692802822,-1.8000403464544,-7.9007579111806,0.36191858313248,-4.4193628836449,-4.7335462894641,2.6664204623794,4.3511787573384,-5.2265044799396,125.9355096873,125.9355096873,125.9355096873,125.9355096873,125.9355096873,125.9355096873,125.9355096873,125.9355096873,125.9355096873,125.9355096873,125.9355096873,125.9355096873,125.9355096873,125.9355096873,125.9355096873,125.9355096873,125.9355096873,125.9355096873,125.9355096873,125.9355096873,125.9355096873,125.9355096873,125.9355096873,125.9355096873,125.9355096873,125.9355096873,125.9355096873,125.9355096873,125.9355096873,125.9355096873,125.9355096873,125.9355096873,125.9355096873,125.9355096873,125.9355096873,125.9355096873,125.9355096873,125.9355096873,125.9355096873,125.9355096873,125.9355096873,125.9355096873,125.9355096873,125.9355096873,125.9355096873,125.9355096873,125.9355096873,125.9355096873,203.8376728138,211.64776207263,-0.00392966290676,203.79660114785,-0.004947982526871,0
1.4375e-05,29608405.285075,1.0579185796175e-06,4.2744502373563e-06,1.152300834622e-06,1.0004405623223,0,0,0,0,0,0,0,0,0,0,0,0,0,0,0,0,0,0,0,0,0,0,0,0,0,0,0,0,0,0,0,0,0,0,0,0,0,0,0,0,0,0,0,0,0,0,0,0,-0.3735574115584,0.45876237220982,-3.8989326543298,6.8024921239308,2.7505769762636,1.4585040881835,-2.89806986227,0.45932661693322,3.0922036103495,0.042528421497914,0.88876278088726,-6.2337107675084,1.1486232571806,-2.4043186655673,1.033935431104,-3.6294803981173,1.9210321091909,5.7804023737708,-2.1190948483333,-6.4024506524649,-0.16990698987031,2.5931617821812,0.37285791015043,-6.3063566760074,2.6880105447181,-3.363688520762,0.046661109405026,1.3062042580416,-0.98962646274283,-0.065805067778894,1.6088337979585,0.58488956135306,0.35377725538857,-4.305345048563,-2.2857096795478,-5.6014560966543,5.4654674033441,-1.6243495089235,4.3790646015434,-0.41028097464271,-1.86378699325,-7.8364787636545,0.43100636430905,-4.3959123606036,-4.7345236984779,2.6156185434047,4.3450492082581,-5.1965803961026,126.04355469296,126.04355469296,126.04355469296,126.04355469296,126.04355469296,126.04355469296,126.04355469296,126.04355469296,126.04355469296,126.04355469296,126.04355469296,126.04355469296,126.04355469296,126.04355469296,126.04355469296,126.04355469296,126.04355469296,126.04355469296,126.04355469296,126.04355469296,126.04355469296,126.04355469296,126.04355469296,126.04355469296,126.04355469296,126.04355469296,126.04355469296,126.04355469296,126.04355469296,126.04355469296,126.04355469296,126.04355469296,126.04355469296,126.04355469296,126.04355469296,126.04355469296,126.04355469296,126.04355469296,126.04355469296,126.04355469296,126.04355469296,126.04355469296,126.04355469296,126.04355469296,126.04355469296,126.04355469296,126.04355469296,126.04355469296,205.55774792867,212.32255396942,-0.0041090586720373,204.30135625443,-0.0051631944232238,0
1.46875e-05,30028021.272712,1.0866481546753e-06,4.3674977558842e-06,1.1870736095996e-06,1.0004697854388,0,0,0,0,0,0,0,0,0,0,0,0,0,0,0,0,0,0,0,0,0,0,0,0,0,0,0,0,0,0,0,0,0,0,0,0,0,0,0,0,0,0,0,0,0,0,0,0,-0.37485765104822,0.47235247928734,-3.8525355933628,6.8553156382156,2.7282462390608,1.4935460503211,-2.9415783543761,0.48650543313949,3.0876164246684,0.039509884036497,0.89189785702426,-6.2196745101197,1.1746996976141,-2.3635706114598,0.99607455454102,-3.5921936727394,1.9731874613145,5.7412657174324,-2.0582067769533,-6.4644943848738,-0.1451482801402,2.5933213683856,0.37390211685841,-6.2839542319353,2.6752443302627,-3.3393214326483,0.036648119028998,1.3251343080406,-1.002555265091,-0.039814281140573,1.6025946052848,0.58399460157763,0.36482662628701,-4.2997032914594,-2.2998605404028,-5.5488277019836,5.4486579751323,-1.616581266846,4.3709920143125,-0.38760288203996,-1.9122754485325,-7.7745806064202,0.4911032198021,-4.3644175906757,-4.734412904181,2.5648904429251,4.3397403739891,-5.1665090478073,126.1523531864,126.1523531864,126.1523531864,126.1523531864,126.1523531864,126.1523531864,126.1523531864,126.1523531864,126.1523531864,126.1523531864,126.1523531864,126.1523531864,126.1523531864,126.1523531864,126.1523531864,126.1523531864,126.1523531864,126.1523531864,126.1523531864,126.1523531864,126.1523531864,126.1523531864,126.1523531864,126.1523531864,126.1523531864,126.1523531864,126.1523531864,126.1523531864,126.1523531864,126.1523531864,126.1523531864,126.1523531864,126.1523531864,126.1523531864,126.1523531864,126.1523531864,126.1523531864,126.1523531864,126.1523531864,126.1523531864,126.1523531864,126.1523531864,126.1523531864,126.1523531864,126.1523531864,126.1523531864,126.1523531864,126.1523531864,206.98612898764,212.974682744,-0.0042914017155853,204.78208965276,-0.0053818103873669,0
1.53125e-05,30866285.187399,1.1437274629744e-06,4.553538070999e-06,1.2572231709864e-06,1.0005291059829,0,0,0,0,0,0,0,0,0,0,0,0,0,0,0,0,0,0,0,0,0,0,0,0,0,0,0,0,0,0,0,0,0,0,0,0,0,0,0,0,0,0,0,0,0,0,0,0,-0.3815349346272,0.4949189552713,-3.8135279264028,6.9972798180429,2.7044330592031,1.5775823450671,-3.0466159349454,0.53906011796079,3.0956373717157,0.032015169350417,0.91071171169441,-6.2353255679423,1.2228789751984,-2.2931423286308,0.95518714810615,-3.5652685644397,2.0883661332607,5.7023849655901,-1.9556775651125,-6.623873673103,-0.10687821533898,2.6014749286883,0.37735879969305,-6.2804932542925,2.6850791770411,-3.3139053869746,0.019970087538399,1.3749005029539,-1.035382133283,0.010264879474729,1.6010200031627,0.58187529171396,0.39007401066857,-4.3202945501891,-2.3450618955667,-5.4664044695862,5.4644580601078,-1.6271578335016,4.3892469885304,-0.34661521316125,-1.987202764389,-7.7277565034967,0.60557815228351,-4.3226308594353,-4.7660821942996,2.4904058310768,4.3564263067344,-5.1534259934466,126.37085087627,126.37085087627,126.37085087627,126.37085087627,126.37085087627,126.37085087627,126.37085087627,126.37085087627,126.37085087627,126.37085087627,126.37085087627,126.37085087627,126.37085087627,126.37085087627,126.37085087627,126.37085087627,126.37085087627,126.37085087627,126.37085087627,126.37085087627,126.37085087627,126.37085087627,126.37085087627,126.37085087627,126.37085087627,126.37085087627,126.37085087627,126.37085087627,126.37085087627,126.37085087627,126.37085087627,126.37085087627,126.37085087627,126.37085087627,126.37085087627,126.37085087627,126.37085087627,126.37085087627,126.37085087627,126.37085087627,126.37085087627,126.37085087627,126.37085087627,126.37085087627,126.37085087627,126.37085087627,126.37085087627,126.37085087627,208.18418200761,214.11185083507,-0.0046634076800783,205.57563009445,-0.0058270906713792,0
1.59375e-05,31785617.161305,1.2003955570702e-06,4.7395136620489e-06,1.3274545279027e-06,1.0005884432868,0,0,0,0,0,0,0,0,0,0,0,0,0,0,0,0,0,0,0,0,0,0,0,0,0,0,0,0,0,0,0,0,0,0,0,0,0,0,0,0,0,0,0,0,0,0,0,0,-0.38463276513349,0.50140668790694,-3.7038248842546,7.025304372663,2.6605938567354,1.6120609883407,-3.101873264507,0.58610693303104,3.0633242398404,0.023049013678203,0.91318206237062,-6.181128152645,1.2464180524726,-2.1876893187144,0.93040718590401,-3.4963048647628,2.1442963953425,5.614500159571,-1.8573781327,-6.6719098864491,-0.060587257695626,2.5728284627704,0.37653283379098,-6.1889791314666,2.6477229133692,-3.255828167741,0.014930143486574,1.3899870883474,-1.0546030342517,0.062042807721625,1.5795642501986,0.56912388545198,0.40780610513996,-4.2928203085387,-2.340697590264,-5.2987311237354,5.4321093906549,-1.6134148775797,4.3339688253875,-0.30224970415962,-2.0102755956348,-7.5843419685414,0.68156679617745,-4.2172623620773,-4.7377602513209,2.3913523010714,4.3330200653137,-5.0772104943365,126.59304106191,126.59304106191,126.59304106191,126.59304106191,126.59304106191,126.59304106191,126.59304106191,126.59304106191,126.59304106191,126.59304106191,126.59304106191,126.59304106191,126.59304106191,126.59304106191,126.59304106191,126.59304106191,126.59304106191,126.59304106191,126.59304106191,126.59304106191,126.59304106191,126.59304106191,126.59304106191,126.59304106191,126.59304106191,126.59304106191,126.59304106191,126.59304106191,126.59304106191,126.59304106191,126.59304106191,126.59304106191,126.59304106191,126.59304106191,126.59304106191,126.59304106191,126.59304106191,126.59304106191,126.59304106191,126.59304106191,126.59304106191,126.59304106191,126.59304106191,126.59304106191,126.59304106191,126.59304106191,126.59304106191,126.59304106191,211.69279848543,215.25639899074,-0.0050480112447966,206.37377242276,-0.0062862603342119,0
1.65625e-05,32716396.762417,1.2579963962977e-06,4.9254294879286e-06,1.4032437687056e-06,1.0006478633906,0,0,0,0,0,0,0,0,0,0,0,0,0,0,0,0,0,0,0,0,0,0,0,0,0,0,0,0,0,0,0,0,0,0,0,0,0,0,0,0,0,0,0,0,0,0,0,0,-0.389525674655,0.50286757806382,-3.6134704303804,7.0555475688797,2.6282462593521,1.6430445938497,-3.1588325560218,0.63259115407424,3.0351609969875,0.012734415485623,0.91915096110418,-6.1431660088899,1.2659698720784,-2.0908019758638,0.92237780840132,-3.4473494502039,2.1935136578755,5.5465642596997,-1.7741486638801,-6.7212721933334,-0.018092155523025,2.5429474379093,0.37545279093964,-6.1111969656207,2.6217979184732,-3.2071031443179,0.01471538683753,1.4038628707236,-1.0762583381315,0.1143358750352,1.5618071082038,0.55508640390081,0.425397267696,-4.2777405696805,-2.3370962036084,-5.143713546572,5.4173016125615,-1.6085665294034,4.2886700736079,-0.26241613786562,-2.0199479503405,-7.4723210779383,0.74387659252573,-4.1215174252799,-4.715338201905,2.3072497290211,4.3217661318214,-5.0189064209258,126.81569049861,126.81569049861,126.81569049861,126.81569049861,126.81569049861,126.81569049861,126.81569049861,126.81569049861,126.81569049861,126.81569049861,126.81569049861,126.81569049861,126.81569049861,126.81569049861,126.81569049861,126.81569049861,126.81569049861,126.81569049861,126.81569049861,126.81569049861,126.81569049861,126.81569049861,126.81569049861,126.81569049861,126.81569049861,126.81569049861,126.81569049861,126.81569049861,126.81569049861,126.81569049861,126.81569049861,126.81569049861,126.81569049861,126.81569049861,126.81569049861,126.81569049861,126.81569049861,126.81569049861,126.81569049861,126.81569049861,126.81569049861,126.81569049861,126.81569049861,126.81569049861,126.81569049861,126.81569049861,126.81569049861,126.81569049861,212.1315414741,216.38931761124,-0.005444461893119,207.158898259,-0.0067586729438016,0
1.71875e-05,33649637.048108,1.3152839465581e-06,5.1112884667926e-06,1.4931271777946e-06,1.0007073902426,0,0,0,0,0,0,0,0,0,0,0,0,0,0,0,0,0,0,0,0,0,0,0,0,0,0,0,0,0,0,0,0,0,0,0,0,0,0,0,0,0,0,0,0,0,0,0,0,-0.39573150455259,0.50104341142797,-3.5377360245982,7.0835256914484,2.6030682854432,1.6706140752099,-3.2148800097727,0.67801330165475,3.0095820754542,0.0014103799239186,0.92732792404656,-6.1126286335967,1.2826639589377,-2.0033911392469,0.92411258654922,-3.4112350054975,2.2396860858554,5.490620519392,-1.7015687071993,-6.767077286814,0.020903083747445,2.5120141560311,0.37384825419737,-6.0420369909726,2.6035739548303,-3.1621994445122,0.017754648627783,1.4161569320429,-1.0992654770385,0.16688824820408,1.5465845135814,0.54020208576944,0.44261397032613,-4.2689999275636,-2.333674062619,-5.0017158211155,5.4117995019532,-1.609366160622,4.2521972132252,-0.22739371481988,-2.0213971737566,-7.3803106998452,0.7972789137761,-4.0338130610334,-4.6943408779433,2.2341894741561,4.3170343617048,-4.9713863999354,127.03904032511,127.03904032511,127.03904032511,127.03904032511,127.03904032511,127.03904032511,127.03904032511,127.03904032511,127.03904032511,127.03904032511,127.03904032511,127.03904032511,127.03904032511,127.03904032511,127.03904032511,127.03904032511,127.03904032511,127.03904032511,127.03904032511,127.03904032511,127.03904032511,127.03904032511,127.03904032511,127.03904032511,127.03904032511,127.03904032511,127.03904032511,127.03904032511,127.03904032511,127.03904032511,127.03904032511,127.03904032511,127.03904032511,127.03904032511,127.03904032511,127.03904032511,127.03904032511,127.03904032511,127.03904032511,127.03904032511,127.03904032511,127.03904032511,127.03904032511,127.03904032511,127.03904032511,127.03904032511,127.03904032511,127.03904032511,212.80017935299,217.501862562,-0.0058527729198548,207.92351571527,-0.0072440618361136,0
1.78125e-05,34589802.439019,1.3723151811176e-06,5.2970929833393e-06,1.5827519403144e-06,1.000767019275,0,0,0,0,0,0,0,0,0,0,0,0,0,0,0,0,0,0,0,0,0,0,0,0,0,0,0,0,0,0,0,0,0,0,0,0,0,0,0,0,0,0,0,0,0,0,0,0,-0.40306617687309,0.4968886847138,-3.4721326058001,7.1057882186986,2.5826320426818,1.6940348462702,-3.2679904991685,0.72190098376737,2.9858044883438,-0.010464888758229,0.93666788162243,-6.0849671992598,1.2969311879451,-1.9255513289374,0.93164870746144,-3.3832752160397,2.283449048912,5.4423230892483,-1.6371867760911,-6.8057272263005,0.056997465572965,2.4807305984315,0.37181953970553,-5.9782464667941,2.5899910449409,-3.118704036902,0.023175517513037,1.4261665401839,-1.122753561668,0.21916052963284,1.5332263191074,0.52488387455913,0.45922473964321,-4.2633792807473,-2.3295832681038,-4.8720227133282,5.411040317673,-1.613443643276,4.2220103898761,-0.19724518015479,-2.0174388852136,-7.30102273617,0.84364484964737,-3.9525211823411,-4.6725051745166,2.1690413900063,4.3158088577125,-4.9293540750725,127.26317559201,127.26317559201,127.26317559201,127.26317559201,127.26317559201,127.26317559201,127.26317559201,127.26317559201,127.26317559201,127.26317559201,127.26317559201,127.26317559201,127.26317559201,127.26317559201,127.26317559201,127.26317559201,127.26317559201,127.26317559201,127.26317559201,127.26317559201,127.26317559201,127.26317559201,127.26317559201,127.26317559201,127.26317559201,127.26317559201,127.26317559201,127.26317559201,127.26317559201,127.26317559201,127.26317559201,127.26317559201,127.26317559201,127.26317559201,127.26317559201,127.26317559201,127.26317559201,127.26317559201,127.26317559201,127.26317559201,127.26317559201,127.26317559201,127.26317559201,127.26317559201,127.26317559201,127.26317559201,127.26317559201,127.26317559201,213.54989723404,218.59213388718,-0.0062728821378106,208.66689602805,-0.0077419973612549,0
1.84375e-05,35539123.828047,1.4350673645051e-06,5.4828463921165e-06,1.6721241621286e-06,1.0008267380202,0,0,0,0,0,0,0,0,0,0,0,0,0,0,0,0,0,0,0,0,0,0,0,0,0,0,0,0,0,0,0,0,0,0,0,0,0,0,0,0,0,0,0,0,0,0,0,0,-0.41145166662,0.49082571592508,-3.4142122151126,7.1214092265699,2.5656906148933,1.7133763831536,-3.3173862819775,0.76390739102013,2.9637989980241,-0.022529566539144,0.94671453156328,-6.0585085062582,1.3090977769754,-1.8574141399803,0.94268492478479,-3.3611730502184,2.324686224042,5.3997199215673,-1.5794331512552,-6.8362449699615,0.09060088370676,2.4500199610116,0.36963468989392,-5.9186862331956,2.5796266101115,-3.0758934835742,0.0303410636655,1.4338559412085,-1.1462381925638,0.27054350755416,1.5215314970392,0.50936578746233,0.47514797387275,-4.259608742324,-2.3247784572885,-4.7545358484975,5.4131275834786,-1.6196449189502,4.1963988528032,-0.1719634007611,-2.0100008086168,-7.2312040438836,0.88358357594353,-3.8769894129307,-4.649534450174,2.1099069040637,4.3169982845891,-4.8901455870798,127.48807505623,127.48807505623,127.48807505623,127.48807505623,127.48807505623,127.48807505623,127.48807505623,127.48807505623,127.48807505623,127.48807505623,127.48807505623,127.48807505623,127.48807505623,127.48807505623,127.48807505623,127.48807505623,127.48807505623,127.48807505623,127.48807505623,127.48807505623,127.48807505623,127.48807505623,127.48807505623,127.48807505623,127.48807505623,127.48807505623,127.48807505623,127.48807505623,127.48807505623,127.48807505623,127.48807505623,127.48807505623,127.48807505623,127.48807505623,127.48807505623,127.48807505623,127.48807505623,127.48807505623,127.48807505623,127.48807505623,127.48807505623,127.48807505623,127.48807505623,127.48807505623,127.48807505623,127.48807505623,127.48807505623,127.48807505623,214.27968274154,219.66045853022,-0.0067047400930786,209.39045899386,-0.0082519656805128,0
1.90625e-05,36498818.472831,1.4981547501713e-06,5.6685534416911e-06,1.7612443876156e-06,1.0008865335678,0,0,0,0,0,0,0,0,0,0,0,0,0,0,0,0,0,0,0,0,0,0,0,0,0,0,0,0,0,0,0,0,0,0,0,0,0,0,0,0,0,0,0,0,0,0,0,0,-0.42076320300633,0.48289960232134,-3.3623318064621,7.1305381558008,2.5516937730068,1.7290014925282,-3.362803644261,0.80381034800104,2.9436450423251,-0.034579435921854,0.95724816634336,-6.0326011246932,1.3194227934045,-1.7988422130692,0.95573931126248,-3.343665848305,2.3628519000703,5.3620070537707,-1.5272636610565,-6.8587088098818,0.1220575682177,2.4205412712692,0.36754824204237,-5.8628387406863,2.5716949870163,-3.033553169751,0.038895338600292,1.4394554837698,-1.1693839087082,0.32048583486599,1.5113828011931,0.49363278812893,0.49038325670896,-4.2571007698571,-2.3194466711214,-4.6490156152795,5.4171448684027,-1.6273693686917,4.1739911350864,-0.15139585942161,-2.0004170532288,-7.1692036206769,0.9170845326686,-3.8068020981778,-4.6258179003982,2.0555276096823,4.3203146833414,-4.8525063779363,127.71368874577,127.71368874577,127.71368874577,127.71368874577,127.71368874577,127.71368874577,127.71368874577,127.71368874577,127.71368874577,127.71368874577,127.71368874577,127.71368874577,127.71368874577,127.71368874577,127.71368874577,127.71368874577,127.71368874577,127.71368874577,127.71368874577,127.71368874577,127.71368874577,127.71368874577,127.71368874577,127.71368874577,127.71368874577,127.71368874577,127.71368874577,127.71368874577,127.71368874577,127.71368874577,127.71368874577,127.71368874577,127.71368874577,127.71368874577,127.71368874577,127.71368874577,127.71368874577,127.71368874577,127.71368874577,127.71368874577,127.71368874577,127.71368874577,127.71368874577,127.71368874577,127.71368874577,127.71368874577,127.71368874577,127.71368874577,214.96217102615,220.70766279305,-0.0071483373581069,210.09604968111,-0.0087733963952833,0
1.96875e-05,37469360.147646,1.5611316797428e-06,5.854219797919e-06,1.8501155524885e-06,1.0009463946931,0,0,0,0,0,0,0,0,0,0,0,0,0,0,0,0,0,0,0,0,0,0,0,0,0,0,0,0,0,0,0,0,0,0,0,0,0,0,0,0,0,0,0,0,0,0,0,0,-0.430811363253,0.47307739017996,-3.3152180727091,7.1337681840599,2.540551132135,1.7412952946945,-3.4041864210893,0.84149465843847,2.9253579029129,-0.046503081350843,0.96812281775721,-6.0069483989656,1.3281813969025,-1.7493091850915,0.96973935674003,-3.3299646170987,2.3972641069068,5.3289253033991,-1.4800116348813,-6.8735959803839,0.15168416324324,2.3926677583444,0.36571000165984,-5.8103870139481,2.5656446929069,-2.9915639548957,0.048703007037156,1.4432421409344,-1.1919076030185,0.36854846625978,1.5026474274953,0.4776135663993,0.50497092335317,-4.2555138361483,-2.3138090675155,-4.5548254119731,5.4224111639511,-1.6362821322981,4.153572870428,-0.13520791847618,-1.9896418334368,-7.1140060166663,0.94400913313727,-3.7415086796799,-4.6018237795397,2.0049836723487,4.3255750884375,-4.815941398052,127.93996612648,127.93996612648,127.93996612648,127.93996612648,127.93996612648,127.93996612648,127.93996612648,127.93996612648,127.93996612648,127.93996612648,127.93996612648,127.93996612648,127.93996612648,127.93996612648,127.93996612648,127.93996612648,127.93996612648,127.93996612648,127.93996612648,127.93996612648,127.93996612648,127.93996612648,127.93996612648,127.93996612648,127.93996612648,127.93996612648,127.93996612648,127.93996612648,127.93996612648,127.93996612648,127.93996612648,127.93996612648,127.93996612648,127.93996612648,127.93996612648,127.93996612648,127.93996612648,127.93996612648,127.93996612648,127.93996612648,127.93996612648,127.93996612648,127.93996612648,127.93996612648,127.93996612648,127.93996612648,127.93996612648,127.93996612648,215.59682998165,221.73455416479,-0.0076036675805906,210.78539964033,-0.0093056531691841,0
2.03125e-05,38450585.772275,1.6239816014294e-06,6.0398512376562e-06,1.9387416251199e-06,1.0010063120767,0,0,0,0,0,0,0,0,0,0,0,0,0,0,0,0,0,0,0,0,0,0,0,0,0,0,0,0,0,0,0,0,0,0,0,0,0,0,0,0,0,0,0,0,0,0,0,0,-0.44137223489121,0.46146501936424,-3.2718052612318,7.1318172025843,2.5321148373734,1.7506072134275,-3.4415847259961,0.87694031556242,2.9088725892769,-0.058216321957715,0.97918455562459,-5.9814057858516,1.3356906001059,-1.7079647677669,0.98387559541881,-3.3195354744383,2.4273632975651,5.2999206574614,-1.4372476817984,-6.8815268183366,0.17978920835062,2.3665507788441,0.36411162038068,-5.7611618758846,2.5610095510479,-2.9498465340033,0.059624494105795,1.4454893618587,-1.2135769950691,0.41443135840164,1.4951881772538,0.46134948341845,0.51893338478365,-4.2546166427147,-2.3080874207291,-4.4710062366322,5.428295072288,-1.6461945367871,4.1341162776588,-0.12291068046115,-1.9783850940809,-7.0648953441554,0.96439366667344,-3.680616366568,-4.5778859546784,1.9575557571821,4.332053236638,-4.7803617154197,128.16686401148,128.16686401148,128.16686401148,128.16686401148,128.16686401148,128.16686401148,128.16686401148,128.16686401148,128.16686401148,128.16686401148,128.16686401148,128.16686401148,128.16686401148,128.16686401148,128.16686401148,128.16686401148,128.16686401148,128.16686401148,128.16686401148,128.16686401148,128.16686401148,128.16686401148,128.16686401148,128.16686401148,128.16686401148,128.16686401148,128.16686401148,128.16686401148,128.16686401148,128.16686401148,128.16686401148,128.16686401148,128.16686401148,128.16686401148,128.16686401148,128.16686401148,128.16686401148,128.16686401148,128.16686401148,128.16686401148,128.16686401148,128.16686401148,128.16686401148,128.16686401148,128.16686401148,128.16686401148,128.16686401148,128.16686401148,216.19052243726,222.74188174368,-0.0080706906422031,211.46001027852,-0.0098481362110794,0
2.09375e-05,39441913.533641,1.6866909963425e-06,6.2254529967782e-06,2.0271277899344e-06,1.0010662779935,0,0,0,0,0,0,0,0,0,0,0,0,0,0,0,0,0,0,0,0,0,0,0,0,0,0,0,0,0,0,0,0,0,0,0,0,0,0,0,0,0,0,0,0,0,0,0,0,-0.45222550163695,0.44833085964777,-3.2311743952193,7.1253724277456,2.5259926532071,1.7572681450201,-3.4751288349562,0.91020348415789,2.8940551492679,-0.069647612661531,0.99024921941993,-5.9559124721342,1.3422351803186,-1.673812170468,0.99757889641074,-3.3119954677789,2.4528764906759,5.2740432314715,-1.3986460541102,-6.8831591376283,0.20667043093293,2.3421527834078,0.36264541165091,-5.7150995011761,2.5573648795361,-2.908381289636,0.071420946595212,1.4464632580601,-1.2342486257629,0.45795987879358,1.4888791851266,0.44499823426248,0.53223868811454,-4.2542399772494,-2.3024928112256,-4.396486280459,5.4342699002132,-1.6569993147454,4.1148625855725,-0.1139425310808,-1.9671564855867,-7.0213241188867,0.97855708986636,-3.6236727374285,-4.5542165955302,1.9126756010538,4.3386836373054,-4.7458952253196,128.39434572336,128.39434572336,128.39434572336,128.39434572336,128.39434572336,128.39434572336,128.39434572336,128.39434572336,128.39434572336,128.39434572336,128.39434572336,128.39434572336,128.39434572336,128.39434572336,128.39434572336,128.39434572336,128.39434572336,128.39434572336,128.39434572336,128.39434572336,128.39434572336,128.39434572336,128.39434572336,128.39434572336,128.39434572336,128.39434572336,128.39434572336,128.39434572336,128.39434572336,128.39434572336,128.39434572336,128.39434572336,128.39434572336,128.39434572336,128.39434572336,128.39434572336,128.39434572336,128.39434572336,128.39434572336,128.39434572336,128.39434572336,128.39434572336,128.39434572336,128.39434572336,128.39434572336,128.39434572336,128.39434572336,128.39434572336,216.74939741085,223.73040906489,-0.0085493071884546,212.12117035987,-0.010400376268895,0
2.15625e-05,40442602.129581,1.7492491084712e-06,6.4110294412645e-06,2.115280287861e-06,1.0011262860457,0,0,0,0,0,0,0,0,0,0,0,0,0,0,0,0,0,0,0,0,0,0,0,0,0,0,0,0,0,0,0,0,0,0,0,0,0,0,0,0,0,0,0,0,0,0,0,0,-0.46318596689504,0.43399179619316,-3.1925948492414,7.1150751896468,2.5217783829652,1.7615966969109,-3.5050170543833,0.94138250831843,2.8807313026286,-0.080743041883934,1.001130528719,-5.9304397504285,1.3480072074711,-1.6458765282478,1.0104997688186,-3.3070403121649,2.4738587303938,5.2505456696375,-1.3638969262241,-6.8791575426805,0.2325745736827,2.319313203265,0.36121890496173,-5.6721619290701,2.5543519550042,-2.8671703975201,0.083833668819572,1.4463965793541,-1.253881962527,0.49904651784849,1.4835947002962,0.4287560875596,0.54482281891519,-4.2542541820706,-2.2972008477212,-4.3302543087553,5.4399647013749,-1.6686241482596,4.0953571125389,-0.107755652617,-1.9562794246557,-6.9828282438326,0.98707304787333,-3.5703219119348,-4.530974078789,1.8699205847931,4.3447941914373,-4.7127559798027,128.62237815036,128.62237815036,128.62237815036,128.62237815036,128.62237815036,128.62237815036,128.62237815036,128.62237815036,128.62237815036,128.62237815036,128.62237815036,128.62237815036,128.62237815036,128.62237815036,128.62237815036,128.62237815036,128.62237815036,128.62237815036,128.62237815036,128.62237815036,128.62237815036,128.62237815036,128.62237815036,128.62237815036,128.62237815036,128.62237815036,128.62237815036,128.62237815036,128.62237815036,128.62237815036,128.62237815036,128.62237815036,128.62237815036,128.62237815036,128.62237815036,128.62237815036,128.62237815036,128.62237815036,128.62237815036,128.62237815036,128.62237815036,128.62237815036,128.62237815036,128.62237815036,128.62237815036,128.62237815036,128.62237815036,128.62237815036,217.27707333392,224.70092998153,-0.0090393476371406,212.76999407682,-0.010962012797607,0
2.21875e-05,41451941.97235,1.8116480224504e-06,6.5965840166178e-06,2.2032064718661e-06,1.0011863309505,0,0,0,0,0,0,0,0,0,0,0,0,0,0,0,0,0,0,0,0,0,0,0,0,0,0,0,0,0,0,0,0,0,0,0,0,0,0,0,0,0,0,0,0,0,0,0,0,-0.47412165033913,0.41869653330372,-3.1555633569378,7.1015363182722,2.5191890520573,1.7639080135464,-3.5314882259335,0.97058844219624,2.8687194052065,-0.091465789301171,1.0116739300734,-5.904968352371,1.3531333142632,-1.6232917107438,1.0224548358567,-3.304395283579,2.4906288514268,5.2290754500874,-1.3326559969345,-6.8701808488731,0.25766226228014,2.297845456931,0.35978376051576,-5.6322720400259,2.5517040909585,-2.8262083429304,0.096659244212591,1.4454818625123,-1.2725004179523,0.53766345011294,1.4791871054203,0.41280195457011,0.55663732036191,-4.2545633871697,-2.2923308680174,-4.2714247891578,5.4451473871387,-1.6810003170063,4.0754097229229,-0.10386828582283,-1.9459318993054,-6.9489675481552,0.99067643812706,-3.5202876475737,-4.508293424801,1.8290024383576,4.3502197313396,-4.6811205455257,128.85093109861,128.85093109861,128.85093109861,128.85093109861,128.85093109861,128.85093109861,128.85093109861,128.85093109861,128.85093109861,128.85093109861,128.85093109861,128.85093109861,128.85093109861,128.85093109861,128.85093109861,128.85093109861,128.85093109861,128.85093109861,128.85093109861,128.85093109861,128.85093109861,128.85093109861,128.85093109861,128.85093109861,128.85093109861,128.85093109861,128.85093109861,128.85093109861,128.85093109861,128.85093109861,128.85093109861,128.85093109861,128.85093109861,128.85093109861,128.85093109861,128.85093109861,128.85093109861,128.85093109861,128.85093109861,128.85093109861,128.85093109861,128.85093109861,128.85093109861,128.85093109861,128.85093109861,128.85093109861,128.85093109861,128.85093109861,217.77610631506,225.65425197408,-0.0095405801465215,213.40745592886,-0.011532736905178,0
2.28125e-05,42469356.3003,1.8738827721697e-06,6.782119351773e-06,2.2909147289189e-06,1.0012464083414,0,0,0,0,0,0,0,0,0,0,0,0,0,0,0,0,0,0,0,0,0,0,0,0,0,0,0,0,0,0,0,0,0,0,0,0,0,0,0,0,0,0,0,0,0,0,0,0,-0.48495718044898,0.40259503506334,-3.1197618986328,7.0853300004775,2.5180460568266,1.7645146841895,-3.5547975543521,0.99793318712232,2.8578515248386,-0.10180059359885,1.0217672278644,-5.8794941565227,1.3577157177101,-1.6053128333699,1.0333618460424,-3.3037911510473,2.5036521226069,5.2095300240449,-1.3045568674174,-6.8568736376382,0.28201573102873,2.2775983495938,0.35830980712184,-5.5952808478138,2.5492401517313,-2.7854897858126,0.10976077819152,1.4438861008985,-1.2901346848286,0.57383350315238,1.4754848760487,0.39726579289447,0.56766487141211,-4.2551081116014,-2.2879409645721,-4.2192212043033,5.4496686512115,-1.6940471474822,4.0550133136528,-0.10187928424035,-1.9362010708148,-6.9192963087794,0.99014977453466,-3.4733098473124,-4.4862722172208,1.7897385964605,4.3550563329076,-4.6510952406758,129.07997673309,129.07997673309,129.07997673309,129.07997673309,129.07997673309,129.07997673309,129.07997673309,129.07997673309,129.07997673309,129.07997673309,129.07997673309,129.07997673309,129.07997673309,129.07997673309,129.07997673309,129.07997673309,129.07997673309,129.07997673309,129.07997673309,129.07997673309,129.07997673309,129.07997673309,129.07997673309,129.07997673309,129.07997673309,129.07997673309,129.07997673309,129.07997673309,129.07997673309,129.07997673309,129.07997673309,129.07997673309,129.07997673309,129.07997673309,129.07997673309,129.07997673309,129.07997673309,129.07997673309,129.07997673309,129.07997673309,129.07997673309,129.07997673309,129.07997673309,129.07997673309,129.07997673309,129.07997673309,129.07997673309,129.07997673309,218.24877386005,226.59117415594,-0.010052737581456,214.03441729517,-0.012112261815398,0
2.34375e-05,43494440.724101,1.935951234403e-06,6.9676374151373e-06,2.3784141651917e-06,1.0013065145856,0,0,0,0,0,0,0,0,0,0,0,0,0,0,0,0,0,0,0,0,0,0,0,0,0,0,0,0,0,0,0,0,0,0,0,0,0,0,0,0,0,0,0,0,0,0,0,0,-0.49566521364077,0.3857949387574,-3.0849548222161,7.066963575335,2.5182033566447,1.7637066259534,-3.5752077571125,1.0235305239976,2.8479740816866,-0.11180164618618,1.0313350005185,-5.8540446788746,1.3618284404536,-1.5912944221735,1.0431911954982,-3.3049610898125,2.513437825293,5.1918832657919,-1.2792722979885,-6.8398564543258,0.30567764049277,2.2584449258996,0.35674516787577,-5.5609541773089,2.5468323386754,-2.7450411653807,0.12303754408984,1.441764193718,-1.3067945738747,0.60762708549775,1.4723187379226,0.38216521428703,0.57790122287161,-4.2558661649402,-2.2840373172053,-4.1729354345606,5.4534127124751,-1.7076693041459,4.0342659929605,-0.10146038322169,-1.9271225153118,-6.8933621009289,0.98623676820637,-3.4290955990217,-4.464949807478,1.7520151198956,4.359463085048,-4.62278365212,129.30948937438,129.30948937438,129.30948937438,129.30948937438,129.30948937438,129.30948937438,129.30948937438,129.30948937438,129.30948937438,129.30948937438,129.30948937438,129.30948937438,129.30948937438,129.30948937438,129.30948937438,129.30948937438,129.30948937438,129.30948937438,129.30948937438,129.30948937438,129.30948937438,129.30948937438,129.30948937438,129.30948937438,129.30948937438,129.30948937438,129.30948937438,129.30948937438,129.30948937438,129.30948937438,129.30948937438,129.30948937438,129.30948937438,129.30948937438,129.30948937438,129.30948937438,129.30948937438,129.30948937438,129.30948937438,129.30948937438,129.30948937438,129.30948937438,129.30948937438,129.30948937438,129.30948937438,129.30948937438,129.30948937438,129.30948937438,218.69722337208,227.51246731887,-0.010575539490102,214.65164298995,-0.012700313370407,0
2.40625e-05,44526955.860048,1.9978537515415e-06,7.1531396683577e-06,2.4657141126411e-06,1.0013666466338,0,0,0,0,0,0,0,0,0,0,0,0,0,0,0,0,0,0,0,0,0,0,0,0,0,0,0,0,0,0,0,0,0,0,0,0,0,0,0,0,0,0,0,0,0,0,0,0,-0.50625112889936,0.3684408882847,-3.0509091117539,7.0468456394361,2.5194820339926,1.7617308222946,-3.5929847606812,1.0474988869811,2.8389379548348,-0.12161075117014,1.04033466039,-5.8286894487049,1.3655009224637,-1.5806670402078,1.0519437184967,-3.3076484261245,2.5204860090458,5.1760604146828,-1.2565561476282,-6.8197088165542,0.32868255528385,2.2402413795921,0.35499954112006,-5.5289903267091,2.54437509341,-2.7049484087343,0.13638853573893,1.4392650934393,-1.3224762982257,0.63915689300109,1.4695542685738,0.36739111597768,0.58734298714922,-4.2568466369146,-2.2805897944845,-4.1319025670507,5.45627857367,-1.7217609219842,4.0133159423031,-0.10234219855406,-1.9186991364114,-6.8707221167981,0.97961146518973,-3.3873172236052,-4.444304990648,1.7157512296278,4.3635578329812,-4.5963440534747,129.53944565216,129.53944565216,129.53944565216,129.53944565216,129.53944565216,129.53944565216,129.53944565216,129.53944565216,129.53944565216,129.53944565216,129.53944565216,129.53944565216,129.53944565216,129.53944565216,129.53944565216,129.53944565216,129.53944565216,129.53944565216,129.53944565216,129.53944565216,129.53944565216,129.53944565216,129.53944565216,129.53944565216,129.53944565216,129.53944565216,129.53944565216,129.53944565216,129.53944565216,129.53944565216,129.53944565216,129.53944565216,129.53944565216,129.53944565216,129.53944565216,129.53944565216,129.53944565216,129.53944565216,129.53944565216,129.53944565216,129.53944565216,129.53944565216,129.53944565216,129.53944565216,129.53944565216,129.53944565216,129.53944565216,129.53944565216,219.12349532981,228.41886084143,-0.011108703598279,215.25981153443,-0.013296634204042,0
2.46875e-05,45566779.432183,2.0595926872318e-06,7.3386271969507e-06,2.5528237207715e-06,1.0014268019346,0,0,0,0,0,0,0,0,0,0,0,0,0,0,0,0,0,0,0,0,0,0,0,0,0,0,0,0,0,0,0,0,0,0,0,0,0,0,0,0,0,0,0,0,0,0,0,0,-0.51673694960215,0.35073277880161,-3.0173988816646,7.0252904836111,2.5216643381771,1.7587883921488,-3.6083916683234,1.0699590130299,2.8305971961848,-0.13136125863716,1.0487538549024,-5.8035277137245,1.3687236229937,-1.5729255937923,1.0596456717015,-3.3116137692611,2.5252655116102,5.1619118723371,-1.2362311387815,-6.7969558465309,0.3510608634134,2.2228218001764,0.35298334137411,-5.4990737173491,2.5417775043782,-2.665342301767,0.14970378157041,1.4365303570421,-1.337181298967,0.66856904772721,1.4671028834257,0.35283025611312,0.59599194037984,-4.258076099072,-2.2775446916061,-4.095500708013,5.4581801713871,-1.7362107429971,3.9923245726808,-0.10430266456316,-1.9109070477609,-6.8509600910313,0.9708730412478,-3.3476430621019,-4.4242632060274,1.6808757388723,4.3673950263736,-4.5719600072311,129.76982448399,129.76982448399,129.76982448399,129.76982448399,129.76982448399,129.76982448399,129.76982448399,129.76982448399,129.76982448399,129.76982448399,129.76982448399,129.76982448399,129.76982448399,129.76982448399,129.76982448399,129.76982448399,129.76982448399,129.76982448399,129.76982448399,129.76982448399,129.76982448399,129.76982448399,129.76982448399,129.76982448399,129.76982448399,129.76982448399,129.76982448399,129.76982448399,129.76982448399,129.76982448399,129.76982448399,129.76982448399,129.76982448399,129.76982448399,129.76982448399,129.76982448399,129.76982448399,129.76982448399,129.76982448399,129.76982448399,129.76982448399,129.76982448399,129.76982448399,129.76982448399,129.76982448399,129.76982448399,129.76982448399,129.76982448399,219.52948611088,229.31102777953,-0.011651950338353,215.85952118809,-0.013900975103313,0
2.53125e-05,46613846.119989,2.1211720662833e-06,7.5241008127338e-06,2.6397516568299e-06,1.001486978379,0,0,0,0,0,0,0,0,0,0,0,0,0,0,0,0,0,0,0,0,0,0,0,0,0,0,0,0,0,0,0,0,0,0,0,0,0,0,0,0,0,0,0,0,0,0,0,0,-0.52714803285221,0.33286777714381,-2.9842649120229,7.0025456601262,2.5245336441945,1.7550483301977,-3.6216795255737,1.0910296040134,2.8228174705535,-0.1411136454167,1.0565984592873,-5.7786672538107,1.3714713372051,-1.5676258264478,1.066348497216,-3.3166384707909,2.5281971604148,5.1492541182917,-1.2181426669939,-6.7720635280174,0.3728278142948,2.206025987488,0.3506413016891,-5.4709120800931,2.5389712160964,-2.6263644416607,0.16288105303425,1.4336920742814,-1.3509221986897,0.69603437426396,1.4649086078671,0.33844104081005,0.6038590954657,-4.2595834446311,-2.2748341309726,-4.0631636400862,5.4590502217707,-1.7509069221435,3.9714425601588,-0.10715877956651,-1.9036970936907,-6.8336964230834,0.96052946551353,-3.3097699716338,-4.4047015634027,1.6473167193507,4.3709860730176,-4.5497619149271,130.00060657196,130.00060657196,130.00060657196,130.00060657196,130.00060657196,130.00060657196,130.00060657196,130.00060657196,130.00060657196,130.00060657196,130.00060657196,130.00060657196,130.00060657196,130.00060657196,130.00060657196,130.00060657196,130.00060657196,130.00060657196,130.00060657196,130.00060657196,130.00060657196,130.00060657196,130.00060657196,130.00060657196,130.00060657196,130.00060657196,130.00060657196,130.00060657196,130.00060657196,130.00060657196,130.00060657196,130.00060657196,130.00060657196,130.00060657196,130.00060657196,130.00060657196,130.00060657196,130.00060657196,130.00060657196,130.00060657196,130.00060657196,130.00060657196,130.00060657196,130.00060657196,130.00060657196,130.00060657196,130.00060657196,130.00060657196,219.917123479,230.18957434786,-0.012204988993816,216.45129637485,-0.014513075453971,0
2.59375e-05,47668108.509537,2.1825973178674e-06,7.7095611299538e-06,2.7265058391808e-06,1.0015471742184,0,0,0,0,0,0,0,0,0,0,0,0,0,0,0,0,0,0,0,0,0,0,0,0,0,0,0,0,0,0,0,0,0,0,0,0,0,0,0,0,0,0,0,0,0,0,0,0,-0.53750368412234,0.3149709820592,-2.9514586007528,6.9788143485202,2.527917188446,1.7506649604778,-3.6330760763367,1.1108267382127,2.8154873282275,-0.15087859962247,1.0638811738748,-5.7542119110857,1.3737311648593,-1.5643818844945,1.0721267536566,-3.3225275530881,2.5296368938254,5.1379151350638,-1.2021212665666,-6.745438347518,0.39398003948613,2.1897241698687,0.34795076899554,-5.4442443904488,2.5359200045378,-2.5881476127455,0.17584669516701,1.4308734477391,-1.3637131858886,0.72174346304677,1.4629316579872,0.32422343406732,0.6109693674326,-4.2613893861247,-2.2723856104689,-4.034391195911,5.4588434277378,-1.7657436451862,3.9507974493924,-0.11076019956356,-1.89699875747,-6.8185931122772,0.94897426524221,-3.2734419121584,-4.3854522192539,1.6150010346883,4.3743214833965,-4.5297809693722,130.23177475098,130.23177475098,130.23177475098,130.23177475098,130.23177475098,130.23177475098,130.23177475098,130.23177475098,130.23177475098,130.23177475098,130.23177475098,130.23177475098,130.23177475098,130.23177475098,130.23177475098,130.23177475098,130.23177475098,130.23177475098,130.23177475098,130.23177475098,130.23177475098,130.23177475098,130.23177475098,130.23177475098,130.23177475098,130.23177475098,130.23177475098,130.23177475098,130.23177475098,130.23177475098,130.23177475098,130.23177475098,130.23177475098,130.23177475098,130.23177475098,130.23177475098,130.23177475098,130.23177475098,130.23177475098,130.23177475098,130.23177475098,130.23177475098,130.23177475098,130.23177475098,130.23177475098,130.23177475098,130.23177475098,130.23177475098,220.28839850761,231.05504300961,-0.012767523933329,217.03559853579,-0.015132663159855,0
2.65625e-05,48729528.586878,2.2438750909369e-06,7.8950086174763e-06,2.813093247282e-06,1.0016073879554,0,0,0,0,0,0,0,0,0,0,0,0,0,0,0,0,0,0,0,0,0,0,0,0,0,0,0,0,0,0,0,0,0,0,0,0,0,0,0,0,0,0,0,0,0,0,0,0,-0.5478122473947,0.29707270181703,-2.9190306757516,6.9542684143958,2.5317100552003,1.7457879836531,-3.6427782911139,1.129466915305,2.8085298325648,-0.16064708845276,1.0706269714341,-5.7302554487186,1.3755251807364,-1.5628621670002,1.0770716909001,-3.329114814211,2.5298661515846,5.1277618919575,-1.1879740430873,-6.7174288490185,0.41450800952857,2.1738262661332,0.34491360817024,-5.4188446644935,2.5326265618893,-2.550807575812,0.18856645074823,1.4281868536143,-1.3755604324482,0.7459027126763,1.4611447175505,0.31018421598393,0.61737555151045,-4.2635007909584,-2.2701328552964,-4.0087500970563,5.4575388166098,-1.780630973252,3.9304896474218,-0.11498440982266,-1.8907296015462,-6.8053565230259,0.93648080740676,-3.2384565604784,-4.3663131927307,1.5838608450409,4.3773855675526,-4.5119622502914,130.46331362202,130.46331362202,130.46331362202,130.46331362202,130.46331362202,130.46331362202,130.46331362202,130.46331362202,130.46331362202,130.46331362202,130.46331362202,130.46331362202,130.46331362202,130.46331362202,130.46331362202,130.46331362202,130.46331362202,130.46331362202,130.46331362202,130.46331362202,130.46331362202,130.46331362202,130.46331362202,130.46331362202,130.46331362202,130.46331362202,130.46331362202,130.46331362202,130.46331362202,130.46331362202,130.46331362202,130.46331362202,130.46331362202,130.46331362202,130.46331362202,130.46331362202,130.46331362202,130.46331362202,130.46331362202,130.46331362202,130.46331362202,130.46331362202,130.46331362202,130.46331362202,130.46331362202,130.46331362202,130.46331362202,130.46331362202,220.64514069837,231.90792440509,-0.013339246220376,217.61284014683,-0.015759456860813,0
2.71875e-05,49798086.355808,2.3050130856538e-06,8.0804436318881e-06,2.8995198589563e-06,1.0016676182367,0,0,0,0,0,0,0,0,0,0,0,0,0,0,0,0,0,0,0,0,0,0,0,0,0,0,0,0,0,0,0,0,0,0,0,0,0,0,0,0,0,0,0,0,0,0,0,0,-0.55807058289558,0.27913066323653,-2.8870760634467,6.9290571671868,2.5358730500283,1.7405630511807,-3.6509534096187,1.1470680976191,2.8019104153702,-0.17040082000111,1.0768861781392,-5.7068771920256,1.3769142576965,-1.5627839396333,1.0812817517016,-3.3362696506303,2.5290949703778,5.1187036672902,-1.1754940049796,-6.6883300717419,0.43441568826853,2.1582813957706,0.34155269739823,-5.3945283589583,2.5291308257412,-2.5144377457873,0.20104178111841,1.4257251165219,-1.3864653466245,0.76872219281009,1.4595379203401,0.29632787649414,0.62316773671898,-4.2659090132174,-2.2680261445929,-3.9858662600374,5.4551425857515,-1.7955054592189,3.9105924961673,-0.11973345278,-1.8848079479578,-6.7937399587269,0.92322257066768,-3.204666501716,-4.3470780701692,1.553843505278,4.3801643906759,-4.4962035079456,130.69520937155,130.69520937155,130.69520937155,130.69520937155,130.69520937155,130.69520937155,130.69520937155,130.69520937155,130.69520937155,130.69520937155,130.69520937155,130.69520937155,130.69520937155,130.69520937155,130.69520937155,130.69520937155,130.69520937155,130.69520937155,130.69520937155,130.69520937155,130.69520937155,130.69520937155,130.69520937155,130.69520937155,130.69520937155,130.69520937155,130.69520937155,130.69520937155,130.69520937155,130.69520937155,130.69520937155,130.69520937155,130.69520937155,130.69520937155,130.69520937155,130.69520937155,130.69520937155,130.69520937155,130.69520937155,130.69520937155,130.69520937155,130.69520937155,130.69520937155,130.69520937155,130.69520937155,130.69520937155,130.69520937155,130.69520937155,220.98882851154,232.74867233343,-0.013919843547625,218.1833992972,-0.016393181244892,0
2.78125e-05,50873785.638899,2.3660198437792e-06,8.2658664390309e-06,2.9857907109986e-06,1.0017278637697,0,0,0,0,0,0,0,0,0,0,0,0,0,0,0,0,0,0,0,0,0,0,0,0,0,0,0,0,0,0,0,0,0,0,0,0,0,0,0,0,0,0,0,0,0,0,0,0,-0.56826680430975,0.26106499830255,-2.8556788812621,6.9033139233748,2.5404094607041,1.7351244979604,-3.6577469053773,1.1637438158271,2.795634850124,-0.18011513888806,1.0827359403228,-5.6841387593402,1.3779784104943,-1.5639074556847,1.0848532902406,-3.3438996477154,2.5274756564501,5.1106735465591,-1.1644720148251,-6.6583908877623,0.453731466975,2.1430733307692,0.3379087339096,-5.3711562019135,2.5254986961429,-2.4791056403854,0.21329683629821,1.4235475657485,-1.3964386841004,0.79039107846416,1.4581197999278,0.28265701203542,0.62846107303819,-4.2685911971812,-2.2660380973706,-3.9654138522561,5.4516921431582,-1.810334453237,3.8911529784626,-0.12493114899026,-1.8791638661675,-6.7835440912036,0.90930915917235,-3.1719777773872,-4.3275842075852,1.5249198508642,4.3826469475038,-4.4823819751682,130.92744927125,130.92744927125,130.92744927125,130.92744927125,130.92744927125,130.92744927125,130.92744927125,130.92744927125,130.92744927125,130.92744927125,130.92744927125,130.92744927125,130.92744927125,130.92744927125,130.92744927125,130.92744927125,130.92744927125,130.92744927125,130.92744927125,130.92744927125,130.92744927125,130.92744927125,130.92744927125,130.92744927125,130.92744927125,130.92744927125,130.92744927125,130.92744927125,130.92744927125,130.92744927125,130.92744927125,130.92744927125,130.92744927125,130.92744927125,130.92744927125,130.92744927125,130.92744927125,130.92744927125,130.92744927125,130.92744927125,130.92744927125,130.92744927125,130.92744927125,130.92744927125,130.92744927125,130.92744927125,130.92744927125,130.92744927125,221.32052464128,233.57772038202,-0.014508999413098,218.74763303371,-0.017033581712727,0
2.84375e-05,51956644.432725,2.4269044710115e-06,8.4512772313537e-06,3.0719100501098e-06,1.0017881232776,0,0,0,0,0,0,0,0,0,0,0,0,0,0,0,0,0,0,0,0,0,0,0,0,0,0,0,0,0,0,0,0,0,0,0,0,0,0,0,0,0,0,0,0,0,0,0,0,-0.57838437431166,0.24278863692158,-2.824893790589,6.8771609811607,2.5453367038142,1.7295836634409,-3.6632922326344,1.1795924396876,2.7897352864989,-0.18976182517945,1.088267445246,-5.6620835117037,1.378790105816,-1.5660298365191,1.087874073157,-3.3519434182929,2.5251216168563,5.1036033987626,-1.1547070115859,-6.627823165336,0.47250184588034,2.1282130265868,0.33403495198836,-5.3486313671393,2.5218089935901,-2.4448533551291,0.22536617741501,1.4216686037352,-1.4055145458662,0.81105154594942,1.4569082846607,0.26917231980622,0.63337003477772,-4.2715136641606,-2.2641615606577,-3.9471054614203,5.4472580872058,-1.8251091295669,3.8721925066735,-0.13051960586419,-1.8737450803678,-6.7746119984493,0.89482634520261,-3.1403434722265,-4.3077565871858,1.4970857105924,4.3848224047969,-4.4703604658946,131.16002129466,131.16002129466,131.16002129466,131.16002129466,131.16002129466,131.16002129466,131.16002129466,131.16002129466,131.16002129466,131.16002129466,131.16002129466,131.16002129466,131.16002129466,131.16002129466,131.16002129466,131.16002129466,131.16002129466,131.16002129466,131.16002129466,131.16002129466,131.16002129466,131.16002129466,131.16002129466,131.16002129466,131.16002129466,131.16002129466,131.16002129466,131.16002129466,131.16002129466,131.16002129466,131.16002129466,131.16002129466,131.16002129466,131.16002129466,131.16002129466,131.16002129466,131.16002129466,131.16002129466,131.16002129466,131.16002129466,131.16002129466,131.16002129466,131.16002129466,131.16002129466,131.16002129466,131.16002129466,131.16002129466,131.16002129466,221.64086568745,234.39549883629,-0.015106405869545,219.30588818896,-0.017680438243903,0
2.90625e-05,53046669.634466,2.4876762947398e-06,8.6366761455072e-06,3.1578815189377e-06,1.0018483954896,0,0,0,0,0,0,0,0,0,0,0,0,0,0,0,0,0,0,0,0,0,0,0,0,0,0,0,0,0,0,0,0,0,0,0,0,0,0,0,0,0,0,0,0,0,0,0,0,-0.58840599538108,0.22423320371405,-2.7947656245593,6.8507124168114,2.5506697538524,1.7240199824374,-3.6677179843136,1.1946894058379,2.7842496532369,-0.19931189184528,1.0935684780809,-5.640739494992,1.3794000859231,-1.5689787312871,1.0904207316534,-3.3603560372692,2.522125740096,5.0974125821133,-1.1460150442281,-6.596810642511,0.49077295463568,2.1137282387739,0.32999103475506,-5.3268892327477,2.518145509782,-2.4117024696879,0.23728991607542,1.4200585782285,-1.4137544365191,0.83078996757635,1.4559165877927,0.25587148236071,0.6379882924754,-4.2746367793227,-2.2624007656596,-3.9306839756049,5.44193975094,-1.8398301595391,3.8537094992503,-0.13645474561268,-1.8685170742205,-6.7668184654377,0.87987127395367,-3.1097477888923,-4.2876165784223,1.4703545191693,4.3866793609854,-4.4599851324228,131.39291367385,131.39291367385,131.39291367385,131.39291367385,131.39291367385,131.39291367385,131.39291367385,131.39291367385,131.39291367385,131.39291367385,131.39291367385,131.39291367385,131.39291367385,131.39291367385,131.39291367385,131.39291367385,131.39291367385,131.39291367385,131.39291367385,131.39291367385,131.39291367385,131.39291367385,131.39291367385,131.39291367385,131.39291367385,131.39291367385,131.39291367385,131.39291367385,131.39291367385,131.39291367385,131.39291367385,131.39291367385,131.39291367385,131.39291367385,131.39291367385,131.39291367385,131.39291367385,131.39291367385,131.39291367385,131.39291367385,131.39291367385,131.39291367385,131.39291367385,131.39291367385,131.39291367385,131.39291367385,131.39291367385,131.39291367385,221.95008931819,235.20244695582,-0.015711772683601,219.85850773898,-0.018333575425246,0
2.96875e-05,54143829.078482,2.5483444896747e-06,8.8220632814639e-06,3.2437083316977e-06,1.0019086791593,0,0,0,0,0,0,0,0,0,0,0,0,0,0,0,0,0,0,0,0,0,0,0,0,0,0,0,0,0,0,0,0,0,0,0,0,0,0,0,0,0,0,0,0,0,0,0,0,-0.59831639280984,0.20536962092891,-2.7653606684342,6.8240745968659,2.556420309378,1.7184808549899,-3.6711508767957,1.2090878296501,2.7792037178832,-0.20873683239894,1.0987093976882,-5.6201249536217,1.3798383053691,-1.5726059527236,1.0925598123881,-3.3690959813948,2.51857445405,5.0920165575501,-1.1382367985597,-6.5655158161173,0.5085733093141,2.0996517539353,0.32583835884293,-5.3058829675108,2.5145934709366,-2.3796614776437,0.2491145775501,1.418659220711,-1.421239388035,0.84965073016459,1.455142693859,0.2427488390537,0.64238092751596,-4.2779205149239,-2.2607608973959,-3.9159155904602,5.4358545887715,-1.8544954503634,3.8356857215066,-0.14270132990088,-1.8634585120747,-6.7600579846893,0.86457447862966,-3.0801821512807,-4.2672519365871,1.4447445957706,4.3882101693776,-4.4510888014422,131.6261145394,131.6261145394,131.6261145394,131.6261145394,131.6261145394,131.6261145394,131.6261145394,131.6261145394,131.6261145394,131.6261145394,131.6261145394,131.6261145394,131.6261145394,131.6261145394,131.6261145394,131.6261145394,131.6261145394,131.6261145394,131.6261145394,131.6261145394,131.6261145394,131.6261145394,131.6261145394,131.6261145394,131.6261145394,131.6261145394,131.6261145394,131.6261145394,131.6261145394,131.6261145394,131.6261145394,131.6261145394,131.6261145394,131.6261145394,131.6261145394,131.6261145394,131.6261145394,131.6261145394,131.6261145394,131.6261145394,131.6261145394,131.6261145394,131.6261145394,131.6261145394,131.6261145394,131.6261145394,131.6261145394,131.6261145394,222.24815135785,235.99901541848,-0.016324831244074,220.40583112352,-0.018992858875446,0
3.03125e-05,55248037.08362,2.6089177258419e-06,9.0074387214847e-06,3.3293934139745e-06,1.0019689730967,0,0,0,0,0,0,0,0,0,0,0,0,0,0,0,0,0,0,0,0,0,0,0,0,0,0,0,0,0,0,0,0,0,0,0,0,0,0,0,0,0,0,0,0,0,0,0,0,-0.60810360303719,0.18621830293386,-2.736779524609,6.7973453444482,2.5626000899505,1.7129894043917,-3.6737148769292,1.2228261283471,2.7746027930629,-0.21800799521963,1.1037361725073,-5.6002542950709,1.3801210022634,-1.5767818008849,1.0943510630038,-3.378119482716,2.5145554421819,5.0873401470474,-1.1312415222968,-6.5340837113988,0.52590866930889,2.0860119909679,0.32163729451024,-5.2855700328269,2.5112355500079,-2.3487326060199,0.26089261368654,1.4174046592338,-1.4280557630335,0.86765944031017,1.4545673731243,0.22979702580398,0.64658510209119,-4.2813295570251,-2.2592411684461,-3.9025844696083,5.4291272254275,-1.8690954299488,3.8180960345895,-0.14922833056067,-1.8585545718355,-6.754235815812,0.84910329523433,-3.0516225277481,-4.2467763599061,1.4202684107154,4.3894158088331,-4.4435015989703,131.85961197765,131.85961197765,131.85961197765,131.85961197765,131.85961197765,131.85961197765,131.85961197765,131.85961197765,131.85961197765,131.85961197765,131.85961197765,131.85961197765,131.85961197765,131.85961197765,131.85961197765,131.85961197765,131.85961197765,131.85961197765,131.85961197765,131.85961197765,131.85961197765,131.85961197765,131.85961197765,131.85961197765,131.85961197765,131.85961197765,131.85961197765,131.85961197765,131.85961197765,131.85961197765,131.85961197765,131.85961197765,131.85961197765,131.85961197765,131.85961197765,131.85961197765,131.85961197765,131.85961197765,131.85961197765,131.85961197765,131.85961197765,131.85961197765,131.85961197765,131.85961197765,131.85961197765,131.85961197765,131.85961197765,131.85961197765,222.53493630044,236.78565908669,-0.016945349979726,220.9481896371,-0.019658182470311,0
3.09375e-05,56359160.736077,2.6694039011615e-06,9.1928025460795e-06,3.4149395029066e-06,1.0020292762001,0,0,0,0,0,0,0,0,0,0,0,0,0,0,0,0,0,0,0,0,0,0,0,0,0,0,0,0,0,0,0,0,0,0,0,0,0,0,0,0,0,0,0,0,0,0,0,0,-0.61775869898249,0.1668462169891,-2.7091398981745,6.7706131972745,2.5692172837219,1.7075541185975,-3.6755278973883,1.2359378796409,2.7704331925297,-0.22709492733789,1.1086703125325,-5.5811412889138,1.3802571632253,-1.5813911547431,1.0958510232227,-3.3873815530738,2.5101591755342,5.0833193692103,-1.1249259887148,-6.5026427487673,0.54277056361511,2.0728283012434,0.31744570315104,-5.2659042025137,2.5081437787649,-2.3189151782339,0.27267642573332,1.4162361948013,-1.4342825378223,0.88484125632675,1.4541593541946,0.21701068080205,0.65061477133221,-4.2848357560368,-2.2578332144563,-3.8904907207831,5.4218830477377,-1.8836146231457,3.8009187256112,-0.15600543781898,-1.8537914577399,-6.7492637207371,0.83364821700804,-3.0240179083897,-4.2263039706562,1.3969285600208,4.39030522247,-4.4370619469719,132.0933940489,132.0933940489,132.0933940489,132.0933940489,132.0933940489,132.0933940489,132.0933940489,132.0933940489,132.0933940489,132.0933940489,132.0933940489,132.0933940489,132.0933940489,132.0933940489,132.0933940489,132.0933940489,132.0933940489,132.0933940489,132.0933940489,132.0933940489,132.0933940489,132.0933940489,132.0933940489,132.0933940489,132.0933940489,132.0933940489,132.0933940489,132.0933940489,132.0933940489,132.0933940489,132.0933940489,132.0933940489,132.0933940489,132.0933940489,132.0933940489,132.0933940489,132.0933940489,132.0933940489,132.0933940489,132.0933940489,132.0933940489,132.0933940489,132.0933940489,132.0933940489,132.0933940489,132.0933940489,132.0933940489,132.0933940489,222.81045589174,237.5628253392,-0.017573126180159,221.48589992424,-0.020329471015043,0
3.15625e-05,57477040.963608,2.7298099943015e-06,9.3781548450542e-06,3.5003492141995e-06,1.0020895874791,0,0,0,0,0,0,0,0,0,0,0,0,0,0,0,0,0,0,0,0,0,0,0,0,0,0,0,0,0,0,0,0,0,0,0,0,0,0,0,0,0,0,0,0,0,0,0,0,-0.62727451427216,0.14735363929279,-2.6825417464388,6.7439572205052,2.5762672377071,1.7021755782809,-3.6766980047375,1.2484599276611,2.7666688397771,-0.23596402289065,1.1135138806315,-5.562799604392,1.3802529293578,-1.5863321498429,1.0971152061911,-3.3968395565676,2.5054769033898,5.0798920571602,-1.119209900842,-6.4713037461704,0.55915165930817,2.0601103637474,0.31331745775806,-5.2468345947272,2.5053696811807,-2.2902060314788,0.28450926798575,1.4151066120033,-1.4399851031306,0.90123036702507,1.4538830797356,0.20439118823911,0.65446767870483,-4.2884181506282,-2.2565233272215,-3.8794523645618,5.4142454692101,-1.8980355237594,3.7841436674314,-0.16300135998894,-1.8491539313913,-6.7450590329605,0.81840052042332,-2.9972932271163,-4.2059398668426,1.3747192450823,4.3908889077424,-4.4316232698249,132.32744903002,132.32744903002,132.32744903002,132.32744903002,132.32744903002,132.32744903002,132.32744903002,132.32744903002,132.32744903002,132.32744903002,132.32744903002,132.32744903002,132.32744903002,132.32744903002,132.32744903002,132.32744903002,132.32744903002,132.32744903002,132.32744903002,132.32744903002,132.32744903002,132.32744903002,132.32744903002,132.32744903002,132.32744903002,132.32744903002,132.32744903002,132.32744903002,132.32744903002,132.32744903002,132.32744903002,132.32744903002,132.32744903002,132.32744903002,132.32744903002,132.32744903002,132.32744903002,132.32744903002,132.32744903002,132.32744903002,132.32744903002,132.32744903002,132.32744903002,132.32744903002,132.32744903002,132.32744903002,132.32744903002,132.32744903002,223.0749381432,238.33094396413,-0.018207982848343,222.01925840083,-0.021006652122929,0
3.21875e-05,58601516.248404,2.7901420288554e-06,9.5634957237509e-06,3.5856250811358e-06,1.0021499060625,0,0,0,0,0,0,0,0,0,0,0,0,0,0,0,0,0,0,0,0,0,0,0,0,0,0,0,0,0,0,0,0,0,0,0,0,0,0,0,0,0,0,0,0,0,0,0,0,-0.63664413330534,0.12785715457655,-2.6570376184055,6.717447414809,2.5837244169107,1.6968496793729,-3.6773208315985,1.2604366910305,2.7632785676886,-0.24457852902745,1.1182581739088,-5.5452413284244,1.3801149268015,-1.5915171000319,1.098198291465,-3.4064563074245,2.5005986393471,5.0769873152344,-1.1140303528743,-6.4401588671731,0.57505880919007,2.0478599168906,0.30930053277764,-5.2283106739137,2.5029390989288,-2.2625983882604,0.296417629096,1.4139779984382,-1.4452160615814,0.91687292698566,1.4537053797615,0.19195084680559,0.65813435463793,-4.2920611842231,-2.2552959986932,-3.8693104317229,5.4063338648868,-1.9123418919277,3.7677767626109,-0.1701838096178,-1.8446256585871,-6.7415456420893,0.80353215745355,-2.9713635269536,-4.1857770000108,1.3536288262669,4.391171946022,-4.4270564525816,132.56176564193,132.56176564193,132.56176564193,132.56176564193,132.56176564193,132.56176564193,132.56176564193,132.56176564193,132.56176564193,132.56176564193,132.56176564193,132.56176564193,132.56176564193,132.56176564193,132.56176564193,132.56176564193,132.56176564193,132.56176564193,132.56176564193,132.56176564193,132.56176564193,132.56176564193,132.56176564193,132.56176564193,132.56176564193,132.56176564193,132.56176564193,132.56176564193,132.56176564193,132.56176564193,132.56176564193,132.56176564193,132.56176564193,132.56176564193,132.56176564193,132.56176564193,132.56176564193,132.56176564193,132.56176564193,132.56176564193,132.56176564193,132.56176564193,132.56176564193,132.56176564193,132.56176564193,132.56176564193,132.56176564193,132.56176564193,223.32880162442,239.0904221769,-0.018849765996607,222.54853834922,-0.021689659710744,0
3.28125e-05,59732439.935427,2.8504051085995e-06,9.7488253062169e-06,3.6707695781928e-06,1.0022102311933,0,0,0,0,0,0,0,0,0,0,0,0,0,0,0,0,0,0,0,0,0,0,0,0,0,0,0,0,0,0,0,0,0,0,0,0,0,0,0,0,0,0,0,0,0,0,0,0,-0.64585989569777,0.10847490889504,-2.6326222155144,6.6911453816577,2.5915401124697,1.6915691208122,-3.6774789716004,1.2719203742676,2.7602312539611,-0.25290037131571,1.1228937667818,-5.5284758232991,1.3798528547404,-1.5968747577344,1.0991531707977,-3.4162018865817,2.4956133303912,5.0745215538723,-1.1093372385237,-6.4092819349108,0.59051871113039,2.0360727177167,0.30543500242347,-5.2102900864442,2.5008552800434,-2.2360818027633,0.30840770333695,1.4128189848425,-1.4500205045044,0.93182608402801,1.4535993122024,0.17971471784808,0.6616074375151,-4.2957528932201,-2.2541368733908,-3.8599353136574,5.3982608898424,-1.9265205955419,3.7518406076849,-0.1775207000787,-1.8401906472285,-6.7386560260233,0.78918554406248,-2.9461527748443,-4.1658931698066,1.3336403101846,4.3911517514495,-4.4232500750343,132.79633313634,132.79633313634,132.79633313634,132.79633313634,132.79633313634,132.79633313634,132.79633313634,132.79633313634,132.79633313634,132.79633313634,132.79633313634,132.79633313634,132.79633313634,132.79633313634,132.79633313634,132.79633313634,132.79633313634,132.79633313634,132.79633313634,132.79633313634,132.79633313634,132.79633313634,132.79633313634,132.79633313634,132.79633313634,132.79633313634,132.79633313634,132.79633313634,132.79633313634,132.79633313634,132.79633313634,132.79633313634,132.79633313634,132.79633313634,132.79633313634,132.79633313634,132.79633313634,132.79633313634,132.79633313634,132.79633313634,132.79633313634,132.79633313634,132.79633313634,132.79633313634,132.79633313634,132.79633313634,132.79633313634,132.79633313634,223.57256263361,239.84164543781,-0.019498335699246,223.07399039486,-0.02237842764342,0
3.34375e-05,60869688.303431,2.9106040549567e-06,9.9341437372073e-06,3.7557861988712e-06,1.002270562213,0,0,0,0,0,0,0,0,0,0,0,0,0,0,0,0,0,0,0,0,0,0,0,0,0,0,0,0,0,0,0,0,0,0,0,0,0,0,0,0,0,0,0,0,0,0,0,0,-0.65491326509575,0.089316814333874,-2.6092400175569,6.6651050059877,2.5996461647879,1.6863248557182,-3.6772428258956,1.2829679660247,2.7574983822102,-0.26089325820357,1.1274181144005,-5.5125093348984,1.3794810004227,-1.6023522948545,1.100029760423,-3.4260542959324,2.4906098555449,5.0724026309568,-1.1050899337963,-6.3787302068696,0.60557631419286,2.0247400019457,0.30175166212907,-5.1927456156507,2.4991073269646,-2.2106434021399,0.32046603750742,1.4116043606282,-1.4544421016534,0.94615441222835,1.4535453095927,0.16771935753841,0.66488816059108,-4.2994837025733,-2.2530343644348,-3.8512314982724,5.3901294115699,-1.9405621580023,3.7363713784901,-0.18498173925555,-1.8358344212649,-6.7363334650536,0.77547331095028,-2.9216100600514,-4.1463477857035,1.3147296005075,4.3908219394598,-4.4201095014715,133.03114139632,133.03114139632,133.03114139632,133.03114139632,133.03114139632,133.03114139632,133.03114139632,133.03114139632,133.03114139632,133.03114139632,133.03114139632,133.03114139632,133.03114139632,133.03114139632,133.03114139632,133.03114139632,133.03114139632,133.03114139632,133.03114139632,133.03114139632,133.03114139632,133.03114139632,133.03114139632,133.03114139632,133.03114139632,133.03114139632,133.03114139632,133.03114139632,133.03114139632,133.03114139632,133.03114139632,133.03114139632,133.03114139632,133.03114139632,133.03114139632,133.03114139632,133.03114139632,133.03114139632,133.03114139632,133.03114139632,133.03114139632,133.03114139632,133.03114139632,133.03114139632,133.03114139632,133.03114139632,133.03114139632,133.03114139632,223.80673116393,240.58498186818,-0.020153566264816,223.59584555535,-0.023072895048752,0
3.40625e-05,62013161.268791,2.9707417682654e-06,1.0119451184283e-05,3.8406763215075e-06,1.0023308985433,0,0,0,0,0,0,0,0,0,0,0,0,0,0,0,0,0,0,0,0,0,0,0,0,0,0,0,0,0,0,0,0,0,0,0,0,0,0,0,0,0,0,0,0,0,0,0,0,-0.66379545498619,0.070479155100689,-2.5868015368286,6.6393729624278,2.607962364415,1.6811079740936,-3.6766719722347,1.293636493971,2.7550546355406,-0.26852588408783,1.1318377523791,-5.497345066833,1.3790182705195,-1.6079155919505,1.1008741323711,-3.4359990636975,2.485675817625,5.0705387358316,-1.1012548963898,-6.3485469801429,0.62028887126665,2.0138493630066,0.29827166975065,-5.1756683022194,2.4976783189749,-2.1862697859779,0.33256304214156,1.4103166760299,-1.4585270808148,0.95992450716171,1.4535304475597,0.15600893570443,0.66798769609065,-4.3032458322634,-2.2519799919968,-3.8431383302128,5.3820299068475,-1.9544603453901,3.7214122524047,-0.19253962549291,-1.8315443149888,-6.7345333528538,0.76248265732154,-2.8977176366172,-4.1271805378326,1.2968631206712,4.3901792410432,-4.4175552773189,133.26618079079,133.26618079079,133.26618079079,133.26618079079,133.26618079079,133.26618079079,133.26618079079,133.26618079079,133.26618079079,133.26618079079,133.26618079079,133.26618079079,133.26618079079,133.26618079079,133.26618079079,133.26618079079,133.26618079079,133.26618079079,133.26618079079,133.26618079079,133.26618079079,133.26618079079,133.26618079079,133.26618079079,133.26618079079,133.26618079079,133.26618079079,133.26618079079,133.26618079079,133.26618079079,133.26618079079,133.26618079079,133.26618079079,133.26618079079,133.26618079079,133.26618079079,133.26618079079,133.26618079079,133.26618079079,133.26618079079,133.26618079079,133.26618079079,133.26618079079,133.26618079079,133.26618079079,133.26618079079,133.26618079079,133.26618079079,224.03173826101,241.32078729938,-0.020815343437922,224.11431924317,-0.023773005398994,0
3.46875e-05,63162778.521392,3.030820988871e-06,1.0304747839849e-05,3.9254423733466e-06,1.0023912396699,0,0,0,0,0,0,0,0,0,0,0,0,0,0,0,0,0,0,0,0,0,0,0,0,0,0,0,0,0,0,0,0,0,0,0,0,0,0,0,0,0,0,0,0,0,0,0,0,-0.67249839753429,0.052041889964637,-2.5652001793955,6.6139888240152,2.6164046715631,1.6759117425236,-3.6758164306952,1.303977977963,2.752877329956,-0.27577419033083,1.1361657059902,-5.4829828704638,1.378486826212,-1.6135472112533,1.1017278877928,-3.446027981786,2.4808922317448,5.0688473069954,-1.0978036241567,-6.3187642655669,0.63471833558074,2.0033851029719,0.29500709158523,-5.1590655831266,2.4965500626025,-2.1629483021227,0.34465783896592,1.4089480652084,-1.4623247507875,0.97319876014049,1.4535467757187,0.14463006372649,0.67092405428342,-4.3070327507513,-2.2509678941584,-3.8356257631611,5.3740388289205,-1.9682112184626,3.707004397868,-0.20017049347474,-1.827309102073,-6.733222853581,0.75027857072513,-2.8744885542375,-4.1084134210932,1.2799964573452,4.3892289927714,-4.4155211680983,133.501441956,133.501441956,133.501441956,133.501441956,133.501441956,133.501441956,133.501441956,133.501441956,133.501441956,133.501441956,133.501441956,133.501441956,133.501441956,133.501441956,133.501441956,133.501441956,133.501441956,133.501441956,133.501441956,133.501441956,133.501441956,133.501441956,133.501441956,133.501441956,133.501441956,133.501441956,133.501441956,133.501441956,133.501441956,133.501441956,133.501441956,133.501441956,133.501441956,133.501441956,133.501441956,133.501441956,133.501441956,133.501441956,133.501441956,133.501441956,133.501441956,133.501441956,133.501441956,133.501441956,133.501441956,133.501441956,133.501441956,133.501441956,224.24791617824,242.04940855908,-0.021483559686775,224.62961458781,-0.02447870862581,0
3.53125e-05,64318473.405109,3.0908437949897e-06,1.0490033922695e-05,4.0100868049619e-06,1.0024515851315,0,0,0,0,0,0,0,0,0,0,0,0,0,0,0,0,0,0,0,0,0,0,0,0,0,0,0,0,0,0,0,0,0,0,0,0,0,0,0,0,0,0,0,0,0,0,0,0,-0.68101563754391,0.034067199008692,-2.5443260651795,6.5889843243328,2.6248922171867,1.6707335508221,-3.6747175684089,1.3140352640945,2.7509455220963,-0.28262238407629,1.140417410071,-5.4694182359789,1.3779099199577,-1.6192422623735,1.1026275352676,-3.4561370365793,2.4763251119848,5.0672607862737,-1.0947103234774,-6.2894049215585,0.64892373924073,1.9933284360435,0.29196198737947,-5.142955203685,2.4957048516975,-2.1406671844923,0.3567033438836,1.407501005706,-1.4658850251796,0.98602991232902,1.4535894796036,0.13362659343165,0.67371760685014,-4.3108383185752,-2.2499939236657,-3.8286860468751,5.3662177188991,-1.981811903526,3.6931776421894,-0.20785352464434,-1.8231183181261,-6.7323785689664,0.73890341272977,-2.8519560352784,-4.0900550578412,1.2640747660943,4.387986767311,-4.413951957688,133.73691581771,133.73691581771,133.73691581771,133.73691581771,133.73691581771,133.73691581771,133.73691581771,133.73691581771,133.73691581771,133.73691581771,133.73691581771,133.73691581771,133.73691581771,133.73691581771,133.73691581771,133.73691581771,133.73691581771,133.73691581771,133.73691581771,133.73691581771,133.73691581771,133.73691581771,133.73691581771,133.73691581771,133.73691581771,133.73691581771,133.73691581771,133.73691581771,133.73691581771,133.73691581771,133.73691581771,133.73691581771,133.73691581771,133.73691581771,133.73691581771,133.73691581771,133.73691581771,133.73691581771,133.73691581771,133.73691581771,133.73691581771,133.73691581771,133.73691581771,133.73691581771,133.73691581771,133.73691581771,133.73691581771,133.73691581771,224.4555241498,242.77118410601,-0.022158119861925,225.14192420646,-0.025189963787594,0
3.59375e-05,65480186.629118,3.1508116749734e-06,1.0675309677963e-05,4.09461210442e-06,1.0025119345115,0,0,0,0,0,0,0,0,0,0,0,0,0,0,0,0,0,0,0,0,0,0,0,0,0,0,0,0,0,0,0,0,0,0,0,0,0,0,0,0,0,0,0,0,0,0,0,0,-0.68934292209477,0.016598820481021,-2.5240762959723,6.5643813527661,2.6333523185958,1.6655765447768,-3.6734088992485,1.3238394135148,2.7492393634964,-0.28906311403606,1.1446078266194,-5.4566409947083,1.3773096568154,-1.6250030679117,1.1036040111551,-3.4663234632402,2.4720172399899,5.065728487641,-1.09194894536,-6.2604841121812,0.66295443569553,1.9836579148199,0.28913364431115,-5.1273569390479,2.4951258233281,-2.1194149639122,0.36865102305742,1.4059875352779,-1.4692546527255,0.99845772022155,1.4536553578124,0.12303512931844,0.67638783926348,-4.3146557073182,-2.2490546603764,-3.8223234921874,5.3586131704792,-1.9952591841874,3.6799433109262,-0.21556999479566,-1.8189615531459,-6.7319822373222,0.72837423698318,-2.8301594607946,-4.0721055722527,1.2490348565567,4.3864764522267,-4.4128009604746,133.97259353479,133.97259353479,133.97259353479,133.97259353479,133.97259353479,133.97259353479,133.97259353479,133.97259353479,133.97259353479,133.97259353479,133.97259353479,133.97259353479,133.97259353479,133.97259353479,133.97259353479,133.97259353479,133.97259353479,133.97259353479,133.97259353479,133.97259353479,133.97259353479,133.97259353479,133.97259353479,133.97259353479,133.97259353479,133.97259353479,133.97259353479,133.97259353479,133.97259353479,133.97259353479,133.97259353479,133.97259353479,133.97259353479,133.97259353479,133.97259353479,133.97259353479,133.97259353479,133.97259353479,133.97259353479,133.97259353479,133.97259353479,133.97259353479,133.97259353479,133.97259353479,133.97259353479,133.97259353479,133.97259353479,133.97259353479,224.65479248535,243.4864426668,-0.022838935548198,225.65143060775,-0.025906735681477,0
3.65625e-05,66647860.499079,3.210725617568e-06,1.0860575375426e-05,4.1790208108149e-06,1.0025722874307,0,0,0,0,0,0,0,0,0,0,0,0,0,0,0,0,0,0,0,0,0,0,0,0,0,0,0,0,0,0,0,0,0,0,0,0,0,0,0,0,0,0,0,0,0,0,0,0,-0.69747851547916,-0.00033773336221627,-2.5043623206181,6.5401893794385,2.6417234837508,1.6604505813892,-3.6719171382281,1.333408822243,2.7477398503966,-0.29509728809615,1.1487502233832,-5.4446346909297,1.3767051358484,-1.6308338741713,1.1046824161108,-3.4765824430976,2.467983677878,5.0642151894762,-1.0894900860037,-6.2320103388194,0.67684476527672,1.9743502365138,0.28651373587924,-5.1122848130658,2.4947969912506,-2.0991799139283,0.38045506992821,1.4044271848462,-1.4724740886484,1.0105083220463,1.4537417317724,0.11288166434238,0.67895189923985,-4.3184766608129,-2.2481465193476,-3.8165448365343,5.3512573929583,-2.0085481442507,3.6672912205737,-0.22330218350661,-1.8148278255757,-6.7320156508412,0.71868096598137,-2.8091320867062,-4.0545603856591,1.2348083566421,4.3847262514506,-4.41202728946,134.20846651593,134.20846651593,134.20846651593,134.20846651593,134.20846651593,134.20846651593,134.20846651593,134.20846651593,134.20846651593,134.20846651593,134.20846651593,134.20846651593,134.20846651593,134.20846651593,134.20846651593,134.20846651593,134.20846651593,134.20846651593,134.20846651593,134.20846651593,134.20846651593,134.20846651593,134.20846651593,134.20846651593,134.20846651593,134.20846651593,134.20846651593,134.20846651593,134.20846651593,134.20846651593,134.20846651593,134.20846651593,134.20846651593,134.20846651593,134.20846651593,134.20846651593,134.20846651593,134.20846651593,134.20846651593,134.20846651593,134.20846651593,134.20846651593,134.20846651593,134.20846651593,134.20846651593,134.20846651593,134.20846651593,134.20846651593,224.84595846642,244.19550116908,-0.023525931218662,226.15830583802,-0.026628997362157,0
3.71875e-05,67821434.239188,3.270586218673e-06,1.1045831306074e-05,4.2633155284098e-06,1.0026326435398,0,0,0,0,0,0,0,0,0,0,0,0,0,0,0,0,0,0,0,0,0,0,0,0,0,0,0,0,0,0,0,0,0,0,0,0,0,0,0,0,0,0,0,0,0,0,0,0,-0.70542335178249,-0.016733731418166,-2.4851146658658,6.5164045087209,2.6499568488491,1.6553718271174,-3.6702636540125,1.3427499351936,2.7464288876685,-0.30073375673511,1.1528559188339,-5.4333767130444,1.3761112230877,-1.6367365903552,1.1058823044099,-3.4869041780616,2.4642128612261,5.0626979530658,-1.0872990252711,-6.2039866728688,0.69061081696015,1.9653813701913,0.28408936965857,-5.0977416574481,2.4947033891752,-2.0799493354336,0.39207582364134,1.4028440249923,-1.4755760840232,1.0221960007015,1.4538457621574,0.10317953698868,0.6814242834472,-4.3222912906857,-2.2472650871078,-3.8113519430657,5.3441696409608,-2.0216711557457,3.6551913426601,-0.23103251163897,-1.8107050685395,-6.7324560630516,0.7097879894273,-2.7888935049568,-4.0374124823907,1.2213252881525,4.3827643514873,-4.41159317698,134.44452644308,134.44452644308,134.44452644308,134.44452644308,134.44452644308,134.44452644308,134.44452644308,134.44452644308,134.44452644308,134.44452644308,134.44452644308,134.44452644308,134.44452644308,134.44452644308,134.44452644308,134.44452644308,134.44452644308,134.44452644308,134.44452644308,134.44452644308,134.44452644308,134.44452644308,134.44452644308,134.44452644308,134.44452644308,134.44452644308,134.44452644308,134.44452644308,134.44452644308,134.44452644308,134.44452644308,134.44452644308,134.44452644308,134.44452644308,134.44452644308,134.44452644308,134.44452644308,134.44452644308,134.44452644308,134.44452644308,134.44452644308,134.44452644308,134.44452644308,134.44452644308,134.44452644308,134.44452644308,134.44452644308,134.44452644308,225.0292811401,244.89866289996,-0.024219040754965,226.66271096866,-0.027356727608737,0
3.78125e-05,69000840.400187,3.3303937965096e-06,1.1231077777943e-05,4.3474989349884e-06,1.0026930025129,0,0,0,0,0,0,0,0,0,0,0,0,0,0,0,0,0,0,0,0,0,0,0,0,0,0,0,0,0,0,0,0,0,0,0,0,0,0,0,0,0,0,0,0,0,0,0,0,-0.71318113873626,-0.032594502440899,-2.4662847943369,6.4930128499411,2.6580165598399,1.6503602983381,-3.6684662422466,1.3518593329805,2.7452894341123,-0.305988725072,1.1569343461182,-5.42283954299,1.3755380083899,-1.6427081194289,1.1072183068562,-3.4972723828355,2.460672853834,5.0611627811239,-1.0853365477186,-6.1764128363976,0.70424999547727,1.9567276685176,0.28184415322015,-5.0837169483223,2.4948313759013,-2.0617084456452,0.40348224152674,1.4012632421518,-1.4785860454475,1.0335265571125,1.4539640992069,0.093928894745779,0.68381694093045,-4.3260888155263,-2.2464047351063,-3.8067374720465,5.3373581275957,-2.0346175668922,3.6435991697796,-0.23874314016478,-1.8065798834758,-6.7332736330084,0.70163984742579,-2.7694471611892,-4.0206532345495,1.2085174367303,4.3806157030257,-4.4114620116646,134.68076529092,134.68076529092,134.68076529092,134.68076529092,134.68076529092,134.68076529092,134.68076529092,134.68076529092,134.68076529092,134.68076529092,134.68076529092,134.68076529092,134.68076529092,134.68076529092,134.68076529092,134.68076529092,134.68076529092,134.68076529092,134.68076529092,134.68076529092,134.68076529092,134.68076529092,134.68076529092,134.68076529092,134.68076529092,134.68076529092,134.68076529092,134.68076529092,134.68076529092,134.68076529092,134.68076529092,134.68076529092,134.68076529092,134.68076529092,134.68076529092,134.68076529092,134.68076529092,134.68076529092,134.68076529092,134.68076529092,134.68076529092,134.68076529092,134.68076529092,134.68076529092,134.68076529092,134.68076529092,134.68076529092,134.68076529092,225.20503862494,245.59621628837,-0.024918208744222,227.16479589501,-0.028089910598586,0
3.84375e-05,70186002.459529,3.3901484987706e-06,1.1416315111844e-05,4.4315737726391e-06,1.0027533640436,0,0,0,0,0,0,0,0,0,0,0,0,0,0,0,0,0,0,0,0,0,0,0,0,0,0,0,0,0,0,0,0,0,0,0,0,0,0,0,0,0,0,0,0,0,0,0,0,-0.72075836870886,-0.047935731346758,-2.4478437735666,6.4699981898914,2.6658794550381,1.6454357615474,-3.6665407950512,1.3607268994977,2.7443054368733,-0.31088467933209,1.1609932405089,-5.4129925327939,1.3749909330347,-1.6487394000783,1.1087008900535,-3.5076648410326,2.4573206395484,5.0596022632779,-1.0835626271765,-6.1492879681706,0.71774378302292,1.9483666358436,0.27975940565401,-5.0701875432542,2.4951690042853,-2.0444386002356,0.41465322769945,1.3997078290635,-1.4815234456202,1.0445013617495,1.4540927162861,0.085117632330483,0.68613950829296,-4.3298589136793,-2.2455585634632,-3.802683400928,5.3308221858422,-2.0473743171364,3.6324629913138,-0.24641607947706,-1.802437694945,-6.7344315995379,0.69416976823553,-2.7507816616382,-4.004272288832,1.1963211398754,4.3783007441265,-4.4115974360203,134.91717534291,134.91717534291,134.91717534291,134.91717534291,134.91717534291,134.91717534291,134.91717534291,134.91717534291,134.91717534291,134.91717534291,134.91717534291,134.91717534291,134.91717534291,134.91717534291,134.91717534291,134.91717534291,134.91717534291,134.91717534291,134.91717534291,134.91717534291,134.91717534291,134.91717534291,134.91717534291,134.91717534291,134.91717534291,134.91717534291,134.91717534291,134.91717534291,134.91717534291,134.91717534291,134.91717534291,134.91717534291,134.91717534291,134.91717534291,134.91717534291,134.91717534291,134.91717534291,134.91717534291,134.91717534291,134.91717534291,134.91717534291,134.91717534291,134.91717534291,134.91717534291,134.91717534291,134.91717534291,134.91717534291,134.91717534291,225.37352492171,246.28843391388,-0.025623388169236,227.66469949386,-0.028828535489162,0
3.90625e-05,71376833.996492,3.4498503889489e-06,1.160154363768e-05,4.5155428137908e-06,1.0028137278444,0,0,0,0,0,0,0,0,0,0,0,0,0,0,0,0,0,0,0,0,0,0,0,0,0,0,0,0,0,0,0,0,0,0,0,0,0,0,0,0,0,0,0,0,0,0,0,0,-0.72816405922059,-0.062779381635335,-2.429777939965,6.4473504396476,2.6735341843267,1.6406135609296,-3.6645024748384,1.3693395241334,2.7434615325557,-0.31544880238439,1.1650389055506,-5.4038038243746,1.3744714737682,-1.6548158425531,1.1103369902277,-3.5180558693663,2.4541116564785,5.0580144748372,-1.0819411721591,-6.1226130884182,0.7310631786974,1.9402771699138,0.27781549060568,-5.0571203740094,2.4957061868869,-2.0281156715156,0.42557777167822,1.3981960297377,-1.4844034594055,1.0551211742667,1.4542269083026,0.076723490342237,0.68839963346353,-4.3335932149509,-2.2447186084083,-3.7991616620968,5.3245543125528,-2.0599273299535,3.6217310500636,-0.25403366525234,-1.7982633520757,-6.7358889386868,0.68730878274519,-2.7328740107152,-3.9882570721729,1.1846793102615,4.3758359864086,-4.4119634347551,135.15374921346,135.15374921346,135.15374921346,135.15374921346,135.15374921346,135.15374921346,135.15374921346,135.15374921346,135.15374921346,135.15374921346,135.15374921346,135.15374921346,135.15374921346,135.15374921346,135.15374921346,135.15374921346,135.15374921346,135.15374921346,135.15374921346,135.15374921346,135.15374921346,135.15374921346,135.15374921346,135.15374921346,135.15374921346,135.15374921346,135.15374921346,135.15374921346,135.15374921346,135.15374921346,135.15374921346,135.15374921346,135.15374921346,135.15374921346,135.15374921346,135.15374921346,135.15374921346,135.15374921346,135.15374921346,135.15374921346,135.15374921346,135.15374921346,135.15374921346,135.15374921346,135.15374921346,135.15374921346,135.15374921346,135.15374921346,225.535055728,246.97557152368,-0.026334540445767,228.16255007147,-0.029572595838597,0
3.96875e-05,72573240.053368,3.5094995067195e-06,1.1786763691496e-05,4.5994088077805e-06,1.0028740936485,0,0,0,0,0,0,0,0,0,0,0,0,0,0,0,0,0,0,0,0,0,0,0,0,0,0,0,0,0,0,0,0,0,0,0,0,0,0,0,0,0,0,0,0,0,0,0,0,-0.73540898902324,-0.077149954398528,-2.412082805357,6.4250705855432,2.6809797001012,1.6359020518949,-3.6623661595412,1.3776845827357,2.742742665847,-0.31971109208107,1.1690765011122,-5.3952417701111,1.3739781654117,-1.6609185761567,1.1121304779781,-3.5284194806967,2.4510073463192,5.0564025087857,-1.0804434464209,-6.0963921423873,0.74417525075647,1.9324394222661,0.27599310964097,-5.0444757311032,2.4964345003154,-2.0127093422077,0.43625399778373,1.3967399454131,-1.4872383066567,1.0653890522957,1.4543614073454,0.068716742977231,0.69060336189549,-4.3372861903584,-2.2438762333323,-3.7961360018331,5.3185420383509,-2.0722631599279,3.6113570681174,-0.26157911528135,-1.7940420630196,-6.7376038670674,0.68099330833102,-2.7156933584691,-3.97259248493,1.1735426454721,4.3732355858527,-4.4125249404845,135.39047988247,135.39047988247,135.39047988247,135.39047988247,135.39047988247,135.39047988247,135.39047988247,135.39047988247,135.39047988247,135.39047988247,135.39047988247,135.39047988247,135.39047988247,135.39047988247,135.39047988247,135.39047988247,135.39047988247,135.39047988247,135.39047988247,135.39047988247,135.39047988247,135.39047988247,135.39047988247,135.39047988247,135.39047988247,135.39047988247,135.39047988247,135.39047988247,135.39047988247,135.39047988247,135.39047988247,135.39047988247,135.39047988247,135.39047988247,135.39047988247,135.39047988247,135.39047988247,135.39047988247,135.39047988247,135.39047988247,135.39047988247,135.39047988247,135.39047988247,135.39047988247,135.39047988247,135.39047988247,135.39047988247,135.39047988247,225.68998032359,247.65786710539,-0.027051629664924,228.65846588013,-0.030322087492847,0
4.03125e-05,73775121.129744,3.569095902856e-06,1.1971975613167e-05,4.6831744176191e-06,1.002934461213,0,0,0,0,0,0,0,0,0,0,0,0,0,0,0,0,0,0,0,0,0,0,0,0,0,0,0,0,0,0,0,0,0,0,0,0,0,0,0,0,0,0,0,0,0,0,0,0,-0.74250427510214,-0.091071606328589,-2.394757215134,6.403170625975,2.6882230529096,1.6313022325238,-3.6601464079001,1.385752515165,2.7421337969129,-0.32370245440132,1.173110299917,-5.387275565736,1.3735077083017,-1.6670259102124,1.1140824346985,-3.5387321747733,2.4479795605049,5.0547737614983,-1.07904902786,-6.0706315139541,0.75704885507376,1.9248344795373,0.27427439256413,-5.0322102577849,2.4973467374753,-1.9981835792215,0.44668735853424,1.3953452384748,-1.4900383072026,1.0753119841623,1.454490585322,0.061062941444213,0.6927555277592,-4.3409349859526,-2.2430226674003,-3.7935642904025,5.312769466427,-2.0843704141704,3.6013035194773,-0.2690368746669,-1.789760438354,-6.7395369398536,0.6751698847977,-2.6992045594086,-3.957261088526,1.1628701867999,4.3705128504742,-4.4132485795892,135.62736073455,135.62736073455,135.62736073455,135.62736073455,135.62736073455,135.62736073455,135.62736073455,135.62736073455,135.62736073455,135.62736073455,135.62736073455,135.62736073455,135.62736073455,135.62736073455,135.62736073455,135.62736073455,135.62736073455,135.62736073455,135.62736073455,135.62736073455,135.62736073455,135.62736073455,135.62736073455,135.62736073455,135.62736073455,135.62736073455,135.62736073455,135.62736073455,135.62736073455,135.62736073455,135.62736073455,135.62736073455,135.62736073455,135.62736073455,135.62736073455,135.62736073455,135.62736073455,135.62736073455,135.62736073455,135.62736073455,135.62736073455,135.62736073455,135.62736073455,135.62736073455,135.62736073455,135.62736073455,135.62736073455,135.62736073455,225.83868610753,248.33554043887,-0.027774622372729,229.15255557696,-0.031077008237592,0
4.09375e-05,74982379.534152,3.628639653576e-06,1.2157179744371e-05,4.7668421626595e-06,1.002994830321,0,0,0,0,0,0,0,0,0,0,0,0,0,0,0,0,0,0,0,0,0,0,0,0,0,0,0,0,0,0,0,0,0,0,0,0,0,0,0,0,0,0,0,0,0,0,0,0,-0.749459412596,-0.10456638488564,-2.377799122345,6.3816699852702,2.6952767651062,1.6268089271718,-3.6578571761836,1.3935383418049,2.7416198997019,-0.3274529739508,1.1771438594532,-5.3798750041131,1.3730559257214,-1.673114484121,1.1161913972177,-3.5489746394616,2.4450118174266,5.0531386921028,-1.0777447790509,-6.0453385641512,0.76965840133608,1.9174442156497,0.27264372542681,-5.0202792249481,2.4984363224913,-1.9844977620166,0.45688842413669,1.3940115303896,-1.4928126950204,1.0849012971064,1.4546087210786,0.053725379697709,0.69486008553183,-4.3445382051269,-2.2421495190122,-3.7914006000877,5.3072186799549,-2.0962406278689,3.5915427008115,-0.27639253511059,-1.7854073866887,-6.7416529149062,0.66979683217726,-2.6833710646881,-3.9422440818953,1.1526292862851,4.3676811860898,-4.4141032558132,135.86438558693,135.86438558693,135.86438558693,135.86438558693,135.86438558693,135.86438558693,135.86438558693,135.86438558693,135.86438558693,135.86438558693,135.86438558693,135.86438558693,135.86438558693,135.86438558693,135.86438558693,135.86438558693,135.86438558693,135.86438558693,135.86438558693,135.86438558693,135.86438558693,135.86438558693,135.86438558693,135.86438558693,135.86438558693,135.86438558693,135.86438558693,135.86438558693,135.86438558693,135.86438558693,135.86438558693,135.86438558693,135.86438558693,135.86438558693,135.86438558693,135.86438558693,135.86438558693,135.86438558693,135.86438558693,135.86438558693,135.86438558693,135.86438558693,135.86438558693,135.86438558693,135.86438558693,135.86438558693,135.86438558693,135.86438558693,225.9815883233,249.00879343635,-0.028503479768109,229.64491860297,-0.031837352901267,0
4.15625e-05,76194927.150927,3.6881308615035e-06,1.2342376426591e-05,4.8504143752858e-06,1.0030552007836,0,0,0,0,0,0,0,0,0,0,0,0,0,0,0,0,0,0,0,0,0,0,0,0,0,0,0,0,0,0,0,0,0,0,0,0,0,0,0,0,0,0,0,0,0,0,0,0,-0.75628018277173,-0.11765347931443,-2.3612036237669,6.3605910374422,2.7021561412664,1.6224126495658,-3.6555116734084,1.401042377468,2.7411862520056,-0.33099044825802,1.1811801439902,-5.3730097110899,1.3726184920078,-1.6791599179578,1.1184536137161,-3.5591324332156,2.442098223829,5.0515091752486,-1.0765227889163,-6.0205202111636,0.78198564961243,1.9102514747568,0.27108834382438,-5.0086381585651,2.4996968597275,-1.9716079723255,0.466870602082,1.392733188603,-1.4955703622997,1.0941721247415,1.4547102930146,0.046667166251023,0.69692036882174,-4.3480941410129,-2.2412492889475,-3.7895967760539,5.301870994494,-2.1078686264596,3.5820561962216,-0.28363233360481,-1.7809747373677,-6.7439215466166,0.6648434768246,-2.6681570784409,-3.9275229794197,1.1427950787726,4.3647544064201,-4.4150602195527,136.10154869317,136.10154869317,136.10154869317,136.10154869317,136.10154869317,136.10154869317,136.10154869317,136.10154869317,136.10154869317,136.10154869317,136.10154869317,136.10154869317,136.10154869317,136.10154869317,136.10154869317,136.10154869317,136.10154869317,136.10154869317,136.10154869317,136.10154869317,136.10154869317,136.10154869317,136.10154869317,136.10154869317,136.10154869317,136.10154869317,136.10154869317,136.10154869317,136.10154869317,136.10154869317,136.10154869317,136.10154869317,136.10154869317,136.10154869317,136.10154869317,136.10154869317,136.10154869317,136.10154869317,136.10154869317,136.10154869317,136.10154869317,136.10154869317,136.10154869317,136.10154869317,136.10154869317,136.10154869317,136.10154869317,136.10154869317,226.1191075875,249.67781133398,-0.029238168857361,230.13564554814,-0.032603120304177,0
4.21875e-05,77412692.891061,3.7475696501311e-06,1.2527565999006e-05,4.9338931784578e-06,1.0031155724389,0,0,0,0,0,0,0,0,0,0,0,0,0,0,0,0,0,0,0,0,0,0,0,0,0,0,0,0,0,0,0,0,0,0,0,0,0,0,0,0,0,0,0,0,0,0,0,0,-0.76296704944862,-0.13034918288514,-2.344962729377,6.3399554344485,2.7088769606316,1.6181014619264,-3.65312226394,1.4082704603418,2.7408189259128,-0.33433926857667,1.1852215993076,-5.3666481898446,1.3721914123523,-1.6851370246797,1.1208633689505,-3.5691956626516,2.4392410919253,5.0498969136231,-1.0753781427068,-5.9961818280465,0.79402021910042,1.903240580943,0.26959870880172,-4.9972437481594,2.5011218493814,-1.9594680008372,0.47664814989903,1.3915003442223,-1.498320410884,1.1031422496314,1.4547902633156,0.039852849975907,0.69893927390662,-4.3515991412943,-2.2403157984671,-3.7881034265125,5.2967081275658,-2.119252406488,3.5728333509636,-0.29074242844249,-1.7764575346069,-6.7463172093001,0.6602879813303,-2.6535288344352,-3.9130818112713,1.1333494761454,4.3617466649363,-4.4160924846398,136.33884472163,136.33884472163,136.33884472163,136.33884472163,136.33884472163,136.33884472163,136.33884472163,136.33884472163,136.33884472163,136.33884472163,136.33884472163,136.33884472163,136.33884472163,136.33884472163,136.33884472163,136.33884472163,136.33884472163,136.33884472163,136.33884472163,136.33884472163,136.33884472163,136.33884472163,136.33884472163,136.33884472163,136.33884472163,136.33884472163,136.33884472163,136.33884472163,136.33884472163,136.33884472163,136.33884472163,136.33884472163,136.33884472163,136.33884472163,136.33884472163,136.33884472163,136.33884472163,136.33884472163,136.33884472163,136.33884472163,136.33884472163,136.33884472163,136.33884472163,136.33884472163,136.33884472163,136.33884472163,136.33884472163,136.33884472163,226.25164629167,250.34276433363,-0.029978647471984,230.6248184876,-0.033374304099686,0
4.28125e-05,78635628.14125,3.8069561569016e-06,1.2712748796227e-05,5.0172804830811e-06,1.0031759451518,0,0,0,0,0,0,0,0,0,0,0,0,0,0,0,0,0,0,0,0,0,0,0,0,0,0,0,0,0,0,0,0,0,0,0,0,0,0,0,0,0,0,0,0,0,0,0,0,-0.76951461639562,-0.14266723632321,-2.3290659779659,6.3197818613978,2.7154538619284,1.6138626006076,-3.650700539048,1.4152337650359,2.7405053118546,-0.33751975954872,1.189270232163,-5.360757344617,1.3717713263734,-1.6910198834112,1.1234133736098,-3.579158293251,2.436448143634,5.048312358274,-1.0743069029027,-5.9723268128449,0.8057594308681,1.896398010894,0.26816862305569,-4.9860545225636,2.5027045832296,-1.9480302977489,0.48623467093714,1.3903001338232,-1.5010724509358,1.1118305614832,1.4548443043596,0.033249583282826,0.7009194138192,-4.3550468475423,-2.2393444785431,-3.7868705759299,5.2917132365275,-2.1303927755415,3.5638692818036,-0.29770829267336,-1.7718540497589,-6.7488182422074,0.65611473577133,-2.6394550510829,-3.8989094374431,1.1242797478213,4.3586722855246,-4.4171737118382,136.57626884324,136.57626884324,136.57626884324,136.57626884324,136.57626884324,136.57626884324,136.57626884324,136.57626884324,136.57626884324,136.57626884324,136.57626884324,136.57626884324,136.57626884324,136.57626884324,136.57626884324,136.57626884324,136.57626884324,136.57626884324,136.57626884324,136.57626884324,136.57626884324,136.57626884324,136.57626884324,136.57626884324,136.57626884324,136.57626884324,136.57626884324,136.57626884324,136.57626884324,136.57626884324,136.57626884324,136.57626884324,136.57626884324,136.57626884324,136.57626884324,136.57626884324,136.57626884324,136.57626884324,136.57626884324,136.57626884324,136.57626884324,136.57626884324,136.57626884324,136.57626884324,136.57626884324,136.57626884324,136.57626884324,136.57626884324,226.3795704531,251.0038093766,-0.03072487638398,231.11251138711,-0.03415089864314,0
4.34375e-05,79863709.005975,3.8662905297218e-06,1.2897925145974e-05,5.1005780038627e-06,1.0032363188111,0,0,0,0,0,0,0,0,0,0,0,0,0,0,0,0,0,0,0,0,0,0,0,0,0,0,0,0,0,0,0,0,0,0,0,0,0,0,0,0,0,0,0,0,0,0,0,0,-0.77591239524369,-0.15461929011883,-2.3135013448425,6.300085005504,2.7218994654696,1.6096838541117,-3.6482573742985,1.4219480720253,2.7402345019319,-0.34054810713478,1.1933276601175,-5.3553025842976,1.3713556721379,-1.6967820155226,1.1260952252616,-3.5890172175614,2.4337298789269,5.0467642435944,-1.0733045990377,-5.9489565333911,0.81720764130326,1.889712839118,0.26679499089523,-4.9750312492295,2.5044381477374,-1.9372468034147,0.49564212794694,1.3891181783384,-1.5038365302303,1.120255351134,1.454868954626,0.02682776571301,0.70286322956141,-4.3584284800845,-2.2383325970441,-3.785848171279,5.2868717914466,-2.1412928751388,3.5551627764325,-0.3045145020891,-1.7671655389467,-6.7514060226898,0.65231195745388,-2.6259066500875,-3.8850015163089,1.1155768229502,4.3555455912868,-4.4182773478554,136.81381655935,136.81381655935,136.81381655935,136.81381655935,136.81381655935,136.81381655935,136.81381655935,136.81381655935,136.81381655935,136.81381655935,136.81381655935,136.81381655935,136.81381655935,136.81381655935,136.81381655935,136.81381655935,136.81381655935,136.81381655935,136.81381655935,136.81381655935,136.81381655935,136.81381655935,136.81381655935,136.81381655935,136.81381655935,136.81381655935,136.81381655935,136.81381655935,136.81381655935,136.81381655935,136.81381655935,136.81381655935,136.81381655935,136.81381655935,136.81381655935,136.81381655935,136.81381655935,136.81381655935,136.81381655935,136.81381655935,136.81381655935,136.81381655935,136.81381655935,136.81381655935,136.81381655935,136.81381655935,136.81381655935,136.81381655935,226.50320260075,251.66109172237,-0.031476812675964,231.59879062002,-0.034932896486316,0
4.40625e-05,81096935.145901,3.9255729282157e-06,1.3083095366775e-05,5.1837872899608e-06,1.0032966933269,0,0,0,0,0,0,0,0,0,0,0,0,0,0,0,0,0,0,0,0,0,0,0,0,0,0,0,0,0,0,0,0,0,0,0,0,0,0,0,0,0,0,0,0,0,0,0,0,-0.78214672921938,-0.16621535027916,-2.2982558846923,6.2808753500244,2.7282241210326,1.6055545540849,-3.6458029084892,1.4284324489483,2.73999753507,-0.34343688543578,1.1973951131168,-5.350248620048,1.370942764472,-1.7023968320553,1.1288998185039,-3.5987713246934,2.4310974097401,5.0452596138779,-1.0723654507779,-5.9260705129535,0.82837513282547,1.88317690679,0.26547717053184,-4.9641372972341,2.5063153904134,-1.9270698947185,0.50488036879335,1.3879400962065,-1.5066226990556,1.1284326926324,1.4548617194633,0.020561228403713,0.70477306292429,-4.361733996272,-2.2372792632037,-3.7849866646828,5.2821721198448,-2.1519576244271,3.5467143479549,-0.31114508176223,-1.762395888148,-6.7540641130885,0.64886979870099,-2.6128560222746,-3.8713616195006,1.1072335549907,4.3523806939158,-4.4193764666413,137.05148360172,137.05148360172,137.05148360172,137.05148360172,137.05148360172,137.05148360172,137.05148360172,137.05148360172,137.05148360172,137.05148360172,137.05148360172,137.05148360172,137.05148360172,137.05148360172,137.05148360172,137.05148360172,137.05148360172,137.05148360172,137.05148360172,137.05148360172,137.05148360172,137.05148360172,137.05148360172,137.05148360172,137.05148360172,137.05148360172,137.05148360172,137.05148360172,137.05148360172,137.05148360172,137.05148360172,137.05148360172,137.05148360172,137.05148360172,137.05148360172,137.05148360172,137.05148360172,137.05148360172,137.05148360172,137.05148360172,137.05148360172,137.05148360172,137.05148360172,137.05148360172,137.05148360172,137.05148360172,137.05148360172,137.05148360172,226.62282311375,252.31474619981,-0.032234413882715,232.08371561274,-0.035720290038628,0
4.46875e-05,82335325.928695,3.9848035293741e-06,1.326825976581e-05,5.2669097635402e-06,1.0033570686261,0,0,0,0,0,0,0,0,0,0,0,0,0,0,0,0,0,0,0,0,0,0,0,0,0,0,0,0,0,0,0,0,0,0,0,0,0,0,0,0,0,0,0,0,0,0,0,0,-0.78820340052262,-0.17746416365469,-2.2833161890604,6.2621594136871,2.7344360384034,1.601466262401,-3.6433464214047,1.4347075201114,2.7397873690101,-0.34619600413264,1.2014733866126,-5.3455608557568,1.3705318098084,-1.7078383949337,1.1318176912846,-3.6084206614268,2.428560806954,5.0438040656443,-1.0714822237272,-5.9036666985894,0.83927657904023,1.8767845154109,0.26421600051279,-4.9533390558034,2.5083288683893,-1.9174534668374,0.51395702258236,1.3867529217946,-1.5094403254518,1.1363752156124,1.4548210711238,0.014427132541807,0.7066511860198,-4.3649537738963,-2.2361853477934,-3.7842378175253,5.2776055645003,-2.1623932089624,3.5385245849657,-0.31758436238316,-1.7575511749553,-6.7567775336456,0.6457789658186,-2.6002761768121,-3.8580011546645,1.0992431811422,4.3491911747846,-4.4204444986508,137.28926595984,137.28926595984,137.28926595984,137.28926595984,137.28926595984,137.28926595984,137.28926595984,137.28926595984,137.28926595984,137.28926595984,137.28926595984,137.28926595984,137.28926595984,137.28926595984,137.28926595984,137.28926595984,137.28926595984,137.28926595984,137.28926595984,137.28926595984,137.28926595984,137.28926595984,137.28926595984,137.28926595984,137.28926595984,137.28926595984,137.28926595984,137.28926595984,137.28926595984,137.28926595984,137.28926595984,137.28926595984,137.28926595984,137.28926595984,137.28926595984,137.28926595984,137.28926595984,137.28926595984,137.28926595984,137.28926595984,137.28926595984,137.28926595984,137.28926595984,137.28926595984,137.28926595984,137.28926595984,137.28926595984,137.28926595984,226.73867597254,252.96489821949,-0.032997634902285,232.56733967145,-0.036513069417336,0
4.53125e-05,83578915.034162,4.0439825364635e-06,1.3453418637027e-05,5.3499467628209e-06,1.0034174446481,0,0,0,0,0,0,0,0,0,0,0,0,0,0,0,0,0,0,0,0,0,0,0,0,0,0,0,0,0,0,0,0,0,0,0,0,0,0,0,0,0,0,0,0,0,0,0,0,-0.79407025030047,-0.18837351039624,-2.2686685653172,6.2439401373136,2.7405416225377,1.5974130904827,-3.6408961515709,1.4407936906558,2.7395987771408,-0.34883377737462,1.2055627483702,-5.3412071015581,1.3701228771716,-1.7130823611039,1.1348392647714,-3.6179657659594,2.4261280114717,5.042402026642,-1.0706465627497,-5.8817417082815,0.84992938696288,1.8705319897422,0.26301267149219,-4.942606512589,2.5104707334539,-1.9083541341749,0.52287767838609,1.3855461965179,-1.5122973512988,1.1440914867483,1.4547464245307,0.0084058134898859,0.70849979686405,-4.3680803203266,-2.2350532631056,-3.7835556969662,5.2731662515646,-2.1726066165826,3.530592903653,-0.32381810404699,-1.7526392272879,-6.7595322934774,0.64302986794731,-2.5881400535293,-3.8449380301835,1.09159815158,4.3459896042805,-4.4214563709474,137.52715984955,137.52715984955,137.52715984955,137.52715984955,137.52715984955,137.52715984955,137.52715984955,137.52715984955,137.52715984955,137.52715984955,137.52715984955,137.52715984955,137.52715984955,137.52715984955,137.52715984955,137.52715984955,137.52715984955,137.52715984955,137.52715984955,137.52715984955,137.52715984955,137.52715984955,137.52715984955,137.52715984955,137.52715984955,137.52715984955,137.52715984955,137.52715984955,137.52715984955,137.52715984955,137.52715984955,137.52715984955,137.52715984955,137.52715984955,137.52715984955,137.52715984955,137.52715984955,137.52715984955,137.52715984955,137.52715984955,137.52715984955,137.52715984955,137.52715984955,137.52715984955,137.52715984955,137.52715984955,137.52715984955,137.52715984955,226.85097546773,253.61166469107,-0.033766431178083,233.04971096833,-0.037311225320992,0
4.59375e-05,84827744.714348,4.1031101902195e-06,1.363857225956e-05,5.4328995854126e-06,1.0034778213391,0,0,0,0,0,0,0,0,0,0,0,0,0,0,0,0,0,0,0,0,0,0,0,0,0,0,0,0,0,0,0,0,0,0,0,0,0,0,0,0,0,0,0,0,0,0,0,0,-0.79973920124981,-0.19895045978538,-2.2542989751247,6.2262172858135,2.74654580183,1.5933916992309,-3.6384591006388,1.4467096762176,2.7394280525326,-0.35135782035205,1.2096628341982,-5.3371593546981,1.3697168387973,-1.7181070421164,1.1379549520203,-3.6274071534822,2.4238041404752,5.0410568082593,-1.069849570484,-5.8602910351073,0.86035218890926,1.8644170279493,0.26186767766418,-4.9319139719393,2.5127325641697,-1.8997324780647,0.53164622800693,1.3843126222115,-1.5151996481721,1.1515860664881,1.4546380198984,0.0024807449109999,0.71032100462206,-4.3711096893415,-2.2338866606591,-3.7828978641134,5.2688504944475,-2.1826052409331,3.5229166756381,-0.32983462704332,-1.7476692232961,-6.7623151201154,0.64061207981441,-2.5764202037429,-3.8321942810854,1.0842894083774,4.3427868732713,-4.4223897577932,137.76516168723,137.76516168723,137.76516168723,137.76516168723,137.76516168723,137.76516168723,137.76516168723,137.76516168723,137.76516168723,137.76516168723,137.76516168723,137.76516168723,137.76516168723,137.76516168723,137.76516168723,137.76516168723,137.76516168723,137.76516168723,137.76516168723,137.76516168723,137.76516168723,137.76516168723,137.76516168723,137.76516168723,137.76516168723,137.76516168723,137.76516168723,137.76516168723,137.76516168723,137.76516168723,137.76516168723,137.76516168723,137.76516168723,137.76516168723,137.76516168723,137.76516168723,137.76516168723,137.76516168723,137.76516168723,137.76516168723,137.76516168723,137.76516168723,137.76516168723,137.76516168723,137.76516168723,137.76516168723,137.76516168723,137.76516168723,226.95991144369,254.25515499723,-0.03454075720089,233.5308736203,-0.038114745190424,0
4.65625e-05,86081860.590725,4.1621867786611e-06,1.3823720896558e-05,5.5157695277451e-06,1.0035381986471,0,0,0,0,0,0,0,0,0,0,0,0,0,0,0,0,0,0,0,0,0,0,0,0,0,0,0,0,0,0,0,0,0,0,0,0,0,0,0,0,0,0,0,0,0,0,0,0,-0.80520725105095,-0.20920155529219,-2.2401927661854,6.2089877512176,2.752452311167,1.589400996212,-3.6360408767609,1.4524715304812,2.7392727373633,-0.35377561479194,1.2137725566453,-5.3333951296825,1.3693153078718,-1.7228943304272,1.1411551871166,-3.6367449615815,2.4215911913542,5.0397705104225,-1.0690824431499,-5.8393091906537,0.87056369700728,1.8584382592676,0.26078002863479,-4.9212408565315,2.5151051663591,-1.891554099392,0.54026529571306,1.3830482188497,-1.5181505895213,1.1588601176823,1.4544967823001,-0.0033613373469361,0.71211682187849,-4.3740421866848,-2.2326900556512,-3.7822265573273,5.2646560393677,-2.1923965503404,3.5154907409912,-0.33562560546401,-1.7426513596421,-6.7651133902585,0.6385141284894,-2.5650888790801,-3.8197931929833,1.0773061019091,4.3395914928066,-4.4232258881497,138.00326806712,138.00326806712,138.00326806712,138.00326806712,138.00326806712,138.00326806712,138.00326806712,138.00326806712,138.00326806712,138.00326806712,138.00326806712,138.00326806712,138.00326806712,138.00326806712,138.00326806712,138.00326806712,138.00326806712,138.00326806712,138.00326806712,138.00326806712,138.00326806712,138.00326806712,138.00326806712,138.00326806712,138.00326806712,138.00326806712,138.00326806712,138.00326806712,138.00326806712,138.00326806712,138.00326806712,138.00326806712,138.00326806712,138.00326806712,138.00326806712,138.00326806712,138.00326806712,138.00326806712,138.00326806712,138.00326806712,138.00326806712,138.00326806712,138.00326806712,138.00326806712,138.00326806712,138.00326806712,138.00326806712,138.00326806712,227.06565237679,254.89547206403,-0.03532057017123,234.01086874935,-0.038923617115756,0
4.71875e-05,87341307.312668,4.2212126441799e-06,1.4008864794498e-05,5.5985579180522e-06,1.0035985765176,0,0,0,0,0,0,0,0,0,0,0,0,0,0,0,0,0,0,0,0,0,0,0,0,0,0,0,0,0,0,0,0,0,0,0,0,0,0,0,0,0,0,0,0,0,0,0,0,-0.81047639428649,-0.21913298048256,-2.226334447221,6.1922458496204,2.758263903471,1.5854416916699,-3.6336456292815,1.4580922056175,2.7391312860439,-0.35609473135584,1.2178900897914,-5.3298977155342,1.3689205737498,-1.7274304586891,1.1444304068486,-3.6459787662885,2.4194880228458,5.0385438371846,-1.0683369938895,-5.8187898311874,0.88058194453426,1.8525947632773,0.2597468345952,-4.9105724881614,2.5175784780453,-1.8837900034262,0.54873665894572,1.3817520830046,-1.5211509022181,1.16591233351,1.4543241542976,-0.0091302317702438,0.71388918088037,-4.3768820506157,-2.2314684874031,-3.7815097702501,5.2605813099747,-2.2019878548606,3.5083072755969,-0.34118648080725,-1.737596589575,-6.7679152367926,0.63672343804434,-2.5541185187631,-3.8077565099644,1.070635689743,4.3364090406908,-4.4239500167591,138.24147574027,138.24147574027,138.24147574027,138.24147574027,138.24147574027,138.24147574027,138.24147574027,138.24147574027,138.24147574027,138.24147574027,138.24147574027,138.24147574027,138.24147574027,138.24147574027,138.24147574027,138.24147574027,138.24147574027,138.24147574027,138.24147574027,138.24147574027,138.24147574027,138.24147574027,138.24147574027,138.24147574027,138.24147574027,138.24147574027,138.24147574027,138.24147574027,138.24147574027,138.24147574027,138.24147574027,138.24147574027,138.24147574027,138.24147574027,138.24147574027,138.24147574027,138.24147574027,138.24147574027,138.24147574027,138.24147574027,138.24147574027,138.24147574027,138.24147574027,138.24147574027,138.24147574027,138.24147574027,138.24147574027,138.24147574027,227.16834675758,255.53271350224,-0.036105828038731,234.48973545484,-0.039737825105498,0
4.78125e-05,88606125.175026,4.2801881861206e-06,1.4194004182941e-05,5.681266142345e-06,1.0036589548907,0,0,0,0,0,0,0,0,0,0,0,0,0,0,0,0,0,0,0,0,0,0,0,0,0,0,0,0,0,0,0,0,0,0,0,0,0,0,0,0,0,0,0,0,0,0,0,0,-0.81555271026598,-0.22875070670687,-2.2127074188049,6.175983638435,2.76398249653,1.5815157024201,-3.6312760790052,1.4635815354578,2.7390027619272,-0.35832277560159,1.222012930806,-5.3266551350325,1.3685355492449,-1.731706402693,1.1477710263363,-3.6551075787118,2.4174905687392,5.0373759277861,-1.0676060821596,-5.798725859256,0.89042386362571,1.8468857565658,0.25876329067904,-4.8999006734006,2.5201415334092,-1.8764161211346,0.55706162446664,1.3804257937579,-1.5241987885535,1.1727399351511,1.4541219205242,-0.014832111330179,0.71563997374965,-4.3796361141111,-2.2302271981844,-3.7807219857878,5.2566248120099,-2.2113861686659,3.5013559748535,-0.346516418936,-1.7325164330982,-6.7707098037559,0.63522639288451,-2.5434824597861,-3.7961022278607,1.0642643315086,4.3332419011031,-4.4245514576931,138.47978159542,138.47978159542,138.47978159542,138.47978159542,138.47978159542,138.47978159542,138.47978159542,138.47978159542,138.47978159542,138.47978159542,138.47978159542,138.47978159542,138.47978159542,138.47978159542,138.47978159542,138.47978159542,138.47978159542,138.47978159542,138.47978159542,138.47978159542,138.47978159542,138.47978159542,138.47978159542,138.47978159542,138.47978159542,138.47978159542,138.47978159542,138.47978159542,138.47978159542,138.47978159542,138.47978159542,138.47978159542,138.47978159542,138.47978159542,138.47978159542,138.47978159542,138.47978159542,138.47978159542,138.47978159542,138.47978159542,138.47978159542,138.47978159542,138.47978159542,138.47978159542,138.47978159542,138.47978159542,138.47978159542,138.47978159542,227.26812502552,256.16697259752,-0.036896493048895,234.96751153808,-0.040557352260102,0
4.84375e-05,89876347.525413,4.3391138577743e-06,1.4379139274834e-05,5.7638956619909e-06,1.0037193336997,0,0,0,0,0,0,0,0,0,0,0,0,0,0,0,0,0,0,0,0,0,0,0,0,0,0,0,0,0,0,0,0,0,0,0,0,0,0,0,0,0,0,0,0,0,0,0,0,-0.8204450539213,-0.23806063158049,-2.1992939586847,6.1601912720956,2.769609303642,1.5776255626875,-3.6289336356728,1.4689464865971,2.7388865701286,-0.36046715434877,1.2261380532918,-5.3236580608345,1.3681637247719,-1.7357179664259,1.1511674308873,-3.6641300018562,2.4155922078952,5.036264341715,-1.066883861407,-5.779109505015,0.90010503016522,1.8413103318697,0.25782301411697,-4.8892239588597,2.5227825986006,-1.8694120439576,0.56524129455671,1.3790726214626,-1.5272902782117,1.1793395564528,1.4538920636382,-0.020469500646586,0.71737110789688,-4.3823118309738,-2.2289714200559,-3.7798445200882,5.2527847580221,-2.2205981785701,3.4946244851291,-0.35161797985241,-1.7274228414862,-6.7734875692657,0.63400844576638,-2.5331557667617,-3.7848432229197,1.0581774712171,4.3300893990931,-4.4250233506499,138.71818264289,138.71818264289,138.71818264289,138.71818264289,138.71818264289,138.71818264289,138.71818264289,138.71818264289,138.71818264289,138.71818264289,138.71818264289,138.71818264289,138.71818264289,138.71818264289,138.71818264289,138.71818264289,138.71818264289,138.71818264289,138.71818264289,138.71818264289,138.71818264289,138.71818264289,138.71818264289,138.71818264289,138.71818264289,138.71818264289,138.71818264289,138.71818264289,138.71818264289,138.71818264289,138.71818264289,138.71818264289,138.71818264289,138.71818264289,138.71818264289,138.71818264289,138.71818264289,138.71818264289,138.71818264289,138.71818264289,138.71818264289,138.71818264289,138.71818264289,138.71818264289,138.71818264289,138.71818264289,138.71818264289,138.71818264289,227.36510233907,256.79833902915,-0.037692530850503,235.44423397007,-0.041382178476842,0
4.90625e-05,91151998.779516,4.3979901583996e-06,1.4564270267259e-05,5.8464480235642e-06,1.0037797128714,0,0,0,0,0,0,0,0,0,0,0,0,0,0,0,0,0,0,0,0,0,0,0,0,0,0,0,0,0,0,0,0,0,0,0,0,0,0,0,0,0,0,0,0,0,0,0,0,-0.82516374263316,-0.24706870836033,-2.1860753738533,6.1448573948264,2.7751449756094,1.5737738263541,-3.6266185767876,1.4741915316944,2.7387822647698,-0.36253475219032,1.2302621227279,-5.3208974414768,1.3678091378678,-1.7394655520222,1.1546100161089,-3.6730444849864,2.4137842328659,5.0352052422076,-1.0661659192904,-5.7599323898569,0.90963948733336,1.8358672977031,0.25691862380084,-4.8785474515667,2.5254894139548,-1.8627594066949,0.57327673538192,1.3776966091135,-1.5304197316117,1.1857079134953,1.4536366633632,-0.026041433551736,0.71908456981703,-4.384915332784,-2.2277062387948,-3.7788654348816,5.2490589632761,-2.2296302797443,3.4880990040848,-0.35649660661573,-1.7223280960246,-6.7762406485011,0.63305424168525,-2.5231160087476,-3.7739867767842,1.0523605107946,4.3269482915896,-4.4253622437634,138.95667600324,138.95667600324,138.95667600324,138.95667600324,138.95667600324,138.95667600324,138.95667600324,138.95667600324,138.95667600324,138.95667600324,138.95667600324,138.95667600324,138.95667600324,138.95667600324,138.95667600324,138.95667600324,138.95667600324,138.95667600324,138.95667600324,138.95667600324,138.95667600324,138.95667600324,138.95667600324,138.95667600324,138.95667600324,138.95667600324,138.95667600324,138.95667600324,138.95667600324,138.95667600324,138.95667600324,138.95667600324,138.95667600324,138.95667600324,138.95667600324,138.95667600324,138.95667600324,138.95667600324,138.95667600324,138.95667600324,138.95667600324,138.95667600324,138.95667600324,138.95667600324,138.95667600324,138.95667600324,138.95667600324,138.95667600324,227.45938309592,257.4268992361,-0.038493909255649,235.91993907051,-0.042212280188713,0
4.96875e-05,92433092.863746,4.4568176213715e-06,1.4749397342534e-05,5.9289248615709e-06,1.0038400923285,0,0,0,0,0,0,0,0,0,0,0,0,0,0,0,0,0,0,0,0,0,0,0,0,0,0,0,0,0,0,0,0,0,0,0,0,0,0,0,0,0,0,0,0,0,0,0,0,-0.82971950621265,-0.25578107127172,-2.1730323692277,6.1299695240587,2.7805897180961,1.5699625301261,-3.6243303136369,1.4793190324059,2.7386894320602,-0.36453160260935,1.2343817409583,-5.318362734755,1.3674763404869,-1.7429537167793,1.158089255546,-3.6818496685677,2.4120563403806,5.0341936584453,-1.0654493067137,-5.7411856564673,0.91903956424212,1.8305550899431,0.25604240607201,-4.8678822355189,2.5282495299996,-1.8564405354041,0.58116904153061,1.376301656654,-1.5335804400066,1.1918422348096,1.4533578428557,-0.031543784963228,0.72078248385509,-4.3874501825847,-2.2264365367271,-3.7777791078893,5.2454448938115,-2.2384886741994,3.481764942683,-0.36116006231673,-1.7172447137201,-6.7789631007957,0.63234771300652,-2.513343890989,-3.7635347841466,1.0467994569461,4.3238134115281,-4.4255675906601,139.19525890087,139.19525890087,139.19525890087,139.19525890087,139.19525890087,139.19525890087,139.19525890087,139.19525890087,139.19525890087,139.19525890087,139.19525890087,139.19525890087,139.19525890087,139.19525890087,139.19525890087,139.19525890087,139.19525890087,139.19525890087,139.19525890087,139.19525890087,139.19525890087,139.19525890087,139.19525890087,139.19525890087,139.19525890087,139.19525890087,139.19525890087,139.19525890087,139.19525890087,139.19525890087,139.19525890087,139.19525890087,139.19525890087,139.19525890087,139.19525890087,139.19525890087,139.19525890087,139.19525890087,139.19525890087,139.19525890087,139.19525890087,139.19525890087,139.19525890087,139.19525890087,139.19525890087,139.19525890087,139.19525890087,139.19525890087,227.55106555944,258.05273652183,-0.03930060041754,236.39466245772,-0.043047632052437,0
5.03125e-05,93719632.043018,4.5155967999597e-06,1.4934520669594e-05,6.0113278949313e-06,1.0039004719919,0,0,0,0,0,0,0,0,0,0,0,0,0,0,0,0,0,0,0,0,0,0,0,0,0,0,0,0,0,0,0,0,0,0,0,0,0,0,0,0,0,0,0,0,0,0,0,0,-0.83412276935407,-0.2642041360541,-2.1601454971732,6.1155143689593,2.7859433997444,1.5661927507218,-3.6220676387313,1.4843295874544,2.7386076300121,-0.36646261091189,1.2384936814718,-5.3160411009593,1.3671703616039,-1.7461906283936,1.1615958108838,-3.6905446508757,2.4103971218757,5.0332237949202,-1.0647325040201,-5.7228600685774,0.92831570765243,1.8253717426739,0.25518693731865,-4.8572443048263,2.5310506584456,-1.8504376659478,0.58891934123387,1.3748907367672,-1.5367652052162,1.1977404878773,1.4530577449389,-0.036969743413913,0.72246716353605,-4.3899169822581,-2.225166967615,-3.776585595985,5.2419398548446,-2.2471794561638,3.4756075730564,-0.36561789372202,-1.712185340059,-6.7816509909807,0.63187218552674,-2.5038236602008,-3.7534844573407,1.0414814591935,4.3206783447244,-4.4256412270888,139.43392866123,139.43392866123,139.43392866123,139.43392866123,139.43392866123,139.43392866123,139.43392866123,139.43392866123,139.43392866123,139.43392866123,139.43392866123,139.43392866123,139.43392866123,139.43392866123,139.43392866123,139.43392866123,139.43392866123,139.43392866123,139.43392866123,139.43392866123,139.43392866123,139.43392866123,139.43392866123,139.43392866123,139.43392866123,139.43392866123,139.43392866123,139.43392866123,139.43392866123,139.43392866123,139.43392866123,139.43392866123,139.43392866123,139.43392866123,139.43392866123,139.43392866123,139.43392866123,139.43392866123,139.43392866123,139.43392866123,139.43392866123,139.43392866123,139.43392866123,139.43392866123,139.43392866123,139.43392866123,139.43392866123,139.43392866123,227.64024531325,258.67593100543,-0.040112580262239,236.86843880766,-0.043888207542052,0
5.09375e-05,95011606.07803,4.5743282528261e-06,1.5119640405472e-05,6.0936589190201e-06,1.003960851784,0,0,0,0,0,0,0,0,0,0,0,0,0,0,0,0,0,0,0,0,0,0,0,0,0,0,0,0,0,0,0,0,0,0,0,0,0,0,0,0,0,0,0,0,0,0,0,0,-0.8383832456052,-0.27234467860198,-2.1473956881534,6.1014780591983,2.791205622346,1.5624643540099,-3.619828968101,1.4892223317741,2.738536369354,-0.36833137034645,1.2425950926487,-5.313917710461,1.3668966493348,-1.7491874767792,1.1651206496398,-3.6991291319947,2.4087944909374,5.0322892899601,-1.0640153139295,-5.7049461340571,0.93747633007744,1.820314889833,0.25434556618648,-4.8466531920236,2.533881020403,-1.8447329083718,0.59652875893362,1.3734654239567,-1.5399668450182,1.2034014563923,1.4527385295429,-0.042310376982544,0.72414114913421,-4.3923138569228,-2.2239019577998,-3.7752898835473,5.2385411931399,-2.2557086530428,3.4696125647445,-0.36988094557108,-1.7071626141373,-6.7843022573074,0.63161046323991,-2.4945432528277,-3.7438292592292,1.0363951149636,4.3175359975814,-4.4255868727468,139.67268270874,139.67268270874,139.67268270874,139.67268270874,139.67268270874,139.67268270874,139.67268270874,139.67268270874,139.67268270874,139.67268270874,139.67268270874,139.67268270874,139.67268270874,139.67268270874,139.67268270874,139.67268270874,139.67268270874,139.67268270874,139.67268270874,139.67268270874,139.67268270874,139.67268270874,139.67268270874,139.67268270874,139.67268270874,139.67268270874,139.67268270874,139.67268270874,139.67268270874,139.67268270874,139.67268270874,139.67268270874,139.67268270874,139.67268270874,139.67268270874,139.67268270874,139.67268270874,139.67268270874,139.67268270874,139.67268270874,139.67268270874,139.67268270874,139.67268270874,139.67268270874,139.67268270874,139.67268270874,139.67268270874,139.67268270874,227.72701586422,259.29655958944,-0.040929824311973,237.34130155864,-0.044733976726065,0
5.15625e-05,96308991.716075,4.6330125308888e-06,1.530475669679e-05,6.1759197938228e-06,1.0040212316306,0,0,0,0,0,0,0,0,0,0,0,0,0,0,0,0,0,0,0,0,0,0,0,0,0,0,0,0,0,0,0,0,0,0,0,0,0,0,0,0,0,0,0,0,0,0,0,0,-0.84250973448718,-0.28020987910939,-2.134764729531,6.0878463207634,2.7963758003822,1.5587759961299,-3.6176125750016,1.4939952266248,2.7384751871228,-0.37014009046195,1.2466836531386,-5.3119766415372,1.3666609803119,-1.751957865046,1.1686551957169,-3.7076034752505,2.407236048673,5.0313834486893,-1.0632986804426,-5.6874342649417,0.94652775212772,1.8153819082344,0.25351272319062,-4.8361304745282,2.5367296482517,-1.8393086535761,0.60399840296517,1.3720258433254,-1.5431785846297,1.208824749565,1.452402401324,-0.047555250245065,0.72580722684699,-4.3946373443578,-2.2226456900299,-3.7739010217511,5.2352465070267,-2.264082236208,3.4637663859189,-0.37396093135669,-1.7021889858988,-6.7869164675173,0.63154492436293,-2.4854941363605,-3.7345598760081,1.0315305293771,4.3143790499185,-4.4254096122494,139.91151856356,139.91151856356,139.91151856356,139.91151856356,139.91151856356,139.91151856356,139.91151856356,139.91151856356,139.91151856356,139.91151856356,139.91151856356,139.91151856356,139.91151856356,139.91151856356,139.91151856356,139.91151856356,139.91151856356,139.91151856356,139.91151856356,139.91151856356,139.91151856356,139.91151856356,139.91151856356,139.91151856356,139.91151856356,139.91151856356,139.91151856356,139.91151856356,139.91151856356,139.91151856356,139.91151856356,139.91151856356,139.91151856356,139.91151856356,139.91151856356,139.91151856356,139.91151856356,139.91151856356,139.91151856356,139.91151856356,139.91151856356,139.91151856356,139.91151856356,139.91151856356,139.91151856356,139.91151856356,139.91151856356,139.91151856356,227.81146762045,259.91469602267,-0.041752311148791,237.81328265388,-0.045584911037281,0
5.21875e-05,97611752.505049,4.6916501658808e-06,1.5489869681159e-05,6.258112430329e-06,1.0040816114633,0,0,0,0,0,0,0,0,0,0,0,0,0,0,0,0,0,0,0,0,0,0,0,0,0,0,0,0,0,0,0,0,0,0,0,0,0,0,0,0,0,0,0,0,0,0,0,0,-0.84651002654159,-0.28780731810349,-2.1222357649476,6.0746045959046,2.8014532413141,1.5551253893264,-3.6154167611617,1.4986453514924,2.7384236552851,-0.37188965739863,1.2507576962714,-5.3102019172032,1.3664693239286,-1.754517228801,1.172191449696,-3.7159686436535,2.4057093977329,5.0304994648894,-1.0625844223355,-5.670314909681,0.95547423658735,1.8105699569784,0.25268404780962,-4.8256982592098,2.5395866935092,-1.83414814178,0.61132935900052,1.3705710250643,-1.5463942963575,1.2140107741365,1.452051613188,-0.052693081852586,0.72746842703409,-4.3968833158811,-2.2214020898155,-3.7724312978966,5.2320537698502,-2.2723060886569,3.4580565749231,-0.37787005684803,-1.6972765026749,-6.7894944195771,0.63165765312134,-2.476670949283,-3.7256651186042,1.0268791601746,4.3112002912532,-4.4251154577007,140.15043383734,140.15043383734,140.15043383734,140.15043383734,140.15043383734,140.15043383734,140.15043383734,140.15043383734,140.15043383734,140.15043383734,140.15043383734,140.15043383734,140.15043383734,140.15043383734,140.15043383734,140.15043383734,140.15043383734,140.15043383734,140.15043383734,140.15043383734,140.15043383734,140.15043383734,140.15043383734,140.15043383734,140.15043383734,140.15043383734,140.15043383734,140.15043383734,140.15043383734,140.15043383734,140.15043383734,140.15043383734,140.15043383734,140.15043383734,140.15043383734,140.15043383734,140.15043383734,140.15043383734,140.15043383734,140.15043383734,140.15043383734,140.15043383734,140.15043383734,140.15043383734,140.15043383734,140.15043383734,140.15043383734,140.15043383734,227.89368693347,260.53041099477,-0.042580021716804,238.28441234762,-0.046440982204935,0
5.28125e-05,98919838.952169,4.7502416617594e-06,1.5674979488428e-05,6.3402387758969e-06,1.0041419912199,0,0,0,0,0,0,0,0,0,0,0,0,0,0,0,0,0,0,0,0,0,0,0,0,0,0,0,0,0,0,0,0,0,0,0,0,0,0,0,0,0,0,0,0,0,0,0,0,-0.85039085983425,-0.29514494323602,-2.1097937518358,6.0617381462012,2.8064372537364,1.551509717469,-3.6132400003137,1.5031692350481,2.7383813882651,-0.37357983058701,1.25481629254,-5.3085784372751,1.3663276512296,-1.7568822884293,1.1757221067464,-3.7242260875532,2.4042023955251,5.0296306623064,-1.0618749253272,-5.6535786822545,0.96431814732579,1.805876050135,0.25185635914044,-4.815377914281,2.542443712776,-1.8292359890906,0.61852272318107,1.3690994812711,-1.5496086177843,1.2189607262457,1.4516884505332,-0.057712420639501,0.72912798944205,-4.3990477754997,-2.2201747948856,-3.7708954035158,5.2289613830163,-2.2803859493914,3.452471872958,-0.38162068784881,-1.69243655341,-6.7920377753128,0.63193059404145,-2.4680709469611,-3.717132658624,1.0224335294878,4.3079928881607,-4.4247109418832,140.38942622796,140.38942622796,140.38942622796,140.38942622796,140.38942622796,140.38942622796,140.38942622796,140.38942622796,140.38942622796,140.38942622796,140.38942622796,140.38942622796,140.38942622796,140.38942622796,140.38942622796,140.38942622796,140.38942622796,140.38942622796,140.38942622796,140.38942622796,140.38942622796,140.38942622796,140.38942622796,140.38942622796,140.38942622796,140.38942622796,140.38942622796,140.38942622796,140.38942622796,140.38942622796,140.38942622796,140.38942622796,140.38942622796,140.38942622796,140.38942622796,140.38942622796,140.38942622796,140.38942622796,140.38942622796,140.38942622796,140.38942622796,140.38942622796,140.38942622796,140.38942622796,140.38942622796,140.38942622796,140.38942622796,140.38942622796,227.97375508337,261.14377227821,-0.043412933100521,238.75471916459,-0.04730215793753,0
5.34375e-05,100233188.99748,4.8087874877782e-06,1.5860086241763e-05,6.4223007973745e-06,1.0042023708449,0,0,0,0,0,0,0,0,0,0,0,0,0,0,0,0,0,0,0,0,0,0,0,0,0,0,0,0,0,0,0,0,0,0,0,0,0,0,0,0,0,0,0,0,0,0,0,0,-0.85415787916263,-0.30223097111777,-2.0974259106297,6.0492321510991,2.8113272956339,1.5479260492058,-3.6110810254631,1.50756321162,2.7383481387772,-0.37520956833125,1.2588593010524,-5.3070924857219,1.3662416838596,-1.7590704479321,1.1792406534339,-3.7323775788632,2.4027033721996,5.0287707708734,-1.0611728311994,-5.6372164626196,0.97306020877664,1.8012972468235,0.25102750495303,-4.8051890816635,2.5452939592804,-1.8245584663719,0.62557966942897,1.3676097583671,-1.5528169511282,1.2236765948225,1.4513152678303,-0.06260233194498,0.73078928817998,-4.4011272932945,-2.2189671198256,-3.7693095509072,5.2259681561496,-2.2883273446109,3.4470022674136,-0.38522501201279,-1.6876795890317,-6.794548682229,0.6323457509298,-2.4596933328203,-3.7089496002597,1.0181869272766,4.3047506008652,-4.4242026900574,140.62849351453,140.62849351453,140.62849351453,140.62849351453,140.62849351453,140.62849351453,140.62849351453,140.62849351453,140.62849351453,140.62849351453,140.62849351453,140.62849351453,140.62849351453,140.62849351453,140.62849351453,140.62849351453,140.62849351453,140.62849351453,140.62849351453,140.62849351453,140.62849351453,140.62849351453,140.62849351453,140.62849351453,140.62849351453,140.62849351453,140.62849351453,140.62849351453,140.62849351453,140.62849351453,140.62849351453,140.62849351453,140.62849351453,140.62849351453,140.62849351453,140.62849351453,140.62849351453,140.62849351453,140.62849351453,140.62849351453,140.62849351453,140.62849351453,140.62849351453,140.62849351453,140.62849351453,140.62849351453,140.62849351453,140.62849351453,228.05174869073,261.75484487811,-0.04425102653741,239.22422997445,-0.048168410415246,0
5.40625e-05,101551728.85192,4.8672880745796e-06,1.6045190058522e-05,6.5043004658294e-06,1.0042627502888,0,0,0,0,0,0,0,0,0,0,0,0,0,0,0,0,0,0,0,0,0,0,0,0,0,0,0,0,0,0,0,0,0,0,0,0,0,0,0,0,0,0,0,0,0,0,0,0,-0.85781561868604,-0.30907376269769,-2.0851221470578,6.0370718041055,2.8161231044519,1.5443716222396,-3.6089388910179,1.5118237772965,2.7383237252478,-0.37677744761518,1.2628873816058,-5.3057319948891,1.3662165841351,-1.7610992981717,1.1827414460725,-3.7404250671712,2.401201323423,5.0279141632499,-1.0604807912408,-5.6212194788028,0.98169983040547,1.7968306105618,0.25019612763083,-4.7951490531292,2.5481326567834,-1.8201036186052,0.63250151828793,1.3661007863573,-1.5560154023718,1.2281611695687,1.4509344451615,-0.067353057467026,0.73245570810899,-4.4031192473904,-2.2177820184808,-3.7676907018662,5.2230732288083,-2.2961355290634,3.4416389675731,-0.38869477692831,-1.683014826482,-6.7970295092771,0.63288541943876,-2.4515385835683,-3.7011028910548,1.0141331761662,4.3014679287594,-4.4235971743947,140.86763355376,140.86763355376,140.86763355376,140.86763355376,140.86763355376,140.86763355376,140.86763355376,140.86763355376,140.86763355376,140.86763355376,140.86763355376,140.86763355376,140.86763355376,140.86763355376,140.86763355376,140.86763355376,140.86763355376,140.86763355376,140.86763355376,140.86763355376,140.86763355376,140.86763355376,140.86763355376,140.86763355376,140.86763355376,140.86763355376,140.86763355376,140.86763355376,140.86763355376,140.86763355376,140.86763355376,140.86763355376,140.86763355376,140.86763355376,140.86763355376,140.86763355376,140.86763355376,140.86763355376,140.86763355376,140.86763355376,140.86763355376,140.86763355376,140.86763355376,140.86763355376,140.86763355376,140.86763355376,140.86763355376,140.86763355376,228.12774081857,262.36369114902,-0.045094283463586,239.69297013743,-0.049039711757908,0
5.46875e-05,102875374.25,4.9257438117974e-06,1.6230291050951e-05,6.5862397406366e-06,1.0043231295076,0,0,0,0,0,0,0,0,0,0,0,0,0,0,0,0,0,0,0,0,0,0,0,0,0,0,0,0,0,0,0,0,0,0,0,0,0,0,0,0,0,0,0,0,0,0,0,0,-0.86136749284949,-0.3156816703044,-2.0728753976231,6.0252424101614,2.8208248175013,1.5408439706678,-3.606812994233,1.5159479214138,2.7383080230808,-0.37828211198834,1.2669019562735,-5.3044864852754,1.3662566034628,-1.7629861143011,1.1862197636999,-3.7483705385311,2.3996860532972,5.0270560545136,-1.0598012894279,-5.6055793553069,0.99023546560272,1.7924732595303,0.24936140220121,-4.785272407818,2.5509572089425,-1.815861174844,0.63928980844713,1.3645719887061,-1.5592006786831,1.2324180366037,1.4505483790509,-0.071956597660893,0.73413047353972,-4.4050218110052,-2.2166220481026,-3.7660558098177,5.2202759511832,-2.3038154395836,3.436374330266,-0.39204103386663,-1.6784499633397,-6.7994826113449,0.63353240871444,-2.4436077963846,-3.6935795994033,1.0102664827269,4.2981402151409,-4.4229004860515,141.10684427661,141.10684427661,141.10684427661,141.10684427661,141.10684427661,141.10684427661,141.10684427661,141.10684427661,141.10684427661,141.10684427661,141.10684427661,141.10684427661,141.10684427661,141.10684427661,141.10684427661,141.10684427661,141.10684427661,141.10684427661,141.10684427661,141.10684427661,141.10684427661,141.10684427661,141.10684427661,141.10684427661,141.10684427661,141.10684427661,141.10684427661,141.10684427661,141.10684427661,141.10684427661,141.10684427661,141.10684427661,141.10684427661,141.10684427661,141.10684427661,141.10684427661,141.10684427661,141.10684427661,141.10684427661,141.10684427661,141.10684427661,141.10684427661,141.10684427661,141.10684427661,141.10684427661,141.10684427661,141.10684427661,141.10684427661,228.20180143419,262.97037093387,-0.045942682888702,240.16096370516,-0.049916032780705,0
5.53125e-05,104204032.19708,4.9841550472372e-06,1.6415389326698e-05,6.6681205545937e-06,1.004383508462,0,0,0,0,0,0,0,0,0,0,0,0,0,0,0,0,0,0,0,0,0,0,0,0,0,0,0,0,0,0,0,0,0,0,0,0,0,0,0,0,0,0,0,0,0,0,0,0,-0.86481582998264,-0.32206286751173,-2.0606818302714,6.0137294885013,2.8254330470211,1.5373409416742,-3.604703097036,1.5199333788668,2.7383009284412,-0.37972267669582,1.2709051064043,-5.3033468719931,1.3663647116008,-1.7647473970312,1.1896718402354,-3.7562159501541,2.3981483312421,5.0261926135889,-1.0591365205449,-5.5902881601571,0.99866495260296,1.7882223732014,0.24852278286712,-4.7755709173654,2.5537672807923,-1.8118223614354,0.6459463490091,1.3630232273624,-1.5623699935655,1.236451535233,1.4501594630042,-0.07640715378109,0.73581643491293,-4.4068338483048,-2.2154893349643,-3.764421119778,5.2175757518297,-2.3113716711131,3.4312017812467,-0.39527392263835,-1.6739909217317,-6.8019102499803,0.6342702995412,-2.4359020991032,-3.686367088328,1.0065813545542,4.2947636826896,-4.4221181731484,141.34612368524,141.34612368524,141.34612368524,141.34612368524,141.34612368524,141.34612368524,141.34612368524,141.34612368524,141.34612368524,141.34612368524,141.34612368524,141.34612368524,141.34612368524,141.34612368524,141.34612368524,141.34612368524,141.34612368524,141.34612368524,141.34612368524,141.34612368524,141.34612368524,141.34612368524,141.34612368524,141.34612368524,141.34612368524,141.34612368524,141.34612368524,141.34612368524,141.34612368524,141.34612368524,141.34612368524,141.34612368524,141.34612368524,141.34612368524,141.34612368524,141.34612368524,141.34612368524,141.34612368524,141.34612368524,141.34612368524,141.34612368524,141.34612368524,141.34612368524,141.34612368524,141.34612368524,141.34612368524,141.34612368524,141.34612368524,228.27399759132,263.57494172218,-0.046796207924982,240.62823361793,-0.050797347496628,0
5.59375e-05,105537603.28964,5.0425220874801e-06,1.6600484989153e-05,6.7499448003676e-06,1.0044438871166,0,0,0,0,0,0,0,0,0,0,0,0,0,0,0,0,0,0,0,0,0,0,0,0,0,0,0,0,0,0,0,0,0,0,0,0,0,0,0,0,0,0,0,0,0,0,0,0,-0.86816195943309,-0.32822519367251,-2.0485408582724,6.0025188802023,2.8299489172975,1.5338606784235,-3.6026092994358,1.5237787963191,2.7383023129586,-0.38109902962966,1.2748994146947,-5.3023051827756,1.3665422448898,-1.7663984779889,1.1930948710077,-3.7639631624486,2.3965799857882,5.0253210026715,-1.0584883084662,-5.5753383984615,1.0069858249441,1.7840751650194,0.24767979328687,-4.7660535197834,2.556564744108,-1.8079796275957,0.6524732551861,1.3614546957509,-1.5655209643908,1.2402666746776,1.4497700657575,-0.080701391588741,0.73751583178883,-4.4085547615232,-2.2143855493447,-3.7628015593284,5.2149720155865,-2.3188084735082,3.4261157150681,-0.39840250512248,-1.6696416516904,-6.8043144698478,0.6350836445443,-2.4284221472836,-3.6794531246055,1.0030725525264,4.2913354253667,-4.4212551780638,141.58546984956,141.58546984956,141.58546984956,141.58546984956,141.58546984956,141.58546984956,141.58546984956,141.58546984956,141.58546984956,141.58546984956,141.58546984956,141.58546984956,141.58546984956,141.58546984956,141.58546984956,141.58546984956,141.58546984956,141.58546984956,141.58546984956,141.58546984956,141.58546984956,141.58546984956,141.58546984956,141.58546984956,141.58546984956,141.58546984956,141.58546984956,141.58546984956,141.58546984956,141.58546984956,141.58546984956,141.58546984956,141.58546984956,141.58546984956,141.58546984956,141.58546984956,141.58546984956,141.58546984956,141.58546984956,141.58546984956,141.58546984956,141.58546984956,141.58546984956,141.58546984956,141.58546984956,141.58546984956,141.58546984956,141.58546984956,228.34439306813,264.17745883389,-0.047654839748809,241.09480188957,-0.051683629354604,0
5.65625e-05,106875984.64411,5.1008451992756e-06,1.6785578137667e-05,6.8317143177192e-06,1.0045042654395,0,0,0,0,0,0,0,0,0,0,0,0,0,0,0,0,0,0,0,0,0,0,0,0,0,0,0,0,0,0,0,0,0,0,0,0,0,0,0,0,0,0,0,0,0,0,0,0,-0.87140635503989,-0.3341760240317,-2.0364549047194,5.9915968499453,2.8343740621551,1.530401644401,-3.6005320003827,1.527483792837,2.7383119857938,-0.38241199666019,1.2788877306274,-5.3013542565278,1.3667886232974,-1.7679531940224,1.1964869864634,-3.7716139210438,2.3949739900703,5.024439353649,-1.057858011356,-5.560722979328,1.0151955577842,1.7800288638754,0.24683187475427,-4.7567263929909,2.5593533934361,-1.8043263407331,0.65887295720145,1.3598668536352,-1.5686515294864,1.2438690095759,1.4493825084602,-0.084838505249248,0.73923005436734,-4.4101843345079,-2.2133118871179,-3.7612102178529,5.2124639750471,-2.3261297564944,3.42111140228,-0.40143465326611,-1.6654040251881,-6.806697054198,0.63595815392728,-2.4211676990889,-3.6728259319763,0.999735048013,4.2878533634,-4.4203157814361,141.82488090293,141.82488090293,141.82488090293,141.82488090293,141.82488090293,141.82488090293,141.82488090293,141.82488090293,141.82488090293,141.82488090293,141.82488090293,141.82488090293,141.82488090293,141.82488090293,141.82488090293,141.82488090293,141.82488090293,141.82488090293,141.82488090293,141.82488090293,141.82488090293,141.82488090293,141.82488090293,141.82488090293,141.82488090293,141.82488090293,141.82488090293,141.82488090293,141.82488090293,141.82488090293,141.82488090293,141.82488090293,141.82488090293,141.82488090293,141.82488090293,141.82488090293,141.82488090293,141.82488090293,141.82488090293,141.82488090293,141.82488090293,141.82488090293,141.82488090293,141.82488090293,141.82488090293,141.82488090293,141.82488090293,141.82488090293,228.41304758661,264.77797562158,-0.048518560557204,241.56068974964,-0.052574852805593,0
5.71875e-05,108219073.38253,5.1591246122057e-06,1.6970668867637e-05,6.9134308832662e-06,1.0045646434015,0,0,0,0,0,0,0,0,0,0,0,0,0,0,0,0,0,0,0,0,0,0,0,0,0,0,0,0,0,0,0,0,0,0,0,0,0,0,0,0,0,0,0,0,0,0,0,0,-0.87454883334411,-0.33992218456849,-2.0244288682108,5.9809501959394,2.8387105944211,1.5269626913992,-3.5984718419398,1.5310489379995,2.7383296742499,-0.38366337356932,1.282872888025,-5.3004874764572,1.3671011835637,-1.7694236381552,1.1998471883099,-3.7791698636895,2.3933245073017,5.0235467009411,-1.0572464365779,-5.5464351615266,1.0232917784864,1.7760807105251,0.24597829516739,-4.7475930675249,2.5621384668116,-1.8008564761839,0.66514819591202,1.3582604357268,-1.5717598747462,1.2472644998166,1.4489990423526,-0.088820100839943,0.74095943312834,-4.4117226138521,-2.2122690475147,-3.7596579284992,5.2100506289152,-2.3333391040927,3.4161848983846,-0.40437699363402,-1.6612778459626,-6.8090595025308,0.63688082637847,-2.4141372653206,-3.6664742078086,0.99656397295657,4.2843161760396,-4.4193035761485,142.06435503705,142.06435503705,142.06435503705,142.06435503705,142.06435503705,142.06435503705,142.06435503705,142.06435503705,142.06435503705,142.06435503705,142.06435503705,142.06435503705,142.06435503705,142.06435503705,142.06435503705,142.06435503705,142.06435503705,142.06435503705,142.06435503705,142.06435503705,142.06435503705,142.06435503705,142.06435503705,142.06435503705,142.06435503705,142.06435503705,142.06435503705,142.06435503705,142.06435503705,142.06435503705,142.06435503705,142.06435503705,142.06435503705,142.06435503705,142.06435503705,142.06435503705,142.06435503705,142.06435503705,142.06435503705,142.06435503705,142.06435503705,142.06435503705,142.06435503705,142.06435503705,142.06435503705,142.06435503705,142.06435503705,142.06435503705,228.48001602287,265.37654367729,-0.049387354364162,242.02591774639,-0.053470995014737,0
5.78125e-05,109566770.49913,5.217360521771e-06,1.7155757270495e-05,6.9950962019111e-06,1.0046250209761,0,0,0,0,0,0,0,0,0,0,0,0,0,0,0,0,0,0,0,0,0,0,0,0,0,0,0,0,0,0,0,0,0,0,0,0,0,0,0,0,0,0,0,0,0,0,0,0,-0.87758878856913,-0.34546991736783,-2.0124694412656,5.9705663663177,2.842961054327,1.5235432064983,-3.5964296372415,1.5344756740943,2.7383550042864,-0.38485584787796,1.2868574027207,-5.2996985106719,1.3674751693524,-1.7708200113102,1.20317525357,-3.7866325428285,2.3916269071445,5.0226428958991,-1.056653727916,-5.5324684778786,1.0312724183901,1.7722279502264,0.24511811376285,-4.7386545696338,2.5649260422213,-1.797564279373,0.67130199919696,1.3566365546724,-1.5748443639808,1.2504593853426,1.4486218159412,-0.092649937390287,0.74270308669085,-4.4131698107954,-2.2112572179381,-3.7581529876141,5.2077306923052,-2.3404397921694,3.4113329578891,-0.40723491606555,-1.6572609817384,-6.8114030241399,0.63784003448221,-2.4073278401381,-3.6603871071983,0.99355455660808,4.2807232360441,-4.4182214594518,142.30389049631,142.30389049631,142.30389049631,142.30389049631,142.30389049631,142.30389049631,142.30389049631,142.30389049631,142.30389049631,142.30389049631,142.30389049631,142.30389049631,142.30389049631,142.30389049631,142.30389049631,142.30389049631,142.30389049631,142.30389049631,142.30389049631,142.30389049631,142.30389049631,142.30389049631,142.30389049631,142.30389049631,142.30389049631,142.30389049631,142.30389049631,142.30389049631,142.30389049631,142.30389049631,142.30389049631,142.30389049631,142.30389049631,142.30389049631,142.30389049631,142.30389049631,142.30389049631,142.30389049631,142.30389049631,142.30389049631,142.30389049631,142.30389049631,142.30389049631,142.30389049631,142.30389049631,142.30389049631,142.30389049631,142.30389049631,228.54534790486,265.9732130304,-0.050261203923971,242.49050582251,-0.054372032110484,0
5.84375e-05,110918984.81106,5.2755530933735e-06,1.7340843433631e-05,7.0767119003055e-06,1.0046853981388,0,0,0,0,0,0,0,0,0,0,0,0,0,0,0,0,0,0,0,0,0,0,0,0,0,0,0,0,0,0,0,0,0,0,0,0,0,0,0,0,0,0,0,0,0,0,0,0,-0.88052544264272,-0.35082489478863,-2.0005842599976,5.9604335401721,2.847128340716,1.5201432813496,-3.5944062885973,1.537766216992,2.738387511622,-0.38599284846845,1.2908431765707,-5.2989812183834,1.3679038949929,-1.7721505574506,1.2064716038007,-3.7940034504538,2.3898777488625,5.0217285035718,-1.0560792661285,-5.5188166450721,1.0391358388872,1.7684678598281,0.24425018702277,-4.7299096068447,2.5677223422722,-1.7944440698758,0.67733764827772,1.3549968586811,-1.5779034685376,1.2534601018632,1.4482528494261,-0.096333575908475,0.74445885055235,-4.4145262916589,-2.2102760496911,-3.7567009919757,5.2055025689485,-2.3474347934219,3.4065529495813,-0.41001263417528,-1.653349616596,-6.8137285476972,0.63882556143887,-2.4007347016,-3.6545541911721,0.99070205294948,4.2770745414299,-4.4170716179102,142.54348557209,142.54348557209,142.54348557209,142.54348557209,142.54348557209,142.54348557209,142.54348557209,142.54348557209,142.54348557209,142.54348557209,142.54348557209,142.54348557209,142.54348557209,142.54348557209,142.54348557209,142.54348557209,142.54348557209,142.54348557209,142.54348557209,142.54348557209,142.54348557209,142.54348557209,142.54348557209,142.54348557209,142.54348557209,142.54348557209,142.54348557209,142.54348557209,142.54348557209,142.54348557209,142.54348557209,142.54348557209,142.54348557209,142.54348557209,142.54348557209,142.54348557209,142.54348557209,142.54348557209,142.54348557209,142.54348557209,142.54348557209,142.54348557209,142.54348557209,142.54348557209,142.54348557209,142.54348557209,142.54348557209,142.54348557209,228.60908741042,266.56803231716,-0.051140094216106,242.95447335203,-0.0552779435988,0
5.90625e-05,112275636.60616,5.3337024668106e-06,1.75259274403e-05,7.1582795224863e-06,1.0047457748669,0,0,0,0,0,0,0,0,0,0,0,0,0,0,0,0,0,0,0,0,0,0,0,0,0,0,0,0,0,0,0,0,0,0,0,0,0,0,0,0,0,0,0,0,0,0,0,0,-0.88335807374313,-0.35599226887991,-1.9887810859263,5.9505407087119,2.8512156324638,1.5167638869297,-3.5924027057873,1.5409234637417,2.7384266699159,-0.38707835357177,1.294831256488,-5.298329524117,1.3683790772836,-1.7734215813003,1.2097371527958,-3.8012840343038,2.388074753966,5.020804705187,-1.0555215814649,-5.505473477016,1.0468809259375,1.7647978007353,0.24337320904981,-4.7213547930556,2.570533092096,-1.7914900095449,0.68325862935591,1.3533437128275,-1.5809356973439,1.2562732531629,1.4478940068207,-0.099877980079898,0.74622330223964,-4.415792547815,-2.2093246458352,-3.7553048110712,5.2033643484651,-2.3543267727562,3.4018427816611,-0.41271328462518,-1.6495385994021,-6.816036733813,0.63982861508002,-2.3943512994283,-3.6489653466251,0.98800166445044,4.2733706708438,-4.415855514931,142.78313859776,142.78313859776,142.78313859776,142.78313859776,142.78313859776,142.78313859776,142.78313859776,142.78313859776,142.78313859776,142.78313859776,142.78313859776,142.78313859776,142.78313859776,142.78313859776,142.78313859776,142.78313859776,142.78313859776,142.78313859776,142.78313859776,142.78313859776,142.78313859776,142.78313859776,142.78313859776,142.78313859776,142.78313859776,142.78313859776,142.78313859776,142.78313859776,142.78313859776,142.78313859776,142.78313859776,142.78313859776,142.78313859776,142.78313859776,142.78313859776,142.78313859776,142.78313859776,142.78313859776,142.78313859776,142.78313859776,142.78313859776,142.78313859776,142.78313859776,142.78313859776,142.78313859776,142.78313859776,142.78313859776,142.78313859776,228.67127391829,267.16104890638,-0.052024009631819,243.41783915529,-0.056188709551522,0
5.96875e-05,113636660.58663,5.3918087607844e-06,1.7711009369503e-05,7.2398005264557e-06,1.0048061511394,0,0,0,0,0,0,0,0,0,0,0,0,0,0,0,0,0,0,0,0,0,0,0,0,0,0,0,0,0,0,0,0,0,0,0,0,0,0,0,0,0,0,0,0,0,0,0,0,-0.88608622151945,-0.36097675492129,-1.977067118643,5.9408777122307,2.8552263001686,1.5134069945192,-3.5904197227359,1.5439509138731,2.7384719272234,-0.38811668712088,1.2988216824182,-5.2977374262479,1.3688912916805,-1.7746375479757,1.2129731538347,-3.8084757036112,2.3862167430337,5.0198731906585,-1.0549783109868,-5.4924327962997,1.0545071507542,1.761215270136,0.24248577106178,-4.7129849197647,2.5733630169944,-1.7886960129784,0.6890685815472,1.351680345726,-1.5839395247216,1.2589056333571,1.4475469764842,-0.10329110876902,0.74799188235613,-4.4169692232636,-2.208401543177,-3.7539646943553,5.2013138298607,-2.3611180711889,3.3972008353832,-0.41533906242902,-1.6458218402948,-6.8183279937609,0.64084178092324,-2.3881692388214,-3.6436106863075,0.98544847901966,4.2696127382688,-4.4145738885169,143.02284794435,143.02284794435,143.02284794435,143.02284794435,143.02284794435,143.02284794435,143.02284794435,143.02284794435,143.02284794435,143.02284794435,143.02284794435,143.02284794435,143.02284794435,143.02284794435,143.02284794435,143.02284794435,143.02284794435,143.02284794435,143.02284794435,143.02284794435,143.02284794435,143.02284794435,143.02284794435,143.02284794435,143.02284794435,143.02284794435,143.02284794435,143.02284794435,143.02284794435,143.02284794435,143.02284794435,143.02284794435,143.02284794435,143.02284794435,143.02284794435,143.02284794435,143.02284794435,143.02284794435,143.02284794435,143.02284794435,143.02284794435,143.02284794435,143.02284794435,143.02284794435,143.02284794435,143.02284794435,143.02284794435,143.02284794435,228.73194277473,267.75230899057,-0.052912938634267,243.88062149661,-0.057104314803097,0
6.03125e-05,115002007.7898,5.4498720778217e-06,1.7896089295845e-05,7.3212762837385e-06,1.0048665269362,0,0,0,0,0,0,0,0,0,0,0,0,0,0,0,0,0,0,0,0,0,0,0,0,0,0,0,0,0,0,0,0,0,0,0,0,0,0,0,0,0,0,0,0,0,0,0,0,-0.88870982663839,-0.36578272017205,-1.9654484586327,5.9314352540269,2.859163818124,1.5100755953393,-3.5884580407056,1.5468526038994,2.7385226970869,-0.38911232020123,1.3028134282682,-5.2971990437941,1.3694304998796,-1.7758012719806,1.2161810477265,-3.8155798150587,2.3843035778385,5.0189360648478,-1.0544462283166,-5.479688377104,1.0620146057495,1.7577179046892,0.24158643544804,-4.7047932548266,2.5762154957715,-1.7860557229098,0.69477123787362,1.3500109105114,-1.5869133355559,1.2613642745844,1.4472132302204,-0.10658152576244,0.74975909744662,-4.4180571388759,-2.2075047101551,-3.7526785187666,5.1993485518805,-2.3678106785853,3.3926259123995,-0.41789138530369,-1.6421927209853,-6.8206024970955,0.64185897850276,-2.3821783689333,-3.6384804391125,0.98303742788426,4.2658023702436,-4.4132267777583,143.2626120175,143.2626120175,143.2626120175,143.2626120175,143.2626120175,143.2626120175,143.2626120175,143.2626120175,143.2626120175,143.2626120175,143.2626120175,143.2626120175,143.2626120175,143.2626120175,143.2626120175,143.2626120175,143.2626120175,143.2626120175,143.2626120175,143.2626120175,143.2626120175,143.2626120175,143.2626120175,143.2626120175,143.2626120175,143.2626120175,143.2626120175,143.2626120175,143.2626120175,143.2626120175,143.2626120175,143.2626120175,143.2626120175,143.2626120175,143.2626120175,143.2626120175,143.2626120175,143.2626120175,143.2626120175,143.2626120175,143.2626120175,143.2626120175,143.2626120175,143.2626120175,143.2626120175,143.2626120175,143.2626120175,143.2626120175,228.79112642573,268.34185762159,-0.053806866463988,244.3428380661,-0.058024742035495,0
6.09375e-05,116371646.31354,5.5078925097392e-06,1.8081167289456e-05,7.4027080800697e-06,1.0049269022382,0,0,0,0,0,0,0,0,0,0,0,0,0,0,0,0,0,0,0,0,0,0,0,0,0,0,0,0,0,0,0,0,0,0,0,0,0,0,0,0,0,0,0,0,0,0,0,0,-0.89122931660405,-0.37041427281174,-1.9539298668288,5.9222048829557,2.863031683436,1.5067736067448,-3.5865181861852,1.5496330374713,2.7385784708873,-0.39006969208824,1.3068044623395,-5.2967086943339,1.369986580232,-1.7769140936213,1.2193623354838,-3.8225976569395,2.3823360709565,5.0179957578013,-1.0539213360085,-5.4672339028961,1.069403989475,1.7543036159052,0.24067381172421,-4.6967718697764,2.5790924709393,-1.7835625509784,0.70037036665793,1.3483404315949,-1.5898553838424,1.2636564933454,1.4468940492305,-0.10975804693175,0.75151878243665,-4.4190573126133,-2.2066315768533,-3.7514420770897,5.1974658409824,-2.3744062229393,3.3881171851083,-0.42037103071587,-1.6386444710016,-6.8228601846121,0.64287536966481,-2.3763669599732,-3.6335648472452,0.98076327444243,4.2619416778955,-4.4118135332692,143.50242925523,143.50242925523,143.50242925523,143.50242925523,143.50242925523,143.50242925523,143.50242925523,143.50242925523,143.50242925523,143.50242925523,143.50242925523,143.50242925523,143.50242925523,143.50242925523,143.50242925523,143.50242925523,143.50242925523,143.50242925523,143.50242925523,143.50242925523,143.50242925523,143.50242925523,143.50242925523,143.50242925523,143.50242925523,143.50242925523,143.50242925523,143.50242925523,143.50242925523,143.50242925523,143.50242925523,143.50242925523,143.50242925523,143.50242925523,143.50242925523,143.50242925523,143.50242925523,143.50242925523,143.50242925523,143.50242925523,143.50242925523,143.50242925523,143.50242925523,143.50242925523,143.50242925523,143.50242925523,143.50242925523,143.50242925523,228.84885520459,268.92973874884,-0.054705782363071,244.80450597942,-0.058949978698146,0
6.15625e-05,117745560.85927,5.5658701425308e-06,1.8266243415934e-05,7.4840971178281e-06,1.0049872770268,0,0,0,0,0,0,0,0,0,0,0,0,0,0,0,0,0,0,0,0,0,0,0,0,0,0,0,0,0,0,0,0,0,0,0,0,0,0,0,0,0,0,0,0,0,0,0,0,-0.89364564084627,-0.37487535850773,-1.9425146752528,5.913178953442,2.8668333334405,1.5035056396305,-3.5846004773223,1.5522971029322,2.7386387797798,-0.39099305849803,1.3107918950421,-5.2962610060929,1.370549805128,-1.7779761445228,1.2225184756163,-3.8295304138123,2.3803158798032,5.0170549333978,-1.0533990464153,-5.4550629350503,1.0766765617314,1.7509705420996,0.23974662613069,-4.6889119584973,2.5819945122489,-1.7812097751235,0.70586970641828,1.346674615408,-1.5927637681314,1.2657899101727,1.4465904808981,-0.11282943516719,0.75326439484817,-4.4199709895242,-2.2057790903463,-3.7502494871319,5.1956628643293,-2.3809059614804,3.383674157079,-0.42277830403182,-1.6351704842048,-6.8251007548945,0.64388724215895,-2.3707219817885,-3.6288540858026,0.97862064303507,4.2580332208646,-4.410332905924,143.74229812727,143.74229812727,143.74229812727,143.74229812727,143.74229812727,143.74229812727,143.74229812727,143.74229812727,143.74229812727,143.74229812727,143.74229812727,143.74229812727,143.74229812727,143.74229812727,143.74229812727,143.74229812727,143.74229812727,143.74229812727,143.74229812727,143.74229812727,143.74229812727,143.74229812727,143.74229812727,143.74229812727,143.74229812727,143.74229812727,143.74229812727,143.74229812727,143.74229812727,143.74229812727,143.74229812727,143.74229812727,143.74229812727,143.74229812727,143.74229812727,143.74229812727,143.74229812727,143.74229812727,143.74229812727,143.74229812727,143.74229812727,143.74229812727,143.74229812727,143.74229812727,143.74229812727,143.74229812727,143.74229812727,143.74229812727,228.90515882409,269.51599519102,-0.055609673666956,245.26564174827,-0.059880012315733,0
6.21875e-05,119123751.26687,5.6238050605547e-06,1.8451317736345e-05,7.5654445183117e-06,1.0050476512837,0,0,0,0,0,0,0,0,0,0,0,0,0,0,0,0,0,0,0,0,0,0,0,0,0,0,0,0,0,0,0,0,0,0,0,0,0,0,0,0,0,0,0,0,0,0,0,0,-0.89596025245838,-0.37916981860522,-1.9312048679845,5.9043505724287,2.8705720963573,1.5002766490374,-3.5827050459561,1.554849972313,2.7387032647371,-0.39188637106641,1.3147721801831,-5.2958509991641,1.3711112245688,-1.7789865805433,1.2256508020298,-3.8363791629077,2.3782453743668,5.0161164230287,-1.0528744325151,-5.4431689345158,1.0838340630016,1.7477171197786,0.23880378035865,-4.6812041944411,2.5849210014641,-1.7789906530759,0.71127292643456,1.3450195406709,-1.5956364472528,1.2677724332051,1.4463033822847,-0.11580414589284,0.75498930853733,-4.420799632247,-2.2049437845607,-3.7490935913629,5.1939366704647,-2.3873107977922,3.3792966142789,-0.42511316521789,-1.6317645625363,-6.8273237141927,0.64489186753921,-2.3652294320146,-3.6243381988772,0.97660407779155,4.2540799671078,-4.408783124175,143.98221713493,143.98221713493,143.98221713493,143.98221713493,143.98221713493,143.98221713493,143.98221713493,143.98221713493,143.98221713493,143.98221713493,143.98221713493,143.98221713493,143.98221713493,143.98221713493,143.98221713493,143.98221713493,143.98221713493,143.98221713493,143.98221713493,143.98221713493,143.98221713493,143.98221713493,143.98221713493,143.98221713493,143.98221713493,143.98221713493,143.98221713493,143.98221713493,143.98221713493,143.98221713493,143.98221713493,143.98221713493,143.98221713493,143.98221713493,143.98221713493,143.98221713493,143.98221713493,143.98221713493,143.98221713493,143.98221713493,143.98221713493,143.98221713493,143.98221713493,143.98221713493,143.98221713493,143.98221713493,143.98221713493,143.98221713493,228.96006691501,270.10066862258,-0.056518531024396,245.72626128093,-0.060814833086929,0
6.28125e-05,120506230.34257,5.6816973516423e-06,1.8636390307258e-05,7.646751326877e-06,1.0051080249909,0,0,0,0,0,0,0,0,0,0,0,0,0,0,0,0,0,0,0,0,0,0,0,0,0,0,0,0,0,0,0,0,0,0,0,0,0,0,0,0,0,0,0,0,0,0,0,0,-0.89817506578045,-0.38330146456231,-1.9200013030797,5.8957135264121,2.8742511321425,1.4970915643571,-3.5808318330883,1.5572969887737,2.738771676852,-0.39275319272536,1.318741371662,-5.2954741669842,1.3716629374748,-1.779943833379,1.2287604712979,-3.8431448401893,2.3761274775512,5.0151831416412,-1.0523424870001,-5.4315452524479,1.0908786100705,1.7445420579512,0.23784439034944,-4.6736390026569,2.5878704416991,-1.7768985456497,0.71658356484164,1.3433813053693,-1.5984712621647,1.2696122063791,1.4460334120788,-0.11869013253627,0.75668709100542,-4.4215449197777,-2.2041219130003,-3.7479663901662,5.1922842339898,-2.3936213195842,3.3749845731564,-0.42737535799325,-1.6284210802051,-6.8295283411449,0.64588732866699,-2.3598747357286,-3.6200070759348,0.97470813002879,4.2500852251577,-4.4071620359788,144.22218481229,144.22218481229,144.22218481229,144.22218481229,144.22218481229,144.22218481229,144.22218481229,144.22218481229,144.22218481229,144.22218481229,144.22218481229,144.22218481229,144.22218481229,144.22218481229,144.22218481229,144.22218481229,144.22218481229,144.22218481229,144.22218481229,144.22218481229,144.22218481229,144.22218481229,144.22218481229,144.22218481229,144.22218481229,144.22218481229,144.22218481229,144.22218481229,144.22218481229,144.22218481229,144.22218481229,144.22218481229,144.22218481229,144.22218481229,144.22218481229,144.22218481229,144.22218481229,144.22218481229,144.22218481229,144.22218481229,144.22218481229,144.22218481229,144.22218481229,144.22218481229,144.22218481229,144.22218481229,144.22218481229,144.22218481229,229.0136101691,270.68379952153,-0.057432343383156,246.1863798719,-0.061754431725897,0
6.34375e-05,121893021.29072,5.7395471106032e-06,1.8821461180839e-05,7.7280185180245e-06,1.0051683981304,0,0,0,0,0,0,0,0,0,0,0,0,0,0,0,0,0,0,0,0,0,0,0,0,0,0,0,0,0,0,0,0,0,0,0,0,0,0,0,0,0,0,0,0,0,0,0,0,-0.90029239287494,-0.38727412052819,-1.9089039418696,5.8872622248274,2.8778734107575,1.4939548888669,-3.5789806307128,1.5596435494802,2.7388438585662,-0.39359664759714,1.3226953699842,-5.2951264812002,1.3721982508603,-1.7808458536009,1.2318484279585,-3.8498282664384,2.373965499451,5.0142580378172,-1.0517984101215,-5.4201851780137,1.0978125880219,1.7414442815964,0.23686780598266,-4.6662068805804,2.5908407476928,-1.7749269871903,0.72180501037519,1.3417656427496,-1.6012659875536,1.2713175288967,1.4457810419826,-0.12149470033504,0.75835174136889,-4.42220870436,-2.2033095507351,-3.7468594516815,5.1907024884178,-2.3998378621269,3.3707382265665,-0.42956452963722,-1.6251350785703,-6.8317137654971,0.64687234420369,-2.3546431555325,-3.6158504577423,0.97292746196235,4.2460525797197,-4.4054672765375,144.46219972774,144.46219972774,144.46219972774,144.46219972774,144.46219972774,144.46219972774,144.46219972774,144.46219972774,144.46219972774,144.46219972774,144.46219972774,144.46219972774,144.46219972774,144.46219972774,144.46219972774,144.46219972774,144.46219972774,144.46219972774,144.46219972774,144.46219972774,144.46219972774,144.46219972774,144.46219972774,144.46219972774,144.46219972774,144.46219972774,144.46219972774,144.46219972774,144.46219972774,144.46219972774,144.46219972774,144.46219972774,144.46219972774,144.46219972774,144.46219972774,144.46219972774,144.46219972774,144.46219972774,144.46219972774,144.46219972774,144.46219972774,144.46219972774,144.46219972774,144.46219972774,144.46219972774,144.46219972774,144.46219972774,144.46219972774,229.06582084577,271.26542710511,-0.058351101352022,246.64601218645,-0.062698799845845,0
6.40625e-05,123284155.08035,5.7973544425468e-06,1.9006530405014e-05,7.8092470006962e-06,1.0052287706841,0,0,0,0,0,0,0,0,0,0,0,0,0,0,0,0,0,0,0,0,0,0,0,0,0,0,0,0,0,0,0,0,0,0,0,0,0,0,0,0,0,0,0,0,0,0,0,0,-0.90231487051042,-0.39109166246344,-1.8979121103839,5.8789916157864,2.8814416837233,1.4908704015461,-3.5771511110232,1.5618950010868,2.7389197777673,-0.39441940515365,1.3266301593945,-5.294804432213,1.3727117411843,-1.7816903142723,1.234915382292,-3.856430147097,2.3717629560323,5.013344024398,-1.0512378383756,-5.4090819579938,1.104638547065,1.738422942952,0.23587361120997,-4.6588986250915,2.5938295475854,-1.7730697982517,0.72694046753649,1.3401776165233,-1.6040183948341,1.2728967668761,1.44554658488,-0.12422441530406,0.7599778823662,-4.4227929944273,-2.2025027428229,-3.7457642947854,5.1891883455771,-2.4059605818827,3.3665578764628,-0.43168030634836,-1.6219023041922,-6.8338789708058,0.64784608049393,-2.3495202197636,-3.6118579675506,0.97125694651809,4.2419858105051,-4.4036964301396,144.702260486,144.702260486,144.702260486,144.702260486,144.702260486,144.702260486,144.702260486,144.702260486,144.702260486,144.702260486,144.702260486,144.702260486,144.702260486,144.702260486,144.702260486,144.702260486,144.702260486,144.702260486,144.702260486,144.702260486,144.702260486,144.702260486,144.702260486,144.702260486,144.702260486,144.702260486,144.702260486,144.702260486,144.702260486,144.702260486,144.702260486,144.702260486,144.702260486,144.702260486,144.702260486,144.702260486,144.702260486,144.702260486,144.702260486,144.702260486,144.702260486,144.702260486,144.702260486,144.702260486,144.702260486,144.702260486,144.702260486,144.702260486,229.11673302215,271.84558929021,-0.059274794981059,247.10517228188,-0.063647929769289,0
6.46875e-05,124679667.97316,5.855119465222e-06,1.9191598023653e-05,7.890437624109e-06,1.0052891426342,0,0,0,0,0,0,0,0,0,0,0,0,0,0,0,0,0,0,0,0,0,0,0,0,0,0,0,0,0,0,0,0,0,0,0,0,0,0,0,0,0,0,0,0,0,0,0,0,-0.9042453944871,-0.39475803944159,-1.8870247202713,5.870897112798,2.8849584706081,1.4878409428121,-3.5753428625862,1.5640565507664,2.7389994805662,-0.39522369337917,1.3305419987633,-5.2945049811503,1.3731992369799,-1.7824748168077,1.2379618005755,-3.8629511059913,2.3695234127898,5.0124439163913,-1.0506570338548,-5.3982288264004,1.1113591148129,1.7354773127593,0.23486160656749,-4.6517055647206,2.5968344199002,-1.7713211124838,0.7319929519042,1.3386213959721,-1.6067263249662,1.27435826066,1.4453302020735,-0.12688505471625,0.7615608961395,-4.4232999044399,-2.2016976116273,-3.7446727310581,5.1877387076093,-2.4119895357046,3.3624438793312,-0.43372239028748,-1.618719203104,-6.8360228629221,0.64880799037586,-2.344492136899,-3.6080191684444,0.96969176476605,4.2378888093406,-4.401847235153,144.94236573044,144.94236573044,144.94236573044,144.94236573044,144.94236573044,144.94236573044,144.94236573044,144.94236573044,144.94236573044,144.94236573044,144.94236573044,144.94236573044,144.94236573044,144.94236573044,144.94236573044,144.94236573044,144.94236573044,144.94236573044,144.94236573044,144.94236573044,144.94236573044,144.94236573044,144.94236573044,144.94236573044,144.94236573044,144.94236573044,144.94236573044,144.94236573044,144.94236573044,144.94236573044,144.94236573044,144.94236573044,144.94236573044,144.94236573044,144.94236573044,144.94236573044,144.94236573044,144.94236573044,144.94236573044,144.94236573044,144.94236573044,144.94236573044,144.94236573044,144.94236573044,144.94236573044,144.94236573044,144.94236573044,144.94236573044,229.16638303796,272.42432262385,-0.060203413471432,247.56387359464,-0.064601813198162,0
6.53125e-05,126079599.38317,5.9128423107627e-06,1.9376664076821e-05,7.9715911837095e-06,1.0053495139627,0,0,0,0,0,0,0,0,0,0,0,0,0,0,0,0,0,0,0,0,0,0,0,0,0,0,0,0,0,0,0,0,0,0,0,0,0,0,0,0,0,0,0,0,0,0,0,0,-0.90608705734262,-0.39827728503339,-1.8762404464126,5.862974533234,2.8884260509941,1.4848683265564,-3.5735554255966,1.566133202789,2.7390830792753,-0.39601133537493,1.3344275654708,-5.2942255209406,1.3736577468519,-1.7831970576775,1.2409879039821,-3.869391720492,2.3672503542054,5.011560375768,-1.0500530013801,-5.3876190442539,1.1179769328733,1.7326067384102,0.2338317814407,-4.6446197362601,2.5998530743029,-1.7696754076356,0.73696528756059,1.3371001465862,-1.609387763643,1.2757102400897,1.4451319182826,-0.12948159790953,0.76309700768134,-4.4237316186094,-2.2008904613631,-3.7435771635278,5.1863504744945,-2.4179247586458,3.3583965973985,-0.43569062310653,-1.6155828849126,-6.8381443283137,0.64975767910762,-2.3395461909833,-3.6043236444606,0.96822748628788,4.2337655120841,-4.3999177456146,145.18251414484,145.18251414484,145.18251414484,145.18251414484,145.18251414484,145.18251414484,145.18251414484,145.18251414484,145.18251414484,145.18251414484,145.18251414484,145.18251414484,145.18251414484,145.18251414484,145.18251414484,145.18251414484,145.18251414484,145.18251414484,145.18251414484,145.18251414484,145.18251414484,145.18251414484,145.18251414484,145.18251414484,145.18251414484,145.18251414484,145.18251414484,145.18251414484,145.18251414484,145.18251414484,145.18251414484,145.18251414484,145.18251414484,145.18251414484,145.18251414484,145.18251414484,145.18251414484,145.18251414484,145.18251414484,145.18251414484,145.18251414484,145.18251414484,145.18251414484,145.18251414484,145.18251414484,145.18251414484,145.18251414484,145.18251414484,229.21480889877,273.00166225972,-0.061136947074584,248.0221289604,-0.065560442566346,0
6.59375e-05,127483990.14942,5.9705231268138e-06,1.9561728601035e-05,8.0527084272769e-06,1.0054098846518,0,0,0,0,0,0,0,0,0,0,0,0,0,0,0,0,0,0,0,0,0,0,0,0,0,0,0,0,0,0,0,0,0,0,0,0,0,0,0,0,0,0,0,0,0,0,0,0,-0.90784309626622,-0.40165351718181,-1.8655578578783,5.8552199988863,2.891846459941,1.4819533598446,-3.5717883278651,1.5681297181338,2.7391707306028,-0.39678379972049,1.3382840452811,-5.2939638158416,1.3740853505563,-1.7838549765902,1.2439936699842,-3.8757525515049,2.364947095034,5.0106958543714,-1.0494235324702,-5.3772459221719,1.1244946149272,1.7298105787354,0.23278428152389,-4.6376340289943,2.6028834688875,-1.7681275199283,0.74186011547978,1.3356160185601,-1.6120009240539,1.2769607503127,1.4449516367581,-0.13201824558044,0.76458331529325,-4.4240903541491,-2.2000778557111,-3.7424708397198,5.1850205386557,-2.4237663283581,3.3544163672087,-0.43758504365004,-1.612491069042,-6.8402422908564,0.65069481109157,-2.3346711053167,-3.6007610891429,0.96686013467463,4.2296198370119,-4.397906483179,145.42270445478,145.42270445478,145.42270445478,145.42270445478,145.42270445478,145.42270445478,145.42270445478,145.42270445478,145.42270445478,145.42270445478,145.42270445478,145.42270445478,145.42270445478,145.42270445478,145.42270445478,145.42270445478,145.42270445478,145.42270445478,145.42270445478,145.42270445478,145.42270445478,145.42270445478,145.42270445478,145.42270445478,145.42270445478,145.42270445478,145.42270445478,145.42270445478,145.42270445478,145.42270445478,145.42270445478,145.42270445478,145.42270445478,145.42270445478,145.42270445478,145.42270445478,145.42270445478,145.42270445478,145.42270445478,145.42270445478,145.42270445478,145.42270445478,145.42270445478,145.42270445478,145.42270445478,145.42270445478,145.42270445478,145.42270445478,229.26204987652,273.57764194301,-0.06207538570964,248.47995062535,-0.066523810313592,0
6.65625e-05,128892881.23526,6.028162077307e-06,1.9746791629568e-05,8.1337900605148e-06,1.0054702546838,0,0,0,0,0,0,0,0,0,0,0,0,0,0,0,0,0,0,0,0,0,0,0,0,0,0,0,0,0,0,0,0,0,0,0,0,0,0,0,0,0,0,0,0,0,0,0,0,-0.90951685045406,-0.40489092305747,-1.8549755022307,5.8476298989198,2.895221491907,1.4790959318594,-3.5700410986463,1.5700505943656,2.7392626159095,-0.39754225923979,1.3421091710361,-5.2937179609521,1.374481069373,-1.7844468684112,1.2469788490572,-3.8820341764064,2.3626167360755,5.0098525477784,-1.0487672277979,-5.3671028382063,1.1309147251096,1.7270881454051,0.23171937673013,-4.6307422745946,2.6059238693855,-1.7666726434003,0.74667991064075,1.3341702090352,-1.6145643157551,1.278117585754,1.4447891598134,-0.13449846576406,0.7660177744896,-4.4243783462187,-2.199256673537,-3.7413480452059,5.1837457967354,-2.4295144213978,3.3505034858159,-0.43940592724041,-1.6094420164994,-6.8423157635845,0.65161906080546,-2.3298573563197,-3.5973214215962,0.96558623728656,4.2254556426375,-4.3958125894636,145.6629354278,145.6629354278,145.6629354278,145.6629354278,145.6629354278,145.6629354278,145.6629354278,145.6629354278,145.6629354278,145.6629354278,145.6629354278,145.6629354278,145.6629354278,145.6629354278,145.6629354278,145.6629354278,145.6629354278,145.6629354278,145.6629354278,145.6629354278,145.6629354278,145.6629354278,145.6629354278,145.6629354278,145.6629354278,145.6629354278,145.6629354278,145.6629354278,145.6629354278,145.6629354278,145.6629354278,145.6629354278,145.6629354278,145.6629354278,145.6629354278,145.6629354278,145.6629354278,145.6629354278,145.6629354278,145.6629354278,145.6629354278,145.6629354278,145.6629354278,145.6629354278,145.6629354278,145.6629354278,145.6629354278,145.6629354278,229.30814547886,274.15229404772,-0.063018719453041,248.93735028573,-0.067491908690728,0
6.71875e-05,130306312.82543,6.0857593419232e-06,1.9931853192759e-05,8.2148367530414e-06,1.0055306240408,0,0,0,0,0,0,0,0,0,0,0,0,0,0,0,0,0,0,0,0,0,0,0,0,0,0,0,0,0,0,0,0,0,0,0,0,0,0,0,0,0,0,0,0,0,0,0,0,-0.91111172647236,-0.40799375742794,-1.8444919191448,5.8402007893604,2.8985527071041,1.4762951464376,-3.5683132837064,1.5719000601133,2.7393589016321,-0.39828764746412,1.3459012122789,-5.293486319131,1.3748447280718,-1.7849714926477,1.2499429761498,-3.8882372109416,2.360262163962,5.0090323546313,-1.0480834577042,-5.3571832431343,1.1372397750597,1.7244386548746,0.23063743544309,-4.6239393053727,2.6089728384639,-1.7653063272918,0.75142700003369,1.3327630619031,-1.6170768146993,1.2791882329853,1.4446441711226,-0.13692505370604,0.7673991438387,-4.4245978231348,-2.1984241364398,-3.7402042683787,5.1825231425745,-2.4351693444232,3.3466582179492,-0.4411538272262,-1.6064344612495,-6.8443638956261,0.65253010226734,-2.3250974413437,-3.5939948905553,0.96440286110712,4.2212766976744,-4.3936358979777,145.90320587285,145.90320587285,145.90320587285,145.90320587285,145.90320587285,145.90320587285,145.90320587285,145.90320587285,145.90320587285,145.90320587285,145.90320587285,145.90320587285,145.90320587285,145.90320587285,145.90320587285,145.90320587285,145.90320587285,145.90320587285,145.90320587285,145.90320587285,145.90320587285,145.90320587285,145.90320587285,145.90320587285,145.90320587285,145.90320587285,145.90320587285,145.90320587285,145.90320587285,145.90320587285,145.90320587285,145.90320587285,145.90320587285,145.90320587285,145.90320587285,145.90320587285,145.90320587285,145.90320587285,145.90320587285,145.90320587285,145.90320587285,145.90320587285,145.90320587285,145.90320587285,145.90320587285,145.90320587285,145.90320587285,145.90320587285,229.35313464391,274.72564961866,-0.063966935893818,249.39433910415,-0.068464728278986,0
6.78125e-05,131724323.75856,6.1433151164896e-06,2.0116913318325e-05,8.295849143702e-06,1.0055909927054,0,0,0,0,0,0,0,0,0,0,0,0,0,0,0,0,0,0,0,0,0,0,0,0,0,0,0,0,0,0,0,0,0,0,0,0,0,0,0,0,0,0,0,0,0,0,0,0,-0.91263117345606,-0.41096629251918,-1.8341056996327,5.8329293336455,2.9018414473892,1.4735495007015,-3.5666044610554,1.5736820830848,2.7394597514927,-0.39902070925587,1.3496589435659,-5.2932674925294,1.3751768145607,-1.7854281113545,1.2528853914438,-3.8943623484953,2.3578860686449,5.0082368539647,-1.0473722884703,-5.3474806771851,1.1434722224862,1.7218612086333,0.22953890804899,-4.6172209741485,2.6120292418299,-1.7640244776105,0.75610358443522,1.3313942015803,-1.6195377259426,1.280179826593,1.4445162940707,-0.13930020391473,0.76872689980816,-4.4247510107033,-2.1975778407176,-3.7390362657712,5.1813494711813,-2.4407315823297,3.3428808022812,-0.44282958115316,-1.6034675392396,-6.8463860309579,0.65342762291131,-2.3203860670621,-3.5907721790145,0.96330763367769,4.217086671485,-4.3913769914632,146.14351463813,146.14351463813,146.14351463813,146.14351463813,146.14351463813,146.14351463813,146.14351463813,146.14351463813,146.14351463813,146.14351463813,146.14351463813,146.14351463813,146.14351463813,146.14351463813,146.14351463813,146.14351463813,146.14351463813,146.14351463813,146.14351463813,146.14351463813,146.14351463813,146.14351463813,146.14351463813,146.14351463813,146.14351463813,146.14351463813,146.14351463813,146.14351463813,146.14351463813,146.14351463813,146.14351463813,146.14351463813,146.14351463813,146.14351463813,146.14351463813,146.14351463813,146.14351463813,146.14351463813,146.14351463813,146.14351463813,146.14351463813,146.14351463813,146.14351463813,146.14351463813,146.14351463813,146.14351463813,146.14351463813,146.14351463813,229.39705426301,275.29773849444,-0.064920024451607,249.85092777788,-0.06944226083502,0
6.84375e-05,133146951.22235,6.2008296120554e-06,2.0301972031662e-05,8.3768278448665e-06,1.00565136066,0,0,0,0,0,0,0,0,0,0,0,0,0,0,0,0,0,0,0,0,0,0,0,0,0,0,0,0,0,0,0,0,0,0,0,0,0,0,0,0,0,0,0,0,0,0,0,0,-0.91407865862011,-0.41381280956059,-1.8238154244273,5.8258122355006,2.9050888481935,1.4708570155261,-3.5649142311316,1.5754003780745,2.7395653027649,-0.39974204324496,1.3533815738463,-5.29306028202,1.3754783454481,-1.7858165412043,1.2558052713452,-3.9004103679861,2.3554910027346,5.0074672828117,-1.0466344348437,-5.3379887565608,1.149614484141,1.7193547739628,0.22842431833084,-4.6105841244904,2.6150921653015,-1.7628233470506,0.76071175290994,1.3300626442962,-1.6219468255387,1.2810991022358,1.4444050766388,-0.14162559046906,0.77000113303189,-4.4248401250958,-2.1967157540857,-3.7378421127132,5.1802216932133,-2.4462018047899,3.339171482965,-0.44443432430724,-1.600540715767,-6.8483817276094,0.65431136814369,-2.3157202645846,-3.5876445098959,0.96229874586423,4.2128891252836,-4.3890372269257,146.38386060837,146.38386060837,146.38386060837,146.38386060837,146.38386060837,146.38386060837,146.38386060837,146.38386060837,146.38386060837,146.38386060837,146.38386060837,146.38386060837,146.38386060837,146.38386060837,146.38386060837,146.38386060837,146.38386060837,146.38386060837,146.38386060837,146.38386060837,146.38386060837,146.38386060837,146.38386060837,146.38386060837,146.38386060837,146.38386060837,146.38386060837,146.38386060837,146.38386060837,146.38386060837,146.38386060837,146.38386060837,146.38386060837,146.38386060837,146.38386060837,146.38386060837,146.38386060837,146.38386060837,146.38386060837,146.38386060837,146.38386060837,146.38386060837,146.38386060837,146.38386060837,146.38386060837,146.38386060837,146.38386060837,146.38386060837,229.43993870235,275.86858941227,-0.065877973223984,250.30712656783,-0.070424496921974,0
6.90625e-05,134574230.64461,6.2583030537542e-06,2.0487029356152e-05,8.4577734474167e-06,1.0057117278873,0,0,0,0,0,0,0,0,0,0,0,0,0,0,0,0,0,0,0,0,0,0,0,0,0,0,0,0,0,0,0,0,0,0,0,0,0,0,0,0,0,0,0,0,0,0,0,0,-0.91545765143149,-0.41653756567761,-1.8136196736775,5.8188461759979,2.9082958507289,1.4682153864439,-3.5632422160318,1.577058420237,2.7396756527775,-0.40045213440545,1.3570686691806,-5.2928636879292,1.3757507398967,-1.7861371623295,1.2587016580326,-3.9063821521854,2.3530794274894,5.0067245261647,-1.0458711626744,-5.3287011724484,1.1556689381059,1.7169181763321,0.22729426342125,-4.6040265360948,2.6181608634775,-1.7616995506238,0.76525348971806,1.3287669087646,-1.6243043933137,1.281952364076,1.444310004084,-0.14390245059451,0.7712224313256,-4.4248673944029,-2.1958362140985,-3.7366211827881,5.1791367482039,-2.4515808776832,3.3355305221831,-0.44596948367382,-1.5976537212767,-6.8503507893111,0.65518118219891,-2.3110994129527,-3.5846037257249,0.96137494200573,4.2086875136058,-4.3866187113624,146.6242427009,146.6242427009,146.6242427009,146.6242427009,146.6242427009,146.6242427009,146.6242427009,146.6242427009,146.6242427009,146.6242427009,146.6242427009,146.6242427009,146.6242427009,146.6242427009,146.6242427009,146.6242427009,146.6242427009,146.6242427009,146.6242427009,146.6242427009,146.6242427009,146.6242427009,146.6242427009,146.6242427009,146.6242427009,146.6242427009,146.6242427009,146.6242427009,146.6242427009,146.6242427009,146.6242427009,146.6242427009,146.6242427009,146.6242427009,146.6242427009,146.6242427009,146.6242427009,146.6242427009,146.6242427009,146.6242427009,146.6242427009,146.6242427009,146.6242427009,146.6242427009,146.6242427009,146.6242427009,146.6242427009,146.6242427009,229.4818185744,276.4382301633,-0.066840771015893,250.76294535555,-0.071411427628577,0
6.96875e-05,136006195.71224,6.3157356805082e-06,2.0672085313427e-05,8.5386865244572e-06,1.00577209437,0,0,0,0,0,0,0,0,0,0,0,0,0,0,0,0,0,0,0,0,0,0,0,0,0,0,0,0,0,0,0,0,0,0,0,0,0,0,0,0,0,0,0,0,0,0,0,0,-0.91677160604085,-0.41914476221008,-1.8035169812479,5.8120277616394,2.9114632142382,1.4656220935637,-3.561588040594,1.5786594589113,2.739790889307,-0.40115137670548,1.360720074572,-5.2926768849952,1.3759957055056,-1.7863908934911,1.2615734998639,-3.9122786972111,2.3506537762675,5.0060091182017,-1.045084219079,-5.3196116705118,1.1616379353562,1.7145501259618,0.2261494214042,-4.5975468185696,2.6212346942298,-1.7606500531172,0.76973067796759,1.3275051080544,-1.6266112209916,1.282745455771,1.4442305367163,-0.14613167045637,0.77239176424225,-4.4248350607383,-2.1949379280247,-3.735374056648,5.1780916330492,-2.4568698815301,3.3319582215008,-0.44743675933991,-1.5948064869429,-6.8522932598374,0.65603706130524,-2.3065251580753,-3.5816423632647,0.96053548686519,4.2044851934557,-4.384124264797,146.8646598612,146.8646598612,146.8646598612,146.8646598612,146.8646598612,146.8646598612,146.8646598612,146.8646598612,146.8646598612,146.8646598612,146.8646598612,146.8646598612,146.8646598612,146.8646598612,146.8646598612,146.8646598612,146.8646598612,146.8646598612,146.8646598612,146.8646598612,146.8646598612,146.8646598612,146.8646598612,146.8646598612,146.8646598612,146.8646598612,146.8646598612,146.8646598612,146.8646598612,146.8646598612,146.8646598612,146.8646598612,146.8646598612,146.8646598612,146.8646598612,146.8646598612,146.8646598612,146.8646598612,146.8646598612,146.8646598612,146.8646598612,146.8646598612,146.8646598612,146.8646598612,146.8646598612,146.8646598612,146.8646598612,146.8646598612,229.52272029436,277.00668775526,-0.067808405124978,251.21839369886,-0.072403043233907,0
7.03125e-05,137442878.46722,6.3731277435731e-06,2.0857139923615e-05,8.6195676343676e-06,1.0058324600911,0,0,0,0,0,0,0,0,0,0,0,0,0,0,0,0,0,0,0,0,0,0,0,0,0,0,0,0,0,0,0,0,0,0,0,0,0,0,0,0,0,0,0,0,0,0,0,0,-0.91802395057409,-0.42163852029915,-1.7935058374932,5.8053534873429,2.9145915072139,1.4630745051814,-3.559951323852,1.5802065271535,2.7399110618962,-0.40184009139906,1.364335834298,-5.2924992327534,1.3762151374586,-1.7865791631948,1.2644196930522,-3.9181011180414,2.348216490463,5.0053212219892,-1.0442757364159,-5.310714054656,1.1675237927779,1.712249208479,0.22499055772908,-4.5911443124228,2.6243130610475,-1.7596721787325,0.77414508428169,1.3262750307528,-1.6288686004841,1.2834837410409,1.4441661050166,-0.1483138704249,0.77351037159746,-4.4247454050404,-2.1940199632514,-3.7341024033893,5.1770834348285,-2.4620701054254,3.3284549231143,-0.44883810390736,-1.5919990883516,-6.8542094414255,0.65687918419015,-2.3020012367975,-3.578753697052,0.95978011294829,4.2002854111977,-4.381557347508,147.10511105822,147.10511105822,147.10511105822,147.10511105822,147.10511105822,147.10511105822,147.10511105822,147.10511105822,147.10511105822,147.10511105822,147.10511105822,147.10511105822,147.10511105822,147.10511105822,147.10511105822,147.10511105822,147.10511105822,147.10511105822,147.10511105822,147.10511105822,147.10511105822,147.10511105822,147.10511105822,147.10511105822,147.10511105822,147.10511105822,147.10511105822,147.10511105822,147.10511105822,147.10511105822,147.10511105822,147.10511105822,147.10511105822,147.10511105822,147.10511105822,147.10511105822,147.10511105822,147.10511105822,147.10511105822,147.10511105822,147.10511105822,147.10511105822,147.10511105822,147.10511105822,147.10511105822,147.10511105822,147.10511105822,147.10511105822,229.56266584804,277.57398857072,-0.068780865512669,251.67348087065,-0.073399335810117,0
7.09375e-05,138884309.4436,6.4304795053134e-06,2.1042193205565e-05,8.7004173239565e-06,1.005892825034,0,0,0,0,0,0,0,0,0,0,0,0,0,0,0,0,0,0,0,0,0,0,0,0,0,0,0,0,0,0,0,0,0,0,0,0,0,0,0,0,0,0,0,0,0,0,0,0,-0.9192180690971,-0.42402285782933,-1.7835846407019,5.7988197079385,2.9176811127482,1.4605699454664,-3.5583316635445,1.5817024543095,2.7400361893083,-0.40251853893815,1.367916121483,-5.2923302476327,1.3764110345029,-1.7867038656419,1.2672391219594,-3.9238506610736,2.3457700617924,5.0046606453061,-1.0434481559915,-5.3020021753057,1.1733287996246,1.7100139192062,0.22381853561623,-4.5848189414031,2.6273953480104,-1.7587635897074,0.77849834971714,1.3250742041635,-1.6310782903495,1.2841720932447,1.444116119247,-0.15044948781995,0.77457966752966,-4.424600735365,-2.1930817255842,-3.7328088252869,5.1761093647168,-2.4671830497936,3.325021011314,-0.45017569469412,-1.5892316963218,-6.8560998824374,0.6577079479113,-2.297533207102,-3.5759317648382,0.95910894882489,4.1960913135382,-4.3789219684335,147.34559527961,147.34559527961,147.34559527961,147.34559527961,147.34559527961,147.34559527961,147.34559527961,147.34559527961,147.34559527961,147.34559527961,147.34559527961,147.34559527961,147.34559527961,147.34559527961,147.34559527961,147.34559527961,147.34559527961,147.34559527961,147.34559527961,147.34559527961,147.34559527961,147.34559527961,147.34559527961,147.34559527961,147.34559527961,147.34559527961,147.34559527961,147.34559527961,147.34559527961,147.34559527961,147.34559527961,147.34559527961,147.34559527961,147.34559527961,147.34559527961,147.34559527961,147.34559527961,147.34559527961,147.34559527961,147.34559527961,147.34559527961,147.34559527961,147.34559527961,147.34559527961,147.34559527961,147.34559527961,147.34559527961,147.34559527961,229.60167273975,278.14015851804,-0.069758139554655,252.12821590098,-0.074400295271291,0
7.15625e-05,140330517.81878,6.4877912388892e-06,2.1227245177016e-05,8.7812361314111e-06,1.0059531891825,0,0,0,0,0,0,0,0,0,0,0,0,0,0,0,0,0,0,0,0,0,0,0,0,0,0,0,0,0,0,0,0,0,0,0,0,0,0,0,0,0,0,0,0,0,0,0,0,-0.92035729035712,-0.42630166576783,-1.7737516840299,5.7924226247717,2.9207322157356,1.4581057532451,-3.5567286159574,1.583149874743,2.7401663176167,-0.40318692866441,1.3714611763032,-5.2921696447789,1.3765854293145,-1.7867672579967,1.2700307075842,-3.9295286799143,2.3433170521758,5.0040268204034,-1.0426041444044,-5.2934699244868,1.1790552115438,1.7078427250495,0.22263432075873,-4.5785710702932,2.6304808649857,-1.7579223024732,0.78279197508785,1.3238999556144,-1.6332424548924,1.2848148922147,1.4440800188893,-0.15253885461514,0.77560116103433,-4.4244034308862,-2.1921229422002,-3.7314966270452,5.1751668076466,-2.4722104062232,3.321656899458,-0.45145187568699,-1.5865045301543,-6.8579653448778,0.65852398179328,-2.2931280898193,-3.5731713771993,0.95852242797392,4.1919059206578,-4.3762225786953,147.58611152729,147.58611152729,147.58611152729,147.58611152729,147.58611152729,147.58611152729,147.58611152729,147.58611152729,147.58611152729,147.58611152729,147.58611152729,147.58611152729,147.58611152729,147.58611152729,147.58611152729,147.58611152729,147.58611152729,147.58611152729,147.58611152729,147.58611152729,147.58611152729,147.58611152729,147.58611152729,147.58611152729,147.58611152729,147.58611152729,147.58611152729,147.58611152729,147.58611152729,147.58611152729,147.58611152729,147.58611152729,147.58611152729,147.58611152729,147.58611152729,147.58611152729,147.58611152729,147.58611152729,147.58611152729,147.58611152729,147.58611152729,147.58611152729,147.58611152729,147.58611152729,147.58611152729,147.58611152729,147.58611152729,147.58611152729,229.63975423331,278.70522317329,-0.070740218198187,252.58260761092,-0.075405914975689,0
7.21875e-05,141781531.56227,6.54506322608e-06,2.1412295854759e-05,8.8620245871607e-06,1.0060135525209,0,0,0,0,0,0,0,0,0,0,0,0,0,0,0,0,0,0,0,0,0,0,0,0,0,0,0,0,0,0,0,0,0,0,0,0,0,0,0,0,0,0,0,0,0,0,0,0,-0.92144487357962,-0.42847869536422,-1.7640051710067,5.7861582865389,2.9237447995432,1.4556793405862,-3.5551416793303,1.584551239145,2.7403014551755,-0.40384542540584,1.3749712847498,-5.2920173051322,1.3767403373914,-1.786771917521,1.2727934439818,-3.935136626329,2.3408600943319,5.0034188088964,-1.041746497697,-5.2851112378523,1.1847052482327,1.7057340345172,0.22143898549646,-4.5724013486562,2.6335688572076,-1.7571466540367,0.78702731055613,1.3227494768481,-1.6353635819746,1.285416031684,1.4440572372148,-0.15458226621217,0.77657640380968,-4.4241559195722,-2.1911436358469,-3.730169624905,5.1742533621699,-2.4771540480635,3.318363004026,-0.45266914188836,-1.5838178250368,-6.8598067611464,0.65932814705166,-2.2887939578014,-3.5704681041637,0.95802118361399,4.1877321155976,-4.3734639619244,147.82665881369,147.82665881369,147.82665881369,147.82665881369,147.82665881369,147.82665881369,147.82665881369,147.82665881369,147.82665881369,147.82665881369,147.82665881369,147.82665881369,147.82665881369,147.82665881369,147.82665881369,147.82665881369,147.82665881369,147.82665881369,147.82665881369,147.82665881369,147.82665881369,147.82665881369,147.82665881369,147.82665881369,147.82665881369,147.82665881369,147.82665881369,147.82665881369,147.82665881369,147.82665881369,147.82665881369,147.82665881369,147.82665881369,147.82665881369,147.82665881369,147.82665881369,147.82665881369,147.82665881369,147.82665881369,147.82665881369,147.82665881369,147.82665881369,147.82665881369,147.82665881369,147.82665881369,147.82665881369,147.82665881369,147.82665881369,229.67692008997,279.26920787446,-0.071727089822322,253.03666462465,-0.076416186364574,0
7.28125e-05,143237377.57296,6.6022957566039e-06,2.1597345254751e-05,8.9427832157364e-06,1.0060739150344,0,0,0,0,0,0,0,0,0,0,0,0,0,0,0,0,0,0,0,0,0,0,0,0,0,0,0,0,0,0,0,0,0,0,0,0,0,0,0,0,0,0,0,0,0,0,0,0,-0.92248399012761,-0.43055754374391,-1.7543431922136,5.7800226097091,2.9267186507909,1.4532882234168,-3.5535702927599,1.5859088247408,2.7404416309393,-0.40449415636387,1.3784467427573,-5.2918732770308,1.3768777197358,-1.7867206365344,1.2755264384917,-3.9406760484759,2.3384018863048,5.0028353080049,-1.040878069562,-5.2769201102368,1.190281092251,1.703686266248,0.22023370699962,-4.5663105810477,2.6366584575684,-1.756435281396,0.79120555544832,1.321619879095,-1.6374443966577,1.2859789334904,1.4440472433954,-0.15658004212337,0.77750695386936,-4.4238606827381,-2.190144094568,-3.7288319139672,5.1733668882014,-2.4820160087486,3.3151397180686,-0.45383007422136,-1.5811718010451,-6.8616252267556,0.66012152741901,-2.2845394901237,-3.5678182510527,0.95760593821764,4.1835726214067,-4.3706511183682,148.06723615861,148.06723615861,148.06723615861,148.06723615861,148.06723615861,148.06723615861,148.06723615861,148.06723615861,148.06723615861,148.06723615861,148.06723615861,148.06723615861,148.06723615861,148.06723615861,148.06723615861,148.06723615861,148.06723615861,148.06723615861,148.06723615861,148.06723615861,148.06723615861,148.06723615861,148.06723615861,148.06723615861,148.06723615861,148.06723615861,148.06723615861,148.06723615861,148.06723615861,148.06723615861,148.06723615861,148.06723615861,148.06723615861,148.06723615861,148.06723615861,148.06723615861,148.06723615861,148.06723615861,148.06723615861,148.06723615861,148.06723615861,148.06723615861,148.06723615861,148.06723615861,148.06723615861,148.06723615861,148.06723615861,148.06723615861,229.71317705395,279.83213781029,-0.07271874526212,253.49039538944,-0.077431103104682,0
7.34375e-05,144698081.80279,6.659489127111e-06,2.1782393392209e-05,9.0235125369362e-06,1.0061342767087,0,0,0,0,0,0,0,0,0,0,0,0,0,0,0,0,0,0,0,0,0,0,0,0,0,0,0,0,0,0,0,0,0,0,0,0,0,0,0,0,0,0,0,0,0,0,0,0,-0.92347770925611,-0.43254164690862,-1.7447637369611,5.7740113969978,2.9296533707766,1.4509300544914,-3.5520138339569,1.5872247455342,2.740586873085,-0.40513321510131,1.3818878538623,-5.2917377744283,1.3769994602405,-1.7866163459779,1.2782289382642,-3.946148562996,2.3359451709064,5.0022746612224,-1.0400016904587,-5.2688906242562,1.1957848882955,1.701697851252,0.21901976223637,-4.5602996060584,2.6397486953107,-1.7557871058991,0.7953277666213,1.3205082526616,-1.6394877538839,1.286506567476,1.444049534065,-0.15853257210012,0.77839436204673,-4.4235202492885,-2.1891248356748,-3.7274876589287,5.1725055400267,-2.4867984502733,3.3119873766415,-0.4549373042586,-1.5785666444252,-6.8634219550615,0.66090540601082,-2.2803735228129,-3.5652188173596,0.95727738885434,4.1794299745277,-4.3677891459719,148.30784258724,148.30784258724,148.30784258724,148.30784258724,148.30784258724,148.30784258724,148.30784258724,148.30784258724,148.30784258724,148.30784258724,148.30784258724,148.30784258724,148.30784258724,148.30784258724,148.30784258724,148.30784258724,148.30784258724,148.30784258724,148.30784258724,148.30784258724,148.30784258724,148.30784258724,148.30784258724,148.30784258724,148.30784258724,148.30784258724,148.30784258724,148.30784258724,148.30784258724,148.30784258724,148.30784258724,148.30784258724,148.30784258724,148.30784258724,148.30784258724,148.30784258724,148.30784258724,148.30784258724,148.30784258724,148.30784258724,148.30784258724,148.30784258724,148.30784258724,148.30784258724,148.30784258724,148.30784258724,148.30784258724,148.30784258724,229.7485300274,280.39403805365,-0.073715177307679,253.94380816947,-0.078450660505999,0
7.40625e-05,146163669.36156,6.7166436392766e-06,2.196744028168e-05,9.104213065202e-06,1.0061946375306,0,0,0,0,0,0,0,0,0,0,0,0,0,0,0,0,0,0,0,0,0,0,0,0,0,0,0,0,0,0,0,0,0,0,0,0,0,0,0,0,0,0,0,0,0,0,0,0,-0.92442898068948,-0.43443427606456,-1.7352646974243,5.7681203880126,2.9325483996652,1.4486026478968,-3.5504716069676,1.5885009657853,2.7407372219683,-0.40576266626715,1.3852949322321,-5.2916111381442,1.3771073541012,-1.786462031812,1.28090035388,-3.95155581287,2.3334927124038,5.0017348848594,-1.039120102626,-5.2610169553287,1.2012187471793,1.6997672609808,0.2177985190973,-4.5543691711252,2.6428385005909,-1.7552012707091,0.79939487547855,1.3194117251996,-1.64149653122,1.287001479267,1.444063642486,-0.16044035334549,0.77924017278329,-4.4231371695972,-2.1880865685409,-3.7261409009009,5.1716677981496,-2.4915036257812,3.3089062272486,-0.45599346776211,-1.5760024925437,-6.8651982033405,0.66168123740601,-2.2763046247003,-3.56266745071,0.95703610136476,4.1753065042946,-4.3648831441676,148.54847712911,148.54847712911,148.54847712911,148.54847712911,148.54847712911,148.54847712911,148.54847712911,148.54847712911,148.54847712911,148.54847712911,148.54847712911,148.54847712911,148.54847712911,148.54847712911,148.54847712911,148.54847712911,148.54847712911,148.54847712911,148.54847712911,148.54847712911,148.54847712911,148.54847712911,148.54847712911,148.54847712911,148.54847712911,148.54847712911,148.54847712911,148.54847712911,148.54847712911,148.54847712911,148.54847712911,148.54847712911,148.54847712911,148.54847712911,148.54847712911,148.54847712911,148.54847712911,148.54847712911,148.54847712911,148.54847712911,148.54847712911,148.54847712911,148.54847712911,148.54847712911,148.54847712911,148.54847712911,148.54847712911,148.54847712911,229.78298290762,280.95493357025,-0.07471637675623,254.39691104413,-0.079474852760417,0
7.46875e-05,147634164.60373,6.7737595997348e-06,2.2152485937084e-05,9.1848853114748e-06,1.0062549974876,0,0,0,0,0,0,0,0,0,0,0,0,0,0,0,0,0,0,0,0,0,0,0,0,0,0,0,0,0,0,0,0,0,0,0,0,0,0,0,0,0,0,0,0,0,0,0,0,-0.92534061911931,-0.43623853674441,-1.7258438856792,5.7623452870674,2.9354030414868,1.4463039959765,-3.5489428618227,1.5897393100873,2.7408926991268,-0.40638254964211,1.3886683138025,-5.2914938498717,1.3772031043544,-1.7862606737144,1.2835402752058,-3.9568994665709,2.3310472560004,5.0012136952392,-1.0382359001637,-5.2532934174046,1.2065847471447,1.6978929961504,0.21657142339573,-4.5485198593999,2.645926723343,-1.7546771355681,0.80340770728372,1.3183275152647,-1.6434735323245,1.2874658191324,1.4440891234875,-0.16230401359241,0.78004593311866,-4.4227140151095,-2.1870301554559,-3.7247954106687,5.170852492342,-2.4961338526923,3.3058963908196,-0.45700116834042,-1.5734794258306,-6.8669552662944,0.66245060773859,-2.2723407286154,-3.5601623938298,0.95688241426175,4.1712043091565,-4.3619381149644,148.78913881801,148.78913881801,148.78913881801,148.78913881801,148.78913881801,148.78913881801,148.78913881801,148.78913881801,148.78913881801,148.78913881801,148.78913881801,148.78913881801,148.78913881801,148.78913881801,148.78913881801,148.78913881801,148.78913881801,148.78913881801,148.78913881801,148.78913881801,148.78913881801,148.78913881801,148.78913881801,148.78913881801,148.78913881801,148.78913881801,148.78913881801,148.78913881801,148.78913881801,148.78913881801,148.78913881801,148.78913881801,148.78913881801,148.78913881801,148.78913881801,148.78913881801,148.78913881801,148.78913881801,148.78913881801,148.78913881801,148.78913881801,148.78913881801,148.78913881801,148.78913881801,148.78913881801,148.78913881801,148.78913881801,148.78913881801,229.8165395357,281.51484919693,-0.07572233729236,254.84971189235,-0.080503676650236,0
7.53125e-05,149109591.19937,6.8308373182783e-06,2.2337530371758e-05,9.2655297823658e-06,1.0063153565682,0,0,0,0,0,0,0,0,0,0,0,0,0,0,0,0,0,0,0,0,0,0,0,0,0,0,0,0,0,0,0,0,0,0,0,0,0,0,0,0,0,0,0,0,0,0,0,0,-0.92621528653729,-0.43795737501767,-1.7164990410698,5.7566818055798,2.9382165002519,1.4440322829133,-3.547426799703,1.590941474513,2.7410533515707,-0.40699288264241,1.392008365072,-5.2913864748209,1.3772883264971,-1.7860151643,1.2861484637872,-3.9621811745035,2.3286115005466,5.0007085549952,-1.0373514807177,-5.2457144804734,1.2118849384555,1.6960736270796,0.21533998582777,-4.542752024321,2.6490121450977,-1.754214212777,0.80736700529968,1.3172529820333,-1.6454214040425,1.2879013733413,1.4441255798229,-0.16412432207495,0.78081320498495,-4.4222533301882,-2.1859565722669,-3.7234545517472,5.1700587883093,-2.5006914701027,3.3029578429097,-0.45796293235646,-1.5709974712152,-6.8686944164724,0.6632151961716,-2.2684888349945,-3.5577024183642,0.95681636299952,4.1671252473941,-4.3589588861988,149.02982669293,149.02982669293,149.02982669293,149.02982669293,149.02982669293,149.02982669293,149.02982669293,149.02982669293,149.02982669293,149.02982669293,149.02982669293,149.02982669293,149.02982669293,149.02982669293,149.02982669293,149.02982669293,149.02982669293,149.02982669293,149.02982669293,149.02982669293,149.02982669293,149.02982669293,149.02982669293,149.02982669293,149.02982669293,149.02982669293,149.02982669293,149.02982669293,149.02982669293,149.02982669293,149.02982669293,149.02982669293,149.02982669293,149.02982669293,149.02982669293,149.02982669293,149.02982669293,149.02982669293,149.02982669293,149.02982669293,149.02982669293,149.02982669293,149.02982669293,149.02982669293,149.02982669293,149.02982669293,149.02982669293,149.02982669293,229.84920460942,282.07380959241,-0.076733052804258,255.30221837799,-0.081537129520752,0
7.59375e-05,150589972.17615,6.8878771070661e-06,2.252257359847e-05,9.3461469796591e-06,1.0063757147619,0,0,0,0,0,0,0,0,0,0,0,0,0,0,0,0,0,0,0,0,0,0,0,0,0,0,0,0,0,0,0,0,0,0,0,0,0,0,0,0,0,0,0,0,0,0,0,0,-0.92705548294937,-0.43959358131078,-1.7072278539108,5.7511257073383,2.9409879076908,1.4417858880248,-3.5459225863215,1.5921090387079,2.7412192089751,-0.40759366793509,1.3953154940111,-5.2912896669219,1.3773645532244,-1.7857282769739,1.2887248627125,-3.9674025511508,2.3261880471388,5.0002167123258,-1.0364690190665,-5.2382748036655,1.2171213441692,1.6943077674442,0.21410576035389,-4.5370657505353,2.6520935045884,-1.7538121419687,0.81127344906811,1.3161856660937,-1.6473425584679,1.2883096042013,1.4441726378323,-0.16590219451331,0.78154357507415,-4.4217576344866,-2.1848668738161,-3.7221212150087,5.1692862070639,-2.5051788065018,3.3000903765433,-0.45888118660158,-1.5685566008718,-6.8704168788235,0.66397672720772,-2.2647547923917,-3.5552867710263,0.95683761966671,4.1630709226838,-4.3559500609747,149.27053979966,149.27053979966,149.27053979966,149.27053979966,149.27053979966,149.27053979966,149.27053979966,149.27053979966,149.27053979966,149.27053979966,149.27053979966,149.27053979966,149.27053979966,149.27053979966,149.27053979966,149.27053979966,149.27053979966,149.27053979966,149.27053979966,149.27053979966,149.27053979966,149.27053979966,149.27053979966,149.27053979966,149.27053979966,149.27053979966,149.27053979966,149.27053979966,149.27053979966,149.27053979966,149.27053979966,149.27053979966,149.27053979966,149.27053979966,149.27053979966,149.27053979966,149.27053979966,149.27053979966,149.27053979966,149.27053979966,149.27053979966,149.27053979966,149.27053979966,149.27053979966,149.27053979966,149.27053979966,149.27053979966,149.27053979966,229.88098436838,282.63183917994,-0.077748517812501,255.75443793982,-0.08257520951031,0
7.65625e-05,152075329.94835,6.9448792798718e-06,2.2707615629448e-05,9.4267374006534e-06,1.0064360720591,0,0,0,0,0,0,0,0,0,0,0,0,0,0,0,0,0,0,0,0,0,0,0,0,0,0,0,0,0,0,0,0,0,0,0,0,0,0,0,0,0,0,0,0,0,0,0,0,-0.9278635335909,-0.44114980113784,-1.6980279845146,5.745672842226,2.9437163525463,1.4395633877143,-3.5444293702328,1.5932434723602,2.7413902861193,-0.40818489781619,1.3985901543656,-5.2912041184211,1.3774332433772,-1.785402626151,1.2912695753749,-3.9725651509292,2.3237793743,4.9997352491266,-1.0355904432719,-5.2309692567537,1.2222959577509,1.6925940786862,0.21287032567768,-4.5314608338738,2.6551695173228,-1.7534706368214,0.81512767130692,1.3151233219839,-1.649239130613,1.2886916818689,1.4442299466797,-0.16763868687061,0.78223865969325,-4.421229378844,-2.1837621601724,-3.7207977733328,5.168534588461,-2.5095981480988,3.2972935968716,-0.45975823283596,-1.5661567420798,-6.8721237966139,0.6647369330901,-2.2611431695443,-3.5529151045203,0.95694546063698,4.1590426822945,-4.3529159731132,149.51127719311,149.51127719311,149.51127719311,149.51127719311,149.51127719311,149.51127719311,149.51127719311,149.51127719311,149.51127719311,149.51127719311,149.51127719311,149.51127719311,149.51127719311,149.51127719311,149.51127719311,149.51127719311,149.51127719311,149.51127719311,149.51127719311,149.51127719311,149.51127719311,149.51127719311,149.51127719311,149.51127719311,149.51127719311,149.51127719311,149.51127719311,149.51127719311,149.51127719311,149.51127719311,149.51127719311,149.51127719311,149.51127719311,149.51127719311,149.51127719311,149.51127719311,149.51127719311,149.51127719311,149.51127719311,149.51127719311,149.51127719311,149.51127719311,149.51127719311,149.51127719311,149.51127719311,149.51127719311,149.51127719311,149.51127719311,229.91188724801,283.18896206192,-0.078768726716656,256.20637776534,-0.083617914927546,0
7.71875e-05,153565686.3226,7.0018441510359e-06,2.2892656476389e-05,9.5073015369219e-06,1.0064964284508,0,0,0,0,0,0,0,0,0,0,0,0,0,0,0,0,0,0,0,0,0,0,0,0,0,0,0,0,0,0,0,0,0,0,0,0,0,0,0,0,0,0,0,0,0,0,0,0,-0.92864158268416,-0.44262854345519,-1.6888970954918,5.7403191741829,2.9464009023371,1.4373635521958,-3.5429463042755,1.5943461422649,2.7415665758154,-0.40876656220179,1.4018328473732,-5.2911305432775,1.3774957896341,-1.7850406400047,1.293782851812,-3.9776704552618,2.3213878023926,4.9992611261244,-1.0347174274947,-5.2237929427467,1.2274107356776,1.6909312568472,0.21163526173814,-4.525936786859,2.6582389023431,-1.7531894549462,0.81893026708458,1.3140639414273,-1.6511129507397,1.289048522413,1.444297178037,-0.16933498475519,0.78290010300496,-4.4206709304487,-2.1826435497538,-3.7194860754621,5.1678040706953,-2.5139517128187,3.2945669077821,-0.46059622676967,-1.5637977861353,-6.873816219859,0.66549751388223,-2.2576572072582,-3.5505874173941,0.95713875181323,4.155041617305,-4.34986066886,149.75203793979,149.75203793979,149.75203793979,149.75203793979,149.75203793979,149.75203793979,149.75203793979,149.75203793979,149.75203793979,149.75203793979,149.75203793979,149.75203793979,149.75203793979,149.75203793979,149.75203793979,149.75203793979,149.75203793979,149.75203793979,149.75203793979,149.75203793979,149.75203793979,149.75203793979,149.75203793979,149.75203793979,149.75203793979,149.75203793979,149.75203793979,149.75203793979,149.75203793979,149.75203793979,149.75203793979,149.75203793979,149.75203793979,149.75203793979,149.75203793979,149.75203793979,149.75203793979,149.75203793979,149.75203793979,149.75203793979,149.75203793979,149.75203793979,149.75203793979,149.75203793979,149.75203793979,149.75203793979,149.75203793979,149.75203793979,229.94192401933,283.7452019456,-0.07979367535142,256.65804477968,-0.084665245440238,0
7.78125e-05,155061062.48402,7.05877203473e-06,2.3077696150473e-05,9.5878398746408e-06,1.0065567839291,0,0,0,0,0,0,0,0,0,0,0,0,0,0,0,0,0,0,0,0,0,0,0,0,0,0,0,0,0,0,0,0,0,0,0,0,0,0,0,0,0,0,0,0,0,0,0,0,-0.92939159178005,-0.44403219572732,-1.679832848884,5.7350608113129,2.9490406302828,1.4351853292435,-3.541472560719,1.595418319521,2.7417480606707,-0.40933865946173,1.4050441102076,-5.2910696538151,1.3775535261682,-1.7846445499977,1.2962650648574,-3.9827198578738,2.3190154687195,4.9987912347982,-1.0338514039567,-5.2167412104329,1.232467591165,1.689318049895,0.21040212448269,-4.5204928478251,2.6613003785351,-1.752968362825,0.8226818103603,1.3130057622605,-1.6529655351594,1.2893808279938,1.4443740221046,-0.17099239078225,0.78352956881348,-4.4200845556723,-2.18151214372,-3.7181874607871,5.167095048374,-2.5182416271563,3.2919095135639,-0.46139717132585,-1.5614795996568,-6.8754950838929,0.66626010084762,-2.2542988343247,-3.5483039866772,0.95741595568984,4.1510685722975,-4.3467879007542,149.99282112051,149.99282112051,149.99282112051,149.99282112051,149.99282112051,149.99282112051,149.99282112051,149.99282112051,149.99282112051,149.99282112051,149.99282112051,149.99282112051,149.99282112051,149.99282112051,149.99282112051,149.99282112051,149.99282112051,149.99282112051,149.99282112051,149.99282112051,149.99282112051,149.99282112051,149.99282112051,149.99282112051,149.99282112051,149.99282112051,149.99282112051,149.99282112051,149.99282112051,149.99282112051,149.99282112051,149.99282112051,149.99282112051,149.99282112051,149.99282112051,149.99282112051,149.99282112051,149.99282112051,149.99282112051,149.99282112051,149.99282112051,149.99282112051,149.99282112051,149.99282112051,149.99282112051,149.99282112051,149.99282112051,149.99282112051,229.97110801062,284.30058206517,-0.080823359462068,257.10944563496,-0.08571720104738,0
7.84375e-05,156561478.96537,7.1156632446247e-06,2.3262734662383e-05,9.6683528936968e-06,1.0066171384865,0,0,0,0,0,0,0,0,0,0,0,0,0,0,0,0,0,0,0,0,0,0,0,0,0,0,0,0,0,0,0,0,0,0,0,0,0,0,0,0,0,0,0,0,0,0,0,0,-0.93011533947366,-0.44536303160762,-1.6708329795203,5.7298940148704,2.9516346293551,1.4330278464228,-3.540007348769,1.5964611839796,2.7419346906006,-0.40990120580241,1.4082245193408,-5.2910221311376,1.3776077345553,-1.7842163880902,1.2987166883689,-3.987714657483,2.3166643016465,4.9983224391743,-1.0329935625906,-5.2098096597361,1.2374683730353,1.6877532187406,0.20917242153549,-4.515128007747,2.6643527174657,-1.7528071051534,0.82638285173908,1.3119472799919,-1.6547980963874,1.2896891264189,1.4444601833245,-0.17261230716313,0.78412872912351,-4.4194723985617,-2.1803690268301,-3.7169028064506,5.1664081321527,-2.5224699152835,3.2893204178541,-0.46216290903825,-1.5592020356229,-6.8771612031504,0.66702622559415,-2.2510687479038,-3.5460653027635,0.9577751518497,4.1471241550136,-4.3437011410696,150.23362583301,150.23362583301,150.23362583301,150.23362583301,150.23362583301,150.23362583301,150.23362583301,150.23362583301,150.23362583301,150.23362583301,150.23362583301,150.23362583301,150.23362583301,150.23362583301,150.23362583301,150.23362583301,150.23362583301,150.23362583301,150.23362583301,150.23362583301,150.23362583301,150.23362583301,150.23362583301,150.23362583301,150.23362583301,150.23362583301,150.23362583301,150.23362583301,150.23362583301,150.23362583301,150.23362583301,150.23362583301,150.23362583301,150.23362583301,150.23362583301,150.23362583301,150.23362583301,150.23362583301,150.23362583301,150.23362583301,150.23362583301,150.23362583301,150.23362583301,150.23362583301,150.23362583301,150.23362583301,150.23362583301,150.23362583301,229.99945506264,284.85512511109,-0.081857774931274,257.56058670314,-0.086773781869169,0
7.90625e-05,158066955.59877,7.1725180932519e-06,2.3447772022321e-05,9.7488410674182e-06,1.0066774921163,0,0,0,0,0,0,0,0,0,0,0,0,0,0,0,0,0,0,0,0,0,0,0,0,0,0,0,0,0,0,0,0,0,0,0,0,0,0,0,0,0,0,0,0,0,0,0,0,-0.93081442865948,-0.44662322696081,-1.6618952886139,5.7248152132337,2.9541820373292,1.4308903872911,-3.5385499304383,1.5974758303058,2.7421263903159,-0.41045424737763,1.4113746733843,-5.2909886227263,1.3776596489236,-1.7837579920383,1.3011382740577,-3.9926560552905,2.3143360091573,4.9978516288483,-1.032144879231,-5.2029941448158,1.2424148529239,1.6862355532902,0.20794758727945,-4.5098410422021,2.6673947324165,-1.7527053881249,0.83003393282979,1.3108872383002,-1.6566115665159,1.2899738118152,1.444555374254,-0.17419622020376,0.78469924888207,-4.4188364853026,-2.1792152338764,-3.7156325817993,5.1657441072777,-2.5266384848243,3.2867984391323,-0.46289512439074,-1.5569649426378,-6.8788152707688,0.66779729406425,-2.2479665307208,-3.5438720163947,0.95821407389241,4.1432087549175,-4.3406035907718,150.47445119447,150.47445119447,150.47445119447,150.47445119447,150.47445119447,150.47445119447,150.47445119447,150.47445119447,150.47445119447,150.47445119447,150.47445119447,150.47445119447,150.47445119447,150.47445119447,150.47445119447,150.47445119447,150.47445119447,150.47445119447,150.47445119447,150.47445119447,150.47445119447,150.47445119447,150.47445119447,150.47445119447,150.47445119447,150.47445119447,150.47445119447,150.47445119447,150.47445119447,150.47445119447,150.47445119447,150.47445119447,150.47445119447,150.47445119447,150.47445119447,150.47445119447,150.47445119447,150.47445119447,150.47445119447,150.47445119447,150.47445119447,150.47445119447,150.47445119447,150.47445119447,150.47445119447,150.47445119447,150.47445119447,150.47445119447,230.02698337044,285.40885316924,-0.082896917542263,258.01147407466,-0.08783498816803,0
7.96875e-05,159577511.45429,7.2293368913014e-06,2.3632808240034e-05,9.8293048620523e-06,1.0067378448123,0,0,0,0,0,0,0,0,0,0,0,0,0,0,0,0,0,0,0,0,0,0,0,0,0,0,0,0,0,0,0,0,0,0,0,0,0,0,0,0,0,0,0,0,0,0,0,0,-0.93149029372668,-0.44781487581245,-1.6530176748873,5.719821001892,2.9566820540751,1.4287723784749,-3.5370996311556,1.598463271712,2.7423230586721,-0.41099787057282,1.4144951878803,-5.2909697327914,1.377710460033,-1.7832710142782,1.303530428161,-3.997545155527,2.3120320708119,4.997375757743,-1.0313061360412,-5.1962907674895,1.2473087042438,1.6847638571157,0.20672896000875,-4.5046305477879,2.6704252998132,-1.7526628664924,0.83363559493901,1.3098246200112,-1.6584066288413,1.2902351840741,1.444659315141,-0.17574568276683,0.78524277136325,-4.4181787206573,-2.1780517386289,-3.7143769073812,5.1651038843939,-2.5307491229519,3.2843422257419,-0.46359534777476,-1.5547681744088,-6.8804578611388,0.66857456641494,-2.2449907917487,-3.541724874333,0.95873015314932,4.1393225576389,-4.3374982088333,150.71529634378,150.71529634378,150.71529634378,150.71529634378,150.71529634378,150.71529634378,150.71529634378,150.71529634378,150.71529634378,150.71529634378,150.71529634378,150.71529634378,150.71529634378,150.71529634378,150.71529634378,150.71529634378,150.71529634378,150.71529634378,150.71529634378,150.71529634378,150.71529634378,150.71529634378,150.71529634378,150.71529634378,150.71529634378,150.71529634378,150.71529634378,150.71529634378,150.71529634378,150.71529634378,150.71529634378,150.71529634378,150.71529634378,150.71529634378,150.71529634378,150.71529634378,150.71529634378,150.71529634378,150.71529634378,150.71529634378,150.71529634378,150.71529634378,150.71529634378,150.71529634378,150.71529634378,150.71529634378,150.71529634378,150.71529634378,230.05371327045,285.96178766469,-0.083940784395451,258.46211355388,-0.088900821519316,0
8.03125e-05,161093164.7643,7.2861199476679e-06,2.381784332483e-05,9.9097447364768e-06,1.0067981965685,0,0,0,0,0,0,0,0,0,0,0,0,0,0,0,0,0,0,0,0,0,0,0,0,0,0,0,0,0,0,0,0,0,0,0,0,0,0,0,0,0,0,0,0,0,0,0,0,-0.93214420541578,-0.448939987032,-1.644198177995,5.7149081434051,2.9591339626775,1.4266733796732,-3.5356558493515,1.5994244467441,2.7425245623677,-0.41153221128404,1.4175866894979,-5.2909659381813,1.3777613177355,-1.7827569385389,1.3058937900195,-4.0023829646069,2.3097537334122,4.9968918912734,-1.0304779404772,-5.1896958678331,1.2521514780894,1.6833369338619,0.20551776309369,-4.4994949786994,2.6734433782307,-1.7526790863118,0.83718838421153,1.3087586348419,-1.6601837566377,1.290473490572,1.4447717318976,-0.17726229807376,0.78576090471034,-4.4175008270148,-2.1768794498667,-3.7131356240394,5.1644884529517,-2.5348034934179,3.2819502758906,-0.46426496540562,-1.5526115954481,-6.8820894319256,0.66935914576035,-2.2421393252851,-3.5396246629165,0.95932057018525,4.1354655699765,-4.3343877395942,150.95616044339,150.95616044339,150.95616044339,150.95616044339,150.95616044339,150.95616044339,150.95616044339,150.95616044339,150.95616044339,150.95616044339,150.95616044339,150.95616044339,150.95616044339,150.95616044339,150.95616044339,150.95616044339,150.95616044339,150.95616044339,150.95616044339,150.95616044339,150.95616044339,150.95616044339,150.95616044339,150.95616044339,150.95616044339,150.95616044339,150.95616044339,150.95616044339,150.95616044339,150.95616044339,150.95616044339,150.95616044339,150.95616044339,150.95616044339,150.95616044339,150.95616044339,150.95616044339,150.95616044339,150.95616044339,150.95616044339,150.95616044339,150.95616044339,150.95616044339,150.95616044339,150.95616044339,150.95616044339,150.95616044339,150.95616044339,230.07966688202,286.51394931389,-0.084989370060877,258.9125106601,-0.089971281244557,0
8.09375e-05,162613932.83483,7.3428675687162e-06,2.4002877285613e-05,9.9901611417787e-06,1.0068585473797,0,0,0,0,0,0,0,0,0,0,0,0,0,0,0,0,0,0,0,0,0,0,0,0,0,0,0,0,0,0,0,0,0,0,0,0,0,0,0,0,0,0,0,0,0,0,0,0,-0.93277729555198,-0.45000051281634,-1.6354349832704,5.7100735525603,2.9615371522696,1.4245930649344,-3.5342180617638,1.600360226354,2.7427307504957,-0.41205746184169,1.4206498122827,-5.2909777167182,1.3778133319212,-1.7822170927188,1.3082290200308,-4.0071704012707,2.3075020294636,4.9963972458544,-1.0296607525098,-5.1832060089556,1.2569445900936,1.6819536036012,0.20431508977987,-4.4944326836454,2.6764480158316,-1.7527535562905,0.84069286728876,1.3076886997008,-1.6619432537544,1.2906889624719,1.4448923549762,-0.17874770490301,0.78625521124696,-4.4168044600475,-2.1756991993975,-3.7119083450048,5.1638988452008,-2.5388031403662,3.2796209670764,-0.46490523038743,-1.5504950805857,-6.8837103395154,0.67015197760886,-2.2394092611482,-3.5375721613211,0.95998230653885,4.1316376404003,-4.3312747302085,151.19704268069,151.19704268069,151.19704268069,151.19704268069,151.19704268069,151.19704268069,151.19704268069,151.19704268069,151.19704268069,151.19704268069,151.19704268069,151.19704268069,151.19704268069,151.19704268069,151.19704268069,151.19704268069,151.19704268069,151.19704268069,151.19704268069,151.19704268069,151.19704268069,151.19704268069,151.19704268069,151.19704268069,151.19704268069,151.19704268069,151.19704268069,151.19704268069,151.19704268069,151.19704268069,151.19704268069,151.19704268069,151.19704268069,151.19704268069,151.19704268069,151.19704268069,151.19704268069,151.19704268069,151.19704268069,151.19704268069,151.19704268069,151.19704268069,151.19704268069,151.19704268069,151.19704268069,151.19704268069,151.19704268069,151.19704268069,230.10486762003,287.06535810884,-0.086042670700387,259.3626706486,-0.091046368252218,0
8.15625e-05,164139831.94596,7.3995800583614e-06,2.4187910130917e-05,1.0070554521187e-05,1.0069188972406,0,0,0,0,0,0,0,0,0,0,0,0,0,0,0,0,0,0,0,0,0,0,0,0,0,0,0,0,0,0,0,0,0,0,0,0,0,0,0,0,0,0,0,0,0,0,0,0,-0.93339056002784,-0.45099835056008,-1.6267264488425,5.7053142975286,2.96389113845,1.4225312136486,-3.5327858253223,1.6012714212272,2.7429414459533,-0.41257387565249,1.4236851976489,-5.2910054152131,1.3778675738157,-1.7816526677398,1.3105367836332,-4.011908298255,2.305277762547,4.9958892265453,-1.0288549026414,-5.1768179618738,1.2616893006309,1.6806126820278,0.2031218924732,-4.4894419390715,2.6794383633841,-1.7528856656681,0.84414964104524,1.3066144216842,-1.6636852936196,1.2908818511109,1.4450209172424,-0.18020356320857,0.78672720030454,-4.4160911068409,-2.1745117401753,-3.7106945187213,5.1633360950297,-2.5427494915414,3.2773525698,-0.46551727584553,-1.548418516692,-6.8853208429358,0.67095382510071,-2.2367972208288,-3.5355680927429,0.96071219645485,4.1278384830393,-4.328161565346,151.43794226942,151.43794226942,151.43794226942,151.43794226942,151.43794226942,151.43794226942,151.43794226942,151.43794226942,151.43794226942,151.43794226942,151.43794226942,151.43794226942,151.43794226942,151.43794226942,151.43794226942,151.43794226942,151.43794226942,151.43794226942,151.43794226942,151.43794226942,151.43794226942,151.43794226942,151.43794226942,151.43794226942,151.43794226942,151.43794226942,151.43794226942,151.43794226942,151.43794226942,151.43794226942,151.43794226942,151.43794226942,151.43794226942,151.43794226942,151.43794226942,151.43794226942,151.43794226942,151.43794226942,151.43794226942,151.43794226942,151.43794226942,151.43794226942,151.43794226942,151.43794226942,151.43794226942,151.43794226942,151.43794226942,151.43794226942,230.12934021529,287.61603328175,-0.08710068143552,259.81259850777,-0.09212608241051,0
8.21875e-05,165670877.23628,7.456257727954e-06,2.4372941868919e-05,1.015092532854e-05,1.0069792461465,0,0,0,0,0,0,0,0,0,0,0,0,0,0,0,0,0,0,0,0,0,0,0,0,0,0,0,0,0,0,0,0,0,0,0,0,0,0,0,0,0,0,0,0,0,0,0,0,-0.933984878343,-0.45193534835248,-1.618071114953,5.7006275794682,2.9661955851818,1.4204876965833,-3.5313587763858,1.6021587884939,2.7431564597259,-0.41308176841276,1.4266934959264,-5.2910493201328,1.3779250744589,-1.7810647297467,1.3128177452521,-4.0165974094495,2.3030815451874,4.9953654630507,-1.0280606116973,-5.1705286851199,1.2663867053583,1.6793129976804,0.20193897824835,-4.484520978094,2.6824136824331,-1.7530747272545,0.84755934535583,1.3055355769637,-1.6654099560682,1.2910524555851,1.4451571566955,-0.18163154134741,0.78717832347444,-4.4153621516301,-2.1733177431519,-3.7094934677724,5.162801205485,-2.5466438642281,3.275143284681,-0.46610212735686,-1.546381795028,-6.8869211145582,0.6717652968914,-2.2342994462721,-3.5336130838304,0.96150697816854,4.1240677042364,-4.3250504776951,151.67885845038,151.67885845038,151.67885845038,151.67885845038,151.67885845038,151.67885845038,151.67885845038,151.67885845038,151.67885845038,151.67885845038,151.67885845038,151.67885845038,151.67885845038,151.67885845038,151.67885845038,151.67885845038,151.67885845038,151.67885845038,151.67885845038,151.67885845038,151.67885845038,151.67885845038,151.67885845038,151.67885845038,151.67885845038,151.67885845038,151.67885845038,151.67885845038,151.67885845038,151.67885845038,151.67885845038,151.67885845038,151.67885845038,151.67885845038,151.67885845038,151.67885845038,151.67885845038,151.67885845038,151.67885845038,151.67885845038,151.67885845038,151.67885845038,151.67885845038,151.67885845038,151.67885845038,151.67885845038,151.67885845038,151.67885845038,230.15311010571,288.16599329852,-0.088163397758705,260.26229897671,-0.093210424173432,0
8.28125e-05,167207082.57356,7.5129008658396e-06,2.4557972507489e-05,1.0231273971977e-05,1.0070395940926,0,0,0,0,0,0,0,0,0,0,0,0,0,0,0,0,0,0,0,0,0,0,0,0,0,0,0,0,0,0,0,0,0,0,0,0,0,0,0,0,0,0,0,0,0,0,0,0,-0.93456102790102,-0.45281331384631,-1.6094677122949,5.696010723251,2.9684503220917,1.4184624675146,-3.5299366283468,1.6030230446541,2.7433755799559,-0.41358151724736,1.4296753704923,-5.2911096305662,1.3779868225819,-1.7804542440915,1.3150725658346,-4.0212384167145,2.3009138028481,4.9948238369199,-1.0272780049893,-5.1643353058619,1.271037731644,1.6780533678854,0.20076700784936,-4.4796680175249,2.6853733524078,-1.7533199596768,0.85092267334951,1.3044520925632,-1.6671172613552,1.2912011516347,1.4453008131588,-0.18303330476873,0.78760997342745,-4.4146188630783,-2.1721177984221,-3.7083044377548,5.1622951238284,-2.5504874721984,3.2729912615436,-0.4666607238877,-1.5443848015901,-6.8885112520672,0.67258683842626,-2.2319119262126,-3.5317076316348,0.96236333866338,4.1203248248664,-4.3219435756379,151.91979049205,151.91979049205,151.91979049205,151.91979049205,151.91979049205,151.91979049205,151.91979049205,151.91979049205,151.91979049205,151.91979049205,151.91979049205,151.91979049205,151.91979049205,151.91979049205,151.91979049205,151.91979049205,151.91979049205,151.91979049205,151.91979049205,151.91979049205,151.91979049205,151.91979049205,151.91979049205,151.91979049205,151.91979049205,151.91979049205,151.91979049205,151.91979049205,151.91979049205,151.91979049205,151.91979049205,151.91979049205,151.91979049205,151.91979049205,151.91979049205,151.91979049205,151.91979049205,151.91979049205,151.91979049205,151.91979049205,151.91979049205,151.91979049205,151.91979049205,151.91979049205,151.91979049205,151.91979049205,151.91979049205,151.91979049205,230.17620327797,288.71525585217,-0.089230813940907,260.71177655806,-0.094299392441734,0
8.34375e-05,168748460.40991,7.5695097680283e-06,2.4743002054206e-05,1.0311600870785e-05,1.0070999410743,0,0,0,0,0,0,0,0,0,0,0,0,0,0,0,0,0,0,0,0,0,0,0,0,0,0,0,0,0,0,0,0,0,0,0,0,0,0,0,0,0,0,0,0,0,0,0,0,-0.93511969407463,-0.45363401493616,-1.6009151606479,5.6914611661257,2.9706553599982,1.4164555533392,-3.5285191654419,1.6038648720469,2.7435985913141,-0.41407355671636,1.432631502039,-5.2911864486211,1.3780537614273,-1.7798220792023,1.3173019017398,-4.0258319351598,2.2987748039231,4.9942625063029,-1.0265071246191,-5.1582350992115,1.2756431394796,1.6768326307843,0.19960649974079,-4.4748812785125,2.6883168734891,-1.7536204839974,0.85424038129357,1.3033640270064,-1.6688071979931,1.2913284078246,1.445451631157,-0.18441050496541,0.78802348445951,-4.4138623896004,-2.1709124158613,-3.7071266215936,5.1618187138106,-2.5542814333369,3.2708946288769,-0.46719392318427,-1.5424274036571,-6.8900912855846,0.67341875460719,-2.2296304979156,-3.5298520722213,0.96327795575964,4.1166093053892,-4.3188428415912,152.16073769078,152.16073769078,152.16073769078,152.16073769078,152.16073769078,152.16073769078,152.16073769078,152.16073769078,152.16073769078,152.16073769078,152.16073769078,152.16073769078,152.16073769078,152.16073769078,152.16073769078,152.16073769078,152.16073769078,152.16073769078,152.16073769078,152.16073769078,152.16073769078,152.16073769078,152.16073769078,152.16073769078,152.16073769078,152.16073769078,152.16073769078,152.16073769078,152.16073769078,152.16073769078,152.16073769078,152.16073769078,152.16073769078,152.16073769078,152.16073769078,152.16073769078,152.16073769078,152.16073769078,152.16073769078,152.16073769078,152.16073769078,152.16073769078,152.16073769078,152.16073769078,152.16073769078,152.16073769078,152.16073769078,152.16073769078,230.19864595679,289.26383786333,-0.090302924924558,261.16103552848,-0.095392986907355,0
8.40625e-05,170295021.62067,7.6260847275035e-06,2.4928030516401e-05,1.0391906435427e-05,1.0071602870873,0,0,0,0,0,0,0,0,0,0,0,0,0,0,0,0,0,0,0,0,0,0,0,0,0,0,0,0,0,0,0,0,0,0,0,0,0,0,0,0,0,0,0,0,0,0,0,0,-0.93566149037711,-0.45439918308512,-1.5924125581294,5.6869764460939,2.9728109002889,1.414467046838,-3.527106236723,1.6046849331366,2.7438252645914,-0.41455837468056,1.4355625918071,-5.2912798042338,1.3781267834093,-1.7791690291372,1.3195064132788,-4.0303785188571,2.296664679316,4.9936799229393,-1.0257479389524,-5.1522254692365,1.2802035346303,1.6756496250505,0.19845783694804,-4.4701590009201,2.691243863598,-1.753975332173,0.85751329317099,1.3022715535865,-1.670479745954,1.2914348021697,1.4456093560125,-0.18576477240852,0.78842013449735,-4.4130937945652,-2.1697020315984,-3.7059591898576,5.1613727471,-2.5580267781996,3.2688515139403,-0.46770252469586,-1.5405094320899,-6.8916611856052,0.67426122195877,-2.2274509332986,-3.5280465624174,0.96424753285461,4.1129205689742,-4.3157501493254,152.40169937084,152.40169937084,152.40169937084,152.40169937084,152.40169937084,152.40169937084,152.40169937084,152.40169937084,152.40169937084,152.40169937084,152.40169937084,152.40169937084,152.40169937084,152.40169937084,152.40169937084,152.40169937084,152.40169937084,152.40169937084,152.40169937084,152.40169937084,152.40169937084,152.40169937084,152.40169937084,152.40169937084,152.40169937084,152.40169937084,152.40169937084,152.40169937084,152.40169937084,152.40169937084,152.40169937084,152.40169937084,152.40169937084,152.40169937084,152.40169937084,152.40169937084,152.40169937084,152.40169937084,152.40169937084,152.40169937084,152.40169937084,152.40169937084,152.40169937084,152.40169937084,152.40169937084,152.40169937084,152.40169937084,152.40169937084,230.22046436017,289.81175549177,-0.091379723856974,261.61007995921,-0.096491205374242,0
8.46875e-05,171846775.32799,7.6826260347347e-06,2.511305790117e-05,1.0472191068611e-05,1.0072206321269,0,0,0,0,0,0,0,0,0,0,0,0,0,0,0,0,0,0,0,0,0,0,0,0,0,0,0,0,0,0,0,0,0,0,0,0,0,0,0,0,0,0,0,0,0,0,0,0,-0.93618696802159,-0.45511051048768,-1.5839591667034,5.6825541885516,2.9749173387954,1.4124970988008,-3.5256977465595,1.6054838814149,2.7440553747582,-0.41503650523361,1.4384693643326,-5.2913896682429,1.3782067236705,-1.7784958171801,1.3216867715182,-4.0348786653715,2.2945834511128,4.9930748401055,-1.0250003505916,-5.1463039291631,1.2847193861049,1.6745032069561,0.19732127661565,-4.4654994571668,2.6941540540505,-1.7543834707481,0.86074230450088,1.3011749436078,-1.6721348944749,1.291521029681,1.445773743868,-0.18709770785096,0.78880114791935,-4.4123140593982,-2.1684870110615,-3.704801304818,5.1609578845518,-2.5617244573334,3.266860067901,-0.46818727630161,-1.5386306587628,-6.8932208701312,0.67511431123062,-2.225369010443,-3.5262910600593,0.96526883018716,4.1092580207771,-4.3126672655631,152.64267488423,152.64267488423,152.64267488423,152.64267488423,152.64267488423,152.64267488423,152.64267488423,152.64267488423,152.64267488423,152.64267488423,152.64267488423,152.64267488423,152.64267488423,152.64267488423,152.64267488423,152.64267488423,152.64267488423,152.64267488423,152.64267488423,152.64267488423,152.64267488423,152.64267488423,152.64267488423,152.64267488423,152.64267488423,152.64267488423,152.64267488423,152.64267488423,152.64267488423,152.64267488423,152.64267488423,152.64267488423,152.64267488423,152.64267488423,152.64267488423,152.64267488423,152.64267488423,152.64267488423,152.64267488423,152.64267488423,152.64267488423,152.64267488423,152.64267488423,152.64267488423,152.64267488423,152.64267488423,152.64267488423,152.64267488423,230.2416845486,290.35902415143,-0.092461204441538,262.05891373053,-0.09759404592219,0
8.53125e-05,173403728.71876,7.7391339775745e-06,2.5298084215411e-05,1.0552455164773e-05,1.007280976189,0,0,0,0,0,0,0,0,0,0,0,0,0,0,0,0,0,0,0,0,0,0,0,0,0,0,0,0,0,0,0,0,0,0,0,0,0,0,0,0,0,0,0,0,0,0,0,0,-0.93669662829067,-0.45576964577194,-1.5755543917264,5.6781921077102,2.9769752600557,1.4105459109939,-3.5242936461784,1.6062623744892,2.7442886928222,-0.41550852206039,1.4413525670697,-5.2915159229945,1.3782943543614,-1.7778031107986,1.3238436677313,-4.0393328207236,2.2925310566003,4.9924463117219,-1.0242642013219,-5.1404680853345,1.2891910505265,1.6733922479061,0.19619696097108,-4.4609009588333,2.6970472794303,-1.7548437646762,0.86392837905992,1.3000745511995,-1.673772655074,1.2915879071666,1.4459445540848,-0.18841087667122,0.78916769818708,-4.4115240784842,-2.1672676553638,-3.7036521369198,5.1605746689774,-2.5653753491588,3.2649184827163,-0.46864889026143,-1.5367907768847,-6.8947702104699,0.67597801043735,-2.2233805693626,-3.524585312838,0.96633868891172,4.1056210665594,-4.3095958490828,152.88366361038,152.88366361038,152.88366361038,152.88366361038,152.88366361038,152.88366361038,152.88366361038,152.88366361038,152.88366361038,152.88366361038,152.88366361038,152.88366361038,152.88366361038,152.88366361038,152.88366361038,152.88366361038,152.88366361038,152.88366361038,152.88366361038,152.88366361038,152.88366361038,152.88366361038,152.88366361038,152.88366361038,152.88366361038,152.88366361038,152.88366361038,152.88366361038,152.88366361038,152.88366361038,152.88366361038,152.88366361038,152.88366361038,152.88366361038,152.88366361038,152.88366361038,152.88366361038,152.88366361038,152.88366361038,152.88366361038,152.88366361038,152.88366361038,152.88366361038,152.88366361038,152.88366361038,152.88366361038,152.88366361038,152.88366361038,230.2623323127,290.9056585209,-0.09354735973515,262.50754053912,-0.098701505786929,0
8.59375e-05,174965886.85808,7.7956088417081e-06,2.5483109465841e-05,1.0632699110678e-05,1.0073413192691,0,0,0,0,0,0,0,0,0,0,0,0,0,0,0,0,0,0,0,0,0,0,0,0,0,0,0,0,0,0,0,0,0,0,0,0,0,0,0,0,0,0,0,0,0,0,0,0,-0.93719093421851,-0.45637818796456,-1.5671977542045,5.6738879904263,2.9789854208703,1.408613727728,-3.5228939249212,1.6070210875684,2.7445249967486,-0.41597503069804,1.4442129671673,-5.2916584017031,1.3783903749422,-1.7770915274009,1.3259778248226,-4.0437413848674,2.2905073775712,4.991793678446,-1.0235392784825,-5.1347156229333,1.2936188031345,1.6723156450822,0.19508492990811,-4.4563618609319,2.6999234626909,-1.7553550243988,0.86707254018351,1.2989707987272,-1.6753930703056,1.2916363735122,1.4461215553533,-0.18970580376041,0.78952090969773,-4.4107246809608,-2.1660442083032,-3.7025108711891,5.1602235204449,-2.56898026793,3.2630250094111,-0.4690880528002,-1.5349893767262,-6.8963090378201,0.676852253189,-2.221481555341,-3.5229288518064,0.96745405057814,4.1020091266308,-4.306537448287,153.12466495558,153.12466495558,153.12466495558,153.12466495558,153.12466495558,153.12466495558,153.12466495558,153.12466495558,153.12466495558,153.12466495558,153.12466495558,153.12466495558,153.12466495558,153.12466495558,153.12466495558,153.12466495558,153.12466495558,153.12466495558,153.12466495558,153.12466495558,153.12466495558,153.12466495558,153.12466495558,153.12466495558,153.12466495558,153.12466495558,153.12466495558,153.12466495558,153.12466495558,153.12466495558,153.12466495558,153.12466495558,153.12466495558,153.12466495558,153.12466495558,153.12466495558,153.12466495558,153.12466495558,153.12466495558,153.12466495558,153.12466495558,153.12466495558,153.12466495558,153.12466495558,153.12466495558,153.12466495558,153.12466495558,153.12466495558,230.2824328864,291.4516725707,-0.094638182985033,262.95596391747,-0.099813582122929,0
8.65625e-05,176533252.5196,7.8520509098897e-06,2.5668133659021e-05,1.071292328397e-05,1.007401661363,0,0,0,0,0,0,0,0,0,0,0,0,0,0,0,0,0,0,0,0,0,0,0,0,0,0,0,0,0,0,0,0,0,0,0,0,0,0,0,0,0,0,0,0,0,0,0,0,-0.9376703221282,-0.45693768008558,-1.558888860887,5.6696396993236,2.9809487212256,1.4067008270847,-3.5214985967879,1.6077607272466,2.7447640603648,-0.41643666180069,1.4470513444497,-5.2918168775903,1.3784954054278,-1.7763616491072,1.3280900074166,-4.0481047049592,2.288512263213,4.9911165433802,-1.0228253212281,-5.1290442864075,1.2980028712782,1.6712723137828,0.1939851328449,-4.4518805619122,2.7027825955194,-1.7559159819183,0.87017585321304,1.2978641633571,-1.6769962172029,1.2916674879454,1.4463045181529,-0.19098396959173,0.78986185922521,-4.4099166378695,-2.1648168652507,-3.7013767238982,5.1599047314892,-2.572539965908,3.2611779710522,-0.46950543643152,-1.5332259236187,-6.8978371370084,0.67773694259389,-2.2196680549146,-3.5213209867412,0.96861197177454,4.0984216492879,-4.3034935005448,153.36567835237,153.36567835237,153.36567835237,153.36567835237,153.36567835237,153.36567835237,153.36567835237,153.36567835237,153.36567835237,153.36567835237,153.36567835237,153.36567835237,153.36567835237,153.36567835237,153.36567835237,153.36567835237,153.36567835237,153.36567835237,153.36567835237,153.36567835237,153.36567835237,153.36567835237,153.36567835237,153.36567835237,153.36567835237,153.36567835237,153.36567835237,153.36567835237,153.36567835237,153.36567835237,153.36567835237,153.36567835237,153.36567835237,153.36567835237,153.36567835237,153.36567835237,153.36567835237,153.36567835237,153.36567835237,153.36567835237,153.36567835237,153.36567835237,153.36567835237,153.36567835237,153.36567835237,153.36567835237,153.36567835237,153.36567835237,230.30201094913,291.99707958034,-0.095733665907536,263.40418723908,-0.10093027022876,0
8.71875e-05,178105826.05194,7.9084604626125e-06,2.5853156801372e-05,1.0793128053947e-05,1.0074620024663,0,0,0,0,0,0,0,0,0,0,0,0,0,0,0,0,0,0,0,0,0,0,0,0,0,0,0,0,0,0,0,0,0,0,0,0,0,0,0,0,0,0,0,0,0,0,0,0,-0.93813520985716,-0.45744959803847,-1.5506273694113,5.6654451716815,2.9828661626606,1.4048075079688,-3.5201077013883,1.6084820424669,2.7450056721699,-0.41689406410249,1.4498684831191,-5.2919910900952,1.3786099785068,-1.7756140239365,1.3301810278252,-4.0524231004846,2.2865455588732,4.9904147309605,-1.0221220297573,-5.1234518840369,1.3023434691857,1.670261206353,0.19289744114839,-4.4474555029709,2.7056247180647,-1.7565253243964,0.87323940562087,1.2967551621197,-1.6785822125416,1.2916824237279,1.4464932252544,-0.19224680756764,0.79019157596375,-4.4091006747353,-2.1635857758226,-3.7002489389113,5.1596184626257,-2.576055149649,3.259375776576,-0.46990170642465,-1.531499740857,-6.8993542701998,0.67863198475691,-2.217936317163,-3.5197608039532,0.9698096353135,4.0948581171058,-4.3004653258424,153.60670325869,153.60670325869,153.60670325869,153.60670325869,153.60670325869,153.60670325869,153.60670325869,153.60670325869,153.60670325869,153.60670325869,153.60670325869,153.60670325869,153.60670325869,153.60670325869,153.60670325869,153.60670325869,153.60670325869,153.60670325869,153.60670325869,153.60670325869,153.60670325869,153.60670325869,153.60670325869,153.60670325869,153.60670325869,153.60670325869,153.60670325869,153.60670325869,153.60670325869,153.60670325869,153.60670325869,153.60670325869,153.60670325869,153.60670325869,153.60670325869,153.60670325869,153.60670325869,153.60670325869,153.60670325869,153.60670325869,153.60670325869,153.60670325869,153.60670325869,153.60670325869,153.60670325869,153.60670325869,153.60670325869,153.60670325869,230.32109035208,292.54189217243,-0.096833800436492,263.85221373501,-0.10205156486663,0
8.78125e-05,179683605.3104,7.9648377784734e-06,2.6038178899198e-05,1.0873313781819e-05,1.007522342575,0,0,0,0,0,0,0,0,0,0,0,0,0,0,0,0,0,0,0,0,0,0,0,0,0,0,0,0,0,0,0,0,0,0,0,0,0,0,0,0,0,0,0,0,0,0,0,0,-0.93858600759211,-0.45791534530254,-1.5424129707009,5.6613024196881,2.9847387875683,1.4029340779241,-3.5187212896865,1.609185833111,2.7452496302615,-0.4173478976668,1.4526651559971,-5.292180749129,1.3787345335809,-1.7748491754319,1.3322517510757,-4.0566968438419,2.2846071237105,4.9896882275387,-1.0214290746849,-5.1179362706853,1.3066408251799,1.6692813106174,0.19182165985275,-4.4430851628812,2.7084498935105,-1.7571816927583,0.87626426992824,1.2956443394436,-1.6801512093489,1.2916824601873,1.4466874687449,-0.19349570149951,0.7905110396214,-4.4082774834045,-2.1623510617027,-3.6991267960388,5.1593647439188,-2.5795264738548,3.257616927462,-0.47027752922502,-1.5298099967546,-6.9008601609596,0.67953730655776,-2.2162827702874,-3.5182471713218,0.97104435505856,4.0913180478558,-4.2974541218499,153.847739157,153.847739157,153.847739157,153.847739157,153.847739157,153.847739157,153.847739157,153.847739157,153.847739157,153.847739157,153.847739157,153.847739157,153.847739157,153.847739157,153.847739157,153.847739157,153.847739157,153.847739157,153.847739157,153.847739157,153.847739157,153.847739157,153.847739157,153.847739157,153.847739157,153.847739157,153.847739157,153.847739157,153.847739157,153.847739157,153.847739157,153.847739157,153.847739157,153.847739157,153.847739157,153.847739157,153.847739157,153.847739157,153.847739157,153.847739157,153.847739157,153.847739157,153.847739157,153.847739157,153.847739157,153.847739157,153.847739157,153.847739157,230.33969414668,293.08612233645,-0.097938579122569,264.30004649297,-0.10317746157429,0
8.84375e-05,181266585.6875,8.0211831339364e-06,2.62231999587e-05,1.0953480819966e-05,1.0075826816849,0,0,0,0,0,0,0,0,0,0,0,0,0,0,0,0,0,0,0,0,0,0,0,0,0,0,0,0,0,0,0,0,0,0,0,0,0,0,0,0,0,0,0,0,0,0,0,0,-0.93902312447013,-0.45833624051309,-1.5342453529143,5.6572095376388,2.9865676125189,1.4010808345056,-3.5173394254054,1.6098729555866,2.7454957312819,-0.41779882819875,1.4554421130257,-5.2923855344815,1.3788694119246,-1.7740676162934,1.3343030912138,-4.0609261789997,2.2826968488127,4.9889371169766,-1.0207461121911,-5.1124953529053,1.3108952118571,1.6683316466452,0.19075753857064,-4.4387680511632,2.7112581863465,-1.7578836841326,0.87925146986054,1.2945322517448,-1.6817033973007,1.2916689716917,1.4468870405922,-0.19473198458254,0.7908211789939,-4.4074477235374,-2.1611128174238,-3.6980096220774,5.1591434695811,-2.5829545566035,3.255900021326,-0.47063358238675,-1.5281557001091,-6.9023545067323,0.68045288434798,-2.2147040329492,-3.5167787404708,0.97231357902826,4.0878009964221,-4.2944609601547,154.08878555322,154.08878555322,154.08878555322,154.08878555322,154.08878555322,154.08878555322,154.08878555322,154.08878555322,154.08878555322,154.08878555322,154.08878555322,154.08878555322,154.08878555322,154.08878555322,154.08878555322,154.08878555322,154.08878555322,154.08878555322,154.08878555322,154.08878555322,154.08878555322,154.08878555322,154.08878555322,154.08878555322,154.08878555322,154.08878555322,154.08878555322,154.08878555322,154.08878555322,154.08878555322,154.08878555322,154.08878555322,154.08878555322,154.08878555322,154.08878555322,154.08878555322,154.08878555322,154.08878555322,154.08878555322,154.08878555322,154.08878555322,154.08878555322,154.08878555322,154.08878555322,154.08878555322,154.08878555322,154.08878555322,154.08878555322,230.35784433995,293.62978146018,-0.099047992892009,264.7476884635,-0.1043079533972,0
8.90625e-05,182854760.27737,8.0774968030685e-06,2.6408219985988e-05,1.103362951094e-05,1.0076430197921,0,0,0,0,0,0,0,0,0,0,0,0,0,0,0,0,0,0,0,0,0,0,0,0,0,0,0,0,0,0,0,0,0,0,0,0,0,0,0,0,0,0,0,0,0,0,0,0,-0.93944697645478,-0.45871351324667,-1.5261241901188,5.6531647055179,2.9883535514237,1.3992480513186,-3.5159621836816,1.6105443224023,2.7457437840209,-0.41824752184593,1.4582000739273,-5.2926051490903,1.3790148550086,-1.7732698496793,1.3363360056175,-4.065111319834,2.2808146768068,4.9881615018306,-1.0200727971769,-5.1071270921573,1.3151069628437,1.6674112719227,0.18970478149071,-4.4345027020406,2.7140496525528,-1.758629900055,0.88220193805946,1.2934194562191,-1.6832390014766,1.2916434137514,1.4470917446364,-0.19595693859798,0.79112287204137,-4.4066120576269,-2.1598711240414,-3.6968967923682,5.1589543949144,-2.5863399813166,3.2542237597976,-0.47097055591141,-1.5265357012346,-6.9038369791795,0.68137876282605,-2.213196919484,-3.5153539528753,0.97361488952976,4.0843065494915,-4.291486788217,154.32984197535,154.32984197535,154.32984197535,154.32984197535,154.32984197535,154.32984197535,154.32984197535,154.32984197535,154.32984197535,154.32984197535,154.32984197535,154.32984197535,154.32984197535,154.32984197535,154.32984197535,154.32984197535,154.32984197535,154.32984197535,154.32984197535,154.32984197535,154.32984197535,154.32984197535,154.32984197535,154.32984197535,154.32984197535,154.32984197535,154.32984197535,154.32984197535,154.32984197535,154.32984197535,154.32984197535,154.32984197535,154.32984197535,154.32984197535,154.32984197535,154.32984197535,154.32984197535,154.32984197535,154.32984197535,154.32984197535,154.32984197535,154.32984197535,154.32984197535,154.32984197535,154.32984197535,154.32984197535,154.32984197535,154.32984197535,230.37556168264,294.17288037172,-0.10016203314853,265.19514246618,-0.10544303350583,0
8.96875e-05,184448120.20848,8.1337790579578e-06,2.6593238987099e-05,1.1113760187394e-05,1.0077033568931,0,0,0,0,0,0,0,0,0,0,0,0,0,0,0,0,0,0,0,0,0,0,0,0,0,0,0,0,0,0,0,0,0,0,0,0,0,0,0,0,0,0,0,0,0,0,0,0,-0.93985799125389,-0.45904829704189,-1.5180491212308,5.6491662009698,2.9900973429944,1.3974359521794,-3.514589653493,1.6112008966453,2.7459936071312,-0.41869464028454,1.4609397040444,-5.2928392804858,1.3791710056869,-1.7724563788524,1.3383514796762,-4.0692524526084,2.2789606073539,4.9873614257495,-1.0194088046661,-5.1018295115854,1.3192764852562,1.6665192916568,0.18866305635268,-4.430287664976,2.7168243054615,-1.7594189179205,0.88511647873479,1.2923064940251,-1.6847582800813,1.2916073058398,1.4473013895844,-0.19717179381543,0.79141694006308,-4.4057711305654,-2.1586260548657,-3.6957877330081,5.1587971339533,-2.589683298966,3.2525869456932,-0.47128915924891,-1.5249487071037,-6.905307225224,0.68231506723272,-2.2117584342074,-3.5139710502055,0.97494599944594,4.0808343171191,-4.2885324198322,154.57090797218,154.57090797218,154.57090797218,154.57090797218,154.57090797218,154.57090797218,154.57090797218,154.57090797218,154.57090797218,154.57090797218,154.57090797218,154.57090797218,154.57090797218,154.57090797218,154.57090797218,154.57090797218,154.57090797218,154.57090797218,154.57090797218,154.57090797218,154.57090797218,154.57090797218,154.57090797218,154.57090797218,154.57090797218,154.57090797218,154.57090797218,154.57090797218,154.57090797218,154.57090797218,154.57090797218,154.57090797218,154.57090797218,154.57090797218,154.57090797218,154.57090797218,154.57090797218,154.57090797218,154.57090797218,154.57090797218,154.57090797218,154.57090797218,154.57090797218,154.57090797218,154.57090797218,154.57090797218,154.57090797218,154.57090797218,230.3928656897,294.71542936768,-0.10128069121957,265.64241117899,-0.10658269453834,0
9.03125e-05,186046655.15914,8.1900301682498e-06,2.6778256968001e-05,1.1193873171204e-05,1.0077636929847,0,0,0,0,0,0,0,0,0,0,0,0,0,0,0,0,0,0,0,0,0,0,0,0,0,0,0,0,0,0,0,0,0,0,0,0,0,0,0,0,0,0,0,0,0,0,0,0,-0.94025661363601,-0.45934162288502,-1.5100197510837,5.6452124060747,2.9917994909965,1.3956446958213,-3.5132219441207,1.6118436778566,2.7462450244255,-0.41914083601287,1.4636616107236,-5.2930876665001,1.3793379124282,-1.7716277129276,1.3403505083972,-4.0733497431458,2.2771347034077,4.9865368069617,-1.0187538468647,-5.0966007098776,1.3234042567307,1.6656548488956,0.1876320027899,-4.4261214980012,2.7195821135968,-1.7602493514109,0.88799573616663,1.2911938807474,-1.6862615242289,1.2915622094708,1.4475157911973,-0.19837772820513,0.79170414872475,-4.4049256103044,-2.157377686081,-3.6946819276359,5.158671151371,-2.5929850372341,3.2509884791126,-0.47159012211605,-1.5233933004001,-6.9067648712522,0.68326201317212,-2.210385769159,-3.5126280831308,0.97630474495148,4.0773839257816,-4.2855985456204,154.81198311162,154.81198311162,154.81198311162,154.81198311162,154.81198311162,154.81198311162,154.81198311162,154.81198311162,154.81198311162,154.81198311162,154.81198311162,154.81198311162,154.81198311162,154.81198311162,154.81198311162,154.81198311162,154.81198311162,154.81198311162,154.81198311162,154.81198311162,154.81198311162,154.81198311162,154.81198311162,154.81198311162,154.81198311162,154.81198311162,154.81198311162,154.81198311162,154.81198311162,154.81198311162,154.81198311162,154.81198311162,154.81198311162,154.81198311162,154.81198311162,154.81198311162,154.81198311162,154.81198311162,154.81198311162,154.81198311162,154.81198311162,154.81198311162,154.81198311162,154.81198311162,154.81198311162,154.81198311162,154.81198311162,154.81198311162,230.40977429033,295.2574382595,-0.10240395798941,266.08949714347,-0.10772692835469,0
9.09375e-05,187650354.0554,8.2462504016768e-06,2.6963273934619e-05,1.1273968773108e-05,1.0078240280641,0,0,0,0,0,0,0,0,0,0,0,0,0,0,0,0,0,0,0,0,0,0,0,0,0,0,0,0,0,0,0,0,0,0,0,0,0,0,0,0,0,0,0,0,0,0,0,0,-0.94064330972902,-0.45959442611436,-1.502035645516,5.6413018124008,2.993460230828,1.3938743554768,-3.5118591892805,1.612473686561,2.7464978643275,-0.4195867490329,1.4663663244453,-5.2933500977604,1.3795155363278,-1.770784373246,1.3423340782683,-4.0774033317201,2.2753370952434,4.9856873931354,-1.0181076898337,-5.0914388687527,1.3274908218655,1.6648171258079,0.18661123929498,-4.4220027574985,2.7223229818789,-1.7611198542325,0.89084017878654,1.2900820935379,-1.687749055389,1.2915097068334,1.4477347677693,-0.19957586950645,0.79198520219581,-4.4040761955462,-2.1561261004528,-3.6935789210142,5.1585757702781,-2.5962456935016,3.2494273562578,-0.47187419625265,-1.5218679680693,-6.9082095213258,0.6842199101537,-2.209076292461,-3.5113229310885,0.97768907848885,4.0739550104057,-4.2826857320375,155.0530669791,155.0530669791,155.0530669791,155.0530669791,155.0530669791,155.0530669791,155.0530669791,155.0530669791,155.0530669791,155.0530669791,155.0530669791,155.0530669791,155.0530669791,155.0530669791,155.0530669791,155.0530669791,155.0530669791,155.0530669791,155.0530669791,155.0530669791,155.0530669791,155.0530669791,155.0530669791,155.0530669791,155.0530669791,155.0530669791,155.0530669791,155.0530669791,155.0530669791,155.0530669791,155.0530669791,155.0530669791,155.0530669791,155.0530669791,155.0530669791,155.0530669791,155.0530669791,155.0530669791,155.0530669791,155.0530669791,155.0530669791,155.0530669791,155.0530669791,155.0530669791,155.0530669791,155.0530669791,155.0530669791,155.0530669791,230.42630387779,295.79891640936,-0.10353182456018,266.53640275712,-0.10887572660077,0
9.15625e-05,189259205.91982,8.3024400238349e-06,2.714828989283e-05,1.1354047292028e-05,1.0078843621291,0,0,0,0,0,0,0,0,0,0,0,0,0,0,0,0,0,0,0,0,0,0,0,0,0,0,0,0,0,0,0,0,0,0,0,0,0,0,0,0,0,0,0,0,0,0,0,0,-0.94101856360792,-0.45980754002647,-1.4940963404596,5.6374330255221,2.9950795302779,1.3921249126266,-3.5105015579195,1.6130919398035,2.7467519543413,-0.4200330012179,1.4690543089025,-5.2936264098263,1.3797037619608,-1.7699268950779,1.3443031397798,-4.0814133534878,2.2735679775111,4.9848127479131,-1.0174701613376,-5.0863422703292,1.3315367769842,1.6640053411473,0.18560037112619,-4.4179299941573,2.725046764898,-1.7620291286205,0.89365010165077,1.2889715680775,-1.6892212261449,1.291451371456,1.4479581360947,-0.20076729285757,0.7922607501302,-4.4032236042066,-2.1548713962616,-3.6924783198121,5.1585101649734,-2.5994657572622,3.2479026622415,-0.47214215136307,-1.520371137077,-6.9096407679213,0.68518916345062,-2.2078275367097,-3.5100533188125,0.9790970595521,4.0705472125381,-4.2797944278952,155.29415917576,155.29415917576,155.29415917576,155.29415917576,155.29415917576,155.29415917576,155.29415917576,155.29415917576,155.29415917576,155.29415917576,155.29415917576,155.29415917576,155.29415917576,155.29415917576,155.29415917576,155.29415917576,155.29415917576,155.29415917576,155.29415917576,155.29415917576,155.29415917576,155.29415917576,155.29415917576,155.29415917576,155.29415917576,155.29415917576,155.29415917576,155.29415917576,155.29415917576,155.29415917576,155.29415917576,155.29415917576,155.29415917576,155.29415917576,155.29415917576,155.29415917576,155.29415917576,155.29415917576,155.29415917576,155.29415917576,155.29415917576,155.29415917576,155.29415917576,155.29415917576,155.29415917576,155.29415917576,155.29415917576,155.29415917576,230.44246922198,296.33987276594,-0.10466428200617,266.98313026932,-0.11002908062981,0
9.21875e-05,190873200.81243,8.3585992982753e-06,2.7333304848478e-05,1.1434109014776e-05,1.0079446951781,0,0,0,0,0,0,0,0,0,0,0,0,0,0,0,0,0,0,0,0,0,0,0,0,0,0,0,0,0,0,0,0,0,0,0,0,0,0,0,0,0,0,0,0,0,0,0,0,-0.94138288029392,-0.45998170371179,-1.4862013483133,5.6336047596012,2.9966571293352,1.3903962500578,-3.509149255263,1.613699426727,2.7470071335431,-0.42048019222812,1.4717259459569,-5.2939165229262,1.3799024083242,-1.7690558235132,1.3462585849231,-4.0853799270883,2.2718275984723,4.9839122729344,-1.0168411574204,-5.0813093010013,1.3355427507507,1.6632187528682,0.18459899662656,-4.4139017454052,2.7277532547868,-1.7629759623206,0.89642565137089,1.2878626943748,-1.69067841522,1.2913887439374,1.4481857243552,-0.2019530207874,0.79253138269969,-4.4023686007296,-2.1536136872059,-3.6913797841549,5.1584733635986,-2.6026456990411,3.2464135597026,-0.47239476995806,-1.5189012098897,-6.9110581837669,0.68617025893039,-2.2066371802879,-3.5088168349128,0.98052684120785,4.0671601812302,-4.2769249739823,155.53525931691,155.53525931691,155.53525931691,155.53525931691,155.53525931691,155.53525931691,155.53525931691,155.53525931691,155.53525931691,155.53525931691,155.53525931691,155.53525931691,155.53525931691,155.53525931691,155.53525931691,155.53525931691,155.53525931691,155.53525931691,155.53525931691,155.53525931691,155.53525931691,155.53525931691,155.53525931691,155.53525931691,155.53525931691,155.53525931691,155.53525931691,155.53525931691,155.53525931691,155.53525931691,155.53525931691,155.53525931691,155.53525931691,155.53525931691,155.53525931691,155.53525931691,155.53525931691,155.53525931691,155.53525931691,155.53525931691,155.53525931691,155.53525931691,155.53525931691,155.53525931691,155.53525931691,155.53525931691,155.53525931691,155.53525931691,230.45828351662,296.88031590159,-0.10580132105397,267.42968178543,-0.11118698128784,0
9.28125e-05,192492330.78197,8.4147284866005e-06,2.7518318807386e-05,1.1514154215636e-05,1.0080050272101,0,0,0,0,0,0,0,0,0,0,0,0,0,0,0,0,0,0,0,0,0,0,0,0,0,0,0,0,0,0,0,0,0,0,0,0,0,0,0,0,0,0,0,0,0,0,0,0,-0.94173677921478,-0.46011756703993,-1.4783501721214,5.6298158285649,2.9981926072625,1.3886881562638,-3.5078025303781,1.6142970799602,2.747263235685,-0.4209288934523,1.474381541007,-5.2942204347832,1.3801112422076,-1.76817171206,1.3482012292118,-4.0893031732256,2.2701162583424,4.9829852584157,-1.0162206383432,-5.0763384586159,1.3395093812167,1.6624566457461,0.18360671420924,-4.4099165386602,2.730442192747,-1.7639592347902,0.89916686155484,1.286755818323,-1.6921210284665,1.2913233009725,1.4484173566926,-0.20313402045941,0.79279763410729,-4.4015119873157,-2.1523531037372,-3.6902830289121,5.15846426218,-2.6057859806956,3.2449592850256,-0.47263283780626,-1.5174566012018,-6.9124613426114,0.68716376161904,-2.2055030333116,-3.5076109656336,0.98197666155078,4.0637935773587,-4.2740776137915,155.77636703049,155.77636703049,155.77636703049,155.77636703049,155.77636703049,155.77636703049,155.77636703049,155.77636703049,155.77636703049,155.77636703049,155.77636703049,155.77636703049,155.77636703049,155.77636703049,155.77636703049,155.77636703049,155.77636703049,155.77636703049,155.77636703049,155.77636703049,155.77636703049,155.77636703049,155.77636703049,155.77636703049,155.77636703049,155.77636703049,155.77636703049,155.77636703049,155.77636703049,155.77636703049,155.77636703049,155.77636703049,155.77636703049,155.77636703049,155.77636703049,155.77636703049,155.77636703049,155.77636703049,155.77636703049,155.77636703049,155.77636703049,155.77636703049,155.77636703049,155.77636703049,155.77636703049,155.77636703049,155.77636703049,155.77636703049,230.47375861104,297.42025403614,-0.10694293294419,267.87605926474,-0.11234941965764,0
9.34375e-05,194116590.74013,8.470827848015e-06,2.7703331775355e-05,1.1594183155538e-05,1.0080653582248,0,0,0,0,0,0,0,0,0,0,0,0,0,0,0,0,0,0,0,0,0,0,0,0,0,0,0,0,0,0,0,0,0,0,0,0,0,0,0,0,0,0,0,0,0,0,0,0,-0.9420807886716,-0.46021569786428,-1.4705423133061,5.6260651304725,2.9996854752146,1.3870003375105,-3.5064616664089,1.6148857508287,2.7475201007754,-0.42137964185131,1.4770213257304,-5.2945382176388,1.3803299915084,-1.767275114205,1.350131794768,-4.0931832012721,2.2684342959645,4.9820309613709,-1.0156086183316,-5.0714283417148,1.3434372946205,1.6617183370126,0.18262312982735,-4.4059728863602,2.7331132741365,-1.7649779217931,0.90187370563818,1.2856512481104,-1.6935494888294,1.2912564309023,1.4486528608172,-0.20431120038044,0.79305998528338,-4.4006546004668,-2.1510897908656,-3.6891878100969,5.1584816325175,-2.6088870525971,3.2435391360606,-0.47285713296987,-1.5160357712956,-6.9138498004965,0.68817030006343,-2.2044230151626,-3.5064331193615,0.98344483158585,4.06044708771,-4.2712525041975,156.01748195593,156.01748195593,156.01748195593,156.01748195593,156.01748195593,156.01748195593,156.01748195593,156.01748195593,156.01748195593,156.01748195593,156.01748195593,156.01748195593,156.01748195593,156.01748195593,156.01748195593,156.01748195593,156.01748195593,156.01748195593,156.01748195593,156.01748195593,156.01748195593,156.01748195593,156.01748195593,156.01748195593,156.01748195593,156.01748195593,156.01748195593,156.01748195593,156.01748195593,156.01748195593,156.01748195593,156.01748195593,156.01748195593,156.01748195593,156.01748195593,156.01748195593,156.01748195593,156.01748195593,156.01748195593,156.01748195593,156.01748195593,156.01748195593,156.01748195593,156.01748195593,156.01748195593,156.01748195593,156.01748195593,156.01748195593,230.48890520025,297.95969505633,-0.10808910865461,268.32226452565,-0.11351638649921,0
9.40625e-05,195745979.17697,8.5268976395862e-06,2.7888343758177e-05,1.1674196082522e-05,1.0081256882224,0,0,0,0,0,0,0,0,0,0,0,0,0,0,0,0,0,0,0,0,0,0,0,0,0,0,0,0,0,0,0,0,0,0,0,0,0,0,0,0,0,0,0,0,0,0,0,0,-0.94241543818953,-0.4602765923891,-1.462777285934,5.6223516309246,3.0011352675197,1.3853324356871,-3.5051269899712,1.6154661824517,2.7477775704017,-0.42183293339004,1.4796454651216,-5.2948700385101,1.3805583558464,-1.7663665705746,1.3520509026747,-4.097020141405,2.2667820779794,4.9810486837246,-1.0150051499482,-5.0665776583261,1.3473270819014,1.6610031687659,0.1816478628971,-4.4020692941849,2.7357661627284,-1.766031121739,0.90454614498208,1.2845492626081,-1.6949642360862,1.2911894054241,1.4488920653361,-0.20548540620914,0.79331886657924,-4.3997973178409,-2.1498239073534,-3.6880939145167,5.1585241460572,-2.6119493686214,3.2421524635604,-0.47306840860455,-1.5146372532715,-6.9152231310985,0.68919055079275,-2.2033951370414,-3.5052806685437,0.98492972587642,4.05712043221,-4.268449729842,156.25860374313,156.25860374313,156.25860374313,156.25860374313,156.25860374313,156.25860374313,156.25860374313,156.25860374313,156.25860374313,156.25860374313,156.25860374313,156.25860374313,156.25860374313,156.25860374313,156.25860374313,156.25860374313,156.25860374313,156.25860374313,156.25860374313,156.25860374313,156.25860374313,156.25860374313,156.25860374313,156.25860374313,156.25860374313,156.25860374313,156.25860374313,156.25860374313,156.25860374313,156.25860374313,156.25860374313,156.25860374313,156.25860374313,156.25860374313,156.25860374313,156.25860374313,156.25860374313,156.25860374313,156.25860374313,156.25860374313,156.25860374313,156.25860374313,156.25860374313,156.25860374313,156.25860374313,156.25860374313,156.25860374313,156.25860374313,230.50373305969,298.49864654026,-0.10923983921723,268.7682992662,-0.1146878724849,0
9.46875e-05,197380498.66007,8.582938115806e-06,2.8073354761639e-05,1.1754193231256e-05,1.0081860172034,0,0,0,0,0,0,0,0,0,0,0,0,0,0,0,0,0,0,0,0,0,0,0,0,0,0,0,0,0,0,0,0,0,0,0,0,0,0,0,0,0,0,0,0,0,0,0,0,-0.94274124611745,-0.46030068529417,-1.4550546258844,5.6186743441957,3.0025416222931,1.3836840495432,-3.503798855944,1.6160389892733,2.7480354874154,-0.42228921581971,1.4822540650507,-5.2952161123252,1.3807960180195,-1.7654465962605,1.3539590692087,-4.100814130471,2.265159985439,4.9800378496654,-1.0144103052144,-5.06178520423,1.3511792799081,1.6603105056164,0.18068055343202,-4.3982042641931,2.7384005011195,-1.7671180259055,0.90718417036814,1.2834501212832,-1.6963657179409,1.2911233571831,1.4491347979112,-0.20665741481072,0.79357466169906,-4.3989410226353,-2.1485556230305,-3.6870011459592,5.1585903964473,-2.6149733816772,3.2407986606881,-0.47326737609179,-1.5132596750171,-6.9165809104309,0.69022522196448,-2.2024174842114,-3.5041509890795,0.98642977477866,4.0538133801421,-4.2656693135574,156.49973205199,156.49973205199,156.49973205199,156.49973205199,156.49973205199,156.49973205199,156.49973205199,156.49973205199,156.49973205199,156.49973205199,156.49973205199,156.49973205199,156.49973205199,156.49973205199,156.49973205199,156.49973205199,156.49973205199,156.49973205199,156.49973205199,156.49973205199,156.49973205199,156.49973205199,156.49973205199,156.49973205199,156.49973205199,156.49973205199,156.49973205199,156.49973205199,156.49973205199,156.49973205199,156.49973205199,156.49973205199,156.49973205199,156.49973205199,156.49973205199,156.49973205199,156.49973205199,156.49973205199,156.49973205199,156.49973205199,156.49973205199,156.49973205199,156.49973205199,156.49973205199,156.49973205199,156.49973205199,156.49973205199,156.49973205199,230.51825150248,299.0371157591,-0.11039511594974,269.21416506748,-0.11586386844175,0
9.53125e-05,199020156.09243,8.6389495284049e-06,2.8258364791523e-05,1.1834174823638e-05,1.0082463451691,0,0,0,0,0,0,0,0,0,0,0,0,0,0,0,0,0,0,0,0,0,0,0,0,0,0,0,0,0,0,0,0,0,0,0,0,0,0,0,0,0,0,0,0,0,0,0,0,-0.94305871126843,-0.46028835988554,-1.4473738957648,5.6150323151484,3.003904339284,1.3820547544452,-3.5024776437925,1.6166046399125,2.7482936974628,-0.42274888201747,1.4848471812181,-5.2955767331847,1.3810426511156,-1.764515667024,1.3558567102418,-4.1045653256673,2.263568402023,4.9789980610272,-1.0138241598894,-5.0570498548076,1.3549943570377,1.659639733061,0.17972086752951,-4.3943763051259,2.7410159230669,-1.7682379418094,0.90978783240396,1.2823540728989,-1.6977543858012,1.2910592583207,1.4493808859677,-0.20782792842412,0.79382771086214,-4.3980866229773,-2.1472851154635,-3.6859093120466,5.1586789267134,-2.617959550325,3.2394771545222,-0.47345468639708,-1.5119017708912,-6.9179227329509,0.69127503703718,-2.2014881990125,-3.5030415044706,0.98794345836836,4.0505257583554,-4.2629112296391,156.74086655196,156.74086655196,156.74086655196,156.74086655196,156.74086655196,156.74086655196,156.74086655196,156.74086655196,156.74086655196,156.74086655196,156.74086655196,156.74086655196,156.74086655196,156.74086655196,156.74086655196,156.74086655196,156.74086655196,156.74086655196,156.74086655196,156.74086655196,156.74086655196,156.74086655196,156.74086655196,156.74086655196,156.74086655196,156.74086655196,156.74086655196,156.74086655196,156.74086655196,156.74086655196,156.74086655196,156.74086655196,156.74086655196,156.74086655196,156.74086655196,156.74086655196,156.74086655196,156.74086655196,156.74086655196,156.74086655196,156.74086655196,156.74086655196,156.74086655196,156.74086655196,156.74086655196,156.74086655196,156.74086655196,156.74086655196,230.53246941597,299.57510969353,-0.11155492976287,269.6598634197,-0.11704436468235,0
9.59375e-05,200664962.74,8.6949321264857e-06,2.8443373853613e-05,1.1914141069434e-05,1.0083066721207,0,0,0,0,0,0,0,0,0,0,0,0,0,0,0,0,0,0,0,0,0,0,0,0,0,0,0,0,0,0,0,0,0,0,0,0,0,0,0,0,0,0,0,0,0,0,0,0,-0.94336829899991,-0.46023996264404,-1.4397346989377,5.6114246073592,3.005223411205,1.3804441239716,-3.5011637514684,1.6171634452652,2.7485520487804,-0.42321226408198,1.4874248301783,-5.2959522302804,1.3812979239057,-1.7635742005677,1.3577441509376,-4.1082739093665,2.2620076932921,4.9779291333434,-1.0132467745116,-5.0523705539939,1.3587727001472,1.658990257563,0.17876850205053,-4.3905839403262,2.7436120707296,-1.7693902655172,0.91235725552165,1.2812613642175,-1.699130691174,1.2909979025927,1.4496301537665,-0.20899756855274,0.79407831409624,-4.397235014645,-2.1460125738894,-3.6848182035984,5.1587882681307,-2.6209083467168,3.2381873906172,-0.47363090966009,-1.5105623893479,-6.9192482147052,0.69234071120175,-2.2006054644029,-3.5019497423696,0.98946930116805,4.0472574599992,-4.2601754108703,156.98200692187,156.98200692187,156.98200692187,156.98200692187,156.98200692187,156.98200692187,156.98200692187,156.98200692187,156.98200692187,156.98200692187,156.98200692187,156.98200692187,156.98200692187,156.98200692187,156.98200692187,156.98200692187,156.98200692187,156.98200692187,156.98200692187,156.98200692187,156.98200692187,156.98200692187,156.98200692187,156.98200692187,156.98200692187,156.98200692187,156.98200692187,156.98200692187,156.98200692187,156.98200692187,156.98200692187,156.98200692187,156.98200692187,156.98200692187,156.98200692187,156.98200692187,156.98200692187,156.98200692187,156.98200692187,156.98200692187,156.98200692187,156.98200692187,156.98200692187,156.98200692187,156.98200692187,156.98200692187,156.98200692187,156.98200692187,230.54639552949,300.11263504413,-0.11271927232605,270.10539574018,-0.11822935240692,0
9.65625e-05,202314934.05499,8.750886155981e-06,2.8628381953692e-05,1.199409216642e-05,1.0083669980596,0,0,0,0,0,0,0,0,0,0,0,0,0,0,0,0,0,0,0,0,0,0,0,0,0,0,0,0,0,0,0,0,0,0,0,0,0,0,0,0,0,0,0,0,0,0,0,0,-0.94367042984113,-0.46015581394836,-1.4321366709385,5.6078503037531,3.0064990296307,1.3788517388795,-3.4998575886415,1.6177155511597,2.7488103946322,-0.42367962864116,1.4899869927801,-5.2963429398986,1.3815615025574,-1.7626225406405,1.3596216402852,-4.1119400927579,2.2604781963613,4.9768311064379,-1.0126781887545,-5.0477463033596,1.3625146086912,1.6583615070653,0.17782318747879,-4.3868257194387,2.7461885912836,-1.7705744490656,0.91489264073077,1.2801722411613,-1.7004950826711,1.2909398892979,1.4498824231878,-0.21016687039815,0.7943267327866,-4.3963870631493,-2.1447381928838,-3.6837275779401,5.1589169709995,-2.6238202562511,3.2369288271399,-0.47379651671888,-1.5092404891455,-6.920556999609,0.6934229363592,-2.1997674905434,-3.5008733844666,0.99100587154601,4.0440084454127,-4.2574617593553,157.22315284977,157.22315284977,157.22315284977,157.22315284977,157.22315284977,157.22315284977,157.22315284977,157.22315284977,157.22315284977,157.22315284977,157.22315284977,157.22315284977,157.22315284977,157.22315284977,157.22315284977,157.22315284977,157.22315284977,157.22315284977,157.22315284977,157.22315284977,157.22315284977,157.22315284977,157.22315284977,157.22315284977,157.22315284977,157.22315284977,157.22315284977,157.22315284977,157.22315284977,157.22315284977,157.22315284977,157.22315284977,157.22315284977,157.22315284977,157.22315284977,157.22315284977,157.22315284977,157.22315284977,157.22315284977,157.22315284977,157.22315284977,157.22315284977,157.22315284977,157.22315284977,157.22315284977,157.22315284977,157.22315284977,157.22315284977,230.56003845538,300.64969823786,-0.11388813481414,270.55076338885,-0.11941882177666,0
9.71875e-05,203970089.34874,8.8068118596485e-06,2.8813389097545e-05,1.2074028301709e-05,1.0084273229875,0,0,0,0,0,0,0,0,0,0,0,0,0,0,0,0,0,0,0,0,0,0,0,0,0,0,0,0,0,0,0,0,0,0,0,0,0,0,0,0,0,0,0,0,0,0,0,0,-0.94396546686238,-0.46003621862382,-1.4245795048459,5.6043084963941,3.0077315741644,1.3772772070112,-3.4985595725522,1.6182609389748,2.7490685915734,-0.42415117341029,1.4925336344353,-5.2967491960223,1.3818330504601,-1.7616609398821,1.3614893682198,-4.1155641225709,2.2589801929527,4.975704242971,-1.0121184051027,-5.0431761539827,1.3662202925737,1.6577529304138,0.17688469030065,-4.3831002283502,2.7487451772904,-1.7717900069499,0.91739425685145,1.2790869556184,-1.70184800484,1.2908856122338,1.4501375109411,-0.21133627804565,0.79457319279402,-4.3955435818565,-2.1434621868282,-3.6826371387179,5.1590636428413,-2.626695791443,3.2357009145318,-0.47395186184901,-1.5079351334752,-6.9218487639268,0.69452235532635,-2.1989725010114,-3.4998103243252,0.99255177852937,4.0407787457936,-4.2547701506742,157.46430403268,157.46430403268,157.46430403268,157.46430403268,157.46430403268,157.46430403268,157.46430403268,157.46430403268,157.46430403268,157.46430403268,157.46430403268,157.46430403268,157.46430403268,157.46430403268,157.46430403268,157.46430403268,157.46430403268,157.46430403268,157.46430403268,157.46430403268,157.46430403268,157.46430403268,157.46430403268,157.46430403268,157.46430403268,157.46430403268,157.46430403268,157.46430403268,157.46430403268,157.46430403268,157.46430403268,157.46430403268,157.46430403268,157.46430403268,157.46430403268,157.46430403268,157.46430403268,157.46430403268,157.46430403268,157.46430403268,157.46430403268,157.46430403268,157.46430403268,157.46430403268,157.46430403268,157.46430403268,157.46430403268,157.46430403268,230.57340651025,301.18630545584,-0.11506150770185,270.99596770025,-0.12061276247377,0
9.78125e-05,205630451.35837,8.8627094768492e-06,2.8998395290952e-05,1.2153949652794e-05,1.0084876469058,0,0,0,0,0,0,0,0,0,0,0,0,0,0,0,0,0,0,0,0,0,0,0,0,0,0,0,0,0,0,0,0,0,0,0,0,0,0,0,0,0,0,0,0,0,0,0,0,-0.94425371160304,-0.45988148566486,-1.4170629253739,5.6007983056569,3.0089215881987,1.375720151611,-3.4972701238638,1.618799427987,2.7493265025017,-0.42462702537365,1.4950646987828,-5.2971712954344,1.3821122244106,-1.7606895445203,1.3633474815577,-4.1191462806615,2.2575138987903,4.9745490079777,-1.0115673983359,-5.0386592001695,1.3698898743412,1.6571640012729,0.17595281188078,-4.3794061013478,2.7512815395029,-1.7730364576039,0.91986243031464,1.2780057527758,-1.7031898992015,1.2908352486886,1.4503952269898,-0.2125061397085,0.79481788311436,-4.3947053250339,-2.1421847774541,-3.6815465144881,5.1592269806978,-2.6295354876503,3.2345030908734,-0.47409717099467,-1.5066454795507,-6.9231232183084,0.69563954310612,-2.1982187235486,-3.4987587236562,0.9941056748578,4.0375684537099,-4.252100438716,157.70546017627,157.70546017627,157.70546017627,157.70546017627,157.70546017627,157.70546017627,157.70546017627,157.70546017627,157.70546017627,157.70546017627,157.70546017627,157.70546017627,157.70546017627,157.70546017627,157.70546017627,157.70546017627,157.70546017627,157.70546017627,157.70546017627,157.70546017627,157.70546017627,157.70546017627,157.70546017627,157.70546017627,157.70546017627,157.70546017627,157.70546017627,157.70546017627,157.70546017627,157.70546017627,157.70546017627,157.70546017627,157.70546017627,157.70546017627,157.70546017627,157.70546017627,157.70546017627,157.70546017627,157.70546017627,157.70546017627,157.70546017627,157.70546017627,157.70546017627,157.70546017627,157.70546017627,157.70546017627,157.70546017627,157.70546017627,230.58650777374,301.72246264088,-0.11623938294311,271.44100998648,-0.12181116539486,0
9.84375e-05,207296045.75184,8.9185792439403e-06,2.9183400539678e-05,1.2233856388682e-05,1.0085479698158,0,0,0,0,0,0,0,0,0,0,0,0,0,0,0,0,0,0,0,0,0,0,0,0,0,0,0,0,0,0,0,0,0,0,0,0,0,0,0,0,0,0,0,0,0,0,0,0,-0.94453539533707,-0.45969193511995,-1.4095867233356,5.5973188797056,3.0100697558377,1.3741802334378,-3.4959896651009,1.6193306889729,2.7495839964109,-0.42510724165842,1.4975801282427,-5.2976094900614,1.3823986703427,-1.7597083809213,1.3651961090984,-4.1226868892428,2.2560794313442,4.9733660561407,-1.0110250978359,-5.0341945763619,1.3735233946341,1.6565942180876,0.17502738777618,-4.3757420278296,2.7537974522177,-1.7743133342167,0.92229752823275,1.2769288788126,-1.7045212040329,1.2907887593772,1.4506553739543,-0.21367670741492,0.7950609575435,-4.393872961406,-2.1409062183752,-3.6804552381392,5.1594058119666,-2.6323399195267,3.2333347554645,-0.47423253330139,-1.5053707621774,-6.9243801086309,0.69677498105404,-2.197504375481,-3.4977170651304,0.99566625390239,4.0343777249551,-4.2494524567661,157.94662099423,157.94662099423,157.94662099423,157.94662099423,157.94662099423,157.94662099423,157.94662099423,157.94662099423,157.94662099423,157.94662099423,157.94662099423,157.94662099423,157.94662099423,157.94662099423,157.94662099423,157.94662099423,157.94662099423,157.94662099423,157.94662099423,157.94662099423,157.94662099423,157.94662099423,157.94662099423,157.94662099423,157.94662099423,157.94662099423,157.94662099423,157.94662099423,157.94662099423,157.94662099423,157.94662099423,157.94662099423,157.94662099423,157.94662099423,157.94662099423,157.94662099423,157.94662099423,157.94662099423,157.94662099423,157.94662099423,157.94662099423,157.94662099423,157.94662099423,157.94662099423,157.94662099423,157.94662099423,157.94662099423,157.94662099423,230.59934968143,302.25817554254,-0.11742175149431,271.88589157944,-0.12301402048288,0
9.90625e-05,208966900.60395,8.9744213938806e-06,2.9368404849477e-05,1.2313748671129e-05,1.0086082917186,0,0,0,0,0,0,0,0,0,0,0,0,0,0,0,0,0,0,0,0,0,0,0,0,0,0,0,0,0,0,0,0,0,0,0,0,0,0,0,0,0,0,0,0,0,0,0,0,-0.94481067652672,-0.45946791107697,-1.4021507307951,5.5938694216421,3.0111768771779,1.3726571323181,-3.4947186168065,1.6198542569016,2.7498409499587,-0.42559181091708,1.50007985954,-5.298063923922,1.3826920167895,-1.7587173463059,1.3670353739023,-4.1261863100583,2.25467679992,4.9721562084011,-1.0104914010829,-5.0297814531,1.3771208226298,1.6560431073414,0.17410828398024,-4.3721067646099,2.7562927326469,-1.7756201083632,0.92469994961322,1.2758565634923,-1.7058423560202,1.2907458860053,1.4509177451153,-0.21484813444799,0.79530253226728,-4.3930470430245,-2.1396267852954,-3.6793627276831,5.1595991166137,-2.6351096983031,3.2321952640811,-0.47435790069234,-1.5041102810652,-6.9256192176899,0.69792904289719,-2.1968276580763,-3.4966841971187,0.99723225455083,4.031206767178,-4.2468260187107,158.18778620768,158.18778620768,158.18778620768,158.18778620768,158.18778620768,158.18778620768,158.18778620768,158.18778620768,158.18778620768,158.18778620768,158.18778620768,158.18778620768,158.18778620768,158.18778620768,158.18778620768,158.18778620768,158.18778620768,158.18778620768,158.18778620768,158.18778620768,158.18778620768,158.18778620768,158.18778620768,158.18778620768,158.18778620768,158.18778620768,158.18778620768,158.18778620768,158.18778620768,158.18778620768,158.18778620768,158.18778620768,158.18778620768,158.18778620768,158.18778620768,158.18778620768,158.18778620768,158.18778620768,158.18778620768,158.18778620768,158.18778620768,158.18778620768,158.18778620768,158.18778620768,158.18778620768,158.18778620768,158.18778620768,158.18778620768,230.61193914431,302.79344972798,-0.11860860451678,272.33061382747,-0.12422131777644,0
9.96875e-05,210643045.86291,9.0302361565449e-06,2.9553408226074e-05,1.2393626655943e-05,1.0086686126151,0,0,0,0,0,0,0,0,0,0,0,0,0,0,0,0,0,0,0,0,0,0,0,0,0,0,0,0,0,0,0,0,0,0,0,0,0,0,0,0,0,0,0,0,0,0,0,0,-0.94507964427981,-0.45920979252217,-1.3947548361661,5.5904491929801,3.0122438510572,1.3711505502134,-3.4934573960782,1.6203695523001,2.7500972478622,-0.42608065701144,1.5025638325899,-5.298534651664,1.3829918675674,-1.7577162069122,1.3688654144209,-4.1296449459018,2.253305884695,4.9709204375611,-1.0099661696866,-5.0254190358023,1.3806820681267,1.6555102232631,0.17319539275532,-4.3684991430899,2.7587672598474,-1.7769562134607,0.92707011664333,1.2747890158528,-1.7071537915193,1.2907061594894,1.4511821239645,-0.21602047649135,0.79554268494514,-4.3922280070312,-2.1383467886251,-3.6782682745683,5.1598060563318,-2.6378454810436,3.2310839144678,-0.4744730954838,-1.5028633817886,-6.926840364305,0.69910197360507,-2.1961867507802,-3.4956593701663,0.99880246295929,4.0280558337022,-4.2442209190719,158.42895554411,158.42895554411,158.42895554411,158.42895554411,158.42895554411,158.42895554411,158.42895554411,158.42895554411,158.42895554411,158.42895554411,158.42895554411,158.42895554411,158.42895554411,158.42895554411,158.42895554411,158.42895554411,158.42895554411,158.42895554411,158.42895554411,158.42895554411,158.42895554411,158.42895554411,158.42895554411,158.42895554411,158.42895554411,158.42895554411,158.42895554411,158.42895554411,158.42895554411,158.42895554411,158.42895554411,158.42895554411,158.42895554411,158.42895554411,158.42895554411,158.42895554411,158.42895554411,158.42895554411,158.42895554411,158.42895554411,158.42895554411,158.42895554411,158.42895554411,158.42895554411,158.42895554411,158.42895554411,158.42895554411,158.42895554411,230.62428206146,303.3282906282,-0.11979993336877,272.77517812745,-0.12543304750249,0
0.0001003125,212324512.82446,9.0860237590135e-06,2.9738410675155e-05,1.24734904944e-05,1.0087289325058,0,0,0,0,0,0,0,0,0,0,0,0,0,0,0,0,0,0,0,0,0,0,0,0,0,0,0,0,0,0,0,0,0,0,0,0,0,0,0,0,0,0,0,0,0,0,0,0,-0.94534232187556,-0.458918000233,-1.3873989793369,5.5870575416722,3.0132716606948,1.3696602062545,-3.4922064148401,1.6208759044843,2.7503527849459,-0.42657364383557,1.5050319922706,-5.2990215598535,1.3832977982916,-1.7567046023711,1.3706863891937,-4.1330632384473,2.2519664203616,4.9696598568994,-1.0094492309965,-5.0211065641725,1.3842069956075,1.6549951512291,0.17228862764456,-4.364918076041,2.7612209736721,-1.7783209617346,0.92940846739807,1.2737264161379,-1.708455947448,1.2906689143693,1.451448283306,-0.21719369360809,0.79578145324934,-4.3914161307341,-2.1370665761287,-3.6771710359191,5.1600259769689,-2.6405479714388,3.2299999318093,-0.47457782638064,-1.501629447649,-6.9280434008199,0.70029387748226,-2.1955798072655,-3.4946422452961,1.0003757131447,4.0249252170968,-4.2416369290274,158.6701287364,158.6701287364,158.6701287364,158.6701287364,158.6701287364,158.6701287364,158.6701287364,158.6701287364,158.6701287364,158.6701287364,158.6701287364,158.6701287364,158.6701287364,158.6701287364,158.6701287364,158.6701287364,158.6701287364,158.6701287364,158.6701287364,158.6701287364,158.6701287364,158.6701287364,158.6701287364,158.6701287364,158.6701287364,158.6701287364,158.6701287364,158.6701287364,158.6701287364,158.6701287364,158.6701287364,158.6701287364,158.6701287364,158.6701287364,158.6701287364,158.6701287364,158.6701287364,158.6701287364,158.6701287364,158.6701287364,158.6701287364,158.6701287364,158.6701287364,158.6701287364,158.6701287364,158.6701287364,158.6701287364,158.6701287364,230.63638343742,303.86270355849,-0.12099572896901,273.21958592676,-0.12664919961826,0
0.0001009375,214011333.73412,9.1417844256047e-06,2.9923412202362e-05,1.2553340334493e-05,1.0087892513909,0,0,0,0,0,0,0,0,0,0,0,0,0,0,0,0,0,0,0,0,0,0,0,0,0,0,0,0,0,0,0,0,0,0,0,0,0,0,0,0,0,0,0,0,0,0,0,0,-0.94559867759896,-0.45859300532235,-1.3800831428324,5.5836939084697,3.0142613703242,1.3681858277166,-3.4909660754819,1.621372577886,2.7506074660349,-0.4270705816554,1.5074842880436,-5.2995243916526,1.3836093486535,-1.7556820598961,1.372498493771,-4.1364416653319,2.2506579907994,4.9683757116923,-1.0089403839141,-5.0168433087767,1.387695441137,1.6544975052666,0.1713879173391,-4.3613625648202,2.763653870271,-1.7797135632602,0.93171546021591,1.2726689059417,-1.7097492610599,1.2906333077346,1.4517159854706,-0.21836765395073,0.79601883305525,-4.3906115438158,-2.1357865300949,-3.6760700390497,5.1602584301482,-2.6432179172767,3.2289424702116,-0.47467171302315,-1.5004078823705,-6.9292282126827,0.70150470682375,-2.1950049593023,-3.4936329086655,1.0019508935269,4.0218152395463,-4.2390737969925,158.91130552162,158.91130552162,158.91130552162,158.91130552162,158.91130552162,158.91130552162,158.91130552162,158.91130552162,158.91130552162,158.91130552162,158.91130552162,158.91130552162,158.91130552162,158.91130552162,158.91130552162,158.91130552162,158.91130552162,158.91130552162,158.91130552162,158.91130552162,158.91130552162,158.91130552162,158.91130552162,158.91130552162,158.91130552162,158.91130552162,158.91130552162,158.91130552162,158.91130552162,158.91130552162,158.91130552162,158.91130552162,158.91130552162,158.91130552162,158.91130552162,158.91130552162,158.91130552162,158.91130552162,158.91130552162,158.91130552162,158.91130552162,158.91130552162,158.91130552162,158.91130552162,158.91130552162,158.91130552162,158.91130552162,158.91130552162,230.64824708557,304.39669375641,-0.12219598242244,273.66383874337,-0.1278697643578,0
0.0001015625,215703540.84142,9.1975183784179e-06,3.010841281328e-05,1.2633176322054e-05,1.0088495692701,0,0,0,0,0,0,0,0,0,0,0,0,0,0,0,0,0,0,0,0,0,0,0,0,0,0,0,0,0,0,0,0,0,0,0,0,0,0,0,0,0,0,0,0,0,0,0,0,-0.94584863903114,-0.45823533423306,-1.3728073595951,5.5803578388616,3.0152141183229,1.3667271545993,-3.4897367682669,1.6218588009066,2.7508612064811,-0.42757123395948,1.5099206798876,-5.3000427429965,1.3839260232308,-1.7546480179612,1.3743019587088,-4.1397807365028,2.2493800179306,4.9670693730751,-1.0084393943535,-5.0126285704739,1.3911472280588,1.6540169280449,0.17049320027092,-4.3578317036789,2.7660660129472,-1.7811331112181,0.93399156966847,1.2716165891357,-1.7110341686077,1.2905983485167,1.451984981752,-0.21954213859571,0.79625477938538,-4.389814232464,-2.1345070724355,-3.6749641967409,5.1605031540252,-2.6458561084586,3.227910600306,-0.47475431727998,-1.4991981050855,-6.930394715651,0.70273425514673,-2.1944603202009,-3.4926318375349,1.0035269447516,4.0187262471746,-4.2365312449689,159.15248563987,159.15248563987,159.15248563987,159.15248563987,159.15248563987,159.15248563987,159.15248563987,159.15248563987,159.15248563987,159.15248563987,159.15248563987,159.15248563987,159.15248563987,159.15248563987,159.15248563987,159.15248563987,159.15248563987,159.15248563987,159.15248563987,159.15248563987,159.15248563987,159.15248563987,159.15248563987,159.15248563987,159.15248563987,159.15248563987,159.15248563987,159.15248563987,159.15248563987,159.15248563987,159.15248563987,159.15248563987,159.15248563987,159.15248563987,159.15248563987,159.15248563987,159.15248563987,159.15248563987,159.15248563987,159.15248563987,159.15248563987,159.15248563987,159.15248563987,159.15248563987,159.15248563987,159.15248563987,159.15248563987,159.15248563987,230.65987576956,304.93026641362,-0.12340068507618,274.10793817913,-0.12909473223528,0
0.0001021875,217401166.47242,9.2532258375233e-06,3.0293412513432e-05,1.2712998602008e-05,1.008909886143,0,0,0,0,0,0,0,0,0,0,0,0,0,0,0,0,0,0,0,0,0,0,0,0,0,0,0,0,0,0,0,0,0,0,0,0,0,0,0,0,0,0,0,0,0,0,0,0,-0.94609210374855,-0.45784556760493,-1.3655717036503,5.577048990826,3.016131114761,1.3652839318219,-3.4885188674022,1.622333793542,2.7511139326127,-0.42807532502864,1.5123411364703,-5.3005760139328,1.384247291702,-1.7536018581792,1.3760970497602,-4.1430809848797,2.2481317669837,4.9657423295829,-1.0079460013646,-5.0084616778661,1.3945621828435,1.6535530882541,0.16960441879882,-4.3543246837629,2.7684575246575,-1.7825785466608,0.93623729071336,1.2705695265857,-1.7123111044605,1.2905629297522,1.4522550151203,-0.22071684743141,0.79648920676761,-4.3890240042446,-2.1332286525637,-3.6738523348853,5.1607600613085,-2.6484633616494,3.2269033169076,-0.4748251801002,-1.4979995454078,-6.9315428520007,0.70398215955271,-2.1939439996834,-3.4916398634466,1.0051028651697,4.0156586005273,-4.2340089673649,159.39366883329,159.39366883329,159.39366883329,159.39366883329,159.39366883329,159.39366883329,159.39366883329,159.39366883329,159.39366883329,159.39366883329,159.39366883329,159.39366883329,159.39366883329,159.39366883329,159.39366883329,159.39366883329,159.39366883329,159.39366883329,159.39366883329,159.39366883329,159.39366883329,159.39366883329,159.39366883329,159.39366883329,159.39366883329,159.39366883329,159.39366883329,159.39366883329,159.39366883329,159.39366883329,159.39366883329,159.39366883329,159.39366883329,159.39366883329,159.39366883329,159.39366883329,159.39366883329,159.39366883329,159.39366883329,159.39366883329,159.39366883329,159.39366883329,159.39366883329,159.39366883329,159.39366883329,159.39366883329,159.39366883329,159.39366883329,230.67127132249,305.46342669053,-0.12460982829545,274.55188591656,-0.13032409430075,0
0.0001028125,219104242.31191,9.3089070213666e-06,3.047841130827e-05,1.2792807319173e-05,1.0089702020085,0,0,0,0,0,0,0,0,0,0,0,0,0,0,0,0,0,0,0,0,0,0,0,0,0,0,0,0,0,0,0,0,0,0,0,0,0,0,0,0,0,0,0,0,0,0,0,0,-0.9463289559743,-0.4574243398336,-1.3583762725369,5.5737671345879,3.0170136367446,1.3638559055552,-3.4873127243172,1.6227967939161,2.7513655827278,-0.42858254829105,1.5147456319704,-5.301123438555,1.3845725922599,-1.7525429443808,1.3778840671265,-4.1463429560838,2.2469123590081,4.9643961747222,-1.0074599233662,-5.0043419825166,1.3979401509708,1.6531056778163,0.16872151336524,-4.350840796413,2.770828573379,-1.7840486768143,0.93845314134761,1.2695277367243,-1.7135804964031,1.2905258650591,1.4525258219883,-0.22189140678288,0.79672199145814,-4.3882405126735,-2.1319517297563,-3.6727332303472,5.1610292169765,-2.6510404973053,3.2259195477361,-0.47488386026829,-1.4968116379535,-6.9326725890574,0.70524791183479,-2.1934541168117,-3.490658114383,1.0066777123169,4.012612662632,-4.2315066324141,159.63485484509,159.63485484509,159.63485484509,159.63485484509,159.63485484509,159.63485484509,159.63485484509,159.63485484509,159.63485484509,159.63485484509,159.63485484509,159.63485484509,159.63485484509,159.63485484509,159.63485484509,159.63485484509,159.63485484509,159.63485484509,159.63485484509,159.63485484509,159.63485484509,159.63485484509,159.63485484509,159.63485484509,159.63485484509,159.63485484509,159.63485484509,159.63485484509,159.63485484509,159.63485484509,159.63485484509,159.63485484509,159.63485484509,159.63485484509,159.63485484509,159.63485484509,159.63485484509,159.63485484509,159.63485484509,159.63485484509,159.63485484509,159.63485484509,159.63485484509,159.63485484509,159.63485484509,159.63485484509,159.63485484509,159.63485484509,230.68243462134,305.99617973528,-0.12582340306565,274.99568372357,-0.13155784125993,0
0.0001034375,220812798.98932,9.364562146733e-06,3.066340920318e-05,1.2872602618875e-05,1.0090305168653,0,0,0,0,0,0,0,0,0,0,0,0,0,0,0,0,0,0,0,0,0,0,0,0,0,0,0,0,0,0,0,0,0,0,0,0,0,0,0,0,0,0,0,0,0,0,0,0,-0.94655908310572,-0.4569723384536,-1.3512211966076,5.5705121463248,3.0178630226363,1.3624428289533,-3.4861186623072,1.6232470849013,2.751616101483,-0.42909257458318,1.5171341534739,-5.3016841114326,1.3849013392125,-1.7514706659006,1.3796633340485,-4.1495671909703,2.2457207756103,4.963032594778,-1.0069808571897,-5.0002688557551,1.4012810117698,1.6526744026611,0.1678444182219,-4.3473794337627,2.7731793875311,-1.7855421934212,0.94063966290567,1.2684912035166,-1.714842760883,1.2904859298325,1.4527971330753,-0.22306537759876,0.79695297664749,-4.3874632812423,-2.1306767601539,-3.6716056582514,5.161310801027,-2.6535883116815,3.2249581573622,-0.47492997260934,-1.4956338260005,-6.9337839117658,0.70653086108947,-2.1929888203734,-3.4896879376242,1.0082506025978,4.0095887911959,-4.2290238821746,159.8760434187,159.8760434187,159.8760434187,159.8760434187,159.8760434187,159.8760434187,159.8760434187,159.8760434187,159.8760434187,159.8760434187,159.8760434187,159.8760434187,159.8760434187,159.8760434187,159.8760434187,159.8760434187,159.8760434187,159.8760434187,159.8760434187,159.8760434187,159.8760434187,159.8760434187,159.8760434187,159.8760434187,159.8760434187,159.8760434187,159.8760434187,159.8760434187,159.8760434187,159.8760434187,159.8760434187,159.8760434187,159.8760434187,159.8760434187,159.8760434187,159.8760434187,159.8760434187,159.8760434187,159.8760434187,159.8760434187,159.8760434187,159.8760434187,159.8760434187,159.8760434187,159.8760434187,159.8760434187,159.8760434187,159.8760434187,230.69336576901,306.52853070246,-0.12704140048122,275.43933345719,-0.13279596449354,0
0.0001040625,222526865.70838,9.42019142917e-06,3.0848406203478e-05,1.2952384647629e-05,1.0090908307119,0,0,0,0,0,0,0,0,0,0,0,0,0,0,0,0,0,0,0,0,0,0,0,0,0,0,0,0,0,0,0,0,0,0,0,0,0,0,0,0,0,0,0,0,0,0,0,0,-0.94678238562595,-0.45649029496578,-1.3441066200072,5.5672840009986,3.0186806610531,1.3610444585685,-3.4849369678188,1.623684012585,2.7518654404115,-0.42960506099999,1.5195066994622,-5.3022569711389,1.3852329325353,-1.7503844781346,1.3814351917684,-4.1527542068713,2.2445558840799,4.9616533449711,-1.0065084866702,-4.9962416825674,1.4045846896683,1.6522589784206,0.16697305615859,-4.3439400888515,2.7755102419369,-1.7870576657153,0.94279742213906,1.2674598805157,-1.7160982947709,1.2904418966473,1.4530686782039,-0.22423826521082,0.79718197832267,-4.3866916937809,-2.1294041584503,-3.6704684386905,5.1616050808772,-2.6561075330363,3.2240179646431,-0.47496322093759,-1.4944655627038,-6.9348768181899,0.70783023775077,-2.1925463067237,-3.4887308275932,1.0098207124269,4.0065873214139,-4.2265603358153,160.11723429724,160.11723429724,160.11723429724,160.11723429724,160.11723429724,160.11723429724,160.11723429724,160.11723429724,160.11723429724,160.11723429724,160.11723429724,160.11723429724,160.11723429724,160.11723429724,160.11723429724,160.11723429724,160.11723429724,160.11723429724,160.11723429724,160.11723429724,160.11723429724,160.11723429724,160.11723429724,160.11723429724,160.11723429724,160.11723429724,160.11723429724,160.11723429724,160.11723429724,160.11723429724,160.11723429724,160.11723429724,160.11723429724,160.11723429724,160.11723429724,160.11723429724,160.11723429724,160.11723429724,160.11723429724,160.11723429724,160.11723429724,160.11723429724,160.11723429724,160.11723429724,160.11723429724,160.11723429724,160.11723429724,160.11723429724,230.70406438748,307.06048474948,-0.12826381240087,275.88283704548,-0.13403845598803,0
0.0001046875,224246469.92833,9.4757950830049e-06,3.103340231442e-05,1.3032153553402e-05,1.0091511435464,0,0,0,0,0,0,0,0,0,0,0,0,0,0,0,0,0,0,0,0,0,0,0,0,0,0,0,0,0,0,0,0,0,0,0,0,0,0,0,0,0,0,0,0,0,0,0,0,-0.94699878979452,-0.45597898128002,-1.3370326871902,5.5640827542305,3.0194679771338,1.3596605542247,-3.4837678819884,1.6241070032464,2.752113551953,-0.43011965976946,1.5218632790668,-5.3028408659964,1.3855667687033,-1.7492839422012,1.3831999825113,-4.1559044724806,2.2434164548869,4.9602602232242,-1.0060424909458,-4.9922598556723,1.407851166279,1.6518591200821,0.1661073339299,-4.340522353972,2.7778214494259,-1.7885935940099,0.94492700943177,1.266433699191,-1.717347465807,1.2903925727294,1.4533401881416,-0.22540952978765,0.79740879191883,-4.385925043089,-2.1281342648436,-3.6693204862005,5.1619123562592,-2.6585987724693,3.2230977535201,-0.47498342544703,-1.4933063167061,-6.9359513109812,0.7091451689702,-2.1921248383603,-3.4877883252277,1.0113872762525,4.0036085489842,-4.2241155941518,160.35842722308,160.35842722308,160.35842722308,160.35842722308,160.35842722308,160.35842722308,160.35842722308,160.35842722308,160.35842722308,160.35842722308,160.35842722308,160.35842722308,160.35842722308,160.35842722308,160.35842722308,160.35842722308,160.35842722308,160.35842722308,160.35842722308,160.35842722308,160.35842722308,160.35842722308,160.35842722308,160.35842722308,160.35842722308,160.35842722308,160.35842722308,160.35842722308,160.35842722308,160.35842722308,160.35842722308,160.35842722308,160.35842722308,160.35842722308,160.35842722308,160.35842722308,160.35842722308,160.35842722308,160.35842722308,160.35842722308,160.35842722308,160.35842722308,160.35842722308,160.35842722308,160.35842722308,160.35842722308,160.35842722308,160.35842722308,230.71452963409,307.59204704081,-0.12949063015029,276.32619647936,-0.13528530808444,0
0.0001053125,225971637.1094,9.5313733214067e-06,3.1218397541212e-05,1.3111909485846e-05,1.0092114553668,0,0,0,0,0,0,0,0,0,0,0,0,0,0,0,0,0,0,0,0,0,0,0,0,0,0,0,0,0,0,0,0,0,0,0,0,0,0,0,0,0,0,0,0,0,0,0,0,-0.94720825179701,-0.45543919706955,-1.3299995331902,5.5609085275915,3.0202264151281,1.3582908789764,-3.4826115911734,1.6245155725083,2.7523603851853,-0.4306360270003,1.5242039151313,-5.3034345463896,1.3859022531101,-1.7481687542144,1.3849580492265,-4.1590183821701,2.2423011858374,4.9588550374156,-1.0055825522411,-4.9883227692111,1.4110804883035,1.6514745338285,0.16524713805268,-4.3371259169099,2.7801133589704,-1.7901484117955,0.94702903684911,1.2654125769364,-1.7185906004602,1.2903368256039,1.4536113992689,-0.22657859771909,0.79763320082831,-4.3851625276276,-2.1268673041427,-3.6681608496115,5.1622329505587,-2.6610624721447,3.2221962865295,-0.4749905400044,-1.4921555758029,-6.9370073874584,0.71047470473391,-2.1917227582151,-3.4868619667441,1.0129495846815,4.000652709631,-4.2216892443181,160.59962193749,160.59962193749,160.59962193749,160.59962193749,160.59962193749,160.59962193749,160.59962193749,160.59962193749,160.59962193749,160.59962193749,160.59962193749,160.59962193749,160.59962193749,160.59962193749,160.59962193749,160.59962193749,160.59962193749,160.59962193749,160.59962193749,160.59962193749,160.59962193749,160.59962193749,160.59962193749,160.59962193749,160.59962193749,160.59962193749,160.59962193749,160.59962193749,160.59962193749,160.59962193749,160.59962193749,160.59962193749,160.59962193749,160.59962193749,160.59962193749,160.59962193749,160.59962193749,160.59962193749,160.59962193749,160.59962193749,160.59962193749,160.59962193749,160.59962193749,160.59962193749,160.59962193749,160.59962193749,160.59962193749,160.59962193749,230.72476036857,308.1232227406,-0.13072184553806,276.76941378895,-0.13653651357926,0
0.0001059375,227702390.52591,9.5869263562564e-06,3.1403391889021e-05,1.3191652596304e-05,1.0092717661709,0,0,0,0,0,0,0,0,0,0,0,0,0,0,0,0,0,0,0,0,0,0,0,0,0,0,0,0,0,0,0,0,0,0,0,0,0,0,0,0,0,0,0,0,0,0,0,0,-0.94741076500503,-0.45487176308269,-1.3230072714245,5.5577614868236,3.0209574193824,1.3569351972967,-3.481468217235,1.6249093295597,2.752605880245,-0.43115383124837,1.5265286458986,-5.30403673054,1.3862388114144,-1.7470387674816,1.3867097214801,-4.1620962344943,2.2412087236231,4.9574395690077,-1.0051283658963,-4.9844298115738,1.4142727741906,1.651104908905,0.16439233017209,-4.333750557869,2.7823863510274,-1.791720536573,0.9491041358362,1.2643964239699,-1.7198279704651,1.2902736054333,1.453882056764,-0.22774487336892,0.79785498471195,-4.3844033059159,-2.1256033465649,-3.6669887459536,5.1625671638125,-2.6634988593509,3.2213123164402,-0.4749846607009,-1.4910128519438,-6.9380450331957,0.71181783827668,-2.1913385002541,-3.4859532004404,1.014506981894,3.9977199548885,-4.2192808658643,160.84081818035,160.84081818035,160.84081818035,160.84081818035,160.84081818035,160.84081818035,160.84081818035,160.84081818035,160.84081818035,160.84081818035,160.84081818035,160.84081818035,160.84081818035,160.84081818035,160.84081818035,160.84081818035,160.84081818035,160.84081818035,160.84081818035,160.84081818035,160.84081818035,160.84081818035,160.84081818035,160.84081818035,160.84081818035,160.84081818035,160.84081818035,160.84081818035,160.84081818035,160.84081818035,160.84081818035,160.84081818035,160.84081818035,160.84081818035,160.84081818035,160.84081818035,160.84081818035,160.84081818035,160.84081818035,160.84081818035,160.84081818035,160.84081818035,160.84081818035,160.84081818035,160.84081818035,160.84081818035,160.84081818035,160.84081818035,230.7347551771,308.65401700821,-0.13195745061133,277.21249102262,-0.13779206581017,0
0.0001065625,229438751.15174,9.642454397982e-06,3.1588385362993e-05,1.3271383037528e-05,1.0093320759567,0,0,0,0,0,0,0,0,0,0,0,0,0,0,0,0,0,0,0,0,0,0,0,0,0,0,0,0,0,0,0,0,0,0,0,0,0,0,0,0,0,0,0,0,0,0,0,0,-0.94760635769438,-0.45427750969574,-1.3160559761906,5.5546418234842,3.0216624136779,1.3555932724882,-3.4803378109615,1.6252879756344,2.7528499633496,-0.43167276163151,1.52883752701,-5.3046461163656,1.3865759004268,-1.7458940021672,1.3884553098173,-4.1651382131776,2.2401376855394,4.9560155353234,-1.0046796501606,-4.9805803613746,1.4174282192883,1.6507499122725,0.16354274258528,-4.3303961431992,2.7846408320838,-1.7933083894097,0.95115295194023,1.2633851489983,-1.7210597803019,1.2902019575718,1.4541519176136,-0.22890775098594,0.798073927829,-4.3836465033136,-2.1243422796806,-3.6658035808744,5.1629152542083,-2.665907913556,3.2204445958003,-0.47496602433641,-1.4898776861602,-6.9390642112398,0.71317353127146,-2.1909705948505,-3.4850633391132,1.0160588623529,3.9948103267889,-4.2168900357479,161.08201568995,161.08201568995,161.08201568995,161.08201568995,161.08201568995,161.08201568995,161.08201568995,161.08201568995,161.08201568995,161.08201568995,161.08201568995,161.08201568995,161.08201568995,161.08201568995,161.08201568995,161.08201568995,161.08201568995,161.08201568995,161.08201568995,161.08201568995,161.08201568995,161.08201568995,161.08201568995,161.08201568995,161.08201568995,161.08201568995,161.08201568995,161.08201568995,161.08201568995,161.08201568995,161.08201568995,161.08201568995,161.08201568995,161.08201568995,161.08201568995,161.08201568995,161.08201568995,161.08201568995,161.08201568995,161.08201568995,161.08201568995,161.08201568995,161.08201568995,161.08201568995,161.08201568995,161.08201568995,161.08201568995,161.08201568995,230.74451243426,309.18443498602,-0.13319743771978,277.65543021567,-0.13905195863156,0
0.0001071875,231180737.61324,9.6979576551805e-06,3.1773377968269e-05,1.3351100963348e-05,1.009392384722,0,0,0,0,0,0,0,0,0,0,0,0,0,0,0,0,0,0,0,0,0,0,0,0,0,0,0,0,0,0,0,0,0,0,0,0,0,0,0,0,0,0,0,0,0,0,0,0,-0.94779509155084,-0.45365726786709,-1.3091456777976,5.5515497362824,3.0223427823863,1.3542648630223,-3.4792203481072,1.6256512979125,2.7530925425437,-0.43219253493052,1.5311306306044,-5.3052614177813,1.3869130169619,-1.7447346452466,1.3901951012446,-4.1681443825094,2.2390866783041,4.9545845543064,-1.0042361557147,-4.9767737844816,1.420547094263,1.6504091862711,0.16269817429798,-4.3270626202209,2.7868772276417,-1.7949104264512,0.95317614143584,1.2623786628824,-1.722286156426,1.2901210284643,1.4544207525941,-0.23006662603048,0.7982898256252,-4.3828912418853,-2.123083791249,-3.6646049582106,5.1632774223992,-2.668289359739,3.2195918846487,-0.4749349987658,-1.4887496519318,-6.9400648580665,0.71454073498628,-2.1906176692763,-3.4841935234441,1.0176046675988,3.9919237340593,-4.2145163328539,161.32321420265,161.32321420265,161.32321420265,161.32321420265,161.32321420265,161.32321420265,161.32321420265,161.32321420265,161.32321420265,161.32321420265,161.32321420265,161.32321420265,161.32321420265,161.32321420265,161.32321420265,161.32321420265,161.32321420265,161.32321420265,161.32321420265,161.32321420265,161.32321420265,161.32321420265,161.32321420265,161.32321420265,161.32321420265,161.32321420265,161.32321420265,161.32321420265,161.32321420265,161.32321420265,161.32321420265,161.32321420265,161.32321420265,161.32321420265,161.32321420265,161.32321420265,161.32321420265,161.32321420265,161.32321420265,161.32321420265,161.32321420265,161.32321420265,161.32321420265,161.32321420265,161.32321420265,161.32321420265,161.32321420265,161.32321420265,230.7540302309,309.71448179153,-0.13444179967855,278.0982333631,-0.14031618647559,0
0.0001078125,232928366.20377,9.7534363350223e-06,3.1958369709999e-05,1.3430806529465e-05,1.009452692465,0,0,0,0,0,0,0,0,0,0,0,0,0,0,0,0,0,0,0,0,0,0,0,0,0,0,0,0,0,0,0,0,0,0,0,0,0,0,0,0,0,0,0,0,0,0,0,0,-0.94797705782661,-0.45301186089082,-1.3022763515519,5.5484854141193,3.0229998529411,1.3529497195104,-3.4781157311556,1.6259991618801,2.7533335057109,-0.43271290131784,1.5334080490534,-5.3058813951212,1.3872497046982,-1.7435610408559,1.391929356544,-4.1711146936823,2.238054313557,4.953148114108,-1.0037976725885,-4.9730094349147,1.4236297469088,1.6500823509426,0.16185838797392,-4.323750011108,2.7890959834804,-1.7965251679213,0.9551743624218,1.2613768808411,-1.7235071412695,1.2900300661584,1.454688347313,-0.23122090549521,0.79850249143212,-4.3821366638864,-2.1218273855531,-3.6633926785177,5.1636538024894,-2.6706426912879,3.2187529570069,-0.47489206637237,-1.4876283576259,-6.9410468816559,0.71591840803184,-2.1902784445489,-3.4833447001316,1.0191438836994,3.9890599322381,-4.2121593407462,161.56441345265,161.56441345265,161.56441345265,161.56441345265,161.56441345265,161.56441345265,161.56441345265,161.56441345265,161.56441345265,161.56441345265,161.56441345265,161.56441345265,161.56441345265,161.56441345265,161.56441345265,161.56441345265,161.56441345265,161.56441345265,161.56441345265,161.56441345265,161.56441345265,161.56441345265,161.56441345265,161.56441345265,161.56441345265,161.56441345265,161.56441345265,161.56441345265,161.56441345265,161.56441345265,161.56441345265,161.56441345265,161.56441345265,161.56441345265,161.56441345265,161.56441345265,161.56441345265,161.56441345265,161.56441345265,161.56441345265,161.56441345265,161.56441345265,161.56441345265,161.56441345265,161.56441345265,161.56441345265,161.56441345265,161.56441345265,230.76330638962,310.24416251119,-0.13569052982132,278.5409023952,-0.14158474434505,0
0.0001084375,234681650.95097,9.8088906424655e-06,3.2143360593362e-05,1.3510499892254e-05,1.0095129991841,0,0,0,0,0,0,0,0,0,0,0,0,0,0,0,0,0,0,0,0,0,0,0,0,0,0,0,0,0,0,0,0,0,0,0,0,0,0,0,0,0,0,0,0,0,0,0,0,-0.94815237034317,-0.45234209595198,-1.2954479098692,5.5454490290395,3.0236348831969,1.3516475795351,-3.4770237967983,1.6263315012734,2.7535727212473,-0.43323364830658,1.535669891792,-5.3065048610176,1.3875855586081,-1.7423736743388,1.3936583064456,-4.1740490046016,2.2370392288655,4.9517075514506,-1.0033640373413,-4.9692866591019,1.4266765974474,1.6497690112232,0.16102310845096,-4.320458406736,2.7912975550734,-1.7981511976005,0.95714827009635,1.2603797221629,-1.724722693305,1.2899284164701,1.4549545019529,-0.23237001661699,0.79871176012055,-4.381381942813,-2.1205724086778,-3.6621667281577,5.1640444569214,-2.6729672194564,3.217926610933,-0.47483780414012,-1.4865134499269,-6.9420101641405,0.71730553970715,-2.1899517293258,-3.4825176132544,1.0206760396885,3.9862185114897,-4.2098186490117,161.80561317172,161.80561317172,161.80561317172,161.80561317172,161.80561317172,161.80561317172,161.80561317172,161.80561317172,161.80561317172,161.80561317172,161.80561317172,161.80561317172,161.80561317172,161.80561317172,161.80561317172,161.80561317172,161.80561317172,161.80561317172,161.80561317172,161.80561317172,161.80561317172,161.80561317172,161.80561317172,161.80561317172,161.80561317172,161.80561317172,161.80561317172,161.80561317172,161.80561317172,161.80561317172,161.80561317172,161.80561317172,161.80561317172,161.80561317172,161.80561317172,161.80561317172,161.80561317172,161.80561317172,161.80561317172,161.80561317172,161.80561317172,161.80561317172,161.80561317172,161.80561317172,161.80561317172,161.80561317172,161.80561317172,161.80561317172,230.77233853378,310.77348218759,-0.13694362207961,278.98343914908,-0.14285762782147,0
0.0001090625,236440603.72376,9.8643207803288e-06,3.2328350623572e-05,1.3590181209212e-05,1.009573304878,0,0,0,0,0,0,0,0,0,0,0,0,0,0,0,0,0,0,0,0,0,0,0,0,0,0,0,0,0,0,0,0,0,0,0,0,0,0,0,0,0,0,0,0,0,0,0,0,-0.94832116174669,-0.45164876029458,-1.2886601996396,5.5424407183139,3.0242490516375,1.3503581651359,-3.4759443283339,1.6266483097057,2.7538100412312,-0.43375460279469,1.5379162849643,-5.3071307242045,1.3879202276182,-1.7411731493239,1.3953821555187,-4.1769471139985,2.2360400946062,4.9502640382104,-1.0029351364268,-4.9656048025615,1.4296881338884,1.64946876728,0.16019202302673,-4.3171879621463,2.7934824044161,-1.7997872120243,0.95909850851284,1.2593871100483,-1.7259326929355,1.2898155193708,1.4552190302293,-0.23351341382685,0.79891749117626,-4.3806263090238,-2.119318101379,-3.6609272612618,5.1644493808154,-2.6752621494627,3.2171116751037,-0.47477285925719,-1.4854046115025,-6.942954573312,0.71870115455006,-2.1896364118847,-3.4817128063737,1.022200707202,3.9833988926552,-4.2074938539231,162.04681308904,162.04681308904,162.04681308904,162.04681308904,162.04681308904,162.04681308904,162.04681308904,162.04681308904,162.04681308904,162.04681308904,162.04681308904,162.04681308904,162.04681308904,162.04681308904,162.04681308904,162.04681308904,162.04681308904,162.04681308904,162.04681308904,162.04681308904,162.04681308904,162.04681308904,162.04681308904,162.04681308904,162.04681308904,162.04681308904,162.04681308904,162.04681308904,162.04681308904,162.04681308904,162.04681308904,162.04681308904,162.04681308904,162.04681308904,162.04681308904,162.04681308904,162.04681308904,162.04681308904,162.04681308904,162.04681308904,162.04681308904,162.04681308904,162.04681308904,162.04681308904,162.04681308904,162.04681308904,162.04681308904,162.04681308904,230.78112408947,311.30244581991,-0.13820107106784,279.42584536053,-0.14413483306765,0
0.0001096875,238205234.37452,9.919726949205e-06,3.2513339805896e-05,1.3669850638939e-05,1.0096336095459,0,0,0,0,0,0,0,0,0,0,0,0,0,0,0,0,0,0,0,0,0,0,0,0,0,0,0,0,0,0,0,0,0,0,0,0,0,0,0,0,0,0,0,0,0,0,0,0,-0.94848357678262,-0.45093261588162,-1.2819130032193,5.5394605855813,3.0248434536246,1.34908117978,-3.4748770735183,1.6269496330948,2.7540453062703,-0.43427563094839,1.5401473688664,-5.3077579836077,1.3882534150047,-1.7399601648484,1.3971010785503,-4.1798087971664,2.2350556321803,4.9488185808958,-1.0025109070496,-4.961963219453,1.4326649052367,1.6491812273425,0.15936478440869,-4.3139388901936,2.7956509947303,-1.8014320042383,0.96102570362073,1.2583989695836,-1.7271369556187,1.2896909038352,1.4554817566638,-0.23465058364999,0.79911956962345,-4.3798690553513,-2.1180636609059,-3.6596745777791,5.1648685033978,-2.6775266637029,3.2163070208303,-0.47469792705766,-1.484301564337,-6.9438799734027,0.72010433028478,-2.1893314523749,-3.4809306317261,1.0237175007758,3.9806003363727,-4.2051845562218,162.28801293125,162.28801293125,162.28801293125,162.28801293125,162.28801293125,162.28801293125,162.28801293125,162.28801293125,162.28801293125,162.28801293125,162.28801293125,162.28801293125,162.28801293125,162.28801293125,162.28801293125,162.28801293125,162.28801293125,162.28801293125,162.28801293125,162.28801293125,162.28801293125,162.28801293125,162.28801293125,162.28801293125,162.28801293125,162.28801293125,162.28801293125,162.28801293125,162.28801293125,162.28801293125,162.28801293125,162.28801293125,162.28801293125,162.28801293125,162.28801293125,162.28801293125,162.28801293125,162.28801293125,162.28801293125,162.28801293125,162.28801293125,162.28801293125,162.28801293125,162.28801293125,162.28801293125,162.28801293125,162.28801293125,162.28801293125,230.78966056581,311.83105835375,-0.13946287206652,279.86812264978,-0.14541635677929,0
0.0001103125,239975550.89787,9.9751093467468e-06,3.2698328145655e-05,1.3749508340162e-05,1.0096939131869,0,0,0,0,0,0,0,0,0,0,0,0,0,0,0,0,0,0,0,0,0,0,0,0,0,0,0,0,0,0,0,0,0,0,0,0,0,0,0,0,0,0,0,0,0,0,0,0,-0.94863976584982,-0.45019439719765,-1.2752060435682,5.5365086955173,3.0254191010191,1.3478163074413,-3.4738217635796,1.627235563576,2.7542783520769,-0.43479663640466,1.5423632956645,-5.3083857248783,1.3885848777163,-1.7387354894224,1.3988152220474,-4.1826338441647,2.2340846238834,4.9473720282678,-1.0020913349328,-4.9583612817105,1.4356075127932,1.648906020994,0.1585410156186,-4.3107114560569,2.7978037866552,-1.8030844679387,0.96293045692634,1.2574152260374,-1.7283352488889,1.2895541840441,1.4557425137189,-0.23578104789115,0.7993179061071,-4.3791095322176,-2.1168083033427,-3.658409097888,5.1653016952406,-2.6797600026566,3.2155115727235,-0.47461372822232,-1.4832040693793,-6.9447862412028,0.72151420448143,-2.1890358758824,-3.4801712649452,1.0252260794938,3.9778219612185,-4.202890358344,162.5292124227,162.5292124227,162.5292124227,162.5292124227,162.5292124227,162.5292124227,162.5292124227,162.5292124227,162.5292124227,162.5292124227,162.5292124227,162.5292124227,162.5292124227,162.5292124227,162.5292124227,162.5292124227,162.5292124227,162.5292124227,162.5292124227,162.5292124227,162.5292124227,162.5292124227,162.5292124227,162.5292124227,162.5292124227,162.5292124227,162.5292124227,162.5292124227,162.5292124227,162.5292124227,162.5292124227,162.5292124227,162.5292124227,162.5292124227,162.5292124227,162.5292124227,162.5292124227,162.5292124227,162.5292124227,162.5292124227,162.5292124227,162.5292124227,162.5292124227,162.5292124227,162.5292124227,162.5292124227,162.5292124227,162.5292124227,230.79794567887,312.35932467479,-0.14072902105454,280.31027251868,-0.14670219617999,0
0.0001109375,241751559.60114,1.0030468168218e-05,3.2883315648233e-05,1.3829154472717e-05,1.0097542158009,0,0,0,0,0,0,0,0,0,0,0,0,0,0,0,0,0,0,0,0,0,0,0,0,0,0,0,0,0,0,0,0,0,0,0,0,0,0,0,0,0,0,0,0,0,0,0,0,-0.94878988508239,-0.44943481027076,-1.2685389807673,5.5335850709238,3.025976925072,1.3465632118335,-3.4727781322997,1.6275062365866,2.7545090155715,-0.43531755741291,1.5445642252927,-5.3090131591863,1.3889144232455,-1.7374999392221,1.4005247064221,-4.1854220928222,2.2331259238393,4.9459250862635,-1.0016764528782,-4.9547983878912,1.4385166053263,1.6486428094271,0.15772031657804,-4.3075059705623,2.7999412299109,-1.8047436212925,0.96481333975116,1.2564358031992,-1.7295273111007,1.289405056853,1.4560011389312,-0.23690436595338,0.79951243552256,-4.3783471814973,-2.1155513194602,-3.6571313383706,5.1657487754965,-2.6819615315267,3.2147243210842,-0.47452099029286,-1.4821119241516,-6.9456732819821,0.7229299795887,-2.1887487639354,-3.4794347215152,1.0267261480939,3.9750627698238,-4.2006108643708,162.77041128587,162.77041128587,162.77041128587,162.77041128587,162.77041128587,162.77041128587,162.77041128587,162.77041128587,162.77041128587,162.77041128587,162.77041128587,162.77041128587,162.77041128587,162.77041128587,162.77041128587,162.77041128587,162.77041128587,162.77041128587,162.77041128587,162.77041128587,162.77041128587,162.77041128587,162.77041128587,162.77041128587,162.77041128587,162.77041128587,162.77041128587,162.77041128587,162.77041128587,162.77041128587,162.77041128587,162.77041128587,162.77041128587,162.77041128587,162.77041128587,162.77041128587,162.77041128587,162.77041128587,162.77041128587,162.77041128587,162.77041128587,162.77041128587,162.77041128587,162.77041128587,162.77041128587,162.77041128587,162.77041128587,162.77041128587,230.80597755246,312.8872496076,-0.14199951464841,280.75229635948,-0.14799234892882,0
0.0001115625,243533265.28005,1.0085803605994e-05,3.3068302319078e-05,1.3908789197133e-05,1.0098145173879,0,0,0,0,0,0,0,0,0,0,0,0,0,0,0,0,0,0,0,0,0,0,0,0,0,0,0,0,0,0,0,0,0,0,0,0,0,0,0,0,0,0,0,0,0,0,0,0,-0.94893409079344,-0.44865453199819,-1.2619114284951,5.5306896930876,3.0265177826461,1.345321538302,-3.471745928509,1.6277618269819,2.7547371397997,-0.4358383624874,1.546750322249,-5.3096395880837,1.3892419080667,-1.7362543564093,1.4022296263025,-4.1881734471998,2.2321784632161,4.9444783389636,-1.0012663324828,-4.951273964868,1.4413928668771,1.6483912932538,0.15690227250365,-4.3043227842676,2.8020637601464,-1.8064085799435,0.96667489217831,1.2554606217346,-1.7307128688706,1.2892432988976,1.4562574714556,-0.23802013515494,0.79970311562793,-4.3775815131912,-2.1142921084108,-3.6558418889834,5.1662095214622,-2.6841307769118,3.213944329433,-0.47442043098407,-1.4810249646674,-6.9465410421979,0.7243509256761,-2.1884692505837,-3.4787208775196,1.0282174581941,3.9723216823002,-4.1983456749507,163.01160924209,163.01160924209,163.01160924209,163.01160924209,163.01160924209,163.01160924209,163.01160924209,163.01160924209,163.01160924209,163.01160924209,163.01160924209,163.01160924209,163.01160924209,163.01160924209,163.01160924209,163.01160924209,163.01160924209,163.01160924209,163.01160924209,163.01160924209,163.01160924209,163.01160924209,163.01160924209,163.01160924209,163.01160924209,163.01160924209,163.01160924209,163.01160924209,163.01160924209,163.01160924209,163.01160924209,163.01160924209,163.01160924209,163.01160924209,163.01160924209,163.01160924209,163.01160924209,163.01160924209,163.01160924209,163.01160924209,163.01160924209,163.01160924209,163.01160924209,163.01160924209,163.01160924209,163.01160924209,163.01160924209,163.01160924209,230.8137549947,313.41483790414,-0.14327434996776,281.19419545641,-0.14928681303424,0
0.0001121875,245320671.38653,1.014111584987e-05,3.3253288163706e-05,1.398841267493e-05,1.009874817948,0,0,0,0,0,0,0,0,0,0,0,0,0,0,0,0,0,0,0,0,0,0,0,0,0,0,0,0,0,0,0,0,0,0,0,0,0,0,0,0,0,0,0,0,0,0,0,0,-0.94907253953568,-0.44785421149975,-1.2553229573359,5.5278224989821,3.0270424619377,1.3440909173213,-3.4707249325175,1.6280025474146,2.7549625802693,-0.43635904674831,1.548921755536,-5.3102644300657,1.3895672310784,-1.7349995910557,1.403930053094,-4.1908879013682,2.2312412574961,4.9430322696402,-1.0008610786555,-4.947787475847,1.4442370118964,1.6481512172465,0.1560864617905,-4.3011622770473,2.8041718007685,-1.8080785813111,0.96851561839185,1.2544895991781,-1.7318916552964,1.2890687641792,1.4565113518037,-0.23912799218055,0.79988992501349,-4.376812121802,-2.1130302040664,-3.6545413907496,5.1666836748475,-2.6862674536781,3.2131707449033,-0.47431274542422,-1.4799430606775,-6.9473895253304,0.7257763814787,-2.1881965165743,-3.478029486273,1.0296998098141,3.9695975689199,-4.1960943882435,163.25280601228,163.25280601228,163.25280601228,163.25280601228,163.25280601228,163.25280601228,163.25280601228,163.25280601228,163.25280601228,163.25280601228,163.25280601228,163.25280601228,163.25280601228,163.25280601228,163.25280601228,163.25280601228,163.25280601228,163.25280601228,163.25280601228,163.25280601228,163.25280601228,163.25280601228,163.25280601228,163.25280601228,163.25280601228,163.25280601228,163.25280601228,163.25280601228,163.25280601228,163.25280601228,163.25280601228,163.25280601228,163.25280601228,163.25280601228,163.25280601228,163.25280601228,163.25280601228,163.25280601228,163.25280601228,163.25280601228,163.25280601228,163.25280601228,163.25280601228,163.25280601228,163.25280601228,163.25280601228,163.25280601228,163.25280601228,230.82127753992,313.94209424583,-0.14455352491102,281.63597100454,-0.15058558697815,0
0.0001128125,247113780.19521,1.0196405086605e-05,3.3438273187698e-05,1.4068025068256e-05,1.0099351174819,0,0,0,0,0,0,0,0,0,0,0,0,0,0,0,0,0,0,0,0,0,0,0,0,0,0,0,0,0,0,0,0,0,0,0,0,0,0,0,0,0,0,0,0,0,0,0,0,-0.94920538754172,-0.44703447084807,-1.2487730993844,5.5249833865927,3.027551690352,1.3428709674133,-3.4697149577025,1.628228645951,2.7551852025731,-0.43687962761487,1.5510786944766,-5.310887197688,1.3898903319753,-1.7337364882487,1.4056260362978,-4.193565535446,2.2303134068462,4.9415872831933,-1.0004608220897,-4.9443384145259,1.4470497770932,1.6479223675101,0.15527246452377,-4.2980248505957,2.8062657546571,-1.8097529553407,0.97033598873784,1.2535226492615,-1.7330634201339,1.2888813810581,1.4567626160833,-0.24022761296154,0.80007286116898,-4.3760386786598,-2.1117652760562,-3.6532305205875,5.1671709506835,-2.6883714549727,3.2124028007171,-0.47419859735298,-1.4788661169322,-6.9482187956179,0.72720575282053,-2.1879297869127,-3.4773601974246,1.031173050689,3.9668892843636,-4.1938565987864,163.49400131803,163.49400131803,163.49400131803,163.49400131803,163.49400131803,163.49400131803,163.49400131803,163.49400131803,163.49400131803,163.49400131803,163.49400131803,163.49400131803,163.49400131803,163.49400131803,163.49400131803,163.49400131803,163.49400131803,163.49400131803,163.49400131803,163.49400131803,163.49400131803,163.49400131803,163.49400131803,163.49400131803,163.49400131803,163.49400131803,163.49400131803,163.49400131803,163.49400131803,163.49400131803,163.49400131803,163.49400131803,163.49400131803,163.49400131803,163.49400131803,163.49400131803,163.49400131803,163.49400131803,163.49400131803,163.49400131803,163.49400131803,163.49400131803,163.49400131803,163.49400131803,163.49400131803,163.49400131803,163.49400131803,163.49400131803,230.82854567219,314.46902323033,-0.14583703737655,282.07762411354,-0.15188866922831,0
0.0001134375,248912592.95167,1.0251671500118e-05,3.3623257396702e-05,1.4147626540051e-05,1.0099954159901,0,0,0,0,0,0,0,0,0,0,0,0,0,0,0,0,0,0,0,0,0,0,0,0,0,0,0,0,0,0,0,0,0,0,0,0,0,0,0,0,0,0,0,0,0,0,0,0,-0.94933279141502,-0.44619590571472,-1.2422613546324,5.5221722085269,3.0280461410625,1.3416612986992,-3.4687158531982,1.6284404034044,2.755404890215,-0.43740014147876,1.5532213030821,-5.3115075072412,1.3902111836993,-1.7324658755769,1.4073176068492,-4.196206513552,2.2293940997731,4.940143724715,-1.0000657138719,-4.9409263026613,1.449831914543,1.6477045713439,0.15445986947688,-4.2949109171196,2.8083459972282,-1.8114311404407,0.97213644088276,1.2525596821628,-1.7342279384807,1.2886811481649,1.4570111024916,-0.24131871346631,0.80025193681414,-4.3752609348825,-2.1104971216207,-3.6519099732642,5.1676710443027,-2.6904428355287,3.211639821878,-0.47407861271713,-1.4777940676451,-6.9490289797754,0.72863851166545,-2.1876683256228,-3.4767125736833,1.0326370764053,3.9641956961996,-4.1916318988066,163.73519488239,163.73519488239,163.73519488239,163.73519488239,163.73519488239,163.73519488239,163.73519488239,163.73519488239,163.73519488239,163.73519488239,163.73519488239,163.73519488239,163.73519488239,163.73519488239,163.73519488239,163.73519488239,163.73519488239,163.73519488239,163.73519488239,163.73519488239,163.73519488239,163.73519488239,163.73519488239,163.73519488239,163.73519488239,163.73519488239,163.73519488239,163.73519488239,163.73519488239,163.73519488239,163.73519488239,163.73519488239,163.73519488239,163.73519488239,163.73519488239,163.73519488239,163.73519488239,163.73519488239,163.73519488239,163.73519488239,163.73519488239,163.73519488239,163.73519488239,163.73519488239,163.73519488239,163.73519488239,163.73519488239,163.73519488239,230.83556071045,314.99562936983,-0.14712488583042,282.5191558224,-0.15319605857213,0
0.0001140625,250717110.01374,1.0306915271264e-05,3.3808240796432e-05,1.4227217253829e-05,1.0100557134734,0,0,0,0,0,0,0,0,0,0,0,0,0,0,0,0,0,0,0,0,0,0,0,0,0,0,0,0,0,0,0,0,0,0,0,0,0,0,0,0,0,0,0,0,0,0,0,0,-0.94945490872245,-0.44533908700037,-1.235787202448,5.5193887765076,3.0285264397729,1.3404615199608,-3.4677275010335,1.6286381302132,2.7556215395525,-0.43792064028774,1.5553497468757,-5.3121250707131,1.390529789575,-1.7311885558889,1.4090047796583,-4.1988110793672,2.2284826059895,4.9387018966847,-0.99967591413331,-4.9375506839266,1.4525841851227,1.6474976895038,0.153648280699,-4.2918208901877,2.8104128880717,-1.8131126691748,0.97391738297019,1.2516006058164,-1.7353850145588,1.288468128853,1.4572566469536,-0.24240104970571,0.80042718040997,-4.3744787194105,-2.109225645592,-3.6505804525966,5.1681836404955,-2.6924817843618,3.2108812192137,-0.47395337559154,-1.4767268758783,-6.9498202707042,0.73007419009883,-2.1874114345543,-3.476086109503,1.0340918276706,3.9615157108602,-4.1894198770683,163.97638643085,163.97638643085,163.97638643085,163.97638643085,163.97638643085,163.97638643085,163.97638643085,163.97638643085,163.97638643085,163.97638643085,163.97638643085,163.97638643085,163.97638643085,163.97638643085,163.97638643085,163.97638643085,163.97638643085,163.97638643085,163.97638643085,163.97638643085,163.97638643085,163.97638643085,163.97638643085,163.97638643085,163.97638643085,163.97638643085,163.97638643085,163.97638643085,163.97638643085,163.97638643085,163.97638643085,163.97638643085,163.97638643085,163.97638643085,163.97638643085,163.97638643085,163.97638643085,163.97638643085,163.97638643085,163.97638643085,163.97638643085,163.97638643085,163.97638643085,163.97638643085,163.97638643085,163.97638643085,163.97638643085,163.97638643085,230.84232484196,315.52191708674,-0.14841706887141,282.9605671109,-0.1545077538544,0
0.0001146875,252527330.97461,1.036213657789e-05,3.3993223392664e-05,1.4306797373464e-05,1.0101160099329,0,0,0,0,0,0,0,0,0,0,0,0,0,0,0,0,0,0,0,0,0,0,0,0,0,0,0,0,0,0,0,0,0,0,0,0,0,0,0,0,0,0,0,0,0,0,0,0,-0.94957189876334,-0.44446456203561,-1.2293500968519,5.5166328638873,3.0289931701401,1.3392712422856,-3.466749811417,1.6288221633575,2.7558350604448,-0.43844118948637,1.5574641876681,-5.3127396728224,1.3908461781587,-1.7299053020128,1.4106875546851,-4.201379542931,2.2275782759097,4.9372620717109,-0.9992915882858,-4.9342111179915,1.4553073562018,1.6473016103675,0.15283732190031,-4.2887551731595,2.8124667625959,-1.8147971487977,0.97567919540748,1.2506453271356,-1.7365344831521,1.288242445949,1.4574990855226,-0.24347441859558,0.80059863287803,-4.3736919254978,-2.1079508436381,-3.649242661359,5.1687084163453,-2.6944885950202,3.2101264890762,-0.47382342751068,-1.4756645310643,-6.9505929193293,0.73151237806406,-2.1871584504583,-3.4754802424904,1.0355372884368,3.9588482919119,-4.1872201216703,164.21757569216,164.21757569216,164.21757569216,164.21757569216,164.21757569216,164.21757569216,164.21757569216,164.21757569216,164.21757569216,164.21757569216,164.21757569216,164.21757569216,164.21757569216,164.21757569216,164.21757569216,164.21757569216,164.21757569216,164.21757569216,164.21757569216,164.21757569216,164.21757569216,164.21757569216,164.21757569216,164.21757569216,164.21757569216,164.21757569216,164.21757569216,164.21757569216,164.21757569216,164.21757569216,164.21757569216,164.21757569216,164.21757569216,164.21757569216,164.21757569216,164.21757569216,164.21757569216,164.21757569216,164.21757569216,164.21757569216,164.21757569216,164.21757569216,164.21757569216,164.21757569216,164.21757569216,164.21757569216,164.21757569216,164.21757569216,230.84884105515,316.04789070389,-0.149713585251,283.40185890266,-0.1558237539569,0
0.0001153125,254343254.77176,1.0417335594721e-05,3.4178205191237e-05,1.4386367063104e-05,1.0101763053694,0,0,0,0,0,0,0,0,0,0,0,0,0,0,0,0,0,0,0,0,0,0,0,0,0,0,0,0,0,0,0,0,0,0,0,0,0,0,0,0,0,0,0,0,0,0,0,0,-0.94968392445395,-0.44357285574276,-1.2229494897127,5.5139042040022,3.0294468789768,1.3380900838357,-3.4657827153445,1.6289928615224,2.7560453753264,-0.43896186595231,1.5595647821761,-5.3133511966276,1.3911603978863,-1.7286168518612,1.4123659223145,-4.2039122705633,2.2266805345198,4.9358245024144,-0.99891290001057,-4.9309071729921,1.4580021898263,1.6471162428338,0.15202664000981,-4.2857141508046,2.8145079340539,-1.8164842817659,0.97742223568257,1.2496937528244,-1.737676207669,1.288004275032,1.4577382569477,-0.24453865793987,0.80076634545012,-4.3729005250543,-2.106672776037,-3.6478972946613,5.169245049257,-2.696463635974,3.2093752080722,-0.4736892657342,-1.4746070430081,-6.9513472301553,0.73295271720899,-2.186908743064,-3.4748943685684,1.0369734836131,3.9561924739136,-4.1850322209192,164.45876239898,164.45876239898,164.45876239898,164.45876239898,164.45876239898,164.45876239898,164.45876239898,164.45876239898,164.45876239898,164.45876239898,164.45876239898,164.45876239898,164.45876239898,164.45876239898,164.45876239898,164.45876239898,164.45876239898,164.45876239898,164.45876239898,164.45876239898,164.45876239898,164.45876239898,164.45876239898,164.45876239898,164.45876239898,164.45876239898,164.45876239898,164.45876239898,164.45876239898,164.45876239898,164.45876239898,164.45876239898,164.45876239898,164.45876239898,164.45876239898,164.45876239898,164.45876239898,164.45876239898,164.45876239898,164.45876239898,164.45876239898,164.45876239898,164.45876239898,164.45876239898,164.45876239898,164.45876239898,164.45876239898,164.45876239898,230.85511294922,316.57355444766,-0.15101443377948,283.84303208072,-0.15714405776477,0
0.0001159375,256164879.78539,1.0472512493277e-05,3.4363186198049e-05,1.4465926486808e-05,1.0102365997842,0,0,0,0,0,0,0,0,0,0,0,0,0,0,0,0,0,0,0,0,0,0,0,0,0,0,0,0,0,0,0,0,0,0,0,0,0,0,0,0,0,0,0,0,0,0,0,0,-0.94979115250203,-0.44266447185286,-1.2165848265539,5.5112024951635,3.0298880807228,1.3369176749969,-3.4648261585103,1.6291506016252,2.7562524172714,-0.43948275659168,1.561651684948,-5.3139595901369,1.3914725136847,-1.7273239075143,1.4140398639133,-4.2064096742522,2.2257888749295,4.9343894289244,-0.99854000483018,-4.9276384204197,1.4606694430385,1.6469415100912,0.15121590728256,-4.2826981797771,2.8165366981334,-1.8181738357409,0.97914684128805,1.2487457912037,-1.7388100778812,1.2877538376433,1.4579740035778,-0.24559364658303,0.80093037896471,-4.3721045490624,-2.1053915494436,-3.6465450355049,5.1697932204588,-2.6984073264523,3.2086270260216,-0.47355134536274,-1.473554441406,-6.9520835523271,0.73439489601245,-2.1866617132271,-3.4743278532822,1.0384004754564,3.9535473712336,-4.1828557637394,164.69994628851,164.69994628851,164.69994628851,164.69994628851,164.69994628851,164.69994628851,164.69994628851,164.69994628851,164.69994628851,164.69994628851,164.69994628851,164.69994628851,164.69994628851,164.69994628851,164.69994628851,164.69994628851,164.69994628851,164.69994628851,164.69994628851,164.69994628851,164.69994628851,164.69994628851,164.69994628851,164.69994628851,164.69994628851,164.69994628851,164.69994628851,164.69994628851,164.69994628851,164.69994628851,164.69994628851,164.69994628851,164.69994628851,164.69994628851,164.69994628851,164.69994628851,164.69994628851,164.69994628851,164.69994628851,164.69994628851,164.69994628851,164.69994628851,164.69994628851,164.69994628851,164.69994628851,164.69994628851,164.69994628851,164.69994628851,230.86114473744,317.09891244011,-0.15231961325527,284.28408748887,-0.15846866409171,0
0.0001165625,257992203.92077,1.0527667441928e-05,3.4548166419053e-05,1.4545475808526e-05,1.0102968931783,0,0,0,0,0,0,0,0,0,0,0,0,0,0,0,0,0,0,0,0,0,0,0,0,0,0,0,0,0,0,0,0,0,0,0,0,0,0,0,0,0,0,0,0,0,0,0,0,-0.94989375420793,-0.4417398940074,-1.2102555532473,5.5085274029803,3.030317261164,1.335753661368,-3.463880094259,1.629295774443,2.756456129088,-0.44000395730575,1.5637250472242,-5.3145648672815,1.3917826027567,-1.7260271335635,1.4157093540442,-4.2088722008121,2.2249028534271,4.9329570832688,-0.99817304668097,-4.924404429853,1.4633098623366,1.6467773445208,0.15040482209175,-4.279707582091,2.8185533320662,-1.8198656433622,0.98085333333422,1.2478013531348,-1.7399360060185,1.2874913945344,1.4582061733631,-0.24663930395694,0.80109080215419,-4.3713040868929,-2.1041072990887,-3.6451865508703,5.1703526163082,-2.7003201150609,3.207881659624,-0.47341008048904,-1.4725067717229,-6.9528022708297,0.73583864583507,-2.1864167911235,-3.4737800399264,1.0398183601022,3.9509121816097,-4.1806903411792,164.94112710297,164.94112710297,164.94112710297,164.94112710297,164.94112710297,164.94112710297,164.94112710297,164.94112710297,164.94112710297,164.94112710297,164.94112710297,164.94112710297,164.94112710297,164.94112710297,164.94112710297,164.94112710297,164.94112710297,164.94112710297,164.94112710297,164.94112710297,164.94112710297,164.94112710297,164.94112710297,164.94112710297,164.94112710297,164.94112710297,164.94112710297,164.94112710297,164.94112710297,164.94112710297,164.94112710297,164.94112710297,164.94112710297,164.94112710297,164.94112710297,164.94112710297,164.94112710297,164.94112710297,164.94112710297,164.94112710297,164.94112710297,164.94112710297,164.94112710297,164.94112710297,164.94112710297,164.94112710297,164.94112710297,164.94112710297,230.8669410555,317.62396869679,-0.15362912246112,284.72502593759,-0.15979757170334,0
0.0001171875,259825224.68027,1.0582800605836e-05,3.4733145860255e-05,1.4625015191611e-05,1.0103571855529,0,0,0,0,0,0,0,0,0,0,0,0,0,0,0,0,0,0,0,0,0,0,0,0,0,0,0,0,0,0,0,0,0,0,0,0,0,0,0,0,0,0,0,0,0,0,0,0,-0.94999190675408,-0.4407995872402,-1.2039611229297,5.5058785639368,3.0307348810236,1.3345977061784,-3.462944478381,1.629428780953,2.7566564613866,-0.44052557226581,1.5657850173637,-5.3151671048877,1.3920907510403,-1.7247271571365,1.4173743642716,-4.2113003229409,2.2240220827679,4.9315276929416,-0.99781215435261,-4.9212047656708,1.4659241800776,1.6466236825871,0.14959310901595,-4.2767426382448,2.8205580976333,-1.8215595965221,0.98254201948512,1.2468603526301,-1.7410539235333,1.2872172394219,1.4584346210293,-0.24767558984166,0.80124769022817,-4.3704992853435,-2.1028201757292,-3.6438224895059,5.1709229348601,-2.7022024643207,3.2071388857709,-0.47326584639503,-1.4714640918669,-6.95350379704,0.73728373524289,-2.1861734347053,-3.4732502604961,1.0412272645317,3.9482861872424,-4.1785355469331,165.18230458991,165.18230458991,165.18230458991,165.18230458991,165.18230458991,165.18230458991,165.18230458991,165.18230458991,165.18230458991,165.18230458991,165.18230458991,165.18230458991,165.18230458991,165.18230458991,165.18230458991,165.18230458991,165.18230458991,165.18230458991,165.18230458991,165.18230458991,165.18230458991,165.18230458991,165.18230458991,165.18230458991,165.18230458991,165.18230458991,165.18230458991,165.18230458991,165.18230458991,165.18230458991,165.18230458991,165.18230458991,165.18230458991,165.18230458991,165.18230458991,165.18230458991,165.18230458991,165.18230458991,165.18230458991,165.18230458991,165.18230458991,165.18230458991,165.18230458991,165.18230458991,165.18230458991,165.18230458991,165.18230458991,165.18230458991,230.87250685957,318.14872712701,-0.15494296008627,285.1658482109,-0.16113077925294,0
0.0001178125,261663939.22478,1.0637912147015e-05,3.4918124527705e-05,1.4704544798746e-05,1.0104174769093,0,0,0,0,0,0,0,0,0,0,0,0,0,0,0,0,0,0,0,0,0,0,0,0,0,0,0,0,0,0,0,0,0,0,0,0,0,0,0,0,0,0,0,0,0,0,0,0,-0.95008579084358,-0.43984399790738,-1.1977010023361,5.5032555904636,3.0311413789973,1.3334494925443,-3.4620192649046,1.6295500278507,2.7568533727902,-0.44104771319867,1.5678317414769,-5.315766414979,1.3923970506891,-1.7234245672718,1.4190348627984,-4.2136945312588,2.2231462261393,4.9301014825918,-0.99745743841904,-4.9180389851697,1.4685131101919,1.6464804629601,0.14878051814837,-4.2738035827936,2.8225512439613,-1.823255627185,0.98421319716743,1.2459227075044,-1.7421637775454,1.2869316924754,1.4586592097294,-0.24870250299659,0.80140112382911,-4.3696903249793,-2.1015303343397,-3.6424534788771,5.1715038836222,-2.7040548394175,3.2063985343872,-0.47311898145977,-1.4704264705722,-6.9541885589223,0.73872996647291,-2.18593112742,-3.4727378401105,1.0426273431318,3.9456687527172,-4.17639097755,165.42347850248,165.42347850248,165.42347850248,165.42347850248,165.42347850248,165.42347850248,165.42347850248,165.42347850248,165.42347850248,165.42347850248,165.42347850248,165.42347850248,165.42347850248,165.42347850248,165.42347850248,165.42347850248,165.42347850248,165.42347850248,165.42347850248,165.42347850248,165.42347850248,165.42347850248,165.42347850248,165.42347850248,165.42347850248,165.42347850248,165.42347850248,165.42347850248,165.42347850248,165.42347850248,165.42347850248,165.42347850248,165.42347850248,165.42347850248,165.42347850248,165.42347850248,165.42347850248,165.42347850248,165.42347850248,165.42347850248,165.42347850248,165.42347850248,165.42347850248,165.42347850248,165.42347850248,165.42347850248,165.42347850248,165.42347850248,230.8778473598,318.67319152867,-0.1562611247158,285.60655506593,-0.16246828528562,0
0.0001184375,263508344.42499,1.0693002224138e-05,3.5103102427504e-05,1.4784064791393e-05,1.0104777672487,0,0,0,0,0,0,0,0,0,0,0,0,0,0,0,0,0,0,0,0,0,0,0,0,0,0,0,0,0,0,0,0,0,0,0,0,0,0,0,0,0,0,0,0,0,0,0,0,-0.95017559510776,-0.4388735570103,-1.1914746752747,5.5006580731616,3.0315371740987,1.3323087242238,-3.4611044016544,1.6296599252153,2.7570468270969,-0.44157049888367,1.5698653634256,-5.3163629725241,1.3927015964828,-1.7221199169624,1.4206908182983,-4.2160553292828,2.2222749931041,4.9286786741817,-0.99710899004735,-4.9149066363528,1.4710773471734,1.6463476221879,0.14796682383811,-4.2708906026206,2.8245330091885,-1.8249537202345,0.9858671559281,1.2449883395703,-1.7432655270969,1.2866350951249,1.4588798107523,-0.2497200798594,0.80155118770222,-4.3688774456396,-2.1002379270359,-3.6410801262603,5.1720951831912,-2.7058777009744,3.2056604836329,-0.47296979014392,-1.469393982781,-6.9548569957563,0.74017717063179,-2.1856893780312,-3.4722421038501,1.0440187746258,3.9430593204512,-4.1742562334846,165.66464859955,165.66464859955,165.66464859955,165.66464859955,165.66464859955,165.66464859955,165.66464859955,165.66464859955,165.66464859955,165.66464859955,165.66464859955,165.66464859955,165.66464859955,165.66464859955,165.66464859955,165.66464859955,165.66464859955,165.66464859955,165.66464859955,165.66464859955,165.66464859955,165.66464859955,165.66464859955,165.66464859955,165.66464859955,165.66464859955,165.66464859955,165.66464859955,165.66464859955,165.66464859955,165.66464859955,165.66464859955,165.66464859955,165.66464859955,165.66464859955,165.66464859955,165.66464859955,165.66464859955,165.66464859955,165.66464859955,165.66464859955,165.66464859955,165.66464859955,165.66464859955,165.66464859955,165.66464859955,165.66464859955,165.66464859955,230.88296786961,319.19736559405,-0.15758361485963,286.04714724307,-0.16381008822198,0
0.0001190625,265358436.90653,1.0748070992659e-05,3.5288079565781e-05,1.4863575329577e-05,1.0105380565724,0,0,0,0,0,0,0,0,0,0,0,0,0,0,0,0,0,0,0,0,0,0,0,0,0,0,0,0,0,0,0,0,0,0,0,0,0,0,0,0,0,0,0,0,0,0,0,0,-0.95026151268477,-0.43788867994571,-1.1852816480877,5.4980855869428,3.0319226682793,1.3311751262397,-3.4601998292388,1.6297588829621,2.7572367944979,-0.44209405463531,1.5718860264854,-5.316956981033,1.3930044843507,-1.7208137225215,1.4223421997039,-4.2183832270051,2.2214081334594,4.927259487703,-0.99676687911879,-4.9118072591532,1.4736175628173,1.6462250951087,0.14715182323489,-4.2680038335943,2.8265036247267,-1.8266538903623,0.98750417976552,1.2440571745079,-1.7443591410168,1.2863278049703,1.4590963049813,-0.25072839280086,0.80169797013862,-4.3680609168238,-2.0989430978108,-3.6397030155913,5.1726965662798,-2.7076715001412,3.204924653133,-0.47281854475475,-1.4683667089119,-6.9555095482382,0.74162520428895,-2.1854477177967,-3.4717623804271,1.0454017589667,3.9404574060181,-4.1721309185864,165.90581464584,165.90581464584,165.90581464584,165.90581464584,165.90581464584,165.90581464584,165.90581464584,165.90581464584,165.90581464584,165.90581464584,165.90581464584,165.90581464584,165.90581464584,165.90581464584,165.90581464584,165.90581464584,165.90581464584,165.90581464584,165.90581464584,165.90581464584,165.90581464584,165.90581464584,165.90581464584,165.90581464584,165.90581464584,165.90581464584,165.90581464584,165.90581464584,165.90581464584,165.90581464584,165.90581464584,165.90581464584,165.90581464584,165.90581464584,165.90581464584,165.90581464584,165.90581464584,165.90581464584,165.90581464584,165.90581464584,165.90581464584,165.90581464584,165.90581464584,165.90581464584,165.90581464584,165.90581464584,165.90581464584,165.90581464584,230.88787383849,319.72125290624,-0.15891042883726,286.48762546467,-0.16515618635854,0
0.0001196875,267214213.08661,1.0803118604962e-05,3.5473055948698e-05,1.4943076571656e-05,1.0105983448816,0,0,0,0,0,0,0,0,0,0,0,0,0,0,0,0,0,0,0,0,0,0,0,0,0,0,0,0,0,0,0,0,0,0,0,0,0,0,0,0,0,0,0,0,0,0,0,0,-0.95034374168975,-0.4368897680661,-1.1791214499131,5.4955376951676,3.0322982476947,1.3300484424688,-3.4593054786852,1.6298473079124,2.757423249959,-0.44261851187575,1.5738938676917,-5.3175486742553,1.3933058091069,-1.7195064652705,1.4239889786459,-4.2206787363705,2.2205454356442,4.9258441395764,-0.99643115778015,-4.9087403852487,1.4761344043024,1.6461128131581,0.14633533442803,-4.2651433611781,2.8284633075305,-1.8283561804209,0.98912454858878,1.2431291413096,-1.7454445949909,1.2860101909607,1.4593085821092,-0.25172754811515,0.80184156040601,-4.3672410393416,-2.0976459794376,-3.6383227075603,5.1733077789374,-2.7094366754965,3.204191001289,-0.47266548822913,-1.467344731549,-6.9561466534756,0.74307394780122,-2.1852056992611,-3.4712980062319,1.0467765148888,3.9378625910337,-4.1700146423096,166.14697641192,166.14697641192,166.14697641192,166.14697641192,166.14697641192,166.14697641192,166.14697641192,166.14697641192,166.14697641192,166.14697641192,166.14697641192,166.14697641192,166.14697641192,166.14697641192,166.14697641192,166.14697641192,166.14697641192,166.14697641192,166.14697641192,166.14697641192,166.14697641192,166.14697641192,166.14697641192,166.14697641192,166.14697641192,166.14697641192,166.14697641192,166.14697641192,166.14697641192,166.14697641192,166.14697641192,166.14697641192,166.14697641192,166.14697641192,166.14697641192,166.14697641192,166.14697641192,166.14697641192,166.14697641192,166.14697641192,166.14697641192,166.14697641192,166.14697641192,166.14697641192,166.14697641192,166.14697641192,166.14697641192,166.14697641192,230.8925707261,320.24485693851,-0.16024156488803,286.92799043645,-0.16650657785625,0
0.0001203125,269075669.20611,1.0858145210285e-05,3.5658031582442e-05,1.5022568674273e-05,1.0106586321775,0,0,0,0,0,0,0,0,0,0,0,0,0,0,0,0,0,0,0,0,0,0,0,0,0,0,0,0,0,0,0,0,0,0,0,0,0,0,0,0,0,0,0,0,0,0,0,0,-0.95042248552392,-0.43587720998784,-1.1729936397985,5.4930139533122,3.0326642851501,1.3289284380643,-3.458421271386,1.6299256028342,2.7576061732037,-0.44314400744916,1.5758890274677,-5.3181383121401,1.3936056631029,-1.7181985911848,1.4256311290245,-4.2229423693557,2.2196867191151,4.9244328432389,-0.99610185466407,-4.9057055397844,1.4786284942041,1.6460107043197,0.14551719494803,-4.2623092205902,2.8304122770415,-1.8300606565469,0.99072854020969,1.2422041722909,-1.7465218697025,1.2856826306915,1.4595165409988,-0.25271768355843,0.80198205048582,-4.3664181425888,-2.0963466916837,-3.6369397379015,5.1739285787888,-2.7111736529363,3.2034595177762,-0.47251083550003,-1.466328134637,-6.9567687405086,0.74452329965889,-2.1849628942548,-3.4708483267529,1.0481432766558,3.9352745180955,-4.1679070173607,166.3881336742,166.3881336742,166.3881336742,166.3881336742,166.3881336742,166.3881336742,166.3881336742,166.3881336742,166.3881336742,166.3881336742,166.3881336742,166.3881336742,166.3881336742,166.3881336742,166.3881336742,166.3881336742,166.3881336742,166.3881336742,166.3881336742,166.3881336742,166.3881336742,166.3881336742,166.3881336742,166.3881336742,166.3881336742,166.3881336742,166.3881336742,166.3881336742,166.3881336742,166.3881336742,166.3881336742,166.3881336742,166.3881336742,166.3881336742,166.3881336742,166.3881336742,166.3881336742,166.3881336742,166.3881336742,166.3881336742,166.3881336742,166.3881336742,166.3881336742,166.3881336742,166.3881336742,166.3881336742,166.3881336742,166.3881336742,230.89706394141,320.76818106091,-0.16157702114476,287.36824285478,-0.16786126074673,0
0.0001209375,270942801.35554,1.0913150954728e-05,3.5843006473212e-05,1.510205179159e-05,1.0107189184614,0,0,0,0,0,0,0,0,0,0,0,0,0,0,0,0,0,0,0,0,0,0,0,0,0,0,0,0,0,0,0,0,0,0,0,0,0,0,0,0,0,0,0,0,0,0,0,0,-0.95049795193456,-0.43485138273823,-1.1668978054656,5.4905139135625,3.0330211406409,1.3278148956846,-3.4575471187233,1.6299941639628,2.757785548277,-0.44367068310597,1.5778716426609,-5.3187261741553,1.3939041348199,-1.7168905125366,1.4272686289769,-4.2251746342277,2.2188318344969,4.9230258068976,-0.99577898049152,-4.9027022429512,1.4811004289851,1.645918693086,0.14469725988471,-4.2595013982724,2.8323507453451,-1.8317674020458,0.99231643112559,1.2412822022402,-1.7475909489575,1.2853455065651,1.4597200890462,-0.25369896593806,0.80211953232974,-4.3655925785264,-2.0950453405171,-3.6355546172443,5.1745587357999,-2.7128828450938,3.2027302226392,-0.47235477606702,-1.4653170009607,-6.9573762256449,0.745973176334,-2.184718892257,-3.4704126993149,1.049502292195,3.9326928831819,-4.1658076623359,166.62928621484,166.62928621484,166.62928621484,166.62928621484,166.62928621484,166.62928621484,166.62928621484,166.62928621484,166.62928621484,166.62928621484,166.62928621484,166.62928621484,166.62928621484,166.62928621484,166.62928621484,166.62928621484,166.62928621484,166.62928621484,166.62928621484,166.62928621484,166.62928621484,166.62928621484,166.62928621484,166.62928621484,166.62928621484,166.62928621484,166.62928621484,166.62928621484,166.62928621484,166.62928621484,166.62928621484,166.62928621484,166.62928621484,166.62928621484,166.62928621484,166.62928621484,166.62928621484,166.62928621484,166.62928621484,166.62928621484,166.62928621484,166.62928621484,166.62928621484,166.62928621484,166.62928621484,166.62928621484,166.62928621484,166.62928621484,230.9013588775,321.29122853834,-0.16291679559062,287.8083834051,-0.16922023292737,0
0.0001215625,272815605.49798,1.0968135981458e-05,3.6027980627218e-05,1.5181526075419e-05,1.0107792037345,0,0,0,0,0,0,0,0,0,0,0,0,0,0,0,0,0,0,0,0,0,0,0,0,0,0,0,0,0,0,0,0,0,0,0,0,0,0,0,0,0,0,0,0,0,0,0,0,-0.95057035264269,-0.43381265305567,-1.160833561983,5.4880371290391,3.0333691622814,1.3267076138453,-3.4566829222335,1.6300533798851,2.7579613631733,-0.44419868491898,1.5798418455851,-5.3193125545653,1.394201307813,-1.7155826083117,1.4289014614064,-4.2273760332773,2.2179806614557,4.921623232237,-0.99546252915684,-4.8997300118564,1.4835507789021,1.6458367005764,0.14387540018809,-4.2567198341966,2.8342789151971,-1.8334765125051,0.99388849715678,1.2403631677065,-1.7486518180701,1.2849992035849,1.4599191415453,-0.25467158854177,0.80225409705286,-4.3647647176911,-2.0937420188428,-3.6341678298013,5.1751980309299,-2.714564651397,3.2020031637318,-0.47219747575994,-1.464311410586,-6.9579695097886,0.74742351040598,-2.1844732983326,-3.4699904934604,1.0508538210384,3.9301174290978,-4.1637162023162,166.87043382172,166.87043382172,166.87043382172,166.87043382172,166.87043382172,166.87043382172,166.87043382172,166.87043382172,166.87043382172,166.87043382172,166.87043382172,166.87043382172,166.87043382172,166.87043382172,166.87043382172,166.87043382172,166.87043382172,166.87043382172,166.87043382172,166.87043382172,166.87043382172,166.87043382172,166.87043382172,166.87043382172,166.87043382172,166.87043382172,166.87043382172,166.87043382172,166.87043382172,166.87043382172,166.87043382172,166.87043382172,166.87043382172,166.87043382172,166.87043382172,166.87043382172,166.87043382172,166.87043382172,166.87043382172,166.87043382172,166.87043382172,166.87043382172,166.87043382172,166.87043382172,166.87043382172,166.87043382172,166.87043382172,166.87043382172,230.90546083571,321.81400253231,-0.16426088611061,288.24841276324,-0.17058349215709,0
0.0001221875,274694077.48882,1.1023100430759e-05,3.6212954050673e-05,1.5260991674951e-05,1.0108394879981,0,0,0,0,0,0,0,0,0,0,0,0,0,0,0,0,0,0,0,0,0,0,0,0,0,0,0,0,0,0,0,0,0,0,0,0,0,0,0,0,0,0,0,0,0,0,0,0,-0.95063990292734,-0.4327613784571,-1.1548005585224,5.4855831564478,3.0337086872337,1.3256064076692,-3.4558285743186,1.6301036310999,2.7581336099003,-0.44472816230035,1.5817997708063,-5.3198977592497,1.3944972601865,-1.7142752244479,1.4305296140788,-4.229547062835,2.2171331039059,4.9202253136304,-0.9951524758813,-4.8967883624901,1.4859800886166,1.6457646452441,0.14305150149113,-4.2539644245802,2.8361969941117,-1.8351880925647,0.99544501444093,1.239447007232,-1.7497044625564,1.2846441075279,1.4601136213692,-0.25563576811579,0.80238583592456,-4.3639349463614,-2.0924368061573,-3.6327798324043,5.1758462555954,-2.7162194606784,3.201278411868,-0.47203907799843,-1.46331144032,-6.9585489767647,0.74887424709741,-2.1842257312255,-3.4695810922779,1.0521981317659,3.9275479402188,-4.1616322680173,167.11157628828,167.11157628828,167.11157628828,167.11157628828,167.11157628828,167.11157628828,167.11157628828,167.11157628828,167.11157628828,167.11157628828,167.11157628828,167.11157628828,167.11157628828,167.11157628828,167.11157628828,167.11157628828,167.11157628828,167.11157628828,167.11157628828,167.11157628828,167.11157628828,167.11157628828,167.11157628828,167.11157628828,167.11157628828,167.11157628828,167.11157628828,167.11157628828,167.11157628828,167.11157628828,167.11157628828,167.11157628828,167.11157628828,167.11157628828,167.11157628828,167.11157628828,167.11157628828,167.11157628828,167.11157628828,167.11157628828,167.11157628828,167.11157628828,167.11157628828,167.11157628828,167.11157628828,167.11157628828,167.11157628828,167.11157628828,230.90937500077,322.33650610657,-0.16560929066816,288.68833159989,-0.17195103620863,0
0.0001228125,276578213.092,1.1078044439944e-05,3.6397926749781e-05,1.5340448736343e-05,1.0108997712532,0,0,0,0,0,0,0,0,0,0,0,0,0,0,0,0,0,0,0,0,0,0,0,0,0,0,0,0,0,0,0,0,0,0,0,0,0,0,0,0,0,0,0,0,0,0,0,0,-0.95070682109856,-0.43169790834678,-1.1487984672454,5.4831515600277,3.0340400418834,1.3245111024693,-3.4549839590218,1.6301452895475,2.7583022841389,-0.44525926729867,1.5837455420641,-5.3204821014327,1.3947920638947,-1.7129686744357,1.4321530801686,-4.2316882084034,2.2162890900944,4.9188322365192,-0.99484878546203,-4.8938768119763,1.4883888779693,1.6457024429812,0.14222546268955,-4.2512350246721,2.8381051714302,-1.836902251692,0.99698625930859,1.238533659276,-1.7507488670361,1.2842806037646,1.4603034582169,-0.25659174222292,0.80251483643364,-4.3631036627688,-2.0911297700923,-3.6313910533167,5.1765032102048,-2.7178476493792,3.2005560603412,-0.47187970547857,-1.4623171622844,-6.959114989615,0.75032534398285,-2.1839758213073,-3.4691838917426,1.0535355006094,3.9249842364078,-4.1595554989155,167.35271341344,167.35271341344,167.35271341344,167.35271341344,167.35271341344,167.35271341344,167.35271341344,167.35271341344,167.35271341344,167.35271341344,167.35271341344,167.35271341344,167.35271341344,167.35271341344,167.35271341344,167.35271341344,167.35271341344,167.35271341344,167.35271341344,167.35271341344,167.35271341344,167.35271341344,167.35271341344,167.35271341344,167.35271341344,167.35271341344,167.35271341344,167.35271341344,167.35271341344,167.35271341344,167.35271341344,167.35271341344,167.35271341344,167.35271341344,167.35271341344,167.35271341344,167.35271341344,167.35271341344,167.35271341344,167.35271341344,167.35271341344,167.35271341344,167.35271341344,167.35271341344,167.35271341344,167.35271341344,167.35271341344,167.35271341344,230.91310647835,322.85874222542,-0.16696200636861,289.12814057855,-0.17332286210214,0
0.0001234375,278468007.99449,1.1132968143923e-05,3.6582898730736e-05,1.5419897402712e-05,1.0109600535012,0,0,0,0,0,0,0,0,0,0,0,0,0,0,0,0,0,0,0,0,0,0,0,0,0,0,0,0,0,0,0,0,0,0,0,0,0,0,0,0,0,0,0,0,0,0,0,0,-0.95077132761601,-0.43062258532962,-1.1428269937972,5.4807419145145,3.034363542086,1.3234215378369,-3.4541489521634,1.6301787178487,2.7584673848701,-0.44579215366103,1.5856792876445,-5.3210658976806,1.395085784434,-1.7116632403987,1.4337718593353,-4.2337999499001,2.2154485730772,4.9174441754275,-0.99455140663059,-4.8909948799493,1.4907776418347,1.6456500077709,0.14139719480709,-4.2485314528792,2.8400036446211,-1.8386191007028,0.9985125087799,1.2376230640735,-1.7517850136831,1.2839090757397,1.46048858734,-0.25753976640974,0.8026411861348,-4.3622712730977,-2.0898209675272,-3.6300018915664,5.1771687043613,-2.7194495870858,3.1998362247331,-0.47171946198057,-1.4613286426305,-6.9596678943182,0.75177677107406,-2.1837232083558,-3.4687983016304,1.0548662100249,3.9224261670319,-4.157485541942,167.59384500143,167.59384500143,167.59384500143,167.59384500143,167.59384500143,167.59384500143,167.59384500143,167.59384500143,167.59384500143,167.59384500143,167.59384500143,167.59384500143,167.59384500143,167.59384500143,167.59384500143,167.59384500143,167.59384500143,167.59384500143,167.59384500143,167.59384500143,167.59384500143,167.59384500143,167.59384500143,167.59384500143,167.59384500143,167.59384500143,167.59384500143,167.59384500143,167.59384500143,167.59384500143,167.59384500143,167.59384500143,167.59384500143,167.59384500143,167.59384500143,167.59384500143,167.59384500143,167.59384500143,167.59384500143,167.59384500143,167.59384500143,167.59384500143,167.59384500143,167.59384500143,167.59384500143,167.59384500143,167.59384500143,167.59384500143,230.916660208,323.38071375896,-0.16831903141281,289.56784035722,-0.17469896767847,0
0.0001240625,280363457.8197,1.1187871674565e-05,3.6767869999709e-05,1.5499337813681e-05,1.011020334743,0,0,0,0,0,0,0,0,0,0,0,0,0,0,0,0,0,0,0,0,0,0,0,0,0,0,0,0,0,0,0,0,0,0,0,0,0,0,0,0,0,0,0,0,0,0,0,0,-0.95083364522201,-0.4295357458509,-1.1368858680663,5.4783538071469,3.0346794930983,1.3223375628979,-3.4533234232284,1.6302042711355,2.7586289148603,-0.44632697555844,1.5876011293168,-5.3216494669864,1.3953784808097,-1.7103591721407,1.4353859562886,-4.2358827550834,2.214611525041,4.9160612939284,-0.99426027740922,-4.8881420912177,1.4931468534776,1.6456072520514,0.14056662052214,-4.2458534933513,2.8418926020502,-1.8403387501993,1.0000240398151,1.2367151617683,-1.7528128820883,1.2835299058911,1.4606689501249,-0.25848011112829,0.80276496894912,-4.3614381909497,-2.0885104459191,-3.6286127150821,5.177842553762,-2.7210256336678,3.1991190377431,-0.47155843259021,-1.4603459420199,-6.9602080145468,0.75322850666561,-2.1834675399055,-3.4684237432416,1.0561905465427,3.9198736079791,-4.1554220528975,167.83497086169,167.83497086169,167.83497086169,167.83497086169,167.83497086169,167.83497086169,167.83497086169,167.83497086169,167.83497086169,167.83497086169,167.83497086169,167.83497086169,167.83497086169,167.83497086169,167.83497086169,167.83497086169,167.83497086169,167.83497086169,167.83497086169,167.83497086169,167.83497086169,167.83497086169,167.83497086169,167.83497086169,167.83497086169,167.83497086169,167.83497086169,167.83497086169,167.83497086169,167.83497086169,167.83497086169,167.83497086169,167.83497086169,167.83497086169,167.83497086169,167.83497086169,167.83497086169,167.83497086169,167.83497086169,167.83497086169,167.83497086169,167.83497086169,167.83497086169,167.83497086169,167.83497086169,167.83497086169,167.83497086169,167.83497086169,230.92004103814,323.90242348612,-0.169680363139,290.00743159144,-0.17607934998459,0
0.0001246875,282264558.1378,1.1242755161275e-05,3.6952840562847e-05,1.5578770105266e-05,1.0110806149799,0,0,0,0,0,0,0,0,0,0,0,0,0,0,0,0,0,0,0,0,0,0,0,0,0,0,0,0,0,0,0,0,0,0,0,0,0,0,0,0,0,0,0,0,0,0,0,0,-0.9508939979258,-0.42843772142092,-1.1309748436119,5.4759868400089,3.0349881895016,1.3212590348303,-3.4525072352372,1.6302222965848,2.7587868800144,-0.44686388645704,1.5895111845865,-5.322233128711,1.3956702053953,-1.7090566885338,1.4369953822982,-4.2379370821926,2.2137779403678,4.9146837424419,-0.99397532770445,-4.8853179767088,1.495496964883,1.6455740870732,0.13973367340345,-4.24320090022,2.8437722258611,-1.8420613093549,1.0015211296013,1.2358098925952,-1.7538324477486,1.2831434747178,1.4608444924774,-0.25941305898947,0.80288626572281,-4.3606048341006,-2.0871982444005,-3.6272238602384,5.1785245808555,-2.7225761425188,3.1984046512905,-0.47139668554664,-1.4593691140818,-6.9607356543317,0.75468053930598,-2.1832084690088,-3.4680596500111,1.0575088000888,3.9173264561524,-4.1533646979857,168.07609080871,168.07609080871,168.07609080871,168.07609080871,168.07609080871,168.07609080871,168.07609080871,168.07609080871,168.07609080871,168.07609080871,168.07609080871,168.07609080871,168.07609080871,168.07609080871,168.07609080871,168.07609080871,168.07609080871,168.07609080871,168.07609080871,168.07609080871,168.07609080871,168.07609080871,168.07609080871,168.07609080871,168.07609080871,168.07609080871,168.07609080871,168.07609080871,168.07609080871,168.07609080871,168.07609080871,168.07609080871,168.07609080871,168.07609080871,168.07609080871,168.07609080871,168.07609080871,168.07609080871,168.07609080871,168.07609080871,168.07609080871,168.07609080871,168.07609080871,168.07609080871,168.07609080871,168.07609080871,168.07609080871,168.07609080871,230.92325368796,324.42387409552,-0.17104599903597,290.44691493217,-0.17746400611248,0
0.0001253125,284171304.47646,1.1297618731125e-05,3.7137810426263e-05,1.5658194410063e-05,1.0111408942128,0,0,0,0,0,0,0,0,0,0,0,0,0,0,0,0,0,0,0,0,0,0,0,0,0,0,0,0,0,0,0,0,0,0,0,0,0,0,0,0,0,0,0,0,0,0,0,0,-0.95095261058184,-0.42732883956289,-1.125093696712,5.4736406332256,3.0352899150472,1.3201858182619,-3.4517002459987,1.630233134673,2.7589412892848,-0.44740303761209,1.591409566748,-5.3228171920213,1.3959610043326,-1.7077559778239,1.4386001538877,-4.2399633790413,2.212947832807,4.9133116576347,-0.99369647958423,-4.8825220753825,1.4978284085704,1.6455504233371,0.13889829776639,-4.240573400909,2.845642692619,-1.8437868750881,1.003004055021,1.2349071968338,-1.7548436816517,1.2827501616479,1.4610151643261,-0.26033890178371,0.80300515391785,-4.3597716186295,-2.0858843951904,-3.6258356307178,5.1792146125617,-2.7241014610942,3.1976932336221,-0.47123427337232,-1.4583982062892,-6.9612510976933,0.75613286566752,-2.1829456525155,-3.4677054656916,1.0588212622732,3.9147846264051,-4.1513131537101,168.31720466195,168.31720466195,168.31720466195,168.31720466195,168.31720466195,168.31720466195,168.31720466195,168.31720466195,168.31720466195,168.31720466195,168.31720466195,168.31720466195,168.31720466195,168.31720466195,168.31720466195,168.31720466195,168.31720466195,168.31720466195,168.31720466195,168.31720466195,168.31720466195,168.31720466195,168.31720466195,168.31720466195,168.31720466195,168.31720466195,168.31720466195,168.31720466195,168.31720466195,168.31720466195,168.31720466195,168.31720466195,168.31720466195,168.31720466195,168.31720466195,168.31720466195,168.31720466195,168.31720466195,168.31720466195,168.31720466195,168.31720466195,168.31720466195,168.31720466195,168.31720466195,168.31720466195,168.31720466195,168.31720466195,168.31720466195,230.92630274687,324.94506818788,-0.1724159365367,290.88629102596,-0.17885293300202,0
0.0001259375,286083692.3286,1.1352462508804e-05,3.732277959603e-05,1.5737610856358e-05,1.011201172443,0,0,0,0,0,0,0,0,0,0,0,0,0,0,0,0,0,0,0,0,0,0,0,0,0,0,0,0,0,0,0,0,0,0,0,0,0,0,0,0,0,0,0,0,0,0,0,0,-0.95100970853391,-0.42620942440629,-1.1192422202776,5.4713148237784,3.0355849418987,1.3191177829555,-3.4509023080689,1.6302371207342,2.7590921548237,-0.44794457642044,1.5932963844058,-5.3234019694287,1.3962509174548,-1.7064571978691,1.4402002944428,-4.2419620830093,2.2121212367434,4.9119451607303,-0.99342365158666,-4.8797539348053,1.5001416015298,1.6455361707923,0.13806044868008,-4.237970700035,2.8475041719178,-1.8455155464459,1.0044730920506,1.234007014699,-1.7558465491997,1.2823503455874,1.4611809194267,-0.26125793755056,0.80312170735587,-4.3589389641628,-2.0845689246652,-3.6244482968833,5.1799124805818,-2.7256019318,3.1969849702129,-0.47107123339231,-1.4574332580164,-6.9617546096345,0.75758549138851,-2.182678749291,-3.4673606439586,1.0601282259126,3.9122480478819,-4.1492671092724,168.55831224561,168.55831224561,168.55831224561,168.55831224561,168.55831224561,168.55831224561,168.55831224561,168.55831224561,168.55831224561,168.55831224561,168.55831224561,168.55831224561,168.55831224561,168.55831224561,168.55831224561,168.55831224561,168.55831224561,168.55831224561,168.55831224561,168.55831224561,168.55831224561,168.55831224561,168.55831224561,168.55831224561,168.55831224561,168.55831224561,168.55831224561,168.55831224561,168.55831224561,168.55831224561,168.55831224561,168.55831224561,168.55831224561,168.55831224561,168.55831224561,168.55831224561,168.55831224561,168.55831224561,168.55831224561,168.55831224561,168.55831224561,168.55831224561,168.55831224561,168.55831224561,168.55831224561,168.55831224561,168.55831224561,168.55831224561,230.92919266403,325.46600827973,-0.17379017305704,291.32556051673,-0.18024612746975,0
0.0001265625,288001717.16197,1.1407286616546e-05,3.7507748078176e-05,1.5817019568473e-05,1.0112614496713,0,0,0,0,0,0,0,0,0,0,0,0,0,0,0,0,0,0,0,0,0,0,0,0,0,0,0,0,0,0,0,0,0,0,0,0,0,0,0,0,0,0,0,0,0,0,0,0,-0.95106551716656,-0.42507979771028,-1.1134202266845,5.4690090694407,3.0358735306037,1.3180548045366,-3.4501132695899,1.6302345861677,2.7592394913206,-0.44848864458436,1.5951717417401,-5.323987762375,1.3965399788703,-1.7051604771148,1.4417958326717,-4.243933621434,2.2112982046815,4.9105843571324,-0.99315675664342,-4.8770131126725,1.5024369449091,1.6455312384329,0.13722009231534,-4.2353924828281,2.8493568274294,-1.8472474098608,1.0059285152761,1.2331092865381,-1.7568410097659,1.2819444065519,1.4613417146868,-0.26217046761511,0.80323599616654,-4.3581072861955,-2.0832518552561,-3.6230620953928,5.1806180184502,-2.7270778933837,3.1962800615064,-0.47090758908589,-1.456474301467,-6.9622464369438,0.75903842888322,-2.1824074187803,-3.4670246455671,1.0614299838156,3.9097166617447,-4.1472262659354,168.79941338859,168.79941338859,168.79941338859,168.79941338859,168.79941338859,168.79941338859,168.79941338859,168.79941338859,168.79941338859,168.79941338859,168.79941338859,168.79941338859,168.79941338859,168.79941338859,168.79941338859,168.79941338859,168.79941338859,168.79941338859,168.79941338859,168.79941338859,168.79941338859,168.79941338859,168.79941338859,168.79941338859,168.79941338859,168.79941338859,168.79941338859,168.79941338859,168.79941338859,168.79941338859,168.79941338859,168.79941338859,168.79941338859,168.79941338859,168.79941338859,168.79941338859,168.79941338859,168.79941338859,168.79941338859,168.79941338859,168.79941338859,168.79941338859,168.79941338859,168.79941338859,168.79941338859,168.79941338859,168.79941338859,168.79941338859,230.93192777838,325.98669680595,-0.17516870619345,291.76472404519,-0.18164358635521,0
0.0001271875,289925374.42722,1.1462091174598e-05,3.769271587868e-05,1.5896420666472e-05,1.0113217258989,0,0,0,0,0,0,0,0,0,0,0,0,0,0,0,0,0,0,0,0,0,0,0,0,0,0,0,0,0,0,0,0,0,0,0,0,0,0,0,0,0,0,0,0,0,0,0,0,-0.95112026159938,-0.4239402790783,-1.107627539641,5.4667230467235,3.036155930173,1.3169967614863,-3.4493329762457,1.6302258606321,2.7593833176914,-0.44903537543063,1.5970357373254,-5.3245748651109,1.3968282179261,-1.7038659138624,1.4433868015577,-4.2458784093616,2.2104788065376,4.909229336684,-0.99289570595789,-4.8742991782272,1.5047148291154,1.6455355375188,0.13637720702774,-4.2328384170826,2.8512008141188,-1.8489825435791,1.0073705976179,1.2322139521983,-1.757827017425,1.2815327266446,1.4614975102377,-0.26307679319378,0.80334808634472,-4.3572769973701,-2.0819332051897,-3.6216772276272,5.181331061882,-2.7285296794931,3.1955787207844,-0.47074335041756,-1.4555213634033,-6.9627268067086,0.76049169810418,-2.1821313204241,-3.4666969386298,1.0627268271009,3.9071904197934,-4.1451903358952,169.04050792431,169.04050792431,169.04050792431,169.04050792431,169.04050792431,169.04050792431,169.04050792431,169.04050792431,169.04050792431,169.04050792431,169.04050792431,169.04050792431,169.04050792431,169.04050792431,169.04050792431,169.04050792431,169.04050792431,169.04050792431,169.04050792431,169.04050792431,169.04050792431,169.04050792431,169.04050792431,169.04050792431,169.04050792431,169.04050792431,169.04050792431,169.04050792431,169.04050792431,169.04050792431,169.04050792431,169.04050792431,169.04050792431,169.04050792431,169.04050792431,169.04050792431,169.04050792431,169.04050792431,169.04050792431,169.04050792431,169.04050792431,169.04050792431,169.04050792431,169.04050792431,169.04050792431,169.04050792431,169.04050792431,169.04050792431,230.93451230905,326.50713612108,-0.17655153283919,292.20378224838,-0.18304530581623,0
0.0001278125,291854659.55896,1.1516876300977e-05,3.7877683003465e-05,1.5975814265907e-05,1.0113820011267,0,0,0,0,0,0,0,0,0,0,0,0,0,0,0,0,0,0,0,0,0,0,0,0,0,0,0,0,0,0,0,0,0,0,0,0,0,0,0,0,0,0,0,0,0,0,0,0,-0.95117416603967,-0.422791187185,-1.1018639958705,5.4644564546931,3.0364323762316,1.3159435357092,-3.4485612684346,1.630211273488,2.7595236542574,-0.44958489211969,1.598888465396,-5.3251635606138,1.3971156588948,-1.7025735794343,1.4449732404313,-4.2477968533718,2.209663130329,4.9078801705189,-0.99264041072215,-4.8716117110338,1.5069756343692,1.6455489771958,0.13553178377268,-4.230308158778,2.8530362805207,-1.8507210140453,1.0087996090378,1.2313209520959,-1.7588045180312,1.2811156919531,1.4616482681493,-0.26397721275575,0.80345804032035,-4.3564485038115,-2.0806129911117,-3.6202938616953,5.1820514466988,-2.7299576222909,3.1948811760812,-0.47057851574249,-1.4545744615203,-6.9631959315064,0.76194532538436,-2.1818501112979,-3.4663769951552,1.0640190458039,3.9046692808234,-4.1431590475422,169.28159569062,169.28159569062,169.28159569062,169.28159569062,169.28159569062,169.28159569062,169.28159569062,169.28159569062,169.28159569062,169.28159569062,169.28159569062,169.28159569062,169.28159569062,169.28159569062,169.28159569062,169.28159569062,169.28159569062,169.28159569062,169.28159569062,169.28159569062,169.28159569062,169.28159569062,169.28159569062,169.28159569062,169.28159569062,169.28159569062,169.28159569062,169.28159569062,169.28159569062,169.28159569062,169.28159569062,169.28159569062,169.28159569062,169.28159569062,169.28159569062,169.28159569062,169.28159569062,169.28159569062,169.28159569062,169.28159569062,169.28159569062,169.28159569062,169.28159569062,169.28159569062,169.28159569062,169.28159569062,169.28159569062,169.28159569062,230.93695035624,327.02732850266,-0.17793865058138,292.64273575892,-0.18445128242747,0
0.0001284375,293789567.98749,1.1571642111688e-05,3.8062649458394e-05,1.6055200477674e-05,1.0114422753558,0,0,0,0,0,0,0,0,0,0,0,0,0,0,0,0,0,0,0,0,0,0,0,0,0,0,0,0,0,0,0,0,0,0,0,0,0,0,0,0,0,0,0,0,0,0,0,0,-0.95122745366065,-0.42163283964693,-1.096129440355,5.4622090131882,3.0367030916272,1.3148950109251,-3.4477979837402,1.6301911561697,2.7596605245316,-0.45013730430108,1.6007300149843,-5.3257541208969,1.3974023223176,-1.7012835178301,1.4465551929289,-4.249689349287,2.2088512802221,4.9065369123568,-0.99239078284367,-4.8689503026771,1.5092197342729,1.6455714676889,0.13468382795232,-4.2278013534269,2.8548633667135,-1.8524628764753,1.0102158164177,1.2304302265909,-1.7597734506549,1.2806936942639,1.4617939528994,-0.2648720184018,0.80356591673575,-4.3556222051328,-2.0792912280382,-3.6189121317437,5.1827790083213,-2.7313620508847,3.1941876671839,-0.47041307217219,-1.4536336070877,-6.9636540076144,0.76339934337645,-2.1815634465317,-3.4660642905356,1.0653069273007,3.9021532107085,-4.1411321425582,169.52267652961,169.52267652961,169.52267652961,169.52267652961,169.52267652961,169.52267652961,169.52267652961,169.52267652961,169.52267652961,169.52267652961,169.52267652961,169.52267652961,169.52267652961,169.52267652961,169.52267652961,169.52267652961,169.52267652961,169.52267652961,169.52267652961,169.52267652961,169.52267652961,169.52267652961,169.52267652961,169.52267652961,169.52267652961,169.52267652961,169.52267652961,169.52267652961,169.52267652961,169.52267652961,169.52267652961,169.52267652961,169.52267652961,169.52267652961,169.52267652961,169.52267652961,169.52267652961,169.52267652961,169.52267652961,169.52267652961,169.52267652961,169.52267652961,169.52267652961,169.52267652961,169.52267652961,169.52267652961,169.52267652961,169.52267652961,230.93924589627,327.54727615359,-0.17933005673545,293.08158520496,-0.18586151242756,0
0.0001290625,295730095.14162,1.1626388720848e-05,3.8247615249271e-05,1.6134579407995e-05,1.0115025485869,0,0,0,0,0,0,0,0,0,0,0,0,0,0,0,0,0,0,0,0,0,0,0,0,0,0,0,0,0,0,0,0,0,0,0,0,0,0,0,0,0,0,0,0,0,0,0,0,-0.95128034623441,-0.42046555357621,-1.0904237248406,5.459980463323,3.0369682856878,1.3138510721773,-3.4470429561729,1.6301658442136,2.7597939547064,-0.45069270508458,1.6025604702399,-5.3263468051667,1.3976882255654,-1.6999957473134,1.4481327069753,-4.2515562831594,2.208043375393,4.9051995976177,-0.99214673633668,-4.8663145562415,1.5114474979536,1.6456029197175,0.13383336104015,-4.2253176395793,2.8566822046034,-1.8542081734562,1.0116194827757,1.229541716262,-1.7607337466763,1.2802671330841,1.4619345309483,-0.26576149258079,0.80367177074058,-4.3547984926678,-2.0779679304432,-3.617532138939,5.1835135804539,-2.7327432922131,3.1934984445518,-0.47024699672666,-1.4526988044274,-6.9641012171289,0.76485379022556,-2.1812709786157,-3.4657583013977,1.0665907557755,3.8996421811777,-4.1391093771152,169.76375028758,169.76375028758,169.76375028758,169.76375028758,169.76375028758,169.76375028758,169.76375028758,169.76375028758,169.76375028758,169.76375028758,169.76375028758,169.76375028758,169.76375028758,169.76375028758,169.76375028758,169.76375028758,169.76375028758,169.76375028758,169.76375028758,169.76375028758,169.76375028758,169.76375028758,169.76375028758,169.76375028758,169.76375028758,169.76375028758,169.76375028758,169.76375028758,169.76375028758,169.76375028758,169.76375028758,169.76375028758,169.76375028758,169.76375028758,169.76375028758,169.76375028758,169.76375028758,169.76375028758,169.76375028758,169.76375028758,169.76375028758,169.76375028758,169.76375028758,169.76375028758,169.76375028758,169.76375028758,169.76375028758,169.76375028758,230.94140279009,328.06698120489,-0.18072574865793,293.52033120912,-0.18727599192504,0
0.0001296875,297676236.45298,1.1681116240752e-05,3.843258038183e-05,1.62139511583e-05,1.0115628208212,0,0,0,0,0,0,0,0,0,0,0,0,0,0,0,0,0,0,0,0,0,0,0,0,0,0,0,0,0,0,0,0,0,0,0,0,0,0,0,0,0,0,0,0,0,0,0,0,-0.95133306383278,-0.41928964568452,-1.0847467059761,5.4577705673249,3.037228153751,1.3128116051795,-3.4462960163115,1.6301356793237,2.7599239737204,-0.45125116762107,1.6043799106685,-5.3269418582077,1.3979733836202,-1.6987102621767,1.4497058345155,-4.2533980315103,2.2072395486848,4.9038682430659,-0.99190818849228,-4.8637040863841,1.5136592923231,1.6456432446626,0.13298042261857,-4.222856651347,2.8584929179284,-1.8559569338683,1.0130108666292,1.2286553619835,-1.761685329683,1.2798364176457,1.4620699707445,-0.26664590468385,0.80377565433004,-4.3539777479492,-2.0766431130435,-3.6161539529634,5.1842549942385,-2.7341016713583,3.1928137678845,-0.4700802575306,-1.4517700509204,-6.9645377289342,0.76630870894616,-2.1809723574928,-3.4654585039666,1.0678708116207,3.8971361692985,-4.1370905221498,170.00481681481,170.00481681481,170.00481681481,170.00481681481,170.00481681481,170.00481681481,170.00481681481,170.00481681481,170.00481681481,170.00481681481,170.00481681481,170.00481681481,170.00481681481,170.00481681481,170.00481681481,170.00481681481,170.00481681481,170.00481681481,170.00481681481,170.00481681481,170.00481681481,170.00481681481,170.00481681481,170.00481681481,170.00481681481,170.00481681481,170.00481681481,170.00481681481,170.00481681481,170.00481681481,170.00481681481,170.00481681481,170.00481681481,170.00481681481,170.00481681481,170.00481681481,170.00481681481,170.00481681481,170.00481681481,170.00481681481,170.00481681481,170.00481681481,170.00481681481,170.00481681481,170.00481681481,170.00481681481,170.00481681481,170.00481681481,230.9434247792,328.58644571859,-0.18212572365063,293.9589743875,-0.18869471687345,0
0.0001303125,299627987.3598,1.1735824781747e-05,3.8617544861737e-05,1.6293315824635e-05,1.0116230920595,0,0,0,0,0,0,0,0,0,0,0,0,0,0,0,0,0,0,0,0,0,0,0,0,0,0,0,0,0,0,0,0,0,0,0,0,0,0,0,0,0,0,0,0,0,0,0,0,-0.95138582454964,-0.41810543238827,-1.0790982437757,5.4555791081792,3.0374828767573,1.3117764957976,-3.4455569909309,1.630101011325,2.7600506131905,-0.45181274152455,1.6061884114099,-5.3275395089664,1.3982578098864,-1.6974270345721,1.4512746311837,-4.2552149618511,2.2064399447909,4.9025428466643,-0.9916750608375,-4.8611185188085,1.5158554840797,1.6456923546447,0.13212507264315,-4.2204180211631,2.8602956223093,-1.8577091719262,1.0143902213863,1.2277711050171,-1.7626281151883,1.2794019689166,1.4622002426027,-0.26752550761581,0.80387761675266,-4.3531603413601,-2.0753167914585,-3.6147776137263,5.1850030773732,-2.7354375118183,3.1921339042729,-0.46991281497273,-1.450847337025,-6.9649637002332,0.76776414655365,-2.1806672308922,-3.4651643723769,1.0691473708175,3.8946351574088,-4.1350753635163,170.2458759655,170.2458759655,170.2458759655,170.2458759655,170.2458759655,170.2458759655,170.2458759655,170.2458759655,170.2458759655,170.2458759655,170.2458759655,170.2458759655,170.2458759655,170.2458759655,170.2458759655,170.2458759655,170.2458759655,170.2458759655,170.2458759655,170.2458759655,170.2458759655,170.2458759655,170.2458759655,170.2458759655,170.2458759655,170.2458759655,170.2458759655,170.2458759655,170.2458759655,170.2458759655,170.2458759655,170.2458759655,170.2458759655,170.2458759655,170.2458759655,170.2458759655,170.2458759655,170.2458759655,170.2458759655,170.2458759655,170.2458759655,170.2458759655,170.2458759655,170.2458759655,170.2458759655,170.2458759655,170.2458759655,170.2458759655,230.94531548214,329.10567169086,-0.18352997904839,294.39751534821,-0.19011768311775,0
0.0001309375,301585343.30995,1.1790514452475e-05,3.880250869459e-05,1.6372673497976e-05,1.0116833623028,0,0,0,0,0,0,0,0,0,0,0,0,0,0,0,0,0,0,0,0,0,0,0,0,0,0,0,0,0,0,0,0,0,0,0,0,0,0,0,0,0,0,0,0,0,0,0,0,-0.95143884424162,-0.416913229688,-1.073478200387,5.4534058890669,3.0377326208677,1.3107456295435,-3.4448257027846,1.6300621999164,2.7601739074861,-0.45237744924501,1.6079860436011,-5.3281399689726,1.3985415170128,-1.696146016841,1.4528391559874,-4.2570074331479,2.2056447181961,4.9012233875313,-0.99144728000606,-4.8585574897673,1.5180364414163,1.645750162662,0.13126739385468,-4.2180013822229,2.8620904254157,-1.8594648861515,1.0157577947567,1.2268888870575,-1.7635620106045,1.2789642215219,1.4623253188133,-0.2684005344495,0.80397770499963,-4.3523466307041,-2.0739889828391,-3.6134031338122,5.1857576532956,-2.736751135735,3.1914591261872,-0.46974462306189,-1.4499306462412,-6.9653792778685,0.76922015307794,-2.1803552451478,-3.4648753770668,1.0704207043679,3.8921391333986,-4.1330637019701,170.48692759762,170.48692759762,170.48692759762,170.48692759762,170.48692759762,170.48692759762,170.48692759762,170.48692759762,170.48692759762,170.48692759762,170.48692759762,170.48692759762,170.48692759762,170.48692759762,170.48692759762,170.48692759762,170.48692759762,170.48692759762,170.48692759762,170.48692759762,170.48692759762,170.48692759762,170.48692759762,170.48692759762,170.48692759762,170.48692759762,170.48692759762,170.48692759762,170.48692759762,170.48692759762,170.48692759762,170.48692759762,170.48692759762,170.48692759762,170.48692759762,170.48692759762,170.48692759762,170.48692759762,170.48692759762,170.48692759762,170.48692759762,170.48692759762,170.48692759762,170.48692759762,170.48692759762,170.48692759762,170.48692759762,170.48692759762,230.94707839019,329.62466105543,-0.18493851212599,294.83595468999,-0.1915448863576,0
0.0001315625,303548299.76361,1.1845185359674e-05,3.8987471885913e-05,1.6452024263626e-05,1.011743631552,0,0,0,0,0,0,0,0,0,0,0,0,0,0,0,0,0,0,0,0,0,0,0,0,0,0,0,0,0,0,0,0,0,0,0,0,0,0,0,0,0,0,0,0,0,0,0,0,-0.95149233625873,-0.4157133529423,-1.067886439276,5.4512507326861,3.0379775371214,1.3097188912359,-3.4441019702242,1.6300196160445,2.7602938937806,-0.45294528259252,1.6097728748151,-5.3287434308566,1.3988245177003,-1.6948671440023,1.4543994711187,-4.258775796388,2.2048540308319,4.8999098260399,-0.99122477836984,-4.8560206453775,1.520202535269,1.6458165827077,0.13040749419194,-4.2156063707562,2.8638774272603,-1.8612240584329,1.0171138281951,1.2260086503084,-1.7644869152119,1.2785236254006,1.4624451737401,-0.26927119530005,0.8040759643613,-4.3515369598304,-2.0726597063809,-3.6120305012451,5.1865185406443,-2.7380428640849,3.190789709219,-0.46957563079999,-1.4490199549826,-6.9657845997258,0.77067678046694,-2.1800360463031,-3.4645909834385,1.0716910777315,3.8896480913357,-4.131055353041,170.72797157275,170.72797157275,170.72797157275,170.72797157275,170.72797157275,170.72797157275,170.72797157275,170.72797157275,170.72797157275,170.72797157275,170.72797157275,170.72797157275,170.72797157275,170.72797157275,170.72797157275,170.72797157275,170.72797157275,170.72797157275,170.72797157275,170.72797157275,170.72797157275,170.72797157275,170.72797157275,170.72797157275,170.72797157275,170.72797157275,170.72797157275,170.72797157275,170.72797157275,170.72797157275,170.72797157275,170.72797157275,170.72797157275,170.72797157275,170.72797157275,170.72797157275,170.72797157275,170.72797157275,170.72797157275,170.72797157275,170.72797157275,170.72797157275,170.72797157275,170.72797157275,170.72797157275,170.72797157275,170.72797157275,170.72797157275,230.94871686153,330.14341568721,-0.18635132014713,295.27429300031,-0.19297632217953,0
0.0001321875,305516852.19535,1.1899837608427e-05,3.9172434441156e-05,1.6531368201433e-05,1.0118038998082,0,0,0,0,0,0,0,0,0,0,0,0,0,0,0,0,0,0,0,0,0,0,0,0,0,0,0,0,0,0,0,0,0,0,0,0,0,0,0,0,0,0,0,0,0,0,0,0,-0.95154651118981,-0.41450611646228,-1.0623228247173,5.449113480412,3.0382177611786,1.3086961646721,-3.4433856068197,1.6299736428726,2.7604106121849,-0.45351619961751,1.6115489695499,-5.3293500668316,1.3991068254715,-1.6935903366052,1.4559556417786,-4.2605203951571,2.2040680494302,4.8986021040958,-0.99100749457386,-4.8535076408047,1.5223541401388,1.6458915299387,0.12954550905418,-4.2132326281261,2.8656567205819,-1.8629866530802,1.0184585563896,1.2251303375174,-1.7654027202848,1.2780806471954,1.4625597840669,-0.2701376745423,0.80417243902049,-4.3507316572525,-2.0713289838223,-3.6106596827969,5.1872855527839,-2.7393130168651,3.190125929582,-0.46940578369682,-1.4481152323944,-6.9661797960862,0.77213408132641,-2.179709281608,-3.4643106506477,1.0729587502594,3.887162032395,-4.1290501467155,170.96900775595,170.96900775595,170.96900775595,170.96900775595,170.96900775595,170.96900775595,170.96900775595,170.96900775595,170.96900775595,170.96900775595,170.96900775595,170.96900775595,170.96900775595,170.96900775595,170.96900775595,170.96900775595,170.96900775595,170.96900775595,170.96900775595,170.96900775595,170.96900775595,170.96900775595,170.96900775595,170.96900775595,170.96900775595,170.96900775595,170.96900775595,170.96900775595,170.96900775595,170.96900775595,170.96900775595,170.96900775595,170.96900775595,170.96900775595,170.96900775595,170.96900775595,170.96900775595,170.96900775595,170.96900775595,170.96900775595,170.96900775595,170.96900775595,170.96900775595,170.96900775595,170.96900775595,170.96900775595,170.96900775595,170.96900775595,230.95023411488,330.66193740631,-0.18776840028063,295.71253085361,-0.19441198604427,0
0.0001328125,307490996.09585,1.1954471302797e-05,3.93573963657e-05,1.6610705386829e-05,1.0118641670723,0,0,0,0,0,0,0,0,0,0,0,0,0,0,0,0,0,0,0,0,0,0,0,0,0,0,0,0,0,0,0,0,0,0,0,0,0,0,0,0,0,0,0,0,0,0,0,0,-0.95160157658408,-0.41329183307112,-1.056787221628,5.4469939913757,3.0384534131423,1.3076773324294,-3.4426764206219,1.6299246761135,2.7605241058285,-0.45409012210756,1.6133143896834,-5.3299600275875,1.3993884553995,-1.6923155035286,1.4575077359678,-4.2622415663945,2.2032869425494,4.8973001456121,-0.99079537385509,-4.8510181390741,1.5244916343271,1.6459749208074,0.12868160322087,-4.2108798030236,2.8674283912271,-1.8647526161633,1.019792206802,1.2242538920191,-1.7663093090667,1.277635771116,1.4626691289693,-0.27100012853922,0.80426717263136,-4.3499310350225,-2.0699968398134,-3.6092906273953,5.1880584973859,-2.7405619132305,3.1894680613612,-0.46923502518211,-1.4472164401785,-6.9665649913392,0.77359210748242,-2.1793746012144,-3.4640338306357,1.074223974617,3.8846809660851,-4.127047927036,171.21003601558,171.21003601558,171.21003601558,171.21003601558,171.21003601558,171.21003601558,171.21003601558,171.21003601558,171.21003601558,171.21003601558,171.21003601558,171.21003601558,171.21003601558,171.21003601558,171.21003601558,171.21003601558,171.21003601558,171.21003601558,171.21003601558,171.21003601558,171.21003601558,171.21003601558,171.21003601558,171.21003601558,171.21003601558,171.21003601558,171.21003601558,171.21003601558,171.21003601558,171.21003601558,171.21003601558,171.21003601558,171.21003601558,171.21003601558,171.21003601558,171.21003601558,171.21003601558,171.21003601558,171.21003601558,171.21003601558,171.21003601558,171.21003601558,171.21003601558,171.21003601558,171.21003601558,171.21003601558,171.21003601558,171.21003601558,230.95163322309,331.1802279821,-0.18918974972169,296.15066880914,-0.19585187335741,0
0.0001334375,309470726.97328,1.2009086544861e-05,3.9542357664851e-05,1.6690035888962e-05,1.0119244333453,0,0,0,0,0,0,0,0,0,0,0,0,0,0,0,0,0,0,0,0,0,0,0,0,0,0,0,0,0,0,0,0,0,0,0,0,0,0,0,0,0,0,0,0,0,0,0,0,-0.95165773667504,-0.41207081334999,-1.0512794956665,5.4448921413948,3.0386845974517,1.3066622756948,-3.4419742141737,1.6298731236978,2.7606344210398,-0.45466693391897,1.6150691950361,-5.3305734408664,1.3996694247138,-1.6910425454783,1.4590558245574,-4.2639396409059,2.2025108777445,4.8960038570974,-0.99058836826192,-4.8485518104893,1.5266153996357,1.6460666732085,0.12781597225412,-4.2085475528985,2.8691925187336,-1.8665218747378,1.0211149992361,1.2233792577499,-1.7672065573478,1.2771894992342,1.4627731905614,-0.27185868408434,0.8043602089118,-4.3491353873682,-2.0686633023607,-3.6079232703777,5.1888371765356,-2.741789871662,3.1888163739062,-0.46906329837142,-1.4463235322367,-6.9669403049642,0.77505090863943,-2.1790316603428,-3.4637599677191,1.0754869962641,3.8822049115808,-4.1250485515305,171.45105622318,171.45105622318,171.45105622318,171.45105622318,171.45105622318,171.45105622318,171.45105622318,171.45105622318,171.45105622318,171.45105622318,171.45105622318,171.45105622318,171.45105622318,171.45105622318,171.45105622318,171.45105622318,171.45105622318,171.45105622318,171.45105622318,171.45105622318,171.45105622318,171.45105622318,171.45105622318,171.45105622318,171.45105622318,171.45105622318,171.45105622318,171.45105622318,171.45105622318,171.45105622318,171.45105622318,171.45105622318,171.45105622318,171.45105622318,171.45105622318,171.45105622318,171.45105622318,171.45105622318,171.45105622318,171.45105622318,171.45105622318,171.45105622318,171.45105622318,171.45105622318,171.45105622318,171.45105622318,171.45105622318,171.45105622318,230.95291710764,331.69828913758,-0.1906153654819,296.58870740914,-0.19729597938949,0
0.0001340625,311456040.35459,1.2063683435592e-05,3.9727318343846e-05,1.676935977218e-05,1.0119846986285,0,0,0,0,0,0,0,0,0,0,0,0,0,0,0,0,0,0,0,0,0,0,0,0,0,0,0,0,0,0,0,0,0,0,0,0,0,0,0,0,0,0,0,0,0,0,0,0,-0.95171519204934,-0.41084336496941,-1.0457995136093,5.4428078218614,3.0389114029548,1.3056508742402,-3.4412787835641,1.6298194045528,2.7607416074484,-0.45524648038354,1.6168134437831,-5.3311904110236,1.3999497533499,-1.6897713577883,1.4605999811117,-4.2656149442114,2.2017400183216,4.8947131285502,-0.99038643665181,-4.8461083311402,1.5287258203862,1.64616670667,0.12694884319387,-4.206235545868,2.8709491767894,-1.8682943367559,1.0224271455169,1.2225063792953,-1.7680943334532,1.2767423509722,1.462871954104,-0.27271343762709,0.80445159212623,-4.3483449899139,-2.0673284031016,-3.6065575370845,5.1896213866262,-2.7429972100815,3.1881711288248,-0.46889054739046,-1.4454364544841,-6.9673058533228,0.77651053083508,-2.1786801213003,-3.4634884983787,1.0767480528188,3.87973389927,-4.1230518905521,171.69206825327,171.69206825327,171.69206825327,171.69206825327,171.69206825327,171.69206825327,171.69206825327,171.69206825327,171.69206825327,171.69206825327,171.69206825327,171.69206825327,171.69206825327,171.69206825327,171.69206825327,171.69206825327,171.69206825327,171.69206825327,171.69206825327,171.69206825327,171.69206825327,171.69206825327,171.69206825327,171.69206825327,171.69206825327,171.69206825327,171.69206825327,171.69206825327,171.69206825327,171.69206825327,171.69206825327,171.69206825327,171.69206825327,171.69206825327,171.69206825327,171.69206825327,171.69206825327,171.69206825327,171.69206825327,171.69206825327,171.69206825327,171.69206825327,171.69206825327,171.69206825327,171.69206825327,171.69206825327,171.69206825327,171.69206825327,230.95408853408,332.21612255362,-0.19204524457158,297.02664717684,-0.19874429938558,0
0.0001346875,313446931.78653,1.2118262073389e-05,3.991227840785e-05,1.6848677093417e-05,1.0120449629228,0,0,0,0,0,0,0,0,0,0,0,0,0,0,0,0,0,0,0,0,0,0,0,0,0,0,0,0,0,0,0,0,0,0,0,0,0,0,0,0,0,0,0,0,0,0,0,0,-0.95177413931149,-0.40960979172086,-1.0403471437977,5.4407409384788,3.039133903076,1.3046430063855,-3.4405899185263,1.6297639464734,2.7608457181537,-0.45582856889953,1.618547192892,-5.3318110183324,1.4002294643261,-1.6885018339387,1.462140281989,-4.2672677970658,2.200974520545,4.8934278344668,-0.99018954464111,-4.8436873822807,1.5308232818733,1.6462749425037,0.1260804744333,-4.2039434617947,2.8726984337856,-1.8700698909349,1.0237288492055,1.2216352018919,-1.7689724990095,1.2762948616931,1.4629654085003,-0.27356445543582,0.8045413675026,-4.3475600987018,-2.0659921776674,-3.6051933473163,5.1904109188494,-2.744184245979,3.1875325774502,-0.4687167190712,-1.4445551445266,-6.9676617505907,0.77797101510884,-2.1783196559691,-3.4632188518104,1.0780073735418,3.8772679722324,-4.1210578264855,171.93307198318,171.93307198318,171.93307198318,171.93307198318,171.93307198318,171.93307198318,171.93307198318,171.93307198318,171.93307198318,171.93307198318,171.93307198318,171.93307198318,171.93307198318,171.93307198318,171.93307198318,171.93307198318,171.93307198318,171.93307198318,171.93307198318,171.93307198318,171.93307198318,171.93307198318,171.93307198318,171.93307198318,171.93307198318,171.93307198318,171.93307198318,171.93307198318,171.93307198318,171.93307198318,171.93307198318,171.93307198318,171.93307198318,171.93307198318,171.93307198318,171.93307198318,171.93307198318,171.93307198318,171.93307198318,171.93307198318,171.93307198318,171.93307198318,171.93307198318,171.93307198318,171.93307198318,171.93307198318,171.93307198318,171.93307198318,230.95515011087,332.73372987325,-0.19347938379667,297.46448861491,-0.20019682850761,0
0.0001353125,315443396.83668,1.2172822555583e-05,4.0097237861966e-05,1.6927987904859e-05,1.0121052262296,0,0,0,0,0,0,0,0,0,0,0,0,0,0,0,0,0,0,0,0,0,0,0,0,0,0,0,0,0,0,0,0,0,0,0,0,0,0,0,0,0,0,0,0,0,0,0,0,-0.95183477067557,-0.40837039259838,-1.0349222567482,5.4386914099855,3.0393521562076,1.3036385491178,-3.4399074018951,1.6297071829112,2.7609468097653,-0.45641297079338,1.620270498412,-5.3324353192403,1.4005085840167,-1.6872338683643,1.4636768062636,-4.2688985161852,2.2002145307008,4.8921478351397,-0.98999766435962,-4.841288649151,1.532908168141,1.646391303942,0.12521115467812,-4.2016709935775,2.8744403532758,-1.8718484073516,1.0250203054433,1.2207656714839,-1.7698409092569,1.2758475801954,1.463053546548,-0.27441177468067,0.8046295814952,-4.3467809497371,-2.0646546659329,-3.6038306190148,5.1912055596306,-2.7453512965088,3.1869009580969,-0.46854176423864,-1.4436795315105,-6.9680081101813,0.77943239613824,-2.177949948014,-3.4629504509176,1.079265178694,3.874807187695,-4.1190662529366,172.17406729292,172.17406729292,172.17406729292,172.17406729292,172.17406729292,172.17406729292,172.17406729292,172.17406729292,172.17406729292,172.17406729292,172.17406729292,172.17406729292,172.17406729292,172.17406729292,172.17406729292,172.17406729292,172.17406729292,172.17406729292,172.17406729292,172.17406729292,172.17406729292,172.17406729292,172.17406729292,172.17406729292,172.17406729292,172.17406729292,172.17406729292,172.17406729292,172.17406729292,172.17406729292,172.17406729292,172.17406729292,172.17406729292,172.17406729292,172.17406729292,172.17406729292,172.17406729292,172.17406729292,172.17406729292,172.17406729292,172.17406729292,172.17406729292,172.17406729292,172.17406729292,172.17406729292,172.17406729292,172.17406729292,172.17406729292,230.95610428995,333.25111270557,-0.19491777989159,297.90223220417,-0.20165356190203,0
0.0001359375,317445431.09445,1.2227364977958e-05,4.0282196711228e-05,1.7007292253163e-05,1.01216548855,0,0,0,0,0,0,0,0,0,0,0,0,0,0,0,0,0,0,0,0,0,0,0,0,0,0,0,0,0,0,0,0,0,0,0,0,0,0,0,0,0,0,0,0,0,0,0,0,-0.95189727352545,-0.40712546066964,-1.0295247257206,5.4366591667264,3.0395662062666,1.3026373781998,-3.4392310099272,1.6296495487131,2.7610449425418,-0.45699942435176,1.6219834157212,-5.3330633466175,1.400787142229,-1.6859673595637,1.4652096357998,-4.2705074146409,2.1994601827194,4.8908729781349,-0.98981077418571,-4.8389118205041,1.5349808592309,1.6465157163045,0.12434120102852,-4.19941784773,2.8761749944543,-1.8736297382046,1.0263017008651,1.2198977347508,-1.7706994139824,1.2754010650417,1.4631363654411,-0.27525540540474,0.80471628191809,-4.3460077584662,-2.0633159123558,-3.6024692723171,5.1920050915682,-2.7464986785729,3.1862764938712,-0.46836563914683,-1.4428095359565,-6.9683450453916,0.78089470111331,-2.1775706953244,-3.4626827141938,1.0805216789747,3.8723516183169,-4.1170770738217,172.41505406499,172.41505406499,172.41505406499,172.41505406499,172.41505406499,172.41505406499,172.41505406499,172.41505406499,172.41505406499,172.41505406499,172.41505406499,172.41505406499,172.41505406499,172.41505406499,172.41505406499,172.41505406499,172.41505406499,172.41505406499,172.41505406499,172.41505406499,172.41505406499,172.41505406499,172.41505406499,172.41505406499,172.41505406499,172.41505406499,172.41505406499,172.41505406499,172.41505406499,172.41505406499,172.41505406499,172.41505406499,172.41505406499,172.41505406499,172.41505406499,172.41505406499,172.41505406499,172.41505406499,172.41505406499,172.41505406499,172.41505406499,172.41505406499,172.41505406499,172.41505406499,172.41505406499,172.41505406499,172.41505406499,172.41505406499,230.95695337122,333.76827262939,-0.19636042929056,298.33987840284,-0.20311449463759,0
0.0001365625,319453030.17216,1.228188943472e-05,4.0467154960614e-05,1.7086590179524e-05,1.0122257498856,0,0,0,0,0,0,0,0,0,0,0,0,0,0,0,0,0,0,0,0,0,0,0,0,0,0,0,0,0,0,0,0,0,0,0,0,0,0,0,0,0,0,0,0,0,0,0,0,-0.9519618298604,-0.40587528213098,-1.0241544273442,5.4346441492653,3.0397760835424,1.3016393684451,-3.4385605117063,1.6295914746808,2.7611401803842,-0.45758763888082,1.6236859995455,-5.3336951111247,1.4010651721855,-1.6847022120991,1.4667388550201,-4.2720948025662,2.1987115956674,4.8896031000681,-0.98962885829465,-4.8365565873553,1.5370417278116,1.6466481071714,0.12347095621831,-4.1971837454643,2.8779024124294,-1.8754137194017,1.0275732136895,1.219031339209,-1.7715478577616,1.2749558795581,1.4632138669215,-0.27609533319102,0.80480151787493,-4.3452407198649,-2.0619759661486,-3.6011092323616,5.1928092941481,-2.7476267088592,3.1856593902781,-0.4681883062904,-1.4419450698877,-6.9686726708539,0.78235794856381,-2.1771816119257,-3.4624150580475,1.0817770748011,3.8699013532228,-4.115090202472,172.65603218421,172.65603218421,172.65603218421,172.65603218421,172.65603218421,172.65603218421,172.65603218421,172.65603218421,172.65603218421,172.65603218421,172.65603218421,172.65603218421,172.65603218421,172.65603218421,172.65603218421,172.65603218421,172.65603218421,172.65603218421,172.65603218421,172.65603218421,172.65603218421,172.65603218421,172.65603218421,172.65603218421,172.65603218421,172.65603218421,172.65603218421,172.65603218421,172.65603218421,172.65603218421,172.65603218421,172.65603218421,172.65603218421,172.65603218421,172.65603218421,172.65603218421,172.65603218421,172.65603218421,172.65603218421,172.65603218421,172.65603218421,172.65603218421,172.65603218421,172.65603218421,172.65603218421,172.65603218421,172.65603218421,172.65603218421,230.95769950943,334.28521119633,-0.19780732840262,298.7774276462,-0.20457962182393,0
0.0001371875,321466189.70596,1.2336396018459e-05,4.0652112615042e-05,1.7165881719794e-05,1.0122860102375,0,0,0,0,0,0,0,0,0,0,0,0,0,0,0,0,0,0,0,0,0,0,0,0,0,0,0,0,0,0,0,0,0,0,0,0,0,0,0,0,0,0,0,0,0,0,0,0,-0.95202861570051,-0.40462013512342,-1.018811242107,5.4326463068648,3.03998180573,1.3006443939735,-3.4378956698004,1.6295333811461,2.7612325907822,-0.45817729946306,1.6253783039635,-5.3343306022348,1.4013427103103,-1.6834383390819,1.4682645508866,-4.2736609873807,2.1979688720121,4.8883380285391,-0.98945190624559,-4.8342226428329,1.5390911354416,1.6467884064037,0.12260078523312,-4.1949684228177,2.8796226585278,-1.8772001721181,1.0288350138803,1.2181664332949,-1.7723860810401,1.2745125855562,1.4632860576485,-0.27693152237687,0.80488533957751,-4.344480008248,-2.0606348815821,-3.5997504326311,5.1936179451082,-2.7487357038623,3.1850498335991,-0.4680097354831,-1.4410860369379,-6.9689911028595,0.78382214751058,-2.1767824301495,-3.4621469002537,1.0830315557068,3.8674564987148,-4.1131055607742,172.89700153763,172.89700153763,172.89700153763,172.89700153763,172.89700153763,172.89700153763,172.89700153763,172.89700153763,172.89700153763,172.89700153763,172.89700153763,172.89700153763,172.89700153763,172.89700153763,172.89700153763,172.89700153763,172.89700153763,172.89700153763,172.89700153763,172.89700153763,172.89700153763,172.89700153763,172.89700153763,172.89700153763,172.89700153763,172.89700153763,172.89700153763,172.89700153763,172.89700153763,172.89700153763,172.89700153763,172.89700153763,172.89700153763,172.89700153763,172.89700153763,172.89700153763,172.89700153763,172.89700153763,172.89700153763,172.89700153763,172.89700153763,172.89700153763,172.89700153763,172.89700153763,172.89700153763,172.89700153763,172.89700153763,172.89700153763,230.95834472445,334.8019299334,-0.19925847340148,299.21488034701,-0.20604893854535,0
0.0001378125,323484905.35698,1.239088482011e-05,4.083706967938e-05,1.7245166904631e-05,1.0123462696074,0,0,0,0,0,0,0,0,0,0,0,0,0,0,0,0,0,0,0,0,0,0,0,0,0,0,0,0,0,0,0,0,0,0,0,0,0,0,0,0,0,0,0,0,0,0,0,0,-0.95209780036945,-0.40336028872108,-1.0134950548453,5.4306655960584,3.0401833792572,1.2996523285789,-3.437236240555,1.6294756705878,2.761322244758,-0.45876807208453,1.6270603822556,-5.334969789895,1.4016197958874,-1.6821756637801,1.4697868126946,-4.2752062741368,2.1972320959508,4.887077584285,-0.9892799124706,-4.8319096817656,1.5411294284622,1.6469365462611,0.12173107147855,-4.1927716309917,2.8813357804803,-1.878988904887,1.0300872634876,1.21730296651,-1.7732139208802,1.27407173576,1.4633529494126,-0.27776391949397,0.8049677979954,-4.3437257773749,-2.0592927182186,-3.598392817259,5.1944308217803,-2.7498259798906,3.1844479893117,-0.46782990445561,-1.4402323326803,-6.969300460031,0.78528729656925,-2.1763729023186,-3.4618776640824,1.0842852996256,3.8650171785657,-4.1111230783294,173.13796201435,173.13796201435,173.13796201435,173.13796201435,173.13796201435,173.13796201435,173.13796201435,173.13796201435,173.13796201435,173.13796201435,173.13796201435,173.13796201435,173.13796201435,173.13796201435,173.13796201435,173.13796201435,173.13796201435,173.13796201435,173.13796201435,173.13796201435,173.13796201435,173.13796201435,173.13796201435,173.13796201435,173.13796201435,173.13796201435,173.13796201435,173.13796201435,173.13796201435,173.13796201435,173.13796201435,173.13796201435,173.13796201435,173.13796201435,173.13796201435,173.13796201435,173.13796201435,173.13796201435,173.13796201435,173.13796201435,173.13796201435,173.13796201435,173.13796201435,173.13796201435,173.13796201435,173.13796201435,173.13796201435,173.13796201435,230.95889091112,335.3184303451,-0.20071386025621,299.65223689655,-0.2075224398844,0
0.0001384375,325509172.81238,1.2445355928966e-05,4.1022026158448e-05,1.7324445759833e-05,1.0124065279966,0,0,0,0,0,0,0,0,0,0,0,0,0,0,0,0,0,0,0,0,0,0,0,0,0,0,0,0,0,0,0,0,0,0,0,0,0,0,0,0,0,0,0,0,0,0,0,0,-0.95216954569464,-0.4020960019879,-1.0082057551304,5.4287019792088,3.0403808008676,1.2986630461442,-3.4365819745971,1.6294187195473,2.7614092167251,-0.45935960874458,1.6287322866667,-5.3356126263269,1.4018964706164,-1.6809141209324,1.4713057318202,-4.2767309657275,2.1965013320677,4.8858215835502,-0.98911287574559,-4.8296174004836,1.5431569337227,1.6470924614265,0.12086221275858,-4.1905931364802,2.8830418224988,-1.880779715903,1.0313301171159,1.2164408895947,-1.774031211792,1.2736338650842,1.4634145592972,-0.27859245667925,0.80504894440813,-4.3429781605895,-2.0579495411287,-3.5970363429785,5.1952477026347,-2.7508978530165,3.1838540008429,-0.46764879928637,-1.4393838451082,-6.9696008637532,0.78675338312226,-2.1759528022376,-3.4616067832559,1.0855384721683,3.8625835339283,-4.1091426916998,173.3789135054,173.3789135054,173.3789135054,173.3789135054,173.3789135054,173.3789135054,173.3789135054,173.3789135054,173.3789135054,173.3789135054,173.3789135054,173.3789135054,173.3789135054,173.3789135054,173.3789135054,173.3789135054,173.3789135054,173.3789135054,173.3789135054,173.3789135054,173.3789135054,173.3789135054,173.3789135054,173.3789135054,173.3789135054,173.3789135054,173.3789135054,173.3789135054,173.3789135054,173.3789135054,173.3789135054,173.3789135054,173.3789135054,173.3789135054,173.3789135054,173.3789135054,173.3789135054,173.3789135054,173.3789135054,173.3789135054,173.3789135054,173.3789135054,173.3789135054,173.3789135054,173.3789135054,173.3789135054,173.3789135054,173.3789135054,230.95933985057,335.83471391494,-0.2021734847822,300.08949766609,-0.20900012096074,0
0.0001390625,327538987.78643,1.2499809432602e-05,4.1206982057023e-05,1.7403718306549e-05,1.0124667854068,0,0,0,0,0,0,0,0,0,0,0,0,0,0,0,0,0,0,0,0,0,0,0,0,0,0,0,0,0,0,0,0,0,0,0,0,0,0,0,0,0,0,0,0,0,0,0,0,-0.95224400508624,-0.40082752316507,-1.0029432376744,5.4267554231832,3.0405740594446,1.297676421135,-3.4359326174818,1.6293628701522,2.7614935842675,-0.45995155218215,1.6303940681072,-5.3362590477528,1.4021727780672,-1.6796536576358,1.4728214013745,-4.2782353630093,2.1957766241295,4.8845698405936,-0.98895079863301,-4.8273454968266,1.5451739543011,1.6472560889692,0.1199946173046,-4.1884327210785,2.8847408253086,-1.882572395356,1.0325637225364,1.2155801547557,-1.7748377865787,1.2731994810162,1.4634709097464,-0.27941705478818,0.8051288298771,-4.3422372708326,-2.0566054210775,-3.5956809805686,5.1960683689172,-2.7519516389983,3.183267988554,-0.46746641458122,-1.4385404552659,-6.9698924384616,0.78822038239422,-2.1755219264274,-3.461333707614,1.0867912258836,3.8601557227848,-4.1071643437856,173.61985590366,173.61985590366,173.61985590366,173.61985590366,173.61985590366,173.61985590366,173.61985590366,173.61985590366,173.61985590366,173.61985590366,173.61985590366,173.61985590366,173.61985590366,173.61985590366,173.61985590366,173.61985590366,173.61985590366,173.61985590366,173.61985590366,173.61985590366,173.61985590366,173.61985590366,173.61985590366,173.61985590366,173.61985590366,173.61985590366,173.61985590366,173.61985590366,173.61985590366,173.61985590366,173.61985590366,173.61985590366,173.61985590366,173.61985590366,173.61985590366,173.61985590366,173.61985590366,173.61985590366,173.61985590366,173.61985590366,173.61985590366,173.61985590366,173.61985590366,173.61985590366,173.61985590366,173.61985590366,173.61985590366,173.61985590366,230.95969321995,336.35078210665,-0.20363734260278,300.52666300913,-0.21048197688269,0
0.0001396875,329574346.02163,1.2554245417007e-05,4.1391937379842e-05,1.7482984561961e-05,1.0125270418395,0,0,0,0,0,0,0,0,0,0,0,0,0,0,0,0,0,0,0,0,0,0,0,0,0,0,0,0,0,0,0,0,0,0,0,0,0,0,0,0,0,0,0,0,0,0,0,0,-0.95232132254693,-0.39955508896524,-0.99770740270255,5.4248258980927,3.0407631380469,1.2966923291122,-3.4352879107054,1.629308421662,2.7615754279319,-0.46054353993194,1.6320457758625,-5.3369089758625,1.4024487630647,-1.6783942341403,1.4743339158946,-4.2797197648025,2.1950579941383,4.8833221702991,-0.9887936869295,-4.8250936705296,1.5471807654846,1.6474273682909,0.11912870005504,-4.1862901816948,2.8864328261722,-1.884366727672,1.0337882214142,1.2147207159087,-1.7756334773681,1.272769053431,1.4635220286715,-0.28023762601067,0.80520750471013,-4.3415032004595,-2.0552604347372,-3.594326716147,5.1968926065263,-2.7529876531997,3.1826900490315,-0.46728275360238,-1.4377020379372,-6.9701753116674,0.78968825651487,-2.1750800952117,-3.4610579095255,1.0880436995285,3.8577339189468,-4.1051879832604,173.86078910374,173.86078910374,173.86078910374,173.86078910374,173.86078910374,173.86078910374,173.86078910374,173.86078910374,173.86078910374,173.86078910374,173.86078910374,173.86078910374,173.86078910374,173.86078910374,173.86078910374,173.86078910374,173.86078910374,173.86078910374,173.86078910374,173.86078910374,173.86078910374,173.86078910374,173.86078910374,173.86078910374,173.86078910374,173.86078910374,173.86078910374,173.86078910374,173.86078910374,173.86078910374,173.86078910374,173.86078910374,173.86078910374,173.86078910374,173.86078910374,173.86078910374,173.86078910374,173.86078910374,173.86078910374,173.86078910374,173.86078910374,173.86078910374,173.86078910374,173.86078910374,173.86078910374,173.86078910374,173.86078910374,173.86078910374,230.95995259945,336.86663636509,-0.20510542915703,300.96373326382,-0.21196800279965,0
0.0001403125,331615243.2899,1.2608663966326e-05,4.1576892131609e-05,1.7562244539226e-05,1.0125872972963,0,0,0,0,0,0,0,0,0,0,0,0,0,0,0,0,0,0,0,0,0,0,0,0,0,0,0,0,0,0,0,0,0,0,0,0,0,0,0,0,0,0,0,0,0,0,0,0,-0.95240163158463,-0.39827892413855,-0.99249815640117,5.4229133762546,3.0409480161236,1.2957106473266,-3.4346475924958,1.6292556224877,2.7616548309708,-0.46113520752441,1.6336874572654,-5.3375623192757,1.4027244710513,-1.6771358240521,1.4758433708673,-4.2811844678373,2.1943454413303,4.8820783908625,-0.98864154908832,-4.8228616235268,1.5491776111798,1.6476062410602,0.11826487932324,-4.1841653302113,2.8881178588384,-1.8861624937524,1.0350037501541,1.2138625289855,-1.776418116417,1.2723430043072,1.4635679494018,-0.2810540758357,0.80528501791531,-4.340776021023,-2.0539146647897,-3.5929735517753,5.197720207737,-2.7540062104239,3.1821202544297,-0.46709782805342,-1.4368684624969,-6.9704496139711,0.79115695338231,-2.1746271534675,-3.4607788905849,1.0892960173125,3.8553183106361,-4.1032135641507,174.10171300189,174.10171300189,174.10171300189,174.10171300189,174.10171300189,174.10171300189,174.10171300189,174.10171300189,174.10171300189,174.10171300189,174.10171300189,174.10171300189,174.10171300189,174.10171300189,174.10171300189,174.10171300189,174.10171300189,174.10171300189,174.10171300189,174.10171300189,174.10171300189,174.10171300189,174.10171300189,174.10171300189,174.10171300189,174.10171300189,174.10171300189,174.10171300189,174.10171300189,174.10171300189,174.10171300189,174.10171300189,174.10171300189,174.10171300189,174.10171300189,174.10171300189,174.10171300189,174.10171300189,174.10171300189,174.10171300189,174.10171300189,174.10171300189,174.10171300189,174.10171300189,174.10171300189,174.10171300189,174.10171300189,174.10171300189,230.96011947639,337.38227811709,-0.20657773973832,301.40070875581,-0.21345819387894,0
0.0001409375,333661675.3937,1.2663065163012e-05,4.1761846316998e-05,1.764149824829e-05,1.0126475517787,0,0,0,0,0,0,0,0,0,0,0,0,0,0,0,0,0,0,0,0,0,0,0,0,0,0,0,0,0,0,0,0,0,0,0,0,0,0,0,0,0,0,0,0,0,0,0,0,-0.95248505407783,-0.39699924119357,-0.98731541135138,5.4210178311826,3.0411286718159,1.2947312553048,-3.4340113988492,1.6292046632484,2.7617318789551,-0.46172619073922,1.6353191574199,-5.3382189743633,1.402999947428,-1.675878414699,1.4773498622822,-4.2826297667884,2.193638941359,4.8808383264413,-0.98849439566444,-4.8206490604236,1.5511647010923,1.6477926509557,0.11740357395919,-4.1820579934796,2.889795953493,-1.8879594727871,1.0362104408078,1.2130055522355,-1.7771915370867,1.2719216978775,1.463608710606,-0.28186630431558,0.80536141671742,-4.3400557826573,-2.0525682000193,-3.5916215062395,5.1985509730182,-2.7550076247761,3.1815586521655,-0.4669116579218,-1.4360395937705,-6.9707154792817,0.79262640542796,-2.174162971348,-3.4604961886159,1.0905482882513,3.8529090986915,-4.1012410455384,174.34262749585,174.34262749585,174.34262749585,174.34262749585,174.34262749585,174.34262749585,174.34262749585,174.34262749585,174.34262749585,174.34262749585,174.34262749585,174.34262749585,174.34262749585,174.34262749585,174.34262749585,174.34262749585,174.34262749585,174.34262749585,174.34262749585,174.34262749585,174.34262749585,174.34262749585,174.34262749585,174.34262749585,174.34262749585,174.34262749585,174.34262749585,174.34262749585,174.34262749585,174.34262749585,174.34262749585,174.34262749585,174.34262749585,174.34262749585,174.34262749585,174.34262749585,174.34262749585,174.34262749585,174.34262749585,174.34262749585,174.34262749585,174.34262749585,174.34262749585,174.34262749585,174.34262749585,174.34262749585,174.34262749585,174.34262749585,230.96019524572,337.89770877235,-0.20805426947695,301.83758980119,-0.2149525453049,0
0.0001415625,335713638.16741,1.2717449087714e-05,4.1946799940662e-05,1.7720745696231e-05,1.0127078052882,0,0,0,0,0,0,0,0,0,0,0,0,0,0,0,0,0,0,0,0,0,0,0,0,0,0,0,0,0,0,0,0,0,0,0,0,0,0,0,0,0,0,0,0,0,0,0,0,-0.95257169912943,-0.39571624037106,-0.98215908703751,5.4191392368353,3.0413050843013,1.2937540354786,-3.4333790644694,1.6291556713779,2.7618066594905,-0.46231612695233,1.6369409189651,-5.3388788260148,1.4032752369388,-1.6746220070981,1.4788534860743,-4.2840559541064,2.1929384454584,4.8796018097412,-0.98835223874384,-4.818455689039,1.5531422088492,1.6479865435173,0.11654520098897,-4.179968013129,2.8914671366863,-1.889757443979,1.0374084220246,1.2121497465628,-1.7779535746861,1.2715054318133,1.4636443561759,-0.28267420666513,0.805436746147,-4.3393425134835,-2.0512211353049,-3.5902706153869,5.1993847126588,-2.7559922094223,3.1810052646287,-0.46672427108945,-1.4352152929911,-6.9709730446747,0.79409652829444,-2.1736874448108,-3.4602093845398,1.091800605528,3.8505064944348,-4.0992703913424,174.58353248485,174.58353248485,174.58353248485,174.58353248485,174.58353248485,174.58353248485,174.58353248485,174.58353248485,174.58353248485,174.58353248485,174.58353248485,174.58353248485,174.58353248485,174.58353248485,174.58353248485,174.58353248485,174.58353248485,174.58353248485,174.58353248485,174.58353248485,174.58353248485,174.58353248485,174.58353248485,174.58353248485,174.58353248485,174.58353248485,174.58353248485,174.58353248485,174.58353248485,174.58353248485,174.58353248485,174.58353248485,174.58353248485,174.58353248485,174.58353248485,174.58353248485,174.58353248485,174.58353248485,174.58353248485,174.58353248485,174.58353248485,174.58353248485,174.58353248485,174.58353248485,174.58353248485,174.58353248485,174.58353248485,174.58353248485,230.96018120694,338.41292972448,-0.20953501345912,302.27437670946,-0.21645105230841,0
0.0001421875,337771127.47873,1.27718158194e-05,4.213175300723e-05,1.7799986888028e-05,1.0127680578264,0,0,0,0,0,0,0,0,0,0,0,0,0,0,0,0,0,0,0,0,0,0,0,0,0,0,0,0,0,0,0,0,0,0,0,0,0,0,0,0,0,0,0,0,0,0,0,0,-0.95266166196889,-0.39443010966738,-0.97702911031416,5.4172775669654,3.0414772360126,1.2927788737362,-3.4327503244024,1.6291087078079,2.7618792619651,-0.46290465568294,1.6385527819718,-5.3395417476906,1.4035503830654,-1.6733666163154,1.4803543376642,-4.2854633195331,2.1922438800778,4.8783686843004,-0.98821509143645,-4.8162812216746,1.5551102713267,1.6481878659909,0.11569017371747,-4.1778952447508,2.8931314313269,-1.8915561878031,1.038597819965,1.2112950758211,-1.7787040677294,1.271094430072,1.4636749352054,-0.28347767331521,0.80551104875116,-4.3386362186193,-2.049873571629,-3.5889209328103,5.2002212484244,-2.7569602763321,3.1804600894534,-0.46653570317472,-1.4343954186798,-6.9712224494498,0.79556721969874,-2.1732004961927,-3.4599181089554,1.0930530460615,3.8481107171898,-4.0973015701006,174.82442786941,174.82442786941,174.82442786941,174.82442786941,174.82442786941,174.82442786941,174.82442786941,174.82442786941,174.82442786941,174.82442786941,174.82442786941,174.82442786941,174.82442786941,174.82442786941,174.82442786941,174.82442786941,174.82442786941,174.82442786941,174.82442786941,174.82442786941,174.82442786941,174.82442786941,174.82442786941,174.82442786941,174.82442786941,174.82442786941,174.82442786941,174.82442786941,174.82442786941,174.82442786941,174.82442786941,174.82442786941,174.82442786941,174.82442786941,174.82442786941,174.82442786941,174.82442786941,174.82442786941,174.82442786941,174.82442786941,174.82442786941,174.82442786941,174.82442786941,174.82442786941,174.82442786941,174.82442786941,174.82442786941,174.82442786941,230.96007855915,338.92794235234,-0.21101996651324,302.71106978634,-0.21795371011127,0
0.0001428125,339834139.23022,1.2826165435257e-05,4.2316705521316e-05,1.7879221826985e-05,1.0128283093947,0,0,0,0,0,0,0,0,0,0,0,0,0,0,0,0,0,0,0,0,0,0,0,0,0,0,0,0,0,0,0,0,0,0,0,0,0,0,0,0,0,0,0,0,0,0,0,0,-0.95275502289428,-0.39314102526652,-0.9719254158208,5.4154327945864,3.0416451147457,1.2918056600144,-3.4321249145283,1.6290637660713,2.7619497770603,-0.46349141854806,1.6401547837751,-5.3402076016251,1.403825427527,-1.6721122712552,1.4818525111962,-4.286852150243,2.1915551463688,4.8771388066131,-0.98808296733433,-4.8141253751833,1.5570689892747,1.6483965669519,0.11483890019578,-4.1758395584084,2.8947888564684,-1.8933554871563,1.0397787591895,1.2104415071278,-1.7794428585478,1.27068883791,1.4637005016356,-0.28427658945521,0.80558436435886,-4.3379368794093,-2.0485256158438,-3.5875725300302,5.2010604145543,-2.7579121359762,3.1799230996995,-0.46634599698822,-1.4335798276887,-6.9714638358572,0.79703835819008,-2.1727020745936,-3.4596220477329,1.0943056701421,3.8457219916959,-4.0953345549361,175.06531355125,175.06531355125,175.06531355125,175.06531355125,175.06531355125,175.06531355125,175.06531355125,175.06531355125,175.06531355125,175.06531355125,175.06531355125,175.06531355125,175.06531355125,175.06531355125,175.06531355125,175.06531355125,175.06531355125,175.06531355125,175.06531355125,175.06531355125,175.06531355125,175.06531355125,175.06531355125,175.06531355125,175.06531355125,175.06531355125,175.06531355125,175.06531355125,175.06531355125,175.06531355125,175.06531355125,175.06531355125,175.06531355125,175.06531355125,175.06531355125,175.06531355125,175.06531355125,175.06531355125,175.06531355125,175.06531355125,175.06531355125,175.06531355125,175.06531355125,175.06531355125,175.06531355125,175.06531355125,175.06531355125,175.06531355125,230.95988839255,339.44274802162,-0.21250912350005,303.1476693363,-0.21946051401341,0
0.0001434375,341902669.36106,1.2880498010725e-05,4.2501657487526e-05,1.7958450515392e-05,1.0128885599946,0,0,0,0,0,0,0,0,0,0,0,0,0,0,0,0,0,0,0,0,0,0,0,0,0,0,0,0,0,0,0,0,0,0,0,0,0,0,0,0,0,0,0,0,0,0,0,0,-0.95285184638085,-0.39184915196551,-0.96684794626604,5.4136048914216,3.0418087154402,1.2908342887767,-3.4315025727971,1.6290207741196,2.7620182963842,-0.46407605882017,1.6417469589683,-5.3408762384475,1.4041004098181,-1.6708590149743,1.4833480988871,-4.2882227305413,2.1908721203873,4.8759120477487,-0.9879558800355,-4.811987871745,1.5590184293329,1.6486125959821,0.11399178195794,-4.1738008382787,2.8964394271803,-1.8951551280747,1.0409513634061,1.2095890111062,-1.7801697943901,1.2702887195627,1.4637211140853,-0.28507083434643,0.80565672998439,-4.3372444524498,-2.0471773804495,-3.5862254971844,5.2019020586516,-2.7588480969798,3.1793942447088,-0.46615520230881,-1.4327683761266,-6.9716973487346,0.79850980237433,-2.1721921564216,-3.4593209466608,1.0955585213425,3.8433405452835,-4.0933693234587,175.3061894332,175.3061894332,175.3061894332,175.3061894332,175.3061894332,175.3061894332,175.3061894332,175.3061894332,175.3061894332,175.3061894332,175.3061894332,175.3061894332,175.3061894332,175.3061894332,175.3061894332,175.3061894332,175.3061894332,175.3061894332,175.3061894332,175.3061894332,175.3061894332,175.3061894332,175.3061894332,175.3061894332,175.3061894332,175.3061894332,175.3061894332,175.3061894332,175.3061894332,175.3061894332,175.3061894332,175.3061894332,175.3061894332,175.3061894332,175.3061894332,175.3061894332,175.3061894332,175.3061894332,175.3061894332,175.3061894332,175.3061894332,175.3061894332,175.3061894332,175.3061894332,175.3061894332,175.3061894332,175.3061894332,175.3061894332,230.95961168244,339.95734808679,-0.21400247921355,303.58417566487,-0.22097145932172,0
0.0001440625,343976713.84883,1.2934813619391e-05,4.2686608910455e-05,1.8037672955026e-05,1.0129488096273,0,0,0,0,0,0,0,0,0,0,0,0,0,0,0,0,0,0,0,0,0,0,0,0,0,0,0,0,0,0,0,0,0,0,0,0,0,0,0,0,0,0,0,0,0,0,0,0,-0.95295218040386,-0.3905546435965,-0.96179665278773,5.4117938276122,3.0419680415915,1.2898646596768,-3.4308830408251,1.628979598936,2.7620849123021,-0.4646582208011,1.6433293396836,-5.3415474969038,1.4043753668671,-1.6696069048396,1.4848411902437,-4.2895753410136,2.1901946536559,4.8746882945548,-0.98783384238374,-4.8098684401856,1.5609586274177,1.6488359035435,0.11314921294823,-4.1717789815377,2.8980831548363,-1.8969549004079,1.042115755986,1.2087375621696,-1.7808847287085,1.2698940589,1.4637368357845,-0.28586028054971,0.80572817987879,-4.3365588688963,-2.0458289833987,-3.5848799435315,5.202746042141,-2.7597684656356,3.1788734511844,-0.46596337559836,-1.4319609203683,-6.9719231340185,0.79998139054933,-2.1716707459313,-3.4590146146922,1.0968116265777,3.8409666050552,-4.0914058575263,175.54705541905,175.54705541905,175.54705541905,175.54705541905,175.54705541905,175.54705541905,175.54705541905,175.54705541905,175.54705541905,175.54705541905,175.54705541905,175.54705541905,175.54705541905,175.54705541905,175.54705541905,175.54705541905,175.54705541905,175.54705541905,175.54705541905,175.54705541905,175.54705541905,175.54705541905,175.54705541905,175.54705541905,175.54705541905,175.54705541905,175.54705541905,175.54705541905,175.54705541905,175.54705541905,175.54705541905,175.54705541905,175.54705541905,175.54705541905,175.54705541905,175.54705541905,175.54705541905,175.54705541905,175.54705541905,175.54705541905,175.54705541905,175.54705541905,175.54705541905,175.54705541905,175.54705541905,175.54705541905,175.54705541905,175.54705541905,230.95924928216,340.47174389339,-0.21550002830452,304.02058908063,-0.22248654139413,0
0.0001446875,346056268.71133,1.2989112333364e-05,4.2871559794697e-05,1.811688914782e-05,1.0130090582941,0,0,0,0,0,0,0,0,0,0,0,0,0,0,0,0,0,0,0,0,0,0,0,0,0,0,0,0,0,0,0,0,0,0,0,0,0,0,0,0,0,0,0,0,0,0,0,0,-0.95305605579154,-0.38925764390825,-0.95677149327126,5.4099995710847,3.0421231062024,1.2888966765775,-3.4302660639546,1.6289400533277,2.7621497170972,-0.46523754925121,1.6449019545831,-5.3422212031359,1.4046503327355,-1.6683560130126,1.4863318714766,-4.2909102593124,2.1895225750202,4.8734674499682,-0.98771686765673,-4.8077668153166,1.562889592993,1.6490664403101,0.11231157846924,-4.1697738995176,2.8997200443952,-1.8987545980102,1.0432720606359,1.2078871381913,-1.7815875216753,1.2695047626997,1.4637477338141,-0.28664479309743,0.80579874540381,-4.3358800334853,-2.0444805471417,-3.5835359982881,5.2035922405654,-2.760673545617,3.1783606254204,-0.4657705798829,-1.4311573178429,-6.9721413406701,0.80145294122981,-2.1711378756397,-3.4587029259304,1.0980649965976,3.8386003947756,-4.0894441436309,175.78791141338,175.78791141338,175.78791141338,175.78791141338,175.78791141338,175.78791141338,175.78791141338,175.78791141338,175.78791141338,175.78791141338,175.78791141338,175.78791141338,175.78791141338,175.78791141338,175.78791141338,175.78791141338,175.78791141338,175.78791141338,175.78791141338,175.78791141338,175.78791141338,175.78791141338,175.78791141338,175.78791141338,175.78791141338,175.78791141338,175.78791141338,175.78791141338,175.78791141338,175.78791141338,175.78791141338,175.78791141338,175.78791141338,175.78791141338,175.78791141338,175.78791141338,175.78791141338,175.78791141338,175.78791141338,175.78791141338,175.78791141338,175.78791141338,175.78791141338,175.78791141338,175.78791141338,175.78791141338,175.78791141338,175.78791141338,230.95880192087,340.98593677927,-0.21700176549512,304.45690989564,-0.22400575563739,0
0.0001453125,348141330.0087,1.3043394222843e-05,4.3056510144848e-05,1.819609909655e-05,1.0130693059963,0,0,0,0,0,0,0,0,0,0,0,0,0,0,0,0,0,0,0,0,0,0,0,0,0,0,0,0,0,0,0,0,0,0,0,0,0,0,0,0,0,0,0,0,0,0,0,0,-0.95316348625032,-0.38795828701106,-0.95177243427761,5.408222087158,3.0422739322749,1.2879302500095,-3.4296513930006,1.6289019057053,2.7622128029624,-0.46581368897563,1.646464830697,-5.3428971710126,1.4049253384827,-1.667106426249,1.4878202240475,-4.292227758654,2.1888556912706,4.8722494335471,-0.98760496653218,-4.8056827391812,1.5648113148317,1.6493041569567,0.11147925424968,-4.1677855162613,2.9013500979075,-1.9005540193794,1.0444204010395,1.2070377213798,-1.7822780417663,1.2691206675619,1.4637538793784,-0.28742422891961,0.80586845547899,-4.3352078250086,-2.0431321989674,-3.5821938109078,5.2044405422077,-2.7615636372421,3.1778556543572,-0.46557688424841,-1.4303574283146,-6.9723521184594,0.80292425308259,-2.1705936070355,-3.4583858187014,1.0993186263584,3.8362421326337,-4.0874841721002,176.0287573215,176.0287573215,176.0287573215,176.0287573215,176.0287573215,176.0287573215,176.0287573215,176.0287573215,176.0287573215,176.0287573215,176.0287573215,176.0287573215,176.0287573215,176.0287573215,176.0287573215,176.0287573215,176.0287573215,176.0287573215,176.0287573215,176.0287573215,176.0287573215,176.0287573215,176.0287573215,176.0287573215,176.0287573215,176.0287573215,176.0287573215,176.0287573215,176.0287573215,176.0287573215,176.0287573215,176.0287573215,176.0287573215,176.0287573215,176.0287573215,176.0287573215,176.0287573215,176.0287573215,176.0287573215,176.0287573215,176.0287573215,176.0287573215,176.0287573215,176.0287573215,176.0287573215,176.0287573215,176.0287573215,176.0287573215,230.95827019007,341.49992807874,-0.21850768545775,304.89313842821,-0.22552909750479,0
0.0001459375,350231893.84491,1.3097659356426e-05,4.3241459965509e-05,1.8275302805136e-05,1.013129552735,0,0,0,0,0,0,0,0,0,0,0,0,0,0,0,0,0,0,0,0,0,0,0,0,0,0,0,0,0,0,0,0,0,0,0,0,0,0,0,0,0,0,0,0,0,0,0,0,-0.9532744682119,-0.38665669821207,-0.94679944829327,5.4064613379831,3.0424205526755,1.2869652954888,-3.429038784724,1.6288648904945,2.7622742613932,-0.46638628473977,1.648017992224,-5.3435752015465,1.4052004120541,-1.6658582464195,1.4893063241716,-4.2935281081029,2.1881937907248,4.8710341803939,-0.98749814891489,-4.8036159608578,1.5667237665609,1.6495490038077,0.11065260535507,-4.1658137685686,2.9029733109549,-1.9023529676737,1.0455609011312,1.2061892976104,-1.7829561665355,1.2687415483263,1.4637553470814,-0.28819843648866,0.80593733655531,-4.3345420958499,-2.041784069775,-3.5808535517693,5.2052908478677,-2.762439037111,3.1773584089848,-0.46538236387317,-1.4295611145911,-6.9725556185449,0.80439510708055,-2.1700380309022,-3.45806329441,1.1005724960048,3.8338920282398,-4.0855259373889,176.26959304923,176.26959304923,176.26959304923,176.26959304923,176.26959304923,176.26959304923,176.26959304923,176.26959304923,176.26959304923,176.26959304923,176.26959304923,176.26959304923,176.26959304923,176.26959304923,176.26959304923,176.26959304923,176.26959304923,176.26959304923,176.26959304923,176.26959304923,176.26959304923,176.26959304923,176.26959304923,176.26959304923,176.26959304923,176.26959304923,176.26959304923,176.26959304923,176.26959304923,176.26959304923,176.26959304923,176.26959304923,176.26959304923,176.26959304923,176.26959304923,176.26959304923,176.26959304923,176.26959304923,176.26959304923,176.26959304923,176.26959304923,176.26959304923,176.26959304923,176.26959304923,176.26959304923,176.26959304923,176.26959304923,176.26959304923,230.95765456694,342.01371912325,-0.22001778287568,305.32927500201,-0.2270565625139,0
0.0001465625,352327956.36938,1.3151907801168e-05,4.342640926129e-05,1.8354500279431e-05,1.0131897985111,0,0,0,0,0,0,0,0,0,0,0,0,0,0,0,0,0,0,0,0,0,0,0,0,0,0,0,0,0,0,0,0,0,0,0,0,0,0,0,0,0,0,0,0,0,0,0,0,-0.95338898122225,-0.38535299471067,-0.94185251311525,5.404717281939,3.0425630095529,1.2860017340858,-3.428428002734,1.6288287199902,2.7623341827595,-0.46695498155456,1.6495614610787,-5.3442550830762,1.4054755782789,-1.6646115906379,1.4907902416785,-4.2948115720459,2.1875366459575,4.8698216401289,-0.98739642308083,-4.8015662365394,1.5686269128074,1.6498009304009,0.10983198510972,-4.1638586055483,2.9045896729944,-1.9041512509145,1.0466936845891,1.2053418565675,-1.7836217838115,1.2683671289174,1.4637522146478,-0.28896725578305,0.80600541291349,-4.3338826726312,-2.0404362937095,-3.5795154126404,5.2061430692234,-2.7633000375174,3.1768687469766,-0.46518709980168,-1.4287682435351,-6.97275199304,0.8058652682204,-2.1694712678427,-3.4577354137942,1.1018265718493,3.8315502804638,-4.0835694377604,176.51041850284,176.51041850284,176.51041850284,176.51041850284,176.51041850284,176.51041850284,176.51041850284,176.51041850284,176.51041850284,176.51041850284,176.51041850284,176.51041850284,176.51041850284,176.51041850284,176.51041850284,176.51041850284,176.51041850284,176.51041850284,176.51041850284,176.51041850284,176.51041850284,176.51041850284,176.51041850284,176.51041850284,176.51041850284,176.51041850284,176.51041850284,176.51041850284,176.51041850284,176.51041850284,176.51041850284,176.51041850284,176.51041850284,176.51041850284,176.51041850284,176.51041850284,176.51041850284,176.51041850284,176.51041850284,176.51041850284,176.51041850284,176.51041850284,176.51041850284,176.51041850284,176.51041850284,176.51041850284,176.51041850284,176.51041850284,230.95695540127,342.52731124396,-0.22153205244212,305.7653199468,-0.22858814623584,0
0.0001471875,354429513.77819,1.320613962248e-05,4.3611358036815e-05,1.8433691527335e-05,1.0132500433259,0,0,0,0,0,0,0,0,0,0,0,0,0,0,0,0,0,0,0,0,0,0,0,0,0,0,0,0,0,0,0,0,0,0,0,0,0,0,0,0,0,0,0,0,0,0,0,0,-0.95350698853261,-0.38404728637119,-0.93693161049468,5.4029898729832,3.042701353212,1.2850394923836,-3.4278188180562,1.6287930961787,2.7623926559251,-0.46751942536833,1.6510952570582,-5.3449365917697,1.4057508589448,-1.6633665909926,1.4922720389696,-4.2960784098103,2.1868840172048,4.8686117751581,-0.98729979547749,-4.7995333292858,1.5705207149035,1.6500598851914,0.10901773393523,-4.1619199882076,2.90619916677,-1.9059486822474,1.0478188741886,1.2044953916352,-1.7842747926425,1.2679970942397,1.4637445625065,-0.28973051858818,0.80607270691327,-4.3332293572359,-2.0390890075369,-3.5781796065552,5.2069971270073,-2.7641469258744,3.1763865157085,-0.46499117858878,-1.4279786869977,-6.9729413947445,0.80733448793082,-2.1688934684636,-3.4574022918781,1.1030808075063,3.8292170754231,-4.0816146750548,176.75123358889,176.75123358889,176.75123358889,176.75123358889,176.75123358889,176.75123358889,176.75123358889,176.75123358889,176.75123358889,176.75123358889,176.75123358889,176.75123358889,176.75123358889,176.75123358889,176.75123358889,176.75123358889,176.75123358889,176.75123358889,176.75123358889,176.75123358889,176.75123358889,176.75123358889,176.75123358889,176.75123358889,176.75123358889,176.75123358889,176.75123358889,176.75123358889,176.75123358889,176.75123358889,176.75123358889,176.75123358889,176.75123358889,176.75123358889,176.75123358889,176.75123358889,176.75123358889,176.75123358889,176.75123358889,176.75123358889,176.75123358889,176.75123358889,176.75123358889,176.75123358889,176.75123358889,176.75123358889,176.75123358889,176.75123358889,230.95617292831,343.04070577344,-0.22305048893707,306.20127359825,-0.23012384432379,0
0.0001478125,356536562.31469,1.3260354884206e-05,4.3796306296723e-05,1.8512876559262e-05,1.0133102871801,0,0,0,0,0,0,0,0,0,0,0,0,0,0,0,0,0,0,0,0,0,0,0,0,0,0,0,0,0,0,0,0,0,0,0,0,0,0,0,0,0,0,0,0,0,0,0,0,-0.95362843795131,-0.3827396764124,-0.93203672453285,5.401279059963,3.0428356405929,1.2840785023766,-3.427211010062,1.628757721993,2.7624497677718,-0.46807926414524,1.6526193980982,-5.3456194919974,1.4060262729168,-1.6621233946887,1.4937517701458,-4.2973288752005,2.186235656329,4.867404558555,-0.98720827060037,-4.7975170089476,1.5724051360328,1.6503258151136,0.10821017815712,-4.1599978887569,2.9078017678375,-1.9077450799035,1.0489365909454,1.2036498997545,-1.7849151045629,1.2676311025305,1.4637324734252,-0.29048804916163,0.80613923927761,-4.3325819279925,-2.0377423501188,-3.5768463680869,5.207852949188,-2.764979984207,3.1759115557363,-0.46479469221199,-1.4271923226329,-6.9731239766273,0.8088025069406,-2.168304813643,-3.457064091938,1.1043351452565,3.8268925848525,-4.0796616544712,176.99203821414,176.99203821414,176.99203821414,176.99203821414,176.99203821414,176.99203821414,176.99203821414,176.99203821414,176.99203821414,176.99203821414,176.99203821414,176.99203821414,176.99203821414,176.99203821414,176.99203821414,176.99203821414,176.99203821414,176.99203821414,176.99203821414,176.99203821414,176.99203821414,176.99203821414,176.99203821414,176.99203821414,176.99203821414,176.99203821414,176.99203821414,176.99203821414,176.99203821414,176.99203821414,176.99203821414,176.99203821414,176.99203821414,176.99203821414,176.99203821414,176.99203821414,176.99203821414,176.99203821414,176.99203821414,176.99203821414,176.99203821414,176.99203821414,176.99203821414,176.99203821414,176.99203821414,176.99203821414,176.99203821414,176.99203821414,230.95530727804,343.5539040473,-0.22457308711918,306.63713629771,-0.23166365250706,0
0.0001484375,358649098.26964,1.3314553648733e-05,4.3981254045674e-05,1.859205538853e-05,1.0133705300748,0,0,0,0,0,0,0,0,0,0,0,0,0,0,0,0,0,0,0,0,0,0,0,0,0,0,0,0,0,0,0,0,0,0,0,0,0,0,0,0,0,0,0,0,0,0,0,0,-0.9537532628791,-0.38143026224522,-0.92716784012567,5.3995847859362,3.042965933399,1.2831187013973,-3.4266043668522,1.6287223112903,2.7625056028454,-0.46863414931317,1.6541339005284,-5.3463035373558,1.4063018363065,-1.6608821633992,1.4952294800669,-4.2985632161538,2.1855913105307,4.8661999716301,-0.98712185082589,-4.7955170516014,1.5742801453721,1.6505986653571,0.10740962877275,-4.1580922901258,2.9093974441652,-1.9095402674175,1.0500469530718,1.2028053812899,-1.7855426444524,1.2672687974343,1.4637160320467,-0.29123966520559,0.80620502935421,-4.3319401414704,-2.0363964618486,-3.5755159526363,5.208710468761,-2.7657994886342,3.1754437038534,-0.46459773761249,-1.4264090347082,-6.9732998916105,0.81026905817522,-2.167705514314,-3.4567210184293,1.1055895173361,3.824576964871,-4.0777103843023,177.23283228543,177.23283228543,177.23283228543,177.23283228543,177.23283228543,177.23283228543,177.23283228543,177.23283228543,177.23283228543,177.23283228543,177.23283228543,177.23283228543,177.23283228543,177.23283228543,177.23283228543,177.23283228543,177.23283228543,177.23283228543,177.23283228543,177.23283228543,177.23283228543,177.23283228543,177.23283228543,177.23283228543,177.23283228543,177.23283228543,177.23283228543,177.23283228543,177.23283228543,177.23283228543,177.23283228543,177.23283228543,177.23283228543,177.23283228543,177.23283228543,177.23283228543,177.23283228543,177.23283228543,177.23283228543,177.23283228543,177.23283228543,177.23283228543,177.23283228543,177.23283228543,177.23283228543,177.23283228543,177.23283228543,177.23283228543,230.95435848562,344.0669074053,-0.22609984179038,307.07290839172,-0.23320756655328,0
0.0001490625,360767117.98061,1.3368735976934e-05,4.4166201288353e-05,1.8671228031413e-05,1.0134307720107,0,0,0,0,0,0,0,0,0,0,0,0,0,0,0,0,0,0,0,0,0,0,0,0,0,0,0,0,0,0,0,0,0,0,0,0,0,0,0,0,0,0,0,0,0,0,0,0,-0.95388138350199,-0.38011913634347,-0.92232494146093,5.3979069875103,3.0430922960627,1.2821600320429,-3.4259986854458,1.6286865971129,2.7625602429219,-0.4691837374984,1.6556387793753,-5.3469884719259,1.406577562702,-1.6596430723411,1.4967052034583,-4.2997816744758,2.1849507259919,4.8649980014211,-0.98704053627525,-4.793533238753,1.5761457211316,1.6508783790856,0.10661638024185,-4.1562031855379,2.9109861559151,-1.9113340738071,1.0511500748449,1.2019618399017,-1.786157351242,1.2669098191695,1.4636953243338,-0.29198517911404,0.80627009537102,-4.3313037345981,-2.0350514841284,-3.5741886353605,5.2095696214508,-2.766605708894,3.1749827960298,-0.46440041611951,-1.4256287148797,-6.9734692925093,0.81173386969244,-2.1670958109851,-3.4563733094253,1.1068438472455,3.8222703552096,-4.0757608757173,177.47361570959,177.47361570959,177.47361570959,177.47361570959,177.47361570959,177.47361570959,177.47361570959,177.47361570959,177.47361570959,177.47361570959,177.47361570959,177.47361570959,177.47361570959,177.47361570959,177.47361570959,177.47361570959,177.47361570959,177.47361570959,177.47361570959,177.47361570959,177.47361570959,177.47361570959,177.47361570959,177.47361570959,177.47361570959,177.47361570959,177.47361570959,177.47361570959,177.47361570959,177.47361570959,177.47361570959,177.47361570959,177.47361570959,177.47361570959,177.47361570959,177.47361570959,177.47361570959,177.47361570959,177.47361570959,177.47361570959,177.47361570959,177.47361570959,177.47361570959,177.47361570959,177.47361570959,177.47361570959,177.47361570959,177.47361570959,230.95332650228,344.57971719229,-0.22763074793088,307.50859023135,-0.23475558236431,0
0.0001496875,362890617.83061,1.3422901928271e-05,4.4351148029469e-05,1.8750394507444e-05,1.0134910129886,0,0,0,0,0,0,0,0,0,0,0,0,0,0,0,0,0,0,0,0,0,0,0,0,0,0,0,0,0,0,0,0,0,0,0,0,0,0,0,0,0,0,0,0,0,0,0,0,-0.9540127081349,-0.37880638698661,-0.91750801063394,5.3962455942962,3.043214793509,1.2812024421001,-3.42539377289,1.6286503379633,2.7626137666435,-0.46972769247196,1.6571340488238,-5.3476740311785,1.4068534633649,-1.6584063097922,1.4981789644216,-4.3009844852181,2.1843136515814,4.8637986380056,-0.98696432473409,-4.7915653574207,1.5780018524466,1.6511648970933,0.10583070932466,-4.1543305772982,2.9125678555873,-1.9131263333803,1.0522460653522,1.2011192824222,-1.7867591791919,1.266553814305,1.4636704372595,-0.29272439949482,0.80633445471495,-4.3306724267084,-2.0337075590347,-3.5728647104619,5.2104303439152,-2.7673989079345,3.1745286704542,-0.46420283319001,-1.4248512626986,-6.9736323310195,0.81319666758981,-2.1664759732821,-3.4560212292192,1.1080980511354,3.8199728787593,-4.0738131426195,177.71438839339,177.71438839339,177.71438839339,177.71438839339,177.71438839339,177.71438839339,177.71438839339,177.71438839339,177.71438839339,177.71438839339,177.71438839339,177.71438839339,177.71438839339,177.71438839339,177.71438839339,177.71438839339,177.71438839339,177.71438839339,177.71438839339,177.71438839339,177.71438839339,177.71438839339,177.71438839339,177.71438839339,177.71438839339,177.71438839339,177.71438839339,177.71438839339,177.71438839339,177.71438839339,177.71438839339,177.71438839339,177.71438839339,177.71438839339,177.71438839339,177.71438839339,177.71438839339,177.71438839339,177.71438839339,177.71438839339,177.71438839339,177.71438839339,177.71438839339,177.71438839339,177.71438839339,177.71438839339,177.71438839339,177.71438839339,230.95221120661,345.09233475885,-0.22916580045173,307.94418217174,-0.23630769584164,0
0.0001503125,365019594.24611,1.3477051560738e-05,4.4536094273764e-05,1.8829554839331e-05,1.0135512530093,0,0,0,0,0,0,0,0,0,0,0,0,0,0,0,0,0,0,0,0,0,0,0,0,0,0,0,0,0,0,0,0,0,0,0,0,0,0,0,0,0,0,0,0,0,0,0,0,-0.954147134546,-0.37749209937016,-0.91271702657562,5.3946005283155,3.0433334890068,1.2802458846135,-3.4247894454673,1.6286133218747,2.7626662492296,-0.47026568724862,1.6586197225887,-5.3483599439419,1.4071295475063,-1.6571720749643,1.4996507757015,-4.3021718767872,2.1836798416171,4.8626018720317,-0.98689321142445,-4.7896131984061,1.5798485399958,1.6514581578512,0.10505287398541,-4.1524744769254,2.9141424882534,-1.9149168860873,1.0533350273087,1.2002777188166,-1.7873480978222,1.2662004437835,1.4636414580914,-0.29345713279499,0.80639812412009,-4.330045922313,-2.0323648288357,-3.5715444885486,5.2112925714299,-2.7681793415361,3.1740811694754,-0.46400509726008,-1.4240765862398,-6.9737891585078,0.81465717853589,-2.16584629844,-3.4556650606491,1.1093520388579,3.8176846415671,-4.0718672013401,177.95515024345,177.95515024345,177.95515024345,177.95515024345,177.95515024345,177.95515024345,177.95515024345,177.95515024345,177.95515024345,177.95515024345,177.95515024345,177.95515024345,177.95515024345,177.95515024345,177.95515024345,177.95515024345,177.95515024345,177.95515024345,177.95515024345,177.95515024345,177.95515024345,177.95515024345,177.95515024345,177.95515024345,177.95515024345,177.95515024345,177.95515024345,177.95515024345,177.95515024345,177.95515024345,177.95515024345,177.95515024345,177.95515024345,177.95515024345,177.95515024345,177.95515024345,177.95515024345,177.95515024345,177.95515024345,177.95515024345,177.95515024345,177.95515024345,177.95515024345,177.95515024345,177.95515024345,177.95515024345,177.95515024345,177.95515024345,230.95101241367,345.60476146168,-0.23070499455809,308.37968457127,-0.23786390313401,0
0.0001509375,367154043.6939,1.3531184931134e-05,4.4721040026005e-05,1.8908709053451e-05,1.0136114920735,0,0,0,0,0,0,0,0,0,0,0,0,0,0,0,0,0,0,0,0,0,0,0,0,0,0,0,0,0,0,0,0,0,0,0,0,0,0,0,0,0,0,0,0,0,0,0,0,-0.95428455142429,-0.37617635633462,-0.90795196432425,5.392971703829,3.0434484420808,1.2792903178688,-3.4241855305201,1.628575368485,2.7627177621233,-0.47079740622411,1.6600958146117,-5.3490459332587,1.4074058224706,-1.6559405775608,1.5011206385762,-4.3033440699859,2.183049058742,4.8614076923677,-0.98682718898781,-4.7876765572906,1.5816857956537,1.6517580970321,0.10428311242692,-4.1506349030972,2.9157099924758,-1.9167055770883,1.0544170558901,1.1994371621104,-1.7879240934463,1.265849389048,1.4636084742146,-0.29418318515993,0.80646111995037,-4.3294239132565,-2.0310234358263,-3.5702282958131,5.2121562366247,-2.7689472579742,3.173640142026,-0.46380731959958,-1.4233046023317,-6.9739399240264,0.81611513197385,-2.1652071105324,-3.4553050985534,1.1106057152351,3.8154057331519,-4.0699230707585,178.19590116617,178.19590116617,178.19590116617,178.19590116617,178.19590116617,178.19590116617,178.19590116617,178.19590116617,178.19590116617,178.19590116617,178.19590116617,178.19590116617,178.19590116617,178.19590116617,178.19590116617,178.19590116617,178.19590116617,178.19590116617,178.19590116617,178.19590116617,178.19590116617,178.19590116617,178.19590116617,178.19590116617,178.19590116617,178.19590116617,178.19590116617,178.19590116617,178.19590116617,178.19590116617,178.19590116617,178.19590116617,178.19590116617,178.19590116617,178.19590116617,178.19590116617,178.19590116617,178.19590116617,178.19590116617,178.19590116617,178.19590116617,178.19590116617,178.19590116617,178.19590116617,178.19590116617,178.19590116617,178.19590116617,178.19590116617,230.9497298857,346.11699866381,-0.23224832529548,308.81509779137,-0.23942420028364,0
0.0001515625,369293962.67761,1.3585302094875e-05,4.4905985290997e-05,1.8987857179399e-05,1.0136717301819,0,0,0,0,0,0,0,0,0,0,0,0,0,0,0,0,0,0,0,0,0,0,0,0,0,0,0,0,0,0,0,0,0,0,0,0,0,0,0,0,0,0,0,0,0,0,0,0,-0.95442483969671,-0.37485923958589,-0.90321279464761,5.3913590270584,3.0435597066686,1.2783357055818,-3.4235818654373,1.6285363291296,2.7627683728157,-0.47132254730449,1.6615623395633,-5.3497317186251,1.4076822940023,-1.6547120350151,1.5025885424642,-4.3045012781874,2.1824210755614,4.8602160841018,-0.98676624722962,-4.7857552327126,1.5835136411291,1.6520646477341,0.10352164223591,-4.1488118817498,2.9172703011839,-1.9184922571133,1.0554922377535,1.1985976284386,-1.7884871687079,1.2655003562246,1.4635715723892,-0.29490236422412,0.8065234583387,-4.328806081707,-2.0296835219224,-3.5689164704933,5.2130212676449,-2.7697028977343,3.173205444552,-0.46360961289158,-1.4225352369374,-6.9740847751403,0.81757026186574,-2.1645587582009,-3.454941643222,1.1118589808261,3.8131362271253,-4.067980772053,178.43664106771,178.43664106771,178.43664106771,178.43664106771,178.43664106771,178.43664106771,178.43664106771,178.43664106771,178.43664106771,178.43664106771,178.43664106771,178.43664106771,178.43664106771,178.43664106771,178.43664106771,178.43664106771,178.43664106771,178.43664106771,178.43664106771,178.43664106771,178.43664106771,178.43664106771,178.43664106771,178.43664106771,178.43664106771,178.43664106771,178.43664106771,178.43664106771,178.43664106771,178.43664106771,178.43664106771,178.43664106771,178.43664106771,178.43664106771,178.43664106771,178.43664106771,178.43664106771,178.43664106771,178.43664106771,178.43664106771,178.43664106771,178.43664106771,178.43664106771,178.43664106771,178.43664106771,178.43664106771,178.43664106771,178.43664106771,230.94836333802,346.62904773471,-0.23379578798635,309.25042219571,-0.24098858351859,0
0.0001521875,371439347.73306,1.3639403106116e-05,4.5090930073574e-05,1.906699925011e-05,1.0137319673352,0,0,0,0,0,0,0,0,0,0,0,0,0,0,0,0,0,0,0,0,0,0,0,0,0,0,0,0,0,0,0,0,0,0,0,0,0,0,0,0,0,0,0,0,0,0,0,0,-0.95456787387192,-0.37354083064909,-0.89849948406911,5.3897623961933,3.0436673295162,1.2773820170366,-3.4229782984426,1.6284960854089,2.7628181445795,-0.4718408239265,1.6630193135773,-5.3504170172112,1.4079589664332,-1.6534866709196,1.5040544650129,-4.3056437068225,2.1817956762102,4.8590270268305,-0.98671037301202,-4.7838490265186,1.5853321060009,1.6523777402879,0.10276865970333,-4.1470054447105,2.9188233431391,-1.9202767821326,1.0565606502025,1.1977591370803,-1.7890373431932,1.2651530785115,1.4635308383667,-0.29561448098791,0.80658515537388,-4.3281921024997,-2.028345228471,-3.5676093606029,5.2138875871456,-2.7704464932732,3.1727769421389,-0.46341209052023,-1.4217684252084,-6.9742238569328,0.81902230809692,-2.1639016128249,-3.4545749951064,1.1131117327802,3.8108761820317,-4.0660403287552,178.67736985395,178.67736985395,178.67736985395,178.67736985395,178.67736985395,178.67736985395,178.67736985395,178.67736985395,178.67736985395,178.67736985395,178.67736985395,178.67736985395,178.67736985395,178.67736985395,178.67736985395,178.67736985395,178.67736985395,178.67736985395,178.67736985395,178.67736985395,178.67736985395,178.67736985395,178.67736985395,178.67736985395,178.67736985395,178.67736985395,178.67736985395,178.67736985395,178.67736985395,178.67736985395,178.67736985395,178.67736985395,178.67736985395,178.67736985395,178.67736985395,178.67736985395,178.67736985395,178.67736985395,178.67736985395,178.67736985395,178.67736985395,178.67736985395,178.67736985395,178.67736985395,178.67736985395,178.67736985395,178.67736985395,178.67736985395,230.94691244817,347.14091005015,-0.23534737798993,309.68565814998,-0.2425570491263,0
0.0001528125,373590195.42309,1.36934880178e-05,4.5275874378608e-05,1.9146135301797e-05,1.0137922035339,0,0,0,0,0,0,0,0,0,0,0,0,0,0,0,0,0,0,0,0,0,0,0,0,0,0,0,0,0,0,0,0,0,0,0,0,0,0,0,0,0,0,0,0,0,0,0,0,-0.95471352327019,-0.37222121195329,-0.89381199529516,5.3881817014969,3.043771348931,1.2764292273056,-3.4223746884509,1.6284545464822,2.7628671362702,-0.47235196692694,1.6644667549616,-5.3511015455856,1.4082358428754,-1.6522647127357,1.5055183721895,-4.3067715532548,2.1811726571119,4.8578404933723,-0.98665955008704,-4.7819577431477,1.5871412252577,1.652697302237,0.10202433930922,-4.1452156290478,2.9203690446018,-1.9220590133511,1.0576223606102,1.1969217105479,-1.7895746532904,1.2648073169433,1.4634863563758,-0.29631935159724,0.80664622723149,-4.3275816457174,-2.0270086959514,-3.5663073208302,5.2147551113317,-2.7711782688019,3.1723545088787,-0.46321486546031,-1.4210041115177,-6.974357311934,0.82047101736923,-2.1632360661283,-3.4542054502397,1.1143638654497,3.8086256423887,-4.064101766798,178.91808743043,178.91808743043,178.91808743043,178.91808743043,178.91808743043,178.91808743043,178.91808743043,178.91808743043,178.91808743043,178.91808743043,178.91808743043,178.91808743043,178.91808743043,178.91808743043,178.91808743043,178.91808743043,178.91808743043,178.91808743043,178.91808743043,178.91808743043,178.91808743043,178.91808743043,178.91808743043,178.91808743043,178.91808743043,178.91808743043,178.91808743043,178.91808743043,178.91808743043,178.91808743043,178.91808743043,178.91808743043,178.91808743043,178.91808743043,178.91808743043,178.91808743043,178.91808743043,178.91808743043,178.91808743043,178.91808743043,178.91808743043,178.91808743043,178.91808743043,178.91808743043,178.91808743043,178.91808743043,178.91808743043,178.91808743043,230.94537686116,347.65258699219,-0.23690309087389,310.12080602149,-0.2441295935052,0
0.0001534375,375746502.33159,1.3747556881748e-05,4.5460818211e-05,1.9225265373923e-05,1.0138524387786,0,0,0,0,0,0,0,0,0,0,0,0,0,0,0,0,0,0,0,0,0,0,0,0,0,0,0,0,0,0,0,0,0,0,0,0,0,0,0,0,0,0,0,0,0,0,0,0,-0.95486165318703,-0.37090046785383,-0.88915028792929,5.3866168256435,3.0438717938757,1.2754773174405,-3.4217709054157,1.6284116455094,2.7629154022908,-0.47285572619428,1.6659046849627,-5.3517850210698,1.4085129253789,-1.6510463896605,1.5069802186546,-4.3078850063967,2.1805518273734,4.8566564488374,-0.98661375898414,-4.7800811896956,1.5889410366445,1.6530232584388,0.1012888333942,-4.1434424758186,2.9219073312759,-1.9238388169757,1.0586774260835,1.1960853746733,-1.7900991521926,1.2644628598341,1.4634382087702,-0.29701679906359,0.80670669028988,-4.3269743789593,-2.0256740637309,-3.5650107094931,5.2156237494733,-2.7718984400949,3.1719380279347,-0.46301804930858,-1.4202422492994,-6.9744852793231,0.8219161437855,-2.1625625276199,-3.4538332966574,1.1156152708899,3.8063846398019,-4.0621651145533,179.15879370233,179.15879370233,179.15879370233,179.15879370233,179.15879370233,179.15879370233,179.15879370233,179.15879370233,179.15879370233,179.15879370233,179.15879370233,179.15879370233,179.15879370233,179.15879370233,179.15879370233,179.15879370233,179.15879370233,179.15879370233,179.15879370233,179.15879370233,179.15879370233,179.15879370233,179.15879370233,179.15879370233,179.15879370233,179.15879370233,179.15879370233,179.15879370233,179.15879370233,179.15879370233,179.15879370233,179.15879370233,179.15879370233,179.15879370233,179.15879370233,179.15879370233,179.15879370233,179.15879370233,179.15879370233,179.15879370233,179.15879370233,179.15879370233,179.15879370233,179.15879370233,179.15879370233,179.15879370233,179.15879370233,179.15879370233,230.94375619586,348.16407994889,-0.23846292227565,310.55586617898,-0.24570621313701,0
0.0001540625,377908265.05697,1.3801609748681e-05,4.5645761575684e-05,1.9304389509023e-05,1.0139126730699,0,0,0,0,0,0,0,0,0,0,0,0,0,0,0,0,0,0,0,0,0,0,0,0,0,0,0,0,0,0,0,0,0,0,0,0,0,0,0,0,0,0,0,0,0,0,0,0,-0.95501212593736,-0.36957868567654,-0.8845143195689,5.3850676441699,3.0439686834506,1.2745262746974,-3.4211668303618,1.6283673355661,2.7629629923802,-0.47335187207284,1.6673331285342,-5.3524671632637,1.4087902150766,-1.64983193031,1.5084399481543,-4.3089842465053,2.1799330086409,4.8554748501173,-0.98657297688211,-4.7782191758667,1.5907315779604,1.6533555310984,0.10056227201919,-4.141686029049,2.9234381304725,-1.9256160641822,1.0597258934133,1.1952501587244,-1.7906109095286,1.2641195211567,1.4633864754565,-0.29770665483173,0.80676656121458,-4.3263699695876,-2.0243414697619,-3.5637198852576,5.2164934035316,-2.7726072143323,3.1715273911206,-0.46282175122346,-1.419482800848,-6.9746078944664,0.82335744907927,-2.1618814217529,-3.4534588116254,1.1168658391893,3.8041531941898,-4.0602304028995,179.39948857446,179.39948857446,179.39948857446,179.39948857446,179.39948857446,179.39948857446,179.39948857446,179.39948857446,179.39948857446,179.39948857446,179.39948857446,179.39948857446,179.39948857446,179.39948857446,179.39948857446,179.39948857446,179.39948857446,179.39948857446,179.39948857446,179.39948857446,179.39948857446,179.39948857446,179.39948857446,179.39948857446,179.39948857446,179.39948857446,179.39948857446,179.39948857446,179.39948857446,179.39948857446,179.39948857446,179.39948857446,179.39948857446,179.39948857446,179.39948857446,179.39948857446,179.39948857446,179.39948857446,179.39948857446,179.39948857446,179.39948857446,179.39948857446,179.39948857446,179.39948857446,179.39948857446,179.39948857446,179.39948857446,179.39948857446,230.94205005018,348.67539031416,-0.24002686794884,310.99083899238,-0.24728690456241,0
0.0001546875,380075480.20492,1.3855646668301e-05,4.5830704477627e-05,1.9383507752618e-05,1.0139729064082,0,0,0,0,0,0,0,0,0,0,0,0,0,0,0,0,0,0,0,0,0,0,0,0,0,0,0,0,0,0,0,0,0,0,0,0,0,0,0,0,0,0,0,0,0,0,0,0,-0.95516480180155,-0.36825595666203,-0.87990404703617,5.3835340260359,3.0440620267746,1.2735760927174,-3.4205623553023,1.6283215853594,2.763009951606,-0.47384019648714,1.6687521150391,-5.3531476953388,1.4090677122996,-1.6486215604408,1.5098974940812,-4.3100694450639,2.1793160346278,4.8542956457825,-0.98653717753903,-4.7763715138734,1.5925128845305,1.653694039869,0.099844763014901,-4.1399463349125,2.9249613733024,-1.92739063094,1.0607677993183,1.1944160955053,-1.7911100108523,1.2637771381722,1.4633312335584,-0.29838876016894,0.80682585700056,-4.3257680867224,-2.023011050212,-3.5624352039018,5.2173639680775,-2.7733047899429,3.171122498243,-0.46262607689291,-1.4187257369894,-6.9747252886631,0.82479470256721,-2.1611931849946,-3.4530822596746,1.1181154587273,3.8019313150313,-4.0582976653473,179.64017195122,179.64017195122,179.64017195122,179.64017195122,179.64017195122,179.64017195122,179.64017195122,179.64017195122,179.64017195122,179.64017195122,179.64017195122,179.64017195122,179.64017195122,179.64017195122,179.64017195122,179.64017195122,179.64017195122,179.64017195122,179.64017195122,179.64017195122,179.64017195122,179.64017195122,179.64017195122,179.64017195122,179.64017195122,179.64017195122,179.64017195122,179.64017195122,179.64017195122,179.64017195122,179.64017195122,179.64017195122,179.64017195122,179.64017195122,179.64017195122,179.64017195122,179.64017195122,179.64017195122,179.64017195122,179.64017195122,179.64017195122,179.64017195122,179.64017195122,179.64017195122,179.64017195122,179.64017195122,179.64017195122,179.64017195122,230.94025800676,349.18651948743,-0.24159492381431,311.4257248327,-0.24887166444061,0
0.0001553125,382248144.38073,1.3909667689237e-05,4.6015646921821e-05,1.9462620152864e-05,1.0140331387941,0,0,0,0,0,0,0,0,0,0,0,0,0,0,0,0,0,0,0,0,0,0,0,0,0,0,0,0,0,0,0,0,0,0,0,0,0,0,0,0,0,0,0,0,0,0,0,0,-0.95531953986547,-0.36693237685761,-0.87531942783187,5.3820158342692,3.0441518232019,1.2726267716929,-3.4199573830287,1.6282743750088,2.7630563202747,-0.47432051377655,1.6701616789064,-5.3538263453288,1.4093454166803,-1.6474155007045,1.5113527800869,-4.3111407647285,2.1787007503088,4.8531187762884,-0.98650633120958,-4.7745380184116,1.5942849869496,1.6540387019395,0.099136392211006,-4.1382234408979,2.9264769969389,-1.9291623979504,1.0618031709544,1.1935832214533,-1.7915965568901,1.2634355685759,1.4632725569731,-0.29906296737389,0.80688459498358,-4.3251684030999,-2.021682939051,-3.561157015103,5.2182353303469,-2.773991356483,3.1707232561298,-0.4624311275295,-1.4179710366971,-6.9748375889212,0.82622768089832,-2.1604982627709,-3.4527038912988,1.1193640163089,3.7997190025769,-4.0563669381106,179.88084373663,179.88084373663,179.88084373663,179.88084373663,179.88084373663,179.88084373663,179.88084373663,179.88084373663,179.88084373663,179.88084373663,179.88084373663,179.88084373663,179.88084373663,179.88084373663,179.88084373663,179.88084373663,179.88084373663,179.88084373663,179.88084373663,179.88084373663,179.88084373663,179.88084373663,179.88084373663,179.88084373663,179.88084373663,179.88084373663,179.88084373663,179.88084373663,179.88084373663,179.88084373663,179.88084373663,179.88084373663,179.88084373663,179.88084373663,179.88084373663,179.88084373663,179.88084373663,179.88084373663,179.88084373663,179.88084373663,179.88084373663,179.88084373663,179.88084373663,179.88084373663,179.88084373663,179.88084373663,179.88084373663,179.88084373663,230.93837963908,349.69746887336,-0.24316708597454,311.86052407186,-0.2504604895241,0
0.0001559375,384426254.18124,1.3963672859414e-05,4.6200588913282e-05,1.954172676092e-05,1.0140933702279,0,0,0,0,0,0,0,0,0,0,0,0,0,0,0,0,0,0,0,0,0,0,0,0,0,0,0,0,0,0,0,0,0,0,0,0,0,0,0,0,0,0,0,0,0,0,0,0,-0.95547619878945,-0.36560804780828,-0.87076042163953,5.3805129267689,3.0442380628259,1.2716783184064,-3.4193518276258,1.6282256921222,2.7631021342366,-0.4747926612161,1.6715618602946,-5.3545028470061,1.4096233272117,-1.6462139648395,1.5128057209626,-4.3121983588124,2.1780870111973,4.8519441744291,-0.98648040469768,-4.7727185075847,1.5960479092373,1.654389432412,0.098437223846061,-4.1365173940424,2.9279849469353,-1.9309312504591,1.0628320266346,1.1927515766817,-1.7920706630875,1.2630946874108,1.4632105163009,-0.29972914082786,0.80694279285771,-4.3245705965355,-2.0203572676968,-3.5598856596051,5.2191073708006,-2.7746670945045,3.1703295777523,-0.46223699916523,-1.4172186865464,-6.9749449165061,0.82765616781751,-2.1597971064522,-3.4523239424909,1.1206113972932,3.797516248969,-4.0544382601353,180.12150383428,180.12150383428,180.12150383428,180.12150383428,180.12150383428,180.12150383428,180.12150383428,180.12150383428,180.12150383428,180.12150383428,180.12150383428,180.12150383428,180.12150383428,180.12150383428,180.12150383428,180.12150383428,180.12150383428,180.12150383428,180.12150383428,180.12150383428,180.12150383428,180.12150383428,180.12150383428,180.12150383428,180.12150383428,180.12150383428,180.12150383428,180.12150383428,180.12150383428,180.12150383428,180.12150383428,180.12150383428,180.12150383428,180.12150383428,180.12150383428,180.12150383428,180.12150383428,180.12150383428,180.12150383428,180.12150383428,180.12150383428,180.12150383428,180.12150383428,180.12150383428,180.12150383428,180.12150383428,180.12150383428,180.12150383428,230.93641451782,350.20823988148,-0.2447433505228,312.2952370827,-0.25205337659356,0
0.0001565625,386609806.18634,1.4017662225903e-05,4.6385530457047e-05,1.9620827630418e-05,1.0141536007102,0,0,0,0,0,0,0,0,0,0,0,0,0,0,0,0,0,0,0,0,0,0,0,0,0,0,0,0,0,0,0,0,0,0,0,0,0,0,0,0,0,0,0,0,0,0,0,0,-0.95563463744483,-0.36428307729292,-0.86622699177605,5.3790251570088,3.0443207273652,1.2707307463035,-3.4187456134253,1.6281755282519,2.7631474244808,-0.47525649926112,1.6729527054532,-5.3551769412328,1.4099014423404,-1.645017157404,1.514256223242,-4.3132423718368,2.1774746819835,4.8507717662134,-0.98645936132114,-4.770912802208,1.597801667402,1.6547461441425,0.09774730113474,-4.1348282411728,2.9294851791174,-1.9326970783933,1.0638543768389,1.1919212050348,-1.792532458192,1.2627543839105,1.4631451781443,-0.30038715772873,0.80700046859441,-4.3239743515494,-2.019034164407,-3.5586214660433,5.2199799632371,-2.7753321754803,3.1699413807762,-0.4620437816283,-1.4164686802957,-6.9750473880774,0.82907995359717,-2.1590901701692,-3.4519426343688,1.1218574855709,3.7953230394185,-4.0525116732087,180.36215214736,180.36215214736,180.36215214736,180.36215214736,180.36215214736,180.36215214736,180.36215214736,180.36215214736,180.36215214736,180.36215214736,180.36215214736,180.36215214736,180.36215214736,180.36215214736,180.36215214736,180.36215214736,180.36215214736,180.36215214736,180.36215214736,180.36215214736,180.36215214736,180.36215214736,180.36215214736,180.36215214736,180.36215214736,180.36215214736,180.36215214736,180.36215214736,180.36215214736,180.36215214736,180.36215214736,180.36215214736,180.36215214736,180.36215214736,180.36215214736,180.36215214736,180.36215214736,180.36215214736,180.36215214736,180.36215214736,180.36215214736,180.36215214736,180.36215214736,180.36215214736,180.36215214736,180.36215214736,180.36215214736,180.36215214736,230.93436221688,350.71883392572,-0.24632371382739,312.72986423869,-0.25365032258393,0
0.0001571875,388798796.95028,1.4071635835097e-05,4.6570471558169e-05,1.969992281749e-05,1.0142138302412,0,0,0,0,0,0,0,0,0,0,0,0,0,0,0,0,0,0,0,0,0,0,0,0,0,0,0,0,0,0,0,0,0,0,0,0,0,0,0,0,0,0,0,0,0,0,0,0,-0.95579471551005,-0.3629575797397,-0.86171910666383,5.3775523748498,3.0443997911765,1.2697840754078,-3.4181386752127,1.6281238759036,2.7631922175634,-0.47571191149168,1.674334267108,-5.3558483766476,1.4101797600014,-1.6438252722494,1.5157041861762,-4.3142729391469,2.1768636355591,4.8496014717791,-0.98644316101379,-4.7691207266345,1.5995462684848,1.6551087481838,0.097066646983851,-4.1331560273111,2.930977661514,-1.9344597762589,1.0648702253204,1.1910921540661,-1.7929820834466,1.2624145584768,1.4630766051739,-0.30103690871269,0.80705764038346,-4.3233793604603,-2.0177137538275,-3.5573647484743,5.2208529755975,-2.7759867617013,3.1695585864533,-0.46185155799552,-1.4157210182623,-6.9751451144102,0.83049883468723,-2.158377907853,-3.4515601735956,1.1231021635929,3.7931393531667,-4.050587221905,180.60278857868,180.60278857868,180.60278857868,180.60278857868,180.60278857868,180.60278857868,180.60278857868,180.60278857868,180.60278857868,180.60278857868,180.60278857868,180.60278857868,180.60278857868,180.60278857868,180.60278857868,180.60278857868,180.60278857868,180.60278857868,180.60278857868,180.60278857868,180.60278857868,180.60278857868,180.60278857868,180.60278857868,180.60278857868,180.60278857868,180.60278857868,180.60278857868,180.60278857868,180.60278857868,180.60278857868,180.60278857868,180.60278857868,180.60278857868,180.60278857868,180.60278857868,180.60278857868,180.60278857868,180.60278857868,180.60278857868,180.60278857868,180.60278857868,180.60278857868,180.60278857868,180.60278857868,180.60278857868,180.60278857868,180.60278857868,230.93222232147,351.22925242393,-0.24790817238576,313.16440591393,-0.25525132449931,0
0.0001578125,390993222.99288,1.4125593732524e-05,4.6755412221719e-05,1.9779012380169e-05,1.0142740588214,0,0,0,0,0,0,0,0,0,0,0,0,0,0,0,0,0,0,0,0,0,0,0,0,0,0,0,0,0,0,0,0,0,0,0,0,0,0,0,0,0,0,0,0,0,0,0,0,-0.95595629398208,-0.3616316765951,-0.85723674106311,5.3760944272919,3.0444752224946,1.2688383321889,-3.4175309577036,1.6280707260937,2.7632365353538,-0.47615880430345,1.6757066046149,-5.3565169105472,1.4104582776757,-1.6426384909611,1.517149502558,-4.3152901871918,2.1762537517862,4.8484332065625,-0.98643176042512,-4.7673421088449,1.601281710071,1.6554771537405,0.09639526483877,-4.1315007952338,2.9324623758364,-1.936219243236,1.0658795703657,1.1902644749889,-1.7934196913257,1.2620751198706,1.4630048556264,-0.30167829821444,0.80711432652994,-4.3227853244758,-2.0163961564045,-3.5561158039552,5.2217262705381,-2.7766310062227,3.1691811183075,-0.4616604040064,-1.4149757067731,-6.9752382006581,0.83191261325715,-2.1576607702959,-3.451176752868,1.1243453123448,3.7909651644384,-4.0486649535769,180.84341303066,180.84341303066,180.84341303066,180.84341303066,180.84341303066,180.84341303066,180.84341303066,180.84341303066,180.84341303066,180.84341303066,180.84341303066,180.84341303066,180.84341303066,180.84341303066,180.84341303066,180.84341303066,180.84341303066,180.84341303066,180.84341303066,180.84341303066,180.84341303066,180.84341303066,180.84341303066,180.84341303066,180.84341303066,180.84341303066,180.84341303066,180.84341303066,180.84341303066,180.84341303066,180.84341303066,180.84341303066,180.84341303066,180.84341303066,180.84341303066,180.84341303066,180.84341303066,180.84341303066,180.84341303066,180.84341303066,180.84341303066,180.84341303066,180.84341303066,180.84341303066,180.84341303066,180.84341303066,180.84341303066,180.84341303066,230.92999443472,351.73949679723,-0.24949672283852,313.5988624829,-0.25685637942899,0
0.0001584375,393193080.79073,1.4179535963316e-05,4.694035245277e-05,1.9858096378873e-05,1.014334286451,0,0,0,0,0,0,0,0,0,0,0,0,0,0,0,0,0,0,0,0,0,0,0,0,0,0,0,0,0,0,0,0,0,0,0,0,0,0,0,0,0,0,0,0,0,0,0,0,-0.95611923562713,-0.36030549641242,-0.85277987717646,5.3746511592713,3.0445469847577,1.2678935493295,-3.4169224153538,1.6280160664892,2.7632803956906,-0.47659710636109,1.6770697839878,-5.3571823094689,1.4107369924112,-1.6414569816012,1.5185920596999,-4.3162942334023,2.1756449165002,4.8472668825042,-0.98642511308754,-4.7655767810134,1.603007980233,1.6558512687388,0.095733139624901,-4.1298625843381,2.93393931871,-1.9379753832017,1.0668824061052,1.1894382225721,-1.7938454444219,1.2617359827162,1.4629299836039,-0.30231124466611,0.8071705453267,-4.32219195449,-2.0150814878823,-3.5548749104679,5.2225997062851,-2.7772650528293,3.1688089010495,-0.46147038765146,-1.4142327575157,-6.9753267455646,0.83332109688417,-2.1569392023869,-3.4507925517637,1.1255868113784,3.7888004432152,-4.0467449182186,181.08402540537,181.08402540537,181.08402540537,181.08402540537,181.08402540537,181.08402540537,181.08402540537,181.08402540537,181.08402540537,181.08402540537,181.08402540537,181.08402540537,181.08402540537,181.08402540537,181.08402540537,181.08402540537,181.08402540537,181.08402540537,181.08402540537,181.08402540537,181.08402540537,181.08402540537,181.08402540537,181.08402540537,181.08402540537,181.08402540537,181.08402540537,181.08402540537,181.08402540537,181.08402540537,181.08402540537,181.08402540537,181.08402540537,181.08402540537,181.08402540537,181.08402540537,181.08402540537,181.08402540537,181.08402540537,181.08402540537,181.08402540537,181.08402540537,181.08402540537,181.08402540537,181.08402540537,181.08402540537,181.08402540537,181.08402540537,230.92767818525,352.24956846941,-0.25108936195089,314.03323432037,-0.25846548455425,0
0.0001590625,395398366.76854,1.4233462572015e-05,4.7125292256399e-05,1.9937174875829e-05,1.0143945131303,0,0,0,0,0,0,0,0,0,0,0,0,0,0,0,0,0,0,0,0,0,0,0,0,0,0,0,0,0,0,0,0,0,0,0,0,0,0,0,0,0,0,0,0,0,0,0,0,-0.95628340538088,-0.35897917487663,-0.84834850544575,5.3732224143166,3.0446150380093,1.2669497654313,-3.4163130116725,1.6279598800889,2.7633238120745,-0.47702676783652,1.6784238776952,-5.3578443498808,1.4110159008715,-1.6402808976539,1.5200317403056,-4.3172851865989,2.1750370203649,4.8461024093638,-0.98642316958758,-4.7638245795248,1.6047250578634,1.6562309997219,0.095080238791929,-4.1282414303656,2.9354085023821,-1.9397281049007,1.0678787238477,1.1886134549969,-1.7942595140395,1.2613970653422,1.4628520385997,-0.30293568046835,0.80722631489803,-4.3215989718507,-2.0137698587206,-3.5536423251192,5.2234731373798,-2.7778890360338,3.1684418593479,-0.46128156887105,-1.4134921869713,-6.9754108418827,0.83472409823161,-2.1562136404719,-3.4504077376319,1.1268265387953,3.7866451559751,-4.0448271683687,181.32462560456,181.32462560456,181.32462560456,181.32462560456,181.32462560456,181.32462560456,181.32462560456,181.32462560456,181.32462560456,181.32462560456,181.32462560456,181.32462560456,181.32462560456,181.32462560456,181.32462560456,181.32462560456,181.32462560456,181.32462560456,181.32462560456,181.32462560456,181.32462560456,181.32462560456,181.32462560456,181.32462560456,181.32462560456,181.32462560456,181.32462560456,181.32462560456,181.32462560456,181.32462560456,181.32462560456,181.32462560456,181.32462560456,181.32462560456,181.32462560456,181.32462560456,181.32462560456,181.32462560456,181.32462560456,181.32462560456,181.32462560456,181.32462560456,181.32462560456,181.32462560456,181.32462560456,181.32462560456,181.32462560456,181.32462560456,230.92527323513,352.75946886608,-0.25268608663338,314.46752180113,-0.260078637132,0
0.0001596875,397609077.29081,1.4287373602933e-05,4.7310231637679e-05,2.0016247935321e-05,1.0144547388596,0,0,0,0,0,0,0,0,0,0,0,0,0,0,0,0,0,0,0,0,0,0,0,0,0,0,0,0,0,0,0,0,0,0,0,0,0,0,0,0,0,0,0,0,0,0,0,0,-0.9564486706984,-0.35765285457192,-0.84394262513132,5.3718080352342,3.0446793402909,1.2660070246299,-3.4157027188629,1.6279021444334,2.7633667941406,-0.47744775948055,1.6797689643296,-5.3585028186204,1.411294999354,-1.6391103772022,1.5214684234348,-4.3182631470587,2.1744299579754,4.8449396960233,-0.9864258777922,-4.7620853454392,1.6064329133505,1.6566162522763,0.094436513409533,-4.1266373645091,2.9368699551025,-1.9414773220576,1.0688685133715,1.187790233661,-1.7946620789558,1.2610582880132,1.4627710657069,-0.30355155183969,0.80728165303357,-4.3210061088824,-2.0124613735911,-3.5524182826342,5.2243464155923,-2.7785030810978,3.1680799168663,-0.4610939993745,-1.4127540157844,-6.9754905758717,0.83612143486576,-2.1554845099222,-3.4500224666361,1.1280643712988,3.7844992662985,-4.0429117588937,181.56521352974,181.56521352974,181.56521352974,181.56521352974,181.56521352974,181.56521352974,181.56521352974,181.56521352974,181.56521352974,181.56521352974,181.56521352974,181.56521352974,181.56521352974,181.56521352974,181.56521352974,181.56521352974,181.56521352974,181.56521352974,181.56521352974,181.56521352974,181.56521352974,181.56521352974,181.56521352974,181.56521352974,181.56521352974,181.56521352974,181.56521352974,181.56521352974,181.56521352974,181.56521352974,181.56521352974,181.56521352974,181.56521352974,181.56521352974,181.56521352974,181.56521352974,181.56521352974,181.56521352974,181.56521352974,181.56521352974,181.56521352974,181.56521352974,181.56521352974,181.56521352974,181.56521352974,181.56521352974,181.56521352974,181.56521352974,230.92277928683,353.26919941382,-0.25428689391439,314.90172529976,-0.26169583450458,0
0.0001603125,399825208.65393,1.4341269100001e-05,4.7495170601677e-05,2.0095315623254e-05,1.0145149636392,0,0,0,0,0,0,0,0,0,0,0,0,0,0,0,0,0,0,0,0,0,0,0,0,0,0,0,0,0,0,0,0,0,0,0,0,0,0,0,0,0,0,0,0,0,0,0,0,-0.95661490186538,-0.3563266846481,-0.83956224455088,5.3704078646353,3.0447398490033,1.2650653761726,-3.4150915170847,1.6278428312526,2.7634093476738,-0.47786007154041,1.6811051280708,-5.359157513305,1.4115742838289,-1.6379455423656,1.5229019853882,-4.3192282069765,2.1738236269639,4.8437786517885,-0.98643318306661,-4.7603589244693,1.6081315095358,1.6570069311332,0.093801899318736,-4.1250504132127,2.9383237210025,-1.9432229535173,1.0698517641429,1.1869686229546,-1.7950533240201,1.2607195715068,1.4626871054815,-0.30415881847806,0.80733657699664,-4.3204131093227,-2.0111561308827,-3.5512029942055,5.2252193907676,-2.779107304106,3.1677229953247,-0.46090772259313,-1.4120182681986,-6.9755660277115,0.83751292912371,-2.154752222908,-3.4496368847921,1.1293001842655,3.7823627354052,-4.0409987467613,181.80578908216,181.80578908216,181.80578908216,181.80578908216,181.80578908216,181.80578908216,181.80578908216,181.80578908216,181.80578908216,181.80578908216,181.80578908216,181.80578908216,181.80578908216,181.80578908216,181.80578908216,181.80578908216,181.80578908216,181.80578908216,181.80578908216,181.80578908216,181.80578908216,181.80578908216,181.80578908216,181.80578908216,181.80578908216,181.80578908216,181.80578908216,181.80578908216,181.80578908216,181.80578908216,181.80578908216,181.80578908216,181.80578908216,181.80578908216,181.80578908216,181.80578908216,181.80578908216,181.80578908216,181.80578908216,181.80578908216,181.80578908216,181.80578908216,181.80578908216,181.80578908216,181.80578908216,181.80578908216,181.80578908216,181.80578908216,230.9201960904,353.77876153925,-0.25589178099028,315.33584519031,-0.26331707411467,0
0.0001609375,402046757.07882,1.4395149106932e-05,4.7680109153444e-05,2.0174378007119e-05,1.0145751874691,0,0,0,0,0,0,0,0,0,0,0,0,0,0,0,0,0,0,0,0,0,0,0,0,0,0,0,0,0,0,0,0,0,0,0,0,0,0,0,0,0,0,0,0,0,0,0,0,-0.95678197227139,-0.35500082025829,-0.83520738107671,5.3690217454826,3.0447965221605,1.2641248739175,-3.4144793940326,1.6277819065136,2.7634514749486,-0.47826371257038,1.6824324580444,-5.3598082426374,1.4118537499717,-1.6367864989154,1.5243323006281,-4.3201804505974,2.1732179273228,4.8426191875854,-0.98644502853604,-4.7586451674005,1.6098208028727,1.6574029404866,0.093176318298783,-4.1234805973419,2.939769859619,-1.9449649234226,1.0708284664106,1.1861486899857,-1.7954334389162,1.2603808360659,1.4626001941133,-0.3047574531417,0.80739110334334,-4.3198197286189,-2.0098542222763,-3.5499966465654,5.2260919117626,-2.7797018120441,3.1673710137734,-0.46072277373308,-1.411284971483,-6.9756372710227,0.83889840813418,-2.1540171763833,-3.4492511290382,1.1305338518557,3.7802355225493,-4.0390881907478,182.04635216292,182.04635216292,182.04635216292,182.04635216292,182.04635216292,182.04635216292,182.04635216292,182.04635216292,182.04635216292,182.04635216292,182.04635216292,182.04635216292,182.04635216292,182.04635216292,182.04635216292,182.04635216292,182.04635216292,182.04635216292,182.04635216292,182.04635216292,182.04635216292,182.04635216292,182.04635216292,182.04635216292,182.04635216292,182.04635216292,182.04635216292,182.04635216292,182.04635216292,182.04635216292,182.04635216292,182.04635216292,182.04635216292,182.04635216292,182.04635216292,182.04635216292,182.04635216292,182.04635216292,182.04635216292,182.04635216292,182.04635216292,182.04635216292,182.04635216292,182.04635216292,182.04635216292,182.04635216292,182.04635216292,182.04635216292,230.91752345013,354.2881566679,-0.25750074513551,315.76988184601,-0.26494235346446,0
0.0001615625,404273718.70433,1.4449013667343e-05,4.7865047298016e-05,2.0253435155913e-05,1.0146354103498,0,0,0,0,0,0,0,0,0,0,0,0,0,0,0,0,0,0,0,0,0,0,0,0,0,0,0,0,0,0,0,0,0,0,0,0,0,0,0,0,0,0,0,0,0,0,0,0,-0.95694975865052,-0.35367542192016,-0.83087806079554,5.3676495214984,3.0448493195346,1.2631855758032,-3.4138663441744,1.6277193307921,2.7634931749092,-0.47865870816018,1.6837510475099,-5.3604548265646,1.4121333931893,-1.6356333361695,1.5257592426503,-4.3211199547756,2.1726127607771,4.8414612171064,-0.98646135535086,-4.7569439299939,1.6115007447614,1.6578041841491,0.092559679244119,-4.1219279321357,2.9412084449673,-1.9467031612767,1.0717986121581,1.1853305042806,-1.7958026168327,1.2600420006696,1.4625103635215,-0.30534744108149,0.8074452477203,-4.3192257340999,-2.0085557323694,-3.5487994014596,5.2269638273331,-2.7802867029668,3.1670238879757,-0.46053917994832,-1.4105541553827,-6.9757043733826,0.84027770384868,-2.15327975032,-3.4488653282376,1.1317652471797,3.7781175853738,-4.0371801511603,182.28690267303,182.28690267303,182.28690267303,182.28690267303,182.28690267303,182.28690267303,182.28690267303,182.28690267303,182.28690267303,182.28690267303,182.28690267303,182.28690267303,182.28690267303,182.28690267303,182.28690267303,182.28690267303,182.28690267303,182.28690267303,182.28690267303,182.28690267303,182.28690267303,182.28690267303,182.28690267303,182.28690267303,182.28690267303,182.28690267303,182.28690267303,182.28690267303,182.28690267303,182.28690267303,182.28690267303,182.28690267303,182.28690267303,182.28690267303,182.28690267303,182.28690267303,182.28690267303,182.28690267303,182.28690267303,182.28690267303,182.28690267303,182.28690267303,182.28690267303,182.28690267303,182.28690267303,182.28690267303,182.28690267303,182.28690267303,230.91476122973,354.79738622318,-0.25911378375648,316.20383563899,-0.26657167013873,0
0.0001621875,406506089.58143,1.4502862824736e-05,4.8049985040401e-05,2.0332487139895e-05,1.0146956322811,0,0,0,0,0,0,0,0,0,0,0,0,0,0,0,0,0,0,0,0,0,0,0,0,0,0,0,0,0,0,0,0,0,0,0,0,0,0,0,0,0,0,0,0,0,0,0,0,-0.95711814129199,-0.35235065471794,-0.82657431790525,5.36629103753,3.0448982036758,1.2622475432925,-3.4132523681265,1.627655059895,2.7635344434102,-0.47904509961252,1.6850609929629,-5.3610970964645,1.4124132086658,-1.6344861269842,1.5271826847845,-4.3220467892965,2.1720080303178,4.8403046578631,-0.98648210295439,-4.7552550731002,1.6131712829632,1.6582105657904,0.091951879334476,-4.1203924267229,2.9426395642669,-1.9484376021191,1.0727621959053,1.1845141374641,-1.7961610532131,1.2597029826048,1.4624176415003,-0.30592877942331,0.80749902467848,-4.3186309051036,-2.0072607383583,-3.5476113952609,5.2278349869716,-2.7808620661511,3.1666815299676,-0.460356960568,-1.4098258516374,-6.9757673962263,0.84165065318914,-2.1525403061286,-3.4484796041118,1.132994242497,3.7760088801894,-4.0352746894895,182.52744051345,182.52744051345,182.52744051345,182.52744051345,182.52744051345,182.52744051345,182.52744051345,182.52744051345,182.52744051345,182.52744051345,182.52744051345,182.52744051345,182.52744051345,182.52744051345,182.52744051345,182.52744051345,182.52744051345,182.52744051345,182.52744051345,182.52744051345,182.52744051345,182.52744051345,182.52744051345,182.52744051345,182.52744051345,182.52744051345,182.52744051345,182.52744051345,182.52744051345,182.52744051345,182.52744051345,182.52744051345,182.52744051345,182.52744051345,182.52744051345,182.52744051345,182.52744051345,182.52744051345,182.52744051345,182.52744051345,182.52744051345,182.52744051345,182.52744051345,182.52744051345,182.52744051345,182.52744051345,182.52744051345,182.52744051345,230.91190935782,355.30645162507,-0.26073089437385,316.63770693982,-0.26820502180044,0
0.0001628125,408743865.6684,1.4556696622734e-05,4.8234922385583e-05,2.0411534030743e-05,1.0147558532635,0,0,0,0,0,0,0,0,0,0,0,0,0,0,0,0,0,0,0,0,0,0,0,0,0,0,0,0,0,0,0,0,0,0,0,0,0,0,0,0,0,0,0,0,0,0,0,0,-0.95728700421966,-0.35102668745451,-0.82229619388105,5.3649461397984,3.0449431407492,1.261310840801,-3.4126374718313,1.6275890456711,2.7635752734132,-0.47942294259097,1.6863623931559,-5.3617348951208,1.412693191393,-1.6333449279625,1.5286025009917,-4.3229610175355,2.1714036398266,4.8391494320816,-0.98650720934394,-4.753578462408,1.6148323630657,1.6586219890729,0.091352805180823,-4.1188740842433,2.9440633163789,-1.9501681865291,1.0737192153306,1.1836996629172,-1.7965089444992,1.2593636972884,1.4623220518995,-0.30650147645352,0.80755244748631,-4.3180350329555,-2.0059693097896,-3.5464327389057,5.2287052417366,-2.7814279823453,3.1663438477572,-0.46017612740742,-1.4091000934922,-6.975826395514,0.84301709820406,-2.1517991853115,-3.4480940720888,1.134220709467,3.7739093621654,-4.0333718680831,182.76796558518,182.76796558518,182.76796558518,182.76796558518,182.76796558518,182.76796558518,182.76796558518,182.76796558518,182.76796558518,182.76796558518,182.76796558518,182.76796558518,182.76796558518,182.76796558518,182.76796558518,182.76796558518,182.76796558518,182.76796558518,182.76796558518,182.76796558518,182.76796558518,182.76796558518,182.76796558518,182.76796558518,182.76796558518,182.76796558518,182.76796558518,182.76796558518,182.76796558518,182.76796558518,182.76796558518,182.76796558518,182.76796558518,182.76796558518,182.76796558518,182.76796558518,182.76796558518,182.76796558518,182.76796558518,182.76796558518,182.76796558518,182.76796558518,182.76796558518,182.76796558518,182.76796558518,182.76796558518,182.76796558518,182.76796558518,230.90896783169,355.81535428901,-0.26235207465611,317.07149611724,-0.26984240619519,0
0.0001634375,410987042.82682,1.4610515104833e-05,4.8419859338508e-05,2.0490575900861e-05,1.0148160732969,0,0,0,0,0,0,0,0,0,0,0,0,0,0,0,0,0,0,0,0,0,0,0,0,0,0,0,0,0,0,0,0,0,0,0,0,0,0,0,0,0,0,0,0,0,0,0,0,-0.95745623536375,-0.34970369156906,-0.81804373645895,5.3636146762808,3.0449841011935,1.2603755350918,-3.4120216665123,1.6275212369661,2.7636156554617,-0.47979230576337,1.6876553481623,-5.3623680767141,1.4129733362268,-1.6322097798643,1.5300185666677,-4.3238626963296,2.1707994939521,4.8379954674419,-0.98653661135824,-4.7519139691907,1.6164839299301,1.6590383580911,0.09076233393567,-4.1173729005691,2.945479810106,-1.9518948607501,1.0746696717052,1.1828871554139,-1.7968464872959,1.2590240583196,1.4622236150129,-0.3070655509378,0.80760552799918,-4.3174379209142,-2.004681508453,-3.5452635180339,5.2295744452502,-2.7819845239609,3.1660107452275,-0.45999668521973,-1.4083769152693,-6.9758814204598,0.84437688643669,-2.1510567083741,-3.4477088422509,1.1354445194225,3.77181898543,-4.0314717496988,183.00847778934,183.00847778934,183.00847778934,183.00847778934,183.00847778934,183.00847778934,183.00847778934,183.00847778934,183.00847778934,183.00847778934,183.00847778934,183.00847778934,183.00847778934,183.00847778934,183.00847778934,183.00847778934,183.00847778934,183.00847778934,183.00847778934,183.00847778934,183.00847778934,183.00847778934,183.00847778934,183.00847778934,183.00847778934,183.00847778934,183.00847778934,183.00847778934,183.00847778934,183.00847778934,183.00847778934,183.00847778934,183.00847778934,183.00847778934,183.00847778934,183.00847778934,183.00847778934,183.00847778934,183.00847778934,183.00847778934,183.00847778934,183.00847778934,183.00847778934,183.00847778934,183.00847778934,183.00847778934,183.00847778934,183.00847778934,230.90593672072,356.32409562445,-0.2639773222276,317.50520353779,-0.27148382110175,0
0.0001640625,413235616.81881,1.4664318314724e-05,4.8604795904088e-05,2.0569612823848e-05,1.0148762923814,0,0,0,0,0,0,0,0,0,0,0,0,0,0,0,0,0,0,0,0,0,0,0,0,0,0,0,0,0,0,0,0,0,0,0,0,0,0,0,0,0,0,0,0,0,0,0,0,-0.95762572667406,-0.34838184027944,-0.81381699833125,5.3622964967273,3.045021060282,1.2594416947414,-3.4114049672104,1.6274515806416,2.7636555776319,-0.48015326947468,1.6889399582653,-5.3629965066873,1.4132536379206,-1.6310807080181,1.5314307591834,-4.3247518772801,2.1701954978412,4.8368426977889,-0.98657024490205,-4.7502614691355,1.6181259291217,1.659459577245,0.090180334356842,-4.1158888656523,2.9468891620787,-1.953617576582,1.0756135702127,1.182076690785,-1.7971738769242,1.2586839777059,1.4621223476239,-0.30762103127551,0.80765827647746,-4.3168393840366,-2.0033973882076,-3.5441037933273,5.2304424541154,-2.7825317554482,3.165682122096,-0.45981863204174,-1.4076563519974,-6.975932515743,0.84572987102046,-2.1503131738579,-3.4473240197694,1.136665543711,3.7697377032067,-4.0295743972547,183.24897702723,183.24897702723,183.24897702723,183.24897702723,183.24897702723,183.24897702723,183.24897702723,183.24897702723,183.24897702723,183.24897702723,183.24897702723,183.24897702723,183.24897702723,183.24897702723,183.24897702723,183.24897702723,183.24897702723,183.24897702723,183.24897702723,183.24897702723,183.24897702723,183.24897702723,183.24897702723,183.24897702723,183.24897702723,183.24897702723,183.24897702723,183.24897702723,183.24897702723,183.24897702723,183.24897702723,183.24897702723,183.24897702723,183.24897702723,183.24897702723,183.24897702723,183.24897702723,183.24897702723,183.24897702723,183.24897702723,183.24897702723,183.24897702723,183.24897702723,183.24897702723,183.24897702723,183.24897702723,183.24897702723,183.24897702723,230.90281616766,356.8326770337,-0.26560663492993,317.93882956541,-0.27312926440037,0
0.0001646875,415489583.30522,1.4718106296246e-05,4.8789732087191e-05,2.0648644874079e-05,1.0149365105173,0,0,0,0,0,0,0,0,0,0,0,0,0,0,0,0,0,0,0,0,0,0,0,0,0,0,0,0,0,0,0,0,0,0,0,0,0,0,0,0,0,0,0,0,0,0,0,0,-0.95779537423917,-0.34706130746081,-0.80961603586516,5.3609914528467,3.0450539984526,1.2585093895492,-3.4107873926132,1.6273800226289,2.7636950259056,-0.48050592443948,1.6902163230389,-5.3636200615448,1.4135340911828,-1.6299577229816,1.5328389586119,-4.3256286068151,2.1695915572247,4.8356910635835,-0.98660804522037,-4.7486208427503,1.619758308225,1.6598855515496,0.089606667825768,-4.1144219626012,2.9482914948092,-1.9553362913698,1.0765509200741,1.1812683455433,-1.7974913066768,1.2583433662205,1.4620182633879,-0.30816795476976,0.80771070149897,-4.3162392489712,-2.0021169949885,-3.5429536010632,5.2313091288593,-2.7830697335733,3.1653578741422,-0.45964195972846,-1.4069384390387,-6.9759797206742,0.8470759110558,-2.1495688576523,-3.4469397057109,1.1378836540661,3.7676654678082,-4.0276798734181,183.48946320044,183.48946320044,183.48946320044,183.48946320044,183.48946320044,183.48946320044,183.48946320044,183.48946320044,183.48946320044,183.48946320044,183.48946320044,183.48946320044,183.48946320044,183.48946320044,183.48946320044,183.48946320044,183.48946320044,183.48946320044,183.48946320044,183.48946320044,183.48946320044,183.48946320044,183.48946320044,183.48946320044,183.48946320044,183.48946320044,183.48946320044,183.48946320044,183.48946320044,183.48946320044,183.48946320044,183.48946320044,183.48946320044,183.48946320044,183.48946320044,183.48946320044,183.48946320044,183.48946320044,183.48946320044,183.48946320044,183.48946320044,183.48946320044,183.48946320044,183.48946320044,183.48946320044,183.48946320044,183.48946320044,183.48946320044,230.89960639112,357.34109991056,-0.26724001064433,318.37237456113,-0.27477873400719,0
0.0001653125,417748937.84481,1.4771879093333e-05,4.8974667892638e-05,2.0727672126489e-05,1.0149967277046,0,0,0,0,0,0,0,0,0,0,0,0,0,0,0,0,0,0,0,0,0,0,0,0,0,0,0,0,0,0,0,0,0,0,0,0,0,0,0,0,0,0,0,0,0,0,0,0,-0.95796507838234,-0.34574226658637,-0.80544090763364,5.3596993984799,3.0450829015265,1.2575786899987,-3.410168964647,1.6273065089985,2.7637339845592,-0.48085037048933,1.6914845404313,-5.3642386286434,1.4138146907314,-1.6288408212004,1.5342430482568,-4.3264929265206,2.1689875784747,4.8345405122847,-0.98664994712744,-4.7469919754527,1.6213810180899,1.6603161869438,0.0890411893067,-4.1129721673254,2.949686934612,-1.9570509679369,1.0774817345459,1.1804621965396,-1.7977989670002,1.2580021338988,1.4619113732209,-0.30870636686303,0.80776280988131,-4.3156373537471,-2.0008403668806,-3.5418129537161,5.2321743345139,-2.7835985077633,3.1650378934396,-0.45946665445823,-1.4062232117963,-6.976023069017,0.84841487189688,-2.148824012418,-3.4465559975023,1.1390987229567,3.7656022306399,-4.0257882401955,183.72993621089,183.72993621089,183.72993621089,183.72993621089,183.72993621089,183.72993621089,183.72993621089,183.72993621089,183.72993621089,183.72993621089,183.72993621089,183.72993621089,183.72993621089,183.72993621089,183.72993621089,183.72993621089,183.72993621089,183.72993621089,183.72993621089,183.72993621089,183.72993621089,183.72993621089,183.72993621089,183.72993621089,183.72993621089,183.72993621089,183.72993621089,183.72993621089,183.72993621089,183.72993621089,183.72993621089,183.72993621089,183.72993621089,183.72993621089,183.72993621089,183.72993621089,183.72993621089,183.72993621089,183.72993621089,183.72993621089,183.72993621089,183.72993621089,183.72993621089,183.72993621089,183.72993621089,183.72993621089,183.72993621089,183.72993621089,230.89630768508,357.84936563896,-0.26887744724018,318.80583888278,-0.27643222788983,0
0.0001659375,420013675.89458,1.4825636750099e-05,4.9159603325204e-05,2.0806694656539e-05,1.0150569439433,0,0,0,0,0,0,0,0,0,0,0,0,0,0,0,0,0,0,0,0,0,0,0,0,0,0,0,0,0,0,0,0,0,0,0,0,0,0,0,0,0,0,0,0,0,0,0,0,-0.95813474371439,-0.34442488980083,-0.80129167289814,5.3584201895477,3.0451077608109,1.2566496667774,-3.4095497073732,1.6272309869598,2.7637724361157,-0.48118671538572,1.6927447058485,-5.3648521058848,1.4140954313475,-1.6277299857313,1.5356429150993,-4.3273448741592,2.1683834686612,4.8333909986308,-0.98669588520202,-4.7453747566661,1.6229940139356,1.6607513901742,0.088483748241545,-4.1115394494711,2.9510756094643,-1.9587615743907,1.0784060308322,1.1796583206358,-1.7980970444204,1.2576601905818,1.4618016853967,-0.30923632032294,0.80781460660221,-4.3150335474866,-1.9995675341517,-3.5406818407826,5.2330379410565,-2.7841181205335,3.164722068737,-0.45929269720034,-1.4055107054454,-6.9760625905347,0.84974662531572,-2.1480788671961,-3.4461729892674,1.1403106240233,3.7635479421936,-4.0238995586829,183.97039596094,183.97039596094,183.97039596094,183.97039596094,183.97039596094,183.97039596094,183.97039596094,183.97039596094,183.97039596094,183.97039596094,183.97039596094,183.97039596094,183.97039596094,183.97039596094,183.97039596094,183.97039596094,183.97039596094,183.97039596094,183.97039596094,183.97039596094,183.97039596094,183.97039596094,183.97039596094,183.97039596094,183.97039596094,183.97039596094,183.97039596094,183.97039596094,183.97039596094,183.97039596094,183.97039596094,183.97039596094,183.97039596094,183.97039596094,183.97039596094,183.97039596094,183.97039596094,183.97039596094,183.97039596094,183.97039596094,183.97039596094,183.97039596094,183.97039596094,183.97039596094,183.97039596094,183.97039596094,183.97039596094,183.97039596094,230.89292041839,358.35747559179,-0.27051894273454,319.23922288461,-0.27808974408801,0
0.0001665625,422283792.81087,1.48793793111e-05,4.934453838961e-05,2.0885712540573e-05,1.0151171592336,0,0,0,0,0,0,0,0,0,0,0,0,0,0,0,0,0,0,0,0,0,0,0,0,0,0,0,0,0,0,0,0,0,0,0,0,0,0,0,0,0,0,0,0,0,0,0,0,-0.95830427918575,-0.34310934692703,-0.79716839013262,5.357153684103,3.0451285730633,1.2557223902936,-3.4089296466832,1.6271534058237,2.7638103617238,-0.48151507368955,1.6939969114324,-5.3654604014003,1.4143763079372,-1.6266251870414,1.5370384501979,-4.3281844838998,2.1677791357784,4.8322424847689,-0.98674579400463,-4.7437690798809,1.624597256329,1.661191069082,0.087934189391992,-4.1101237719458,2.9524576470978,-1.9604680839867,1.0793238298774,1.1788567943874,-1.798385720912,1.2573174465202,1.4616892059602,-0.30975787452499,0.80786609478926,-4.3144276901097,-1.9982985194249,-3.5395602296403,5.2338998238823,-2.7846286078577,3.1644102859419,-0.45912006425276,-1.4048009547279,-6.97609831061,0.85107104975506,-2.14733362716,-3.4457907721816,1.1415192324772,3.7615025519925,-4.0220138886943,184.21084235346,184.21084235346,184.21084235346,184.21084235346,184.21084235346,184.21084235346,184.21084235346,184.21084235346,184.21084235346,184.21084235346,184.21084235346,184.21084235346,184.21084235346,184.21084235346,184.21084235346,184.21084235346,184.21084235346,184.21084235346,184.21084235346,184.21084235346,184.21084235346,184.21084235346,184.21084235346,184.21084235346,184.21084235346,184.21084235346,184.21084235346,184.21084235346,184.21084235346,184.21084235346,184.21084235346,184.21084235346,184.21084235346,184.21084235346,184.21084235346,184.21084235346,184.21084235346,184.21084235346,184.21084235346,184.21084235346,184.21084235346,184.21084235346,184.21084235346,184.21084235346,184.21084235346,184.21084235346,184.21084235346,184.21084235346,230.8894450342,358.86543112954,-0.27216449518575,319.67252691703,-0.27975128066942,0
0.0001671875,424559283.85149,1.4933106821051e-05,4.9529473090521e-05,2.0964725855121e-05,1.0151773735756,0,0,0,0,0,0,0,0,0,0,0,0,0,0,0,0,0,0,0,0,0,0,0,0,0,0,0,0,0,0,0,0,0,0,0,0,0,0,0,0,0,0,0,0,0,0,0,0,-0.95847359812,-0.34179580455202,-0.79307111557458,5.3558997423798,3.0451453403569,1.2547969302387,-3.4083088098545,1.6270737178819,2.7638477413658,-0.48183556571328,1.6952412454226,-5.366063433162,1.4146573155966,-1.6255263838598,1.5384295490817,-4.3290117867899,2.1671744889768,4.8310949402819,-0.98679960825987,-4.7421748424718,1.6261907120177,1.6616351327296,0.087392353609456,-4.1087250909293,2.9538331731887,-1.9621704748941,1.0802351560785,1.1780576937378,-1.7986651732648,1.2569738130069,1.4615739390247,-0.31027109474193,0.80791727573241,-4.3138196519941,-1.997033337897,-3.5384480665455,5.2347598642557,-2.7851299996007,3.1641024286791,-0.45894872777564,-1.4040939937442,-6.9761302504745,0.85238803050426,-2.1465884735335,-3.4454094347543,1.1427244255314,3.7594660085178,-4.0201312884589,184.45127529189,184.45127529189,184.45127529189,184.45127529189,184.45127529189,184.45127529189,184.45127529189,184.45127529189,184.45127529189,184.45127529189,184.45127529189,184.45127529189,184.45127529189,184.45127529189,184.45127529189,184.45127529189,184.45127529189,184.45127529189,184.45127529189,184.45127529189,184.45127529189,184.45127529189,184.45127529189,184.45127529189,184.45127529189,184.45127529189,184.45127529189,184.45127529189,184.45127529189,184.45127529189,184.45127529189,184.45127529189,184.45127529189,184.45127529189,184.45127529189,184.45127529189,184.45127529189,184.45127529189,184.45127529189,184.45127529189,184.45127529189,184.45127529189,184.45127529189,184.45127529189,184.45127529189,184.45127529189,184.45127529189,184.45127529189,230.8858820476,359.3732335992,-0.27381410267569,320.10575132642,-0.28141683574757,0
0.0001678125,426840144.17858,1.4986819324949e-05,4.9714407432547e-05,2.1043734677042e-05,1.0152375869693,0,0,0,0,0,0,0,0,0,0,0,0,0,0,0,0,0,0,0,0,0,0,0,0,0,0,0,0,0,0,0,0,0,0,0,0,0,0,0,0,0,0,0,0,0,0,0,0,-0.95864261821813,-0.34048442522264,-0.78899990178905,5.3546582267368,3.0451580698956,1.2538733552232,-3.4076872249758,1.6269918791879,2.7638845540137,-0.48214831653938,1.6964777916172,-5.3666611285827,1.4149384496625,-1.6244335240427,1.5398161120112,-4.3298268113008,2.1665694388224,4.8299483421496,-0.9868572629892,-4.7405919452974,1.6277743546311,1.6620834914683,0.086858078555013,-4.1073433561018,2.9552023096886,-1.9638687299721,1.0811400369802,1.1772610937645,-1.7989355724325,1.2566292029995,1.4614558870385,-0.31077605144847,0.80796814891278,-4.3132093136082,-1.995771997556,-3.5373452776788,5.235617949583,-2.7856223199564,3.1637983789009,-0.4587786563037,-1.4033898558028,-6.976158427679,0.85369745981383,-2.1458435635872,-3.4450290630038,1.143926082815,3.7574382591443,-4.0182518143278,184.69169468034,184.69169468034,184.69169468034,184.69169468034,184.69169468034,184.69169468034,184.69169468034,184.69169468034,184.69169468034,184.69169468034,184.69169468034,184.69169468034,184.69169468034,184.69169468034,184.69169468034,184.69169468034,184.69169468034,184.69169468034,184.69169468034,184.69169468034,184.69169468034,184.69169468034,184.69169468034,184.69169468034,184.69169468034,184.69169468034,184.69169468034,184.69169468034,184.69169468034,184.69169468034,184.69169468034,184.69169468034,184.69169468034,184.69169468034,184.69169468034,184.69169468034,184.69169468034,184.69169468034,184.69169468034,184.69169468034,184.69169468034,184.69169468034,184.69169468034,184.69169468034,184.69169468034,184.69169468034,184.69169468034,184.69169468034,230.88223204345,359.88088433299,-0.27546776333205,320.53889645482,-0.28308640747136,0
0.0001684375,429126368.8621,1.5040516868079e-05,4.9899341420236e-05,2.1122739083417e-05,1.0152977994147,0,0,0,0,0,0,0,0,0,0,0,0,0,0,0,0,0,0,0,0,0,0,0,0,0,0,0,0,0,0,0,0,0,0,0,0,0,0,0,0,0,0,0,0,0,0,0,0,-0.95881126155365,-0.3391753667255,-0.78495479638886,5.3534290016962,3.045166773738,1.2529517324059,-3.40706492052,1.6269078502364,2.7639207778631,-0.48245345513,1.6977066289747,-5.3672534241368,1.4152197057858,-1.6233465453653,1.5411980441829,-4.3306295837674,2.1659638975459,4.8288026746114,-0.9869186936927,-4.7390202924609,1.6293481652222,1.6625360571103,0.086331199344826,-4.1059785107314,2.9565651733979,-1.9655628365078,1.0820385028979,1.1764670684196,-1.7991970829987,1.2562835317302,1.4613350510674,-0.31127281968401,0.80801871206944,-4.3125965651752,-1.9945144994631,-3.5362517701579,5.2364739736152,-2.7861055878893,3.1634980175068,-0.45860981521024,-1.4026885733139,-6.9761828563465,0.85499923695091,-2.1450990307531,-3.4446497405654,1.1451240867823,3.7554192500566,-4.0163755205188,184.93210042365,184.93210042365,184.93210042365,184.93210042365,184.93210042365,184.93210042365,184.93210042365,184.93210042365,184.93210042365,184.93210042365,184.93210042365,184.93210042365,184.93210042365,184.93210042365,184.93210042365,184.93210042365,184.93210042365,184.93210042365,184.93210042365,184.93210042365,184.93210042365,184.93210042365,184.93210042365,184.93210042365,184.93210042365,184.93210042365,184.93210042365,184.93210042365,184.93210042365,184.93210042365,184.93210042365,184.93210042365,184.93210042365,184.93210042365,184.93210042365,184.93210042365,184.93210042365,184.93210042365,184.93210042365,184.93210042365,184.93210042365,184.93210042365,184.93210042365,184.93210042365,184.93210042365,184.93210042365,184.93210042365,184.93210042365,230.87849567328,360.38838464737,-0.27712547531244,320.97196263979,-0.28475999402329,0
0.0001690625,431417952.88398,1.5094199495962e-05,5.0084275058076e-05,2.1201739151364e-05,1.015358010912,0,0,0,0,0,0,0,0,0,0,0,0,0,0,0,0,0,0,0,0,0,0,0,0,0,0,0,0,0,0,0,0,0,0,0,0,0,0,0,0,0,0,0,0,0,0,0,0,-0.95897945455287,-0.33786878146713,-0.78093584080416,5.352211933856,3.0451714684996,1.2520321272159,-3.4064419249051,1.6268215965461,2.7639563904576,-0.48275111350399,1.69892783133,-5.3678402649057,1.4155010799847,-1.6222653764389,1.5425752558951,-4.3314201288356,2.1653577793173,4.8276579289858,-0.98698383643671,-4.7374597909682,1.6309121326998,1.6629927429641,0.085811549151449,-4.1046304918159,2.9579218747349,-1.9672527859483,1.082930586545,1.1756756903242,-1.7994498626974,1.2559367172884,1.4612114310398,-0.31176147844544,0.80806896128272,-4.3119813062728,-1.9932608380525,-3.5351674332272,5.2373278366092,-2.7865798175917,3.1632012250209,-0.45844216720935,-1.401990177689,-6.976203547473,0.85629326818345,-2.1443549848677,-3.4442715487754,1.1463183231128,3.7534089261918,-4.0145024588672,185.17249242743,185.17249242743,185.17249242743,185.17249242743,185.17249242743,185.17249242743,185.17249242743,185.17249242743,185.17249242743,185.17249242743,185.17249242743,185.17249242743,185.17249242743,185.17249242743,185.17249242743,185.17249242743,185.17249242743,185.17249242743,185.17249242743,185.17249242743,185.17249242743,185.17249242743,185.17249242743,185.17249242743,185.17249242743,185.17249242743,185.17249242743,185.17249242743,185.17249242743,185.17249242743,185.17249242743,185.17249242743,185.17249242743,185.17249242743,185.17249242743,185.17249242743,185.17249242743,185.17249242743,185.17249242743,185.17249242743,185.17249242743,185.17249242743,185.17249242743,185.17249242743,185.17249242743,185.17249242743,185.17249242743,185.17249242743,230.87467365246,360.89573584191,-0.27878723679989,321.40495021422,-0.28643759360364,0
0.0001696875,433714891.14274,1.5147867254338e-05,5.0269208350493e-05,2.1280734957947e-05,1.0154182214613,0,0,0,0,0,0,0,0,0,0,0,0,0,0,0,0,0,0,0,0,0,0,0,0,0,0,0,0,0,0,0,0,0,0,0,0,0,0,0,0,0,0,0,0,0,0,0,0,-0.95914712795585,-0.33656481594541,-0.77694306922502,5.3510068918817,3.04517217501,1.2511146030815,-3.4058182661403,1.6267330891293,2.7639913688716,-0.48304142599844,1.7001414672333,-5.3684216041464,1.4157825687039,-1.621189937521,1.5439476626559,-4.3321984698732,2.1647510005185,4.8265141034192,-0.9870526279775,-4.7359103504725,1.6324662541178,1.6634534639447,0.085298959741503,-4.1032992302444,2.959272516759,-1.9689385736042,1.0838163226457,1.174887030573,-1.7996940620081,1.2555886811545,1.4610850259997,-0.31224211012821,0.80811889107887,-4.3113634454531,-1.9920110014598,-3.5340921393504,5.2381794454114,-2.7870450189333,3.1629078822611,-0.45827567279491,-1.401294699275,-6.9762205092121,0.85757946673193,-2.1436115124675,-3.4438945667033,1.1475086810893,3.7514072311692,-4.0126326786147,185.41287059817,185.41287059817,185.41287059817,185.41287059817,185.41287059817,185.41287059817,185.41287059817,185.41287059817,185.41287059817,185.41287059817,185.41287059817,185.41287059817,185.41287059817,185.41287059817,185.41287059817,185.41287059817,185.41287059817,185.41287059817,185.41287059817,185.41287059817,185.41287059817,185.41287059817,185.41287059817,185.41287059817,185.41287059817,185.41287059817,185.41287059817,185.41287059817,185.41287059817,185.41287059817,185.41287059817,185.41287059817,185.41287059817,185.41287059817,185.41287059817,185.41287059817,185.41287059817,185.41287059817,185.41287059817,185.41287059817,185.41287059817,185.41287059817,185.41287059817,185.41287059817,185.41287059817,185.41287059817,185.41287059817,185.41287059817,230.87076675645,361.40293919841,-0.28045304599919,321.83785950623,-0.28811920444541,0
0.0001703125,436017178.45843,1.5201520189186e-05,5.0454141301847e-05,2.1359726580138e-05,1.0154784310625,0,0,0,0,0,0,0,0,0,0,0,0,0,0,0,0,0,0,0,0,0,0,0,0,0,0,0,0,0,0,0,0,0,0,0,0,0,0,0,0,0,0,0,0,0,0,0,0,-0.9593142167639,-0.33526361034245,-0.77297650763175,5.349813746461,3.0451689179681,1.250199221222,-3.4051939714612,1.6266423048612,2.764025689829,-0.48332452860335,1.7013475998899,-5.3689974028303,1.4160641688696,-1.6201201413654,1.5453151852352,-4.3329646293505,2.1641434800048,4.8253712026051,-0.98712500584565,-4.734371882972,1.6340105348606,1.6639181366295,0.084793261961585,-4.1019846509489,2.9606171943909,-1.9706201983545,1.0846957475617,1.174101158582,-1.7999298237936,1.2552393486787,1.4609558343079,-0.3127148000125,0.80816849455008,-4.3107428998315,-1.9907649718667,-3.5330257453982,5.2390287134841,-2.7875011979114,3.1626178710123,-0.4581102906761,-1.4006021673127,-6.9762337471296,0.85885775264738,-2.1428686772016,-3.4435188711768,1.1486950539504,3.7494141072249,-4.0107662262134,185.65323484326,185.65323484326,185.65323484326,185.65323484326,185.65323484326,185.65323484326,185.65323484326,185.65323484326,185.65323484326,185.65323484326,185.65323484326,185.65323484326,185.65323484326,185.65323484326,185.65323484326,185.65323484326,185.65323484326,185.65323484326,185.65323484326,185.65323484326,185.65323484326,185.65323484326,185.65323484326,185.65323484326,185.65323484326,185.65323484326,185.65323484326,185.65323484326,185.65323484326,185.65323484326,185.65323484326,185.65323484326,185.65323484326,185.65323484326,185.65323484326,185.65323484326,185.65323484326,185.65323484326,185.65323484326,185.65323484326,185.65323484326,185.65323484326,185.65323484326,185.65323484326,185.65323484326,185.65323484326,185.65323484326,185.65323484326,230.86677581726,361.90999597996,-0.28212290112521,322.27069083899,-0.2898048247903,0
0.0001709375,438324809.57788,1.5255158346796e-05,5.0639073916434e-05,2.1438714094877e-05,1.0155386397158,0,0,0,0,0,0,0,0,0,0,0,0,0,0,0,0,0,0,0,0,0,0,0,0,0,0,0,0,0,0,0,0,0,0,0,0,0,0,0,0,0,0,0,0,0,0,0,0,-0.95948066018146,-0.33396529820893,-0.76903617303753,5.3486323702433,3.0451617255686,1.2492860404794,-3.4045690670227,1.6265492267525,2.7640593298516,-0.48360055837025,1.7025462872117,-5.3695676292555,1.4163458779423,-1.6190558940042,1.5466777496675,-4.3337186292016,2.1635351393059,4.8242292374549,-0.98720090840871,-4.7328443025331,1.6355449887157,1.6643866793368,0.084294286175453,-4.1006866730889,2.961955993907,-1.972297662396,1.0855688989251,1.1733181419591,-1.800157282992,1.2548886495083,1.4608238538569,-0.31317963578798,0.80821776348467,-4.3101195947308,-1.9895227258618,-3.5319680937888,5.2398755608526,-2.7879483571043,3.1623310746408,-0.45794597816415,-1.3999126099176,-6.9762432644546,0.86012805261835,-2.1421265202984,-3.4431445367564,1.1498773392099,3.7474294951725,-4.0089031451557,185.89358507109,185.89358507109,185.89358507109,185.89358507109,185.89358507109,185.89358507109,185.89358507109,185.89358507109,185.89358507109,185.89358507109,185.89358507109,185.89358507109,185.89358507109,185.89358507109,185.89358507109,185.89358507109,185.89358507109,185.89358507109,185.89358507109,185.89358507109,185.89358507109,185.89358507109,185.89358507109,185.89358507109,185.89358507109,185.89358507109,185.89358507109,185.89358507109,185.89358507109,185.89358507109,185.89358507109,185.89358507109,185.89358507109,185.89358507109,185.89358507109,185.89358507109,185.89358507109,185.89358507109,185.89358507109,185.89358507109,185.89358507109,185.89358507109,185.89358507109,185.89358507109,185.89358507109,185.89358507109,185.89358507109,185.89358507109,230.86270171958,362.41690743014,-0.28379680040922,322.70344453071,-0.29149445289847,0
0.0001715625,440637779.18018,1.5308781773655e-05,5.0824006198486e-05,2.1517697578858e-05,1.0155988474213,0,0,0,0,0,0,0,0,0,0,0,0,0,0,0,0,0,0,0,0,0,0,0,0,0,0,0,0,0,0,0,0,0,0,0,0,0,0,0,0,0,0,0,0,0,0,0,0,-0.95964640154026,-0.33267000626346,-0.76512207278745,5.347462637801,3.0451506291554,1.2483751171738,-3.4039435776238,1.6264538441292,2.7640922654047,-0.4838696528883,1.7037375819301,-5.3701322585643,1.4166276939584,-1.6179970955028,1.548035287229,-4.3344604911386,2.1629259028351,4.8230882247736,-0.98728027493021,-4.7313275250409,1.6370696378653,1.6648590122076,0.083801862658016,-4.0994052102173,2.9632889925717,-1.973970970922,1.0864358153017,1.1725380463979,-1.8003765663701,1.2545365179489,1.4606890822636,-0.31363670712916,0.80826668850088,-4.3094934632601,-1.9882842348138,-3.5309190136098,5.2407199140231,-2.7883864961023,3.1620473787078,-0.45778269153564,-1.39922605406,-6.9762490622942,0.86139029974035,-2.141385061091,-3.4427716357075,1.1510554389491,3.7454533343696,-4.007043475811,186.13392119103,186.13392119103,186.13392119103,186.13392119103,186.13392119103,186.13392119103,186.13392119103,186.13392119103,186.13392119103,186.13392119103,186.13392119103,186.13392119103,186.13392119103,186.13392119103,186.13392119103,186.13392119103,186.13392119103,186.13392119103,186.13392119103,186.13392119103,186.13392119103,186.13392119103,186.13392119103,186.13392119103,186.13392119103,186.13392119103,186.13392119103,186.13392119103,186.13392119103,186.13392119103,186.13392119103,186.13392119103,186.13392119103,186.13392119103,186.13392119103,186.13392119103,186.13392119103,186.13392119103,186.13392119103,186.13392119103,186.13392119103,186.13392119103,186.13392119103,186.13392119103,186.13392119103,186.13392119103,186.13392119103,186.13392119103,230.85854539708,362.92367477229,-0.28547474207443,323.13612089456,-0.29318808703837,0
0.0001721875,442956081.88214,1.5362390516375e-05,5.1008938152167e-05,2.1596677108394e-05,1.015659054179,0,0,0,0,0,0,0,0,0,0,0,0,0,0,0,0,0,0,0,0,0,0,0,0,0,0,0,0,0,0,0,0,0,0,0,0,0,0,0,0,0,0,0,0,0,0,0,0,-0.95981138820974,-0.3313778542625,-0.76123420405697,5.3463044255717,3.0451356628702,1.2474665050121,-3.403317526415,1.6263561527224,2.7641244728783,-0.48413194983126,1.7049215317948,-5.3706912723588,1.4169096155739,-1.6169436407431,1.5493877343504,-4.3351902369925,2.1623156980529,4.8219481869093,-0.98736304560167,-4.7298214678965,1.638584512788,1.6653350571534,0.083315821939362,-4.0981401705439,2.9646162584986,-1.9756401318804,1.0872965358788,1.1717609356046,-1.8005877922928,1.2541828932566,1.4605515169368,-0.31408610530386,0.8083152591873,-4.3088644459404,-1.9870494652395,-3.5298783218495,5.2415617058244,-2.7888156119359,3.1617666715329,-0.45762038638059,-1.3985425255872,-6.976251139954,0.86264443325296,-2.1406442976696,-3.4424002379607,1.1522292600802,3.743485562716,-4.0051872553264,186.37424311357,186.37424311357,186.37424311357,186.37424311357,186.37424311357,186.37424311357,186.37424311357,186.37424311357,186.37424311357,186.37424311357,186.37424311357,186.37424311357,186.37424311357,186.37424311357,186.37424311357,186.37424311357,186.37424311357,186.37424311357,186.37424311357,186.37424311357,186.37424311357,186.37424311357,186.37424311357,186.37424311357,186.37424311357,186.37424311357,186.37424311357,186.37424311357,186.37424311357,186.37424311357,186.37424311357,186.37424311357,186.37424311357,186.37424311357,186.37424311357,186.37424311357,186.37424311357,186.37424311357,186.37424311357,186.37424311357,186.37424311357,186.37424311357,186.37424311357,186.37424311357,186.37424311357,186.37424311357,186.37424311357,186.37424311357,230.85430782846,363.43029920878,-0.28715672437128,323.5687202386,-0.29488572547619,0
0.0001728125,445279712.24396,1.5415984621608e-05,5.1193869781576e-05,2.1675652759231e-05,1.0157192599891,0,0,0,0,0,0,0,0,0,0,0,0,0,0,0,0,0,0,0,0,0,0,0,0,0,0,0,0,0,0,0,0,0,0,0,0,0,0,0,0,0,0,0,0,0,0,0,0,-0.95997557151293,-0.33008895495147,-0.75737255344818,5.3451576118085,3.045116863313,1.2465602550019,-3.402690934851,1.626256154692,2.7641559288321,-0.48438758655723,1.7060981798429,-5.371244658189,1.41719164209,-1.6158954201621,1.5507350325633,-4.3359078888771,2.1617044556665,4.8208091513634,-0.98744916159304,-4.7283260499617,1.6400896521107,1.6658147380011,0.08283599511516,-4.0968914569337,2.9659378506955,-1.9773051556552,1.0881511001827,1.1709868712385,-1.8007910706734,1.2538277198723,1.4604111553557,-0.3145279228392,0.80836346424619,-4.3082324902687,-1.9858183792056,-3.5288458245509,5.2424008753039,-2.7892356994913,3.1614888447767,-0.45745901793934,-1.3978620492083,-6.9762494948754,0.86389039824442,-2.1399042075739,-3.4420304111223,1.1533987145855,3.7415261166085,-4.0033345175002,186.61455075027,186.61455075027,186.61455075027,186.61455075027,186.61455075027,186.61455075027,186.61455075027,186.61455075027,186.61455075027,186.61455075027,186.61455075027,186.61455075027,186.61455075027,186.61455075027,186.61455075027,186.61455075027,186.61455075027,186.61455075027,186.61455075027,186.61455075027,186.61455075027,186.61455075027,186.61455075027,186.61455075027,186.61455075027,186.61455075027,186.61455075027,186.61455075027,186.61455075027,186.61455075027,186.61455075027,186.61455075027,186.61455075027,186.61455075027,186.61455075027,186.61455075027,186.61455075027,186.61455075027,186.61455075027,186.61455075027,186.61455075027,186.61455075027,186.61455075027,186.61455075027,186.61455075027,186.61455075027,186.61455075027,186.61455075027,230.84999003351,363.93678192051,-0.2888427454971,324.00124286577,-0.29658736647863,0
0.0001734375,447608664.77467,1.5469564136168e-05,5.1378801090748e-05,2.1754624606757e-05,1.0157794648515,0,0,0,0,0,0,0,0,0,0,0,0,0,0,0,0,0,0,0,0,0,0,0,0,0,0,0,0,0,0,0,0,0,0,0,0,0,0,0,0,0,0,0,0,0,0,0,0,-0.96013890661164,-0.32880341415139,-0.75353709676852,5.3440220765125,3.0450942692377,1.2456564154421,-3.4020638221615,1.6261538585625,2.7641866100027,-0.48463669978199,1.7072675646707,-5.3717924093521,1.4174737734976,-1.6148523202338,1.5520771282908,-4.3366134695966,2.1610921095918,4.8196711504646,-0.98753856502933,-4.7268411910031,1.6415851023719,1.6662979804992,0.08236221411488,-4.0956589674429,2.9672538192049,-1.9789660549462,1.0889995478356,1.1702159128959,-1.8009865026445,1.2534709475824,1.4602679950632,-0.31496225320179,0.80841129161741,-4.3075975504526,-1.9845909346723,-3.5278213177623,5.2432373673775,-2.7896467519058,3.1612137937629,-0.4572985412664,-1.3971846485713,-6.9762441232555,0.86512814525547,-2.1391647484724,-3.441662220341,1.1545637196676,3.7395749310035,-4.0014852927031,186.85484401386,186.85484401386,186.85484401386,186.85484401386,186.85484401386,186.85484401386,186.85484401386,186.85484401386,186.85484401386,186.85484401386,186.85484401386,186.85484401386,186.85484401386,186.85484401386,186.85484401386,186.85484401386,186.85484401386,186.85484401386,186.85484401386,186.85484401386,186.85484401386,186.85484401386,186.85484401386,186.85484401386,186.85484401386,186.85484401386,186.85484401386,186.85484401386,186.85484401386,186.85484401386,186.85484401386,186.85484401386,186.85484401386,186.85484401386,186.85484401386,186.85484401386,186.85484401386,186.85484401386,186.85484401386,186.85484401386,186.85484401386,186.85484401386,186.85484401386,186.85484401386,186.85484401386,186.85484401386,186.85484401386,186.85484401386,230.84559306927,364.44312406629,-0.2905328037399,324.4336890739,-0.29829300833241,0
0.0001740625,449942933.93766,1.552312910691e-05,5.1563732083648e-05,2.1833592725783e-05,1.0158396687663,0,0,0,0,0,0,0,0,0,0,0,0,0,0,0,0,0,0,0,0,0,0,0,0,0,0,0,0,0,0,0,0,0,0,0,0,0,0,0,0,0,0,0,0,0,0,0,0,-0.96030135241598,-0.3275213307934,-0.74972779881285,5.3428977013829,3.0450679212392,1.2447550318749,-3.4014362057114,1.6260492791364,2.7642164932676,-0.48487942528375,1.7084297207953,-5.3723345242215,1.4177560104704,-1.6138142245012,1.5534139728315,-4.3373070026538,2.1604785972212,4.8185342209695,-0.98763119903582,-4.7253668119969,1.6430709177944,1.6667847122188,0.081894311944461,-4.0944425950727,2.9685642054117,-1.9806228443652,1.0898419183234,1.1694481180807,-1.8011741808291,1.2531125316392,1.4601220337779,-0.31538919054883,0.80845872862349,-4.3069595868711,-1.9833670859365,-3.5268045890831,5.2440711328227,-2.7900487609641,3.1609414180922,-0.45713891169668,-1.3965103462158,-6.9762350196649,0.86635763001589,-2.1384258591377,-3.4412957284405,1.1557241979617,3.7376319394044,-3.9996396078242,187.09512281827,187.09512281827,187.09512281827,187.09512281827,187.09512281827,187.09512281827,187.09512281827,187.09512281827,187.09512281827,187.09512281827,187.09512281827,187.09512281827,187.09512281827,187.09512281827,187.09512281827,187.09512281827,187.09512281827,187.09512281827,187.09512281827,187.09512281827,187.09512281827,187.09512281827,187.09512281827,187.09512281827,187.09512281827,187.09512281827,187.09512281827,187.09512281827,187.09512281827,187.09512281827,187.09512281827,187.09512281827,187.09512281827,187.09512281827,187.09512281827,187.09512281827,187.09512281827,187.09512281827,187.09512281827,187.09512281827,187.09512281827,187.09512281827,187.09512281827,187.09512281827,187.09512281827,187.09512281827,187.09512281827,187.09512281827,230.84111802684,364.94932678244,-0.29222689724538,324.86605915574,-0.30000264927068,0
0.0001746875,452282514.15597,1.5576679580755e-05,5.1748662764181e-05,2.1912557190579e-05,1.0158998717338,0,0,0,0,0,0,0,0,0,0,0,0,0,0,0,0,0,0,0,0,0,0,0,0,0,0,0,0,0,0,0,0,0,0,0,0,0,0,0,0,0,0,0,0,0,0,0,0,-0.96046287145055,-0.32624279714679,-0.74594461338866,5.3417843697671,3.0450378615159,1.243856147131,-3.4008081002869,1.6259424373008,2.7642455559551,-0.48511589768501,1.7095846789647,-5.372871006212,1.4180383544074,-1.6127810136775,1.5547455220259,-4.3379885126036,2.1598638592548,4.8173984037532,-0.98772700769638,-4.7239028344208,1.6445471599521,1.6672748628096,0.081432122884345,-4.09324222839,2.9698690423991,-1.9822755404372,1.090678250838,1.1686835422302,-1.8013541889287,1.252752432795,1.4599732695495,-0.31580882948021,0.80850576207384,-4.3063185659104,-1.9821467839346,-3.5257954182535,5.2449021277376,-2.7904417174331,3.160671621779,-0.4569800847893,-1.3958391637023,-6.9762221776848,0.86757881298088,-2.1376874601675,-3.4409309957046,1.1568800775953,3.735697073934,-3.9977974862044,187.33538707864,187.33538707864,187.33538707864,187.33538707864,187.33538707864,187.33538707864,187.33538707864,187.33538707864,187.33538707864,187.33538707864,187.33538707864,187.33538707864,187.33538707864,187.33538707864,187.33538707864,187.33538707864,187.33538707864,187.33538707864,187.33538707864,187.33538707864,187.33538707864,187.33538707864,187.33538707864,187.33538707864,187.33538707864,187.33538707864,187.33538707864,187.33538707864,187.33538707864,187.33538707864,187.33538707864,187.33538707864,187.33538707864,187.33538707864,187.33538707864,187.33538707864,187.33538707864,187.33538707864,187.33538707864,187.33538707864,187.33538707864,187.33538707864,187.33538707864,187.33538707864,187.33538707864,187.33538707864,187.33538707864,187.33538707864,230.83656602667,365.45539118238,-0.29392502431484,325.29835339889,-0.3017162875878,0
0.0001753125,454627399.81745,1.5630215604603e-05,5.1933593136183e-05,2.1991518074782e-05,1.0159600737539,0,0,0,0,0,0,0,0,0,0,0,0,0,0,0,0,0,0,0,0,0,0,0,0,0,0,0,0,0,0,0,0,0,0,0,0,0,0,0,0,0,0,0,0,0,0,0,0,-0.96062342974954,-0.3249678989706,-0.74218748333321,5.3406819665647,3.0450041335831,1.2429598013367,-3.4001795184762,1.6258333598467,2.7642737756926,-0.48534625025666,1.7107324665634,-5.3734018630965,1.4183208074073,-1.6117525666617,1.5560717362297,-4.3386580251128,2.1592478399073,4.8162637433983,-0.98782593606687,-4.7224491804953,1.646013897478,1.6677683637883,0.080975482672508,-4.0920577514682,2.9711683554667,-1.9839241611896,1.091508584098,1.1679222387234,-1.8015266020959,1.2523906173098,1.4598217007856,-0.31622126485396,0.80855237839397,-4.3056744594173,-1.9809299766853,-3.5247935787549,5.2457303135016,-2.790825611444,3.1604043137759,-0.45682201676016,-1.3951711215521,-6.9762055897499,0.86879165902672,-2.1369494551404,-3.4405680800207,1.1580312923477,3.7337702653426,-3.9959589476399,187.57563671134,187.57563671134,187.57563671134,187.57563671134,187.57563671134,187.57563671134,187.57563671134,187.57563671134,187.57563671134,187.57563671134,187.57563671134,187.57563671134,187.57563671134,187.57563671134,187.57563671134,187.57563671134,187.57563671134,187.57563671134,187.57563671134,187.57563671134,187.57563671134,187.57563671134,187.57563671134,187.57563671134,187.57563671134,187.57563671134,187.57563671134,187.57563671134,187.57563671134,187.57563671134,187.57563671134,187.57563671134,187.57563671134,187.57563671134,187.57563671134,187.57563671134,187.57563671134,187.57563671134,187.57563671134,187.57563671134,187.57563671134,187.57563671134,187.57563671134,187.57563671134,187.57563671134,187.57563671134,187.57563671134,187.57563671134,230.83193821631,365.96131835632,-0.2956271831317,325.73057208592,-0.30343392152063,0
0.0001759375,456977585.27973,1.5683737225348e-05,5.2118523203429e-05,2.2070475451379e-05,1.0160202748267,0,0,0,0,0,0,0,0,0,0,0,0,0,0,0,0,0,0,0,0,0,0,0,0,0,0,0,0,0,0,0,0,0,0,0,0,0,0,0,0,0,0,0,0,0,0,0,0,-0.96078299673556,-0.32369671574906,-0.73845634059848,5.3395903782082,3.0449667820753,1.2420660319485,-3.3995504705933,1.6257220792292,2.7643011302795,-0.48557061476666,1.7118731079421,-5.3739271067923,1.4186033722837,-1.6107287611176,1.55739258009,-4.3393155670949,2.1586304868478,4.8151302879126,-0.98792793016634,-4.7210057731185,1.6474712057225,1.6682651484588,0.080524228669898,-4.0908890440129,2.9724621625747,-1.9855687260941,1.0923329562356,1.1671642589093,-1.8016914869565,1.2520270569031,1.4596673261244,-0.31662659161807,0.80859856372567,-4.3050272444123,-1.9797166096391,-3.5237988389492,5.2465556564921,-2.7912004328139,3.1601394081382,-0.45666466467354,-1.3945062393297,-6.976185247212,0.8699961371049,-2.1362117316433,-3.4402070369002,1.1591777816756,3.7318514431389,-3.9941240083765,187.81587163405,187.81587163405,187.81587163405,187.81587163405,187.81587163405,187.81587163405,187.81587163405,187.81587163405,187.81587163405,187.81587163405,187.81587163405,187.81587163405,187.81587163405,187.81587163405,187.81587163405,187.81587163405,187.81587163405,187.81587163405,187.81587163405,187.81587163405,187.81587163405,187.81587163405,187.81587163405,187.81587163405,187.81587163405,187.81587163405,187.81587163405,187.81587163405,187.81587163405,187.81587163405,187.81587163405,187.81587163405,187.81587163405,187.81587163405,187.81587163405,187.81587163405,187.81587163405,187.81587163405,187.81587163405,187.81587163405,187.81587163405,187.81587163405,187.81587163405,187.81587163405,187.81587163405,187.81587163405,187.81587163405,187.81587163405,230.82723576583,366.46710937098,-0.2973333718245,326.16271549443,-0.30515554925576,0
0.0001765625,459333064.87506,1.5737244489725e-05,5.2303452969627e-05,2.2149429392493e-05,1.0160804749523,0,0,0,0,0,0,0,0,0,0,0,0,0,0,0,0,0,0,0,0,0,0,0,0,0,0,0,0,0,0,0,0,0,0,0,0,0,0,0,0,0,0,0,0,0,0,0,0,-0.96094154508712,-0.32242932099302,-0.73475110654925,5.3385094925616,3.0449258525529,1.2411748738498,-3.3989209642779,1.6256086332788,2.7643275982301,-0.48578912138835,1.7130066247871,-5.374446753166,1.4188860525489,-1.6097094735651,1.5587080222691,-4.3399611668591,2.1580117510883,4.8139980883813,-0.9880329369171,-4.7195725353736,1.6489191663748,1.6687651522964,0.080078199971543,-4.0897359818207,2.9737504749649,-1.987209255957,1.0931514047149,1.1664096521673,-1.8018489015331,1.2516617286536,1.4595101448242,-0.31702490467044,0.80864430401383,-4.3043769028602,-1.9785066260182,-3.5228109627365,5.2473781275953,-2.7915661713337,3.1598768241741,-0.45650798636691,-1.3938445356887,-6.9761611406663,0.87119221979633,-2.1354741623037,-3.4398479193318,1.1603194907466,3.7299405356135,-3.9922926810586,188.0560917657,188.0560917657,188.0560917657,188.0560917657,188.0560917657,188.0560917657,188.0560917657,188.0560917657,188.0560917657,188.0560917657,188.0560917657,188.0560917657,188.0560917657,188.0560917657,188.0560917657,188.0560917657,188.0560917657,188.0560917657,188.0560917657,188.0560917657,188.0560917657,188.0560917657,188.0560917657,188.0560917657,188.0560917657,188.0560917657,188.0560917657,188.0560917657,188.0560917657,188.0560917657,188.0560917657,188.0560917657,188.0560917657,188.0560917657,188.0560917657,188.0560917657,188.0560917657,188.0560917657,188.0560917657,188.0560917657,188.0560917657,188.0560917657,188.0560917657,188.0560917657,188.0560917657,188.0560917657,188.0560917657,188.0560917657,230.82245986441,366.97276526946,-0.29904358859307,326.59478389701,-0.30688116902652,0
0.0001771875,461693832.9148,1.5790737444469e-05,5.2488382438426e-05,2.2228379969665e-05,1.0161406741308,0,0,0,0,0,0,0,0,0,0,0,0,0,0,0,0,0,0,0,0,0,0,0,0,0,0,0,0,0,0,0,0,0,0,0,0,0,0,0,0,0,0,0,0,0,0,0,0,-0.96109905061654,-0.32116578248468,-0.73107169216913,5.337439198881,3.0448813913032,1.2402863594056,-3.3982910048244,1.6254930649206,2.7643531583946,-0.48600189861467,1.7141330364756,-5.3749608215148,1.4191688523913,-1.6086945803248,1.5600180353444,-4.3405948541766,2.1573915870815,4.8128671986429,-0.98814090414855,-4.7181493907662,1.6503578671162,1.6692683125736,0.079637237536826,-4.0885984367725,2.9750332977237,-1.9888457726497,1.0939639662413,1.1656584659473,-1.8019988956263,1.2512946148721,1.4593501565514,-0.31741629875583,0.80868958510042,-4.3037234212016,-1.9772999671987,-3.5218297111807,5.2481977021056,-2.7919228170847,3.1596164867395,-0.45635194080842,-1.3931860283652,-6.9761332598749,0.87237988306285,-2.1347366061765,-3.4394907779422,1.1614563704901,3.728037469959,-3.990464974845,188.29629702656,188.29629702656,188.29629702656,188.29629702656,188.29629702656,188.29629702656,188.29629702656,188.29629702656,188.29629702656,188.29629702656,188.29629702656,188.29629702656,188.29629702656,188.29629702656,188.29629702656,188.29629702656,188.29629702656,188.29629702656,188.29629702656,188.29629702656,188.29629702656,188.29629702656,188.29629702656,188.29629702656,188.29629702656,188.29629702656,188.29629702656,188.29629702656,188.29629702656,188.29629702656,188.29629702656,188.29629702656,188.29629702656,188.29629702656,188.29629702656,188.29629702656,188.29629702656,188.29629702656,188.29629702656,188.29629702656,188.29629702656,188.29629702656,188.29629702656,188.29629702656,188.29629702656,188.29629702656,188.29629702656,188.29629702656,230.81761171817,367.47828707106,-0.30075783156718,327.02677756137,-0.30861077900498,0
0.0001778125,464059883.69379,1.584421613587e-05,5.2673311613414e-05,2.230732725314e-05,1.0162008723623,0,0,0,0,0,0,0,0,0,0,0,0,0,0,0,0,0,0,0,0,0,0,0,0,0,0,0,0,0,0,0,0,0,0,0,0,0,0,0,0,0,0,0,0,0,0,0,0,-0.96125549213772,-0.31990616263132,-0.72741799841461,5.3363793877169,3.0448334452217,1.2394005185557,-3.3976605948197,1.6253754218532,2.7643777899659,-0.48620907322062,1.7152523603654,-5.3754693345462,1.4194517766714,-1.6076839576569,1.561322595469,-4.3412166604787,2.156769952459,4.811737675032,-0.98825178054114,-4.7167362628071,1.651787401228,1.6697745684101,0.079201184277254,-4.087476277308,2.9763106303182,-1.9904782991609,1.0947706767382,1.1649107458304,-1.802141510775,1.2509257029385,1.4591873612847,-0.31780086836826,0.80873439278614,-4.3030667902191,-1.9760965730151,-3.5208548432603,5.2490143592146,-2.7922703606977,3.1593583261326,-0.45619648803403,-1.3925307342873,-6.9761015941914,0.87355910583065,-2.1339989099316,-3.4391356608868,1.1625883775152,3.7261421723851,-3.9886408954141,188.5364873382,188.5364873382,188.5364873382,188.5364873382,188.5364873382,188.5364873382,188.5364873382,188.5364873382,188.5364873382,188.5364873382,188.5364873382,188.5364873382,188.5364873382,188.5364873382,188.5364873382,188.5364873382,188.5364873382,188.5364873382,188.5364873382,188.5364873382,188.5364873382,188.5364873382,188.5364873382,188.5364873382,188.5364873382,188.5364873382,188.5364873382,188.5364873382,188.5364873382,188.5364873382,188.5364873382,188.5364873382,188.5364873382,188.5364873382,188.5364873382,188.5364873382,188.5364873382,188.5364873382,188.5364873382,188.5364873382,188.5364873382,188.5364873382,188.5364873382,188.5364873382,188.5364873382,188.5364873382,188.5364873382,188.5364873382,230.81269254563,367.98367577121,-0.3024760989575,327.45869675028,-0.31034437739179,0
0.0001784375,466431211.49441,1.5897680610178e-05,5.2858240498115e-05,2.238627131257e-05,1.0162610696469,0,0,0,0,0,0,0,0,0,0,0,0,0,0,0,0,0,0,0,0,0,0,0,0,0,0,0,0,0,0,0,0,0,0,0,0,0,0,0,0,0,0,0,0,0,0,0,0,-0.96141085136116,-0.31865051863636,-0.72378991654599,5.3353299508503,3.0447820616254,1.2385173788823,-3.3970297348277,1.6252557562491,2.7644014727118,-0.48641077023254,1.7163646121974,-5.375972317688,1.4197348308576,-1.606677482718,1.562621682366,-4.3418266186386,2.1561468083038,4.8106095760151,-0.98836551563013,-4.7153330755573,1.6532078672583,1.6702838607976,0.078769885154643,-4.0863693680885,2.9775824672996,-1.9921068592261,1.0955715712888,1.1641665355731,-1.8022767809668,1.2505549851225,1.4590217596575,-0.31817870771412,0.80877871292735,-4.3024070044886,-1.9748963821786,-3.5198861175405,5.2498280820374,-2.7926087936249,3.1591022785353,-0.45604158952687,-1.3918786694853,-6.9760661319269,0.87472986984088,-2.1332609095005,-3.4387826140992,1.1637154741992,3.7242545681987,-3.9868204450266,188.77666262354,188.77666262354,188.77666262354,188.77666262354,188.77666262354,188.77666262354,188.77666262354,188.77666262354,188.77666262354,188.77666262354,188.77666262354,188.77666262354,188.77666262354,188.77666262354,188.77666262354,188.77666262354,188.77666262354,188.77666262354,188.77666262354,188.77666262354,188.77666262354,188.77666262354,188.77666262354,188.77666262354,188.77666262354,188.77666262354,188.77666262354,188.77666262354,188.77666262354,188.77666262354,188.77666262354,188.77666262354,188.77666262354,188.77666262354,188.77666262354,188.77666262354,188.77666262354,188.77666262354,188.77666262354,188.77666262354,188.77666262354,188.77666262354,188.77666262354,188.77666262354,188.77666262354,188.77666262354,188.77666262354,188.77666262354,230.807703575,368.48893234152,-0.30419838876682,327.89054172188,-0.31208196227785,0
0.0001790625,468807810.59053,1.5951130913471e-05,5.3043169095996e-05,2.2465212216809e-05,1.0163212659847,0,0,0,0,0,0,0,0,0,0,0,0,0,0,0,0,0,0,0,0,0,0,0,0,0,0,0,0,0,0,0,0,0,0,0,0,0,0,0,0,0,0,0,0,0,0,0,0,-0.96156511273923,-0.31739890293848,-0.72018732862061,5.3342907812379,3.0447272881892,1.2376369657468,-3.3963984226436,1.6251341243811,2.7644241869191,-0.48660711294729,1.717469806306,-5.376469799352,1.4200180210237,-1.605675033367,1.5639152788945,-4.3424247632953,2.1555221187116,4.8094829619831,-0.98848205972698,-4.713939752866,1.6546193685853,1.6707961326438,0.078343187237781,-4.0852775707815,2.9788487987863,-1.9937314775572,1.0963666841634,1.1634258771878,-1.8024047323823,1.2501824583547,1.458853352707,-0.31854991064511,0.80882253146247,-4.3017440624141,-1.9736993325161,-3.5189232926217,5.2506388569313,-2.7929381083519,3.158848285652,-0.45588720794955,-1.3912298492458,-6.9760268611653,0.87589215922339,-2.1325224313075,-3.4384316810617,1.1648376285198,3.7223745819514,-3.9850036225938,189.01682280681,189.01682280681,189.01682280681,189.01682280681,189.01682280681,189.01682280681,189.01682280681,189.01682280681,189.01682280681,189.01682280681,189.01682280681,189.01682280681,189.01682280681,189.01682280681,189.01682280681,189.01682280681,189.01682280681,189.01682280681,189.01682280681,189.01682280681,189.01682280681,189.01682280681,189.01682280681,189.01682280681,189.01682280681,189.01682280681,189.01682280681,189.01682280681,189.01682280681,189.01682280681,189.01682280681,189.01682280681,189.01682280681,189.01682280681,189.01682280681,189.01682280681,189.01682280681,189.01682280681,189.01682280681,189.01682280681,189.01682280681,189.01682280681,189.01682280681,189.01682280681,189.01682280681,189.01682280681,189.01682280681,189.01682280681,230.80264604039,368.99405772981,-0.30592469915362,328.32231272949,-0.31382353180031,0
0.0001796875,471189675.25111,1.6004567091596e-05,5.3228227744899e-05,2.2544150033849e-05,1.0163814613756,0,0,0,0,0,0,0,0,0,0,0,0,0,0,0,0,0,0,0,0,0,0,0,0,0,0,0,0,0,0,0,0,0,0,0,0,0,0,0,0,0,0,0,0,0,0,0,0,-0.96171826336655,-0.31615136340057,-0.71661010787958,5.3332617729378,3.044669172812,1.2367593023644,-3.3957666539104,1.6250105863094,2.764445913447,-0.48679822294416,1.7185679559581,-5.3769618103139,1.4203013537865,-1.6046764890342,1.5652033709982,-4.3430111306929,2.1548958509836,4.8083578949457,-0.9886013639199,-4.7125562188348,1.6560220130843,1.6713113286635,0.077920939779514,-4.0842007438481,2.9801096110935,-1.9953521795069,1.0971560488028,1.1626888109837,-1.8025253841284,1.2498081240103,1.4586821420552,-0.31891457065159,0.80886583449119,-4.3010779657447,-1.9725053613475,-3.5179661287831,5.2514466734565,-2.7932582986391,3.1585962950226,-0.45573330746057,-1.3905842880473,-6.9759837693023,0.87704596036367,-2.1317832941075,-3.4380829030245,1.1659548140953,3.7205021375657,-3.9831904238009,189.25696781362,189.25696781362,189.25696781362,189.25696781362,189.25696781362,189.25696781362,189.25696781362,189.25696781362,189.25696781362,189.25696781362,189.25696781362,189.25696781362,189.25696781362,189.25696781362,189.25696781362,189.25696781362,189.25696781362,189.25696781362,189.25696781362,189.25696781362,189.25696781362,189.25696781362,189.25696781362,189.25696781362,189.25696781362,189.25696781362,189.25696781362,189.25696781362,189.25696781362,189.25696781362,189.25696781362,189.25696781362,189.25696781362,189.25696781362,189.25696781362,189.25696781362,189.25696781362,189.25696781362,189.25696781362,189.25696781362,189.25696781362,189.25696781362,189.25696781362,189.25696781362,189.25696781362,189.25696781362,189.25696781362,189.25696781362,230.79752117929,369.49905286022,-0.30765502819432,328.75401002182,-0.31556908407134,0
0.0001803125,473576799.74367,1.605798918996e-05,5.3413443653599e-05,2.2623084830438e-05,1.0164416558199,0,0,0,0,0,0,0,0,0,0,0,0,0,0,0,0,0,0,0,0,0,0,0,0,0,0,0,0,0,0,0,0,0,0,0,0,0,0,0,0,0,0,0,0,0,0,0,0,-0.9618702928533,-0.31490794362254,-0.71305811923775,5.3322428210083,3.0446077635426,1.2358844099195,-3.3951344220876,1.6248852055287,2.764466633443,-0.48698422011419,1.7196590735958,-5.3774483835999,1.420584836274,-1.6036817311042,1.5664859474497,-4.3435857588359,2.1542679754749,4.8072344382936,-0.98872338001322,-4.7111823976643,1.6574159127343,1.6718293951822,0.077502994285857,-4.0831387429507,2.981364887251,-1.996968991078,1.097939697845,1.1619553756236,-1.802638748551,1.2494319876609,1.4585081296282,-0.3192727808374,0.80890860832069,-4.3004087193857,-1.9713144057803,-3.5170143890881,5.2522515240252,-2.7935693597361,3.1583462598932,-0.45557985376668,-1.3899419996222,-6.9759368434186,0.87819126168497,-2.1310433106535,-3.4377363190144,1.1670670100732,3.7186371584965,-3.9813808411963,189.49709757087,189.49709757087,189.49709757087,189.49709757087,189.49709757087,189.49709757087,189.49709757087,189.49709757087,189.49709757087,189.49709757087,189.49709757087,189.49709757087,189.49709757087,189.49709757087,189.49709757087,189.49709757087,189.49709757087,189.49709757087,189.49709757087,189.49709757087,189.49709757087,189.49709757087,189.49709757087,189.49709757087,189.49709757087,189.49709757087,189.49709757087,189.49709757087,189.49709757087,189.49709757087,189.49709757087,189.49709757087,189.49709757087,189.49709757087,189.49709757087,189.49709757087,189.49709757087,189.49709757087,189.49709757087,189.49709757087,189.49709757087,189.49709757087,189.49709757087,189.49709757087,189.49709757087,189.49709757087,189.49709757087,189.49709757087,230.79233022879,370.00391863343,-0.30938937389081,329.18563384306,-0.31731861711032,0
0.0001809375,475969178.33744,1.6111397253792e-05,5.3598659723244e-05,2.2702016672624e-05,1.0165018493176,0,0,0,0,0,0,0,0,0,0,0,0,0,0,0,0,0,0,0,0,0,0,0,0,0,0,0,0,0,0,0,0,0,0,0,0,0,0,0,0,0,0,0,0,0,0,0,0,-0.96202119320911,-0.31366868321254,-0.70953121981322,5.3312338214579,3.0445431085095,1.2350123076812,-3.3945017184217,1.624758048615,2.7644863287141,-0.48716522271554,1.720743171083,-5.377929554362,1.4208684760717,-1.6026906431254,1.5677629996411,-4.3441486874243,2.1536384654941,4.8061126565454,-0.98884806049968,-4.7098182135463,1.6588011832348,1.6723502803364,0.077089204564023,-4.0820914211008,2.9826146075464,-1.9985819389052,1.0987176631625,1.1612256081788,-1.8027448315803,1.2490540588211,1.458331317925,-0.3196246339285,0.80895083950965,-4.2997363312294,-1.9701264030017,-3.5160678403434,5.2530534035663,-2.7938712885531,3.1580981391647,-0.45542681407601,-1.3893029969648,-6.9758860701987,0.87932805343015,-2.1303022894638,-3.4373919658224,1.1681742010593,3.7167795678655,-3.9795748643244,189.73721200684,189.73721200684,189.73721200684,189.73721200684,189.73721200684,189.73721200684,189.73721200684,189.73721200684,189.73721200684,189.73721200684,189.73721200684,189.73721200684,189.73721200684,189.73721200684,189.73721200684,189.73721200684,189.73721200684,189.73721200684,189.73721200684,189.73721200684,189.73721200684,189.73721200684,189.73721200684,189.73721200684,189.73721200684,189.73721200684,189.73721200684,189.73721200684,189.73721200684,189.73721200684,189.73721200684,189.73721200684,189.73721200684,189.73721200684,189.73721200684,189.73721200684,189.73721200684,189.73721200684,189.73721200684,189.73721200684,189.73721200684,189.73721200684,189.73721200684,189.73721200684,189.73721200684,189.73721200684,189.73721200684,189.73721200684,230.78707442185,370.5086559269,-0.31112773427678,329.61718443294,-0.31907212895654,0
0.0001815625,478366805.30638,1.6164791327788e-05,5.3783875953279e-05,2.2780945625106e-05,1.0165620418688,0,0,0,0,0,0,0,0,0,0,0,0,0,0,0,0,0,0,0,0,0,0,0,0,0,0,0,0,0,0,0,0,0,0,0,0,0,0,0,0,0,0,0,0,0,0,0,0,-0.96217095872558,-0.3124336180415,-0.70602925947052,5.3302346711663,3.044475255859,1.2341430131193,-3.3938685320832,1.6246291848711,2.7645049815538,-0.48734134741866,1.7218202599264,-5.3784053596394,1.4211522811803,-1.6017031112411,1.569034521369,-4.3446999579089,2.1530072972679,4.8049926151167,-0.98897535851236,-4.7084635906689,1.660177943614,1.6728739339032,0.076679426790737,-4.0810586289159,2.9838587500157,-2.0001910501607,1.0994899759026,1.1604995441745,-1.8028436332199,1.2486743506816,1.4581517098661,-0.3199702222762,0.80899251491287,-4.2990608119135,-1.9689412905683,-3.5151262543051,5.2538523092396,-2.7941640838478,3.1578518973611,-0.45527415716805,-1.3886672923662,-6.9758314360876,0.88045632754309,-2.1295600367323,-3.4370498780528,1.1692763770454,3.7149292886404,-3.9777724798656,189.97731105112,189.97731105112,189.97731105112,189.97731105112,189.97731105112,189.97731105112,189.97731105112,189.97731105112,189.97731105112,189.97731105112,189.97731105112,189.97731105112,189.97731105112,189.97731105112,189.97731105112,189.97731105112,189.97731105112,189.97731105112,189.97731105112,189.97731105112,189.97731105112,189.97731105112,189.97731105112,189.97731105112,189.97731105112,189.97731105112,189.97731105112,189.97731105112,189.97731105112,189.97731105112,189.97731105112,189.97731105112,189.97731105112,189.97731105112,189.97731105112,189.97731105112,189.97731105112,189.97731105112,189.97731105112,189.97731105112,189.97731105112,189.97731105112,189.97731105112,189.97731105112,189.97731105112,189.97731105112,189.97731105112,189.97731105112,230.78175498474,371.01326559517,-0.3128701073491,330.04866202681,-0.32082961760146,0
0.0001821875,480769674.93195,1.6218171456304e-05,5.3969092343166e-05,2.285987175162e-05,1.0166222334736,0,0,0,0,0,0,0,0,0,0,0,0,0,0,0,0,0,0,0,0,0,0,0,0,0,0,0,0,0,0,0,0,0,0,0,0,0,0,0,0,0,0,0,0,0,0,0,0,-0.96231958587626,-0.31120278047337,-0.70255208136042,5.329245267793,3.0444042537053,1.2332765420018,-3.3932348503636,1.624498685978,2.7645225747393,-0.48751270935694,1.7228903515014,-5.3788758381685,1.4214362599552,-1.6007190246102,1.5703005086711,-4.3452396134669,2.1523744498904,4.8038743800846,-0.98910522779507,-4.7071184532687,1.6615463158502,1.6734003072459,0.076273519577804,-4.0800402147794,2.9850972909336,-2.001796352502,1.1002566665373,1.1597772176169,-1.8029351481203,1.2482928798423,1.4579693087923,-0.32030963787198,0.80903362173048,-4.2983821746252,-1.967759006687,-3.51418940888,5.2546482402081,-2.7944477463916,3.1576075045353,-0.45512185346712,-1.3880348974103,-6.9757729272844,0.88157607756359,-2.1288163583483,-3.4367100881836,1.1703735333034,3.7130862437933,-3.9759736717728,190.21739463461,190.21739463461,190.21739463461,190.21739463461,190.21739463461,190.21739463461,190.21739463461,190.21739463461,190.21739463461,190.21739463461,190.21739463461,190.21739463461,190.21739463461,190.21739463461,190.21739463461,190.21739463461,190.21739463461,190.21739463461,190.21739463461,190.21739463461,190.21739463461,190.21739463461,190.21739463461,190.21739463461,190.21739463461,190.21739463461,190.21739463461,190.21739463461,190.21739463461,190.21739463461,190.21739463461,190.21739463461,190.21739463461,190.21739463461,190.21739463461,190.21739463461,190.21739463461,190.21739463461,190.21739463461,190.21739463461,190.21739463461,190.21739463461,190.21739463461,190.21739463461,190.21739463461,190.21739463461,190.21739463461,190.21739463461,230.77637313307,371.51774847028,-0.31461649110279,330.48006685572,-0.32259108102927,0
0.0001828125,483177781.50568,1.6271537683504e-05,5.4154308892384e-05,2.2938795115237e-05,1.0166824241319,0,0,0,0,0,0,0,0,0,0,0,0,0,0,0,0,0,0,0,0,0,0,0,0,0,0,0,0,0,0,0,0,0,0,0,0,0,0,0,0,0,0,0,0,0,0,0,0,-0.96246707320639,-0.30997619956856,-0.69909952251016,5.3282655097278,3.0443301500848,1.232412908531,-3.3926006587659,1.6243666256409,2.7645390917596,-0.48767942218616,1.7239534572523,-5.3793410302106,1.4217204210597,-1.5997382756925,1.5715609596311,-4.3457676989433,2.1517399053143,4.802758017954,-0.98923762265102,-4.7057827256143,1.6629064244772,1.6739293533908,0.075871344035117,-4.0790360249933,2.9863302052743,-2.0033978740153,1.101017764925,1.1590586610335,-1.8030193661022,1.2479096660437,1.4577841186399,-0.32064297237299,0.80907414755185,-4.2977004349169,-1.9665794904891,-3.5132570891944,5.2554411973475,-2.7947222791153,3.1573649362588,-0.45496987503278,-1.3874058229841,-6.9757105296951,0.88268729854161,-2.128071061948,-3.4363726265751,1.1714656703409,3.7112503564784,-3.9741784214451,190.45746268952,190.45746268952,190.45746268952,190.45746268952,190.45746268952,190.45746268952,190.45746268952,190.45746268952,190.45746268952,190.45746268952,190.45746268952,190.45746268952,190.45746268952,190.45746268952,190.45746268952,190.45746268952,190.45746268952,190.45746268952,190.45746268952,190.45746268952,190.45746268952,190.45746268952,190.45746268952,190.45746268952,190.45746268952,190.45746268952,190.45746268952,190.45746268952,190.45746268952,190.45746268952,190.45746268952,190.45746268952,190.45746268952,190.45746268952,190.45746268952,190.45746268952,190.45746268952,190.45746268952,190.45746268952,190.45746268952,190.45746268952,190.45746268952,190.45746268952,190.45746268952,190.45746268952,190.45746268952,190.45746268952,190.45746268952,230.77093006827,372.02210536221,-0.31636688347898,330.91139914661,-0.32435651716476,0
0.0001834375,485591119.33151,1.6324890052985e-05,5.4339525600428e-05,2.3017715777653e-05,1.016742613844,0,0,0,0,0,0,0,0,0,0,0,0,0,0,0,0,0,0,0,0,0,0,0,0,0,0,0,0,0,0,0,0,0,0,0,0,0,0,0,0,0,0,0,0,0,0,0,0,-0.96261342123862,-0.30875390132022,-0.69567141440463,5.3272952960071,3.0442529929324,1.2315521254391,-3.3919659411253,1.624233079237,2.7645545164521,-0.48784159812133,1.7250095888754,-5.3798009774473,1.4220047734065,-1.5987607606104,1.5728158741781,-4.3462842609644,2.1511036482514,4.8016435954639,-0.98937249791532,-4.7044563319628,1.6642583961837,1.6744610267429,0.075472763856928,-4.0780459041599,2.9875574671216,-2.0049956431963,1.1017733003711,1.1583439054853,-1.803096272736,1.247524731894,1.4575961436141,-0.32097031710141,0.80911408040072,-4.2970156105804,-1.965402682273,-3.5123290887192,5.2562311829754,-2.7949876872622,3.157124173407,-0.45481819560935,-1.3867800793005,-6.9756442292596,0.88378998698566,-2.1273239590283,-3.4360375214932,1.1725527937527,3.709421550235,-3.9723867079188,190.69751514933,190.69751514933,190.69751514933,190.69751514933,190.69751514933,190.69751514933,190.69751514933,190.69751514933,190.69751514933,190.69751514933,190.69751514933,190.69751514933,190.69751514933,190.69751514933,190.69751514933,190.69751514933,190.69751514933,190.69751514933,190.69751514933,190.69751514933,190.69751514933,190.69751514933,190.69751514933,190.69751514933,190.69751514933,190.69751514933,190.69751514933,190.69751514933,190.69751514933,190.69751514933,190.69751514933,190.69751514933,190.69751514933,190.69751514933,190.69751514933,190.69751514933,190.69751514933,190.69751514933,190.69751514933,190.69751514933,190.69751514933,190.69751514933,190.69751514933,190.69751514933,190.69751514933,190.69751514933,190.69751514933,190.69751514933,230.76542697442,372.52633705938,-0.31812128240192,331.34265912234,-0.32612592392083,0
0.0001840625,488009682.72792,1.6378228608049e-05,5.4524742466813e-05,2.3096633799722e-05,1.0168028026098,0,0,0,0,0,0,0,0,0,0,0,0,0,0,0,0,0,0,0,0,0,0,0,0,0,0,0,0,0,0,0,0,0,0,0,0,0,0,0,0,0,0,0,0,0,0,0,0,-0.96275863237403,-0.30753590881416,-0.69226758361096,5.3263345262301,3.0441728300457,1.2306942041187,-3.3913306797787,1.6240981234555,2.764568833351,-0.4879993479835,1.7260587585029,-5.3802557228042,1.4222893261073,-1.5977863794395,1.5740652539284,-4.3467893478085,2.1504656661962,4.8005311793484,-0.98950980889648,-4.7031391965959,1.6656023594062,1.674995283239,0.07507764540023,-4.077069695242,2.9887790500935,-2.006589688896,1.1025233016996,1.1576329805846,-1.8031658499821,1.2471381025903,1.4574053884777,-0.32129176307074,0.80915340878459,-4.2963277214784,-1.9642285237675,-3.5114052103445,5.2570182006253,-2.7952439785116,3.1568852021283,-0.45466679062198,-1.3861576758934,-6.9755740117603,0.88488414083714,-2.1265748671499,-3.4357047991436,1.1736349141638,3.7075997491605,-3.9705985080247,190.9375519488,190.9375519488,190.9375519488,190.9375519488,190.9375519488,190.9375519488,190.9375519488,190.9375519488,190.9375519488,190.9375519488,190.9375519488,190.9375519488,190.9375519488,190.9375519488,190.9375519488,190.9375519488,190.9375519488,190.9375519488,190.9375519488,190.9375519488,190.9375519488,190.9375519488,190.9375519488,190.9375519488,190.9375519488,190.9375519488,190.9375519488,190.9375519488,190.9375519488,190.9375519488,190.9375519488,190.9375519488,190.9375519488,190.9375519488,190.9375519488,190.9375519488,190.9375519488,190.9375519488,190.9375519488,190.9375519488,190.9375519488,190.9375519488,190.9375519488,190.9375519488,190.9375519488,190.9375519488,190.9375519488,190.9375519488,230.75986501435,373.03044432925,-0.31987968576627,331.77384700184,-0.32789929915735,0
0.0001846875,490433466.02989,1.6431553391476e-05,5.4709959491067e-05,2.3175549241057e-05,1.0168629904294,0,0,0,0,0,0,0,0,0,0,0,0,0,0,0,0,0,0,0,0,0,0,0,0,0,0,0,0,0,0,0,0,0,0,0,0,0,0,0,0,0,0,0,0,0,0,0,0,-0.96290271080749,-0.3063222424292,-0.68888785236843,5.3253831004919,3.0440897090783,1.2298391547271,-3.3906948556015,1.623961835948,2.7645820273026,-0.4881527812212,1.7271009788533,-5.3807053103824,1.4225740884247,-1.5968150364872,1.5753091019688,-4.3472830095685,2.1498259493255,4.7994208361741,-0.98964951133962,-4.701831243687,1.6669384439189,1.6755320800324,0.074685857791603,-4.0761072400529,2.9899949276799,-2.0081800403022,1.1032677973256,1.1569259144916,-1.8032280767725,1.2467498056516,1.4572118582036,-0.32160740097312,0.80919212173987,-4.2956367894593,-1.9630569583344,-3.510485267395,5.2578022547451,-2.7954911631082,3.1566480136131,-0.45451563718998,-1.3855386216531,-6.9754998632914,0.88596975945555,-2.1258236121161,-3.4353744836505,1.174712047092,3.7057848781579,-3.9688137966201,191.17757302391,191.17757302391,191.17757302391,191.17757302391,191.17757302391,191.17757302391,191.17757302391,191.17757302391,191.17757302391,191.17757302391,191.17757302391,191.17757302391,191.17757302391,191.17757302391,191.17757302391,191.17757302391,191.17757302391,191.17757302391,191.17757302391,191.17757302391,191.17757302391,191.17757302391,191.17757302391,191.17757302391,191.17757302391,191.17757302391,191.17757302391,191.17757302391,191.17757302391,191.17757302391,191.17757302391,191.17757302391,191.17757302391,191.17757302391,191.17757302391,191.17757302391,191.17757302391,191.17757302391,191.17757302391,191.17757302391,191.17757302391,191.17757302391,191.17757302391,191.17757302391,191.17757302391,191.17757302391,191.17757302391,191.17757302391,230.75424532615,373.53442791898,-0.32164209146839,332.20496300019,-0.32967664072361,0
0.0001853125,492862463.59059,1.6484864445621e-05,5.4895176672737e-05,2.3254462160215e-05,1.016923177303,0,0,0,0,0,0,0,0,0,0,0,0,0,0,0,0,0,0,0,0,0,0,0,0,0,0,0,0,0,0,0,0,0,0,0,0,0,0,0,0,0,0,0,0,0,0,0,0,-0.96304566243474,-0.30511291995337,-0.68553203926519,5.324440919304,3.0440036775081,1.2289869863178,-3.3900584482404,1.6238242949699,2.7645940840083,-0.4883020059318,1.7281362634116,-5.381149785295,1.42285906971,-1.5958466405004,1.5765474227196,-4.3477652979298,2.1491844905781,4.7983126320749,-0.98979156136816,-4.7005323974077,1.6682667804015,1.6760713757719,0.074297273020948,-4.0751583791982,2.991205073656,-2.0097667268877,1.1040068153345,1.1562227339161,-1.8032829297365,1.246359870652,1.4570155584231,-0.321917321196,0.80923020888492,-4.2949428382164,-1.9618879312128,-3.5095690845724,5.2585833504824,-2.7957292539544,3.1564126040715,-0.45436471409041,-1.3849229247998,-6.9754217698744,0.88704684366166,-2.1250700302249,-3.4350465970651,1.1757842128926,3.703976863067,-3.9670325467521,191.41757831183,191.41757831183,191.41757831183,191.41757831183,191.41757831183,191.41757831183,191.41757831183,191.41757831183,191.41757831183,191.41757831183,191.41757831183,191.41757831183,191.41757831183,191.41757831183,191.41757831183,191.41757831183,191.41757831183,191.41757831183,191.41757831183,191.41757831183,191.41757831183,191.41757831183,191.41757831183,191.41757831183,191.41757831183,191.41757831183,191.41757831183,191.41757831183,191.41757831183,191.41757831183,191.41757831183,191.41757831183,191.41757831183,191.41757831183,191.41757831183,191.41757831183,191.41757831183,191.41757831183,191.41757831183,191.41757831183,191.41757831183,191.41757831183,191.41757831183,191.41757831183,191.41757831183,191.41757831183,191.41757831183,191.41757831183,230.74856901957,374.03828855612,-0.32340849739184,332.63600732878,-0.33145794644799,0
0.0001859375,495296669.78294,1.6538161812515e-05,5.5080394011391e-05,2.3333372614865e-05,1.0169833632304,0,0,0,0,0,0,0,0,0,0,0,0,0,0,0,0,0,0,0,0,0,0,0,0,0,0,0,0,0,0,0,0,0,0,0,0,0,0,0,0,0,0,0,0,0,0,0,0,-0.963187494781,-0.30390795672986,-0.68219995983715,5.3235078835441,3.0439147826403,1.2281377069341,-3.3894214362961,1.6236855790308,2.7646049896676,-0.48844712885676,1.7291646265848,-5.3815891935372,1.4231442793488,-1.594881105034,1.5777802217847,-4.3482362662578,2.1485412856467,4.797206632594,-0.98993591545762,-4.6992425819283,1.6695875000225,1.6766131302989,0.073911766069565,-4.0742229524236,2.9924094624026,-2.0113497783433,1.1047403835625,1.1555234640923,-1.8033303839206,1.2459683289488,1.4568164951308,-0.32222161380058,0.80926766047971,-4.2942458931809,-1.9607213897309,-3.5086564990043,5.2593614934982,-2.795958266736,3.1561789745587,-0.45421400183433,-1.3843105928875,-6.9753397177412,0.88811539579862,-2.1243139705035,-3.4347211594021,1.1768514366336,3.7021756309249,-3.9652547298941,191.65756775093,191.65756775093,191.65756775093,191.65756775093,191.65756775093,191.65756775093,191.65756775093,191.65756775093,191.65756775093,191.65756775093,191.65756775093,191.65756775093,191.65756775093,191.65756775093,191.65756775093,191.65756775093,191.65756775093,191.65756775093,191.65756775093,191.65756775093,191.65756775093,191.65756775093,191.65756775093,191.65756775093,191.65756775093,191.65756775093,191.65756775093,191.65756775093,191.65756775093,191.65756775093,191.65756775093,191.65756775093,191.65756775093,191.65756775093,191.65756775093,191.65756775093,191.65756775093,191.65756775093,191.65756775093,191.65756775093,191.65756775093,191.65756775093,191.65756775093,191.65756775093,191.65756775093,191.65756775093,191.65756775093,191.65756775093,230.74283717263,374.54202694944,-0.32517890135913,333.06698019544,-0.33324321411104,0
0.0001865625,497736079.00088,1.6591445533602e-05,5.5265611506614e-05,2.3412280661289e-05,1.0170435482118,0,0,0,0,0,0,0,0,0,0,0,0,0,0,0,0,0,0,0,0,0,0,0,0,0,0,0,0,0,0,0,0,0,0,0,0,0,0,0,0,0,0,0,0,0,0,0,0,-0.96332821692151,-0.30270736579462,-0.6788914272098,5.3225838943668,3.0438230715856,1.22729132374,-3.3887837973882,1.6235457665379,2.7646147310116,-0.4885882553642,1.7301860838342,-5.3820235819415,1.4234297267225,-1.5939183485992,1.5790075057639,-4.3486959696358,2.1478963329177,4.7961029024633,-0.99008253036095,-4.6979617213203,1.6709007339912,1.6771573045833,0.073529215040313,-4.0733007989601,2.9936080692038,-2.012929224578,1.1054685296718,1.154828128761,-1.8033704134471,1.2455752134278,1.4566146746913,-0.32252036848826,0.80930446747792,-4.2935459814704,-1.9595572834844,-3.5077473610521,5.2601366896918,-2.7961782200106,3.155947130765,-0.45406348261724,-1.3837016328259,-6.975253693553,0.88917541976275,-2.1235552968948,-3.4343981885922,1.1779137479835,3.7003811101586,-3.9634803161676,191.89754128068,191.89754128068,191.89754128068,191.89754128068,191.89754128068,191.89754128068,191.89754128068,191.89754128068,191.89754128068,191.89754128068,191.89754128068,191.89754128068,191.89754128068,191.89754128068,191.89754128068,191.89754128068,191.89754128068,191.89754128068,191.89754128068,191.89754128068,191.89754128068,191.89754128068,191.89754128068,191.89754128068,191.89754128068,191.89754128068,191.89754128068,191.89754128068,191.89754128068,191.89754128068,191.89754128068,191.89754128068,191.89754128068,191.89754128068,191.89754128068,191.89754128068,191.89754128068,191.89754128068,191.89754128068,191.89754128068,191.89754128068,191.89754128068,191.89754128068,191.89754128068,191.89754128068,191.89754128068,191.89754128068,191.89754128068,230.73705082793,375.04564378973,-0.32695330119475,333.49788180456,-0.33503244146792,0
0.0001871875,500180685.66049,1.6644715649945e-05,5.5450829158013e-05,2.3491186354752e-05,1.0171037322472,0,0,0,0,0,0,0,0,0,0,0,0,0,0,0,0,0,0,0,0,0,0,0,0,0,0,0,0,0,0,0,0,0,0,0,0,0,0,0,0,0,0,0,0,0,0,0,0,-0.96346783940608,-0.30151115796523,-0.67560625273641,5.3216688531467,3.0437285912737,1.2264478431214,-3.3881455083376,1.6234049354408,2.7646232954734,-0.48872548941725,1.7312006518246,-5.3824529980576,1.423715421146,-1.5929582948404,1.5802292821217,-4.3491444647551,2.147249633552,4.7950015054229,-0.99023136307118,-4.6966897395839,1.6722066131149,1.6777038607766,0.073149501295407,-4.072391757642,2.9948008705594,-2.0145050956662,1.1061912812477,1.1541367501337,-1.8034029922526,1.245180558237,1.4564101039716,-0.32281367456889,0.80934062158467,-4.2928431317996,-1.9583955645267,-3.5068415350638,5.2609089450138,-2.7963891352843,3.1557170829086,-0.45391314030654,-1.3830960508646,-6.9751636842841,0.89022692111979,-2.1227938903825,-3.4340777004875,1.17897118111,3.6985932307966,-3.9617092745329,192.13749884165,192.13749884165,192.13749884165,192.13749884165,192.13749884165,192.13749884165,192.13749884165,192.13749884165,192.13749884165,192.13749884165,192.13749884165,192.13749884165,192.13749884165,192.13749884165,192.13749884165,192.13749884165,192.13749884165,192.13749884165,192.13749884165,192.13749884165,192.13749884165,192.13749884165,192.13749884165,192.13749884165,192.13749884165,192.13749884165,192.13749884165,192.13749884165,192.13749884165,192.13749884165,192.13749884165,192.13749884165,192.13749884165,192.13749884165,192.13749884165,192.13749884165,192.13749884165,192.13749884165,192.13749884165,192.13749884165,192.13749884165,192.13749884165,192.13749884165,192.13749884165,192.13749884165,192.13749884165,192.13749884165,192.13749884165,230.73121098933,375.54913975073,-0.32873169467212,333.92871235724,-0.33682562623768,0
0.0001878125,502630484.20089,1.6697972202227e-05,5.5636046965207e-05,2.3570089749541e-05,1.0171639153367,0,0,0,0,0,0,0,0,0,0,0,0,0,0,0,0,0,0,0,0,0,0,0,0,0,0,0,0,0,0,0,0,0,0,0,0,0,0,0,0,0,0,0,0,0,0,0,0,-0.96360637418457,-0.30031934195678,-0.67234424666816,5.3207626614295,3.0436313884452,1.2256072708197,-3.3875065451754,1.6232631628803,2.764630671125,-0.48885893352485,1.7322083485509,-5.3828774901428,1.4240013718275,-1.5920008726139,1.5814455590107,-4.3495818099963,2.1466011914157,4.7939025040197,-0.99038237075048,-4.6954265605008,1.6735052673333,1.6782527620749,0.072772509605375,-4.071495667333,2.9959878444605,-2.0160774218408,1.1069086658836,1.1534493488643,-1.8034280947151,1.2447843985415,1.4562027902685,-0.32310162089588,0.80937611531511,-4.292137374465,-1.957236187518,-3.5059388999987,5.2616782651998,-2.796591037094,3.1554888454813,-0.45376296037271,-1.3824938526074,-6.975069677546,0.89126990716354,-2.1220296510228,-3.4337597087913,1.1800237745454,3.6968119246751,-3.9599415730578,192.37744037547,192.37744037547,192.37744037547,192.37744037547,192.37744037547,192.37744037547,192.37744037547,192.37744037547,192.37744037547,192.37744037547,192.37744037547,192.37744037547,192.37744037547,192.37744037547,192.37744037547,192.37744037547,192.37744037547,192.37744037547,192.37744037547,192.37744037547,192.37744037547,192.37744037547,192.37744037547,192.37744037547,192.37744037547,192.37744037547,192.37744037547,192.37744037547,192.37744037547,192.37744037547,192.37744037547,192.37744037547,192.37744037547,192.37744037547,192.37744037547,192.37744037547,192.37744037547,192.37744037547,192.37744037547,192.37744037547,192.37744037547,192.37744037547,192.37744037547,192.37744037547,192.37744037547,192.37744037547,192.37744037547,192.37744037547,230.72531861866,376.05251549005,-0.3305140796348,334.35947205136,-0.3386227661595,0
0.0001884375,505085469.08495,1.6751215230772e-05,5.5821264927843e-05,2.3648990898909e-05,1.0172240974803,0,0,0,0,0,0,0,0,0,0,0,0,0,0,0,0,0,0,0,0,0,0,0,0,0,0,0,0,0,0,0,0,0,0,0,0,0,0,0,0,0,0,0,0,0,0,0,0,-0.96374383455563,-0.29913192442988,-0.66910521872546,5.3198652208291,3.0435315096429,1.2247696120156,-3.3868668835515,1.6231205248488,2.7646368466521,-0.48898868866488,1.7332091934859,-5.3832971069193,1.4242875878165,-1.5910460163522,1.5826563451999,-4.3500080653224,2.1459510132132,4.792805959411,-0.99053551068569,-4.6941721078419,1.6747968252828,1.6788039726205,0.072398128316138,-4.0706123669651,2.9971689706567,-2.0176462333645,1.1076207112566,1.152765943989,-1.8034456965579,1.24438677028,1.4559927413275,-0.32338429580527,0.80941094206515,-4.2914287411962,-1.956079109911,-3.5050393502431,5.2624446557055,-2.7967839530829,3.1552624371725,-0.45361293001222,-1.381895042986,-6.9749716614317,0.89230438707988,-2.121262499959,-3.4334442251269,1.181071571094,3.6950371256429,-3.9581771790938,192.61736582476,192.61736582476,192.61736582476,192.61736582476,192.61736582476,192.61736582476,192.61736582476,192.61736582476,192.61736582476,192.61736582476,192.61736582476,192.61736582476,192.61736582476,192.61736582476,192.61736582476,192.61736582476,192.61736582476,192.61736582476,192.61736582476,192.61736582476,192.61736582476,192.61736582476,192.61736582476,192.61736582476,192.61736582476,192.61736582476,192.61736582476,192.61736582476,192.61736582476,192.61736582476,192.61736582476,192.61736582476,192.61736582476,192.61736582476,192.61736582476,192.61736582476,192.61736582476,192.61736582476,192.61736582476,192.61736582476,192.61736582476,192.61736582476,192.61736582476,192.61736582476,192.61736582476,192.61736582476,192.61736582476,192.61736582476,230.7193746329,376.55577165024,-0.33230045379214,334.79016108187,-0.34042385889086,0
0.0001890625,507545634.7997,1.680444477548e-05,5.6006483045578e-05,2.372788985498e-05,1.017284278678,0,0,0,0,0,0,0,0,0,0,0,0,0,0,0,0,0,0,0,0,0,0,0,0,0,0,0,0,0,0,0,0,0,0,0,0,0,0,0,0,0,0,0,0,0,0,0,0,-0.96388023507871,-0.29794891010775,-0.66588897876522,5.3189764330226,3.0434290012319,1.2239348714637,-3.3862264985159,1.6229770958317,2.7646418114607,-0.48911485421198,1.7342032076706,-5.383711897725,1.4245740779616,-1.5900936658369,1.5838616498665,-4.3504232923684,2.1452991083651,4.7917119311869,-0.99069074021351,-4.6929263050321,1.6760814138094,1.6793574575051,0.072026249502288,-4.0697416960623,2.9983442308693,-2.0192115606194,1.1083274452363,1.1520865528929,-1.8034557753108,1.243987709919,1.4557799653635,-0.32366178702056,0.80944509615565,-4.2907172652405,-1.9549242920393,-3.5041427957697,5.2632081213571,-2.7969679140461,3.155037880524,-0.45346303792955,-1.3812996262826,-6.9748696249164,0.89333037199664,-2.1204923811218,-3.4331312588856,1.1821146176532,3.6932687697578,-3.9564160595327,192.85727513306,192.85727513306,192.85727513306,192.85727513306,192.85727513306,192.85727513306,192.85727513306,192.85727513306,192.85727513306,192.85727513306,192.85727513306,192.85727513306,192.85727513306,192.85727513306,192.85727513306,192.85727513306,192.85727513306,192.85727513306,192.85727513306,192.85727513306,192.85727513306,192.85727513306,192.85727513306,192.85727513306,192.85727513306,192.85727513306,192.85727513306,192.85727513306,192.85727513306,192.85727513306,192.85727513306,192.85727513306,192.85727513306,192.85727513306,192.85727513306,192.85727513306,192.85727513306,192.85727513306,192.85727513306,192.85727513306,192.85727513306,192.85727513306,192.85727513306,192.85727513306,192.85727513306,192.85727513306,192.85727513306,192.85727513306,230.71337990072,377.05890885975,-0.33409081494511,335.22077964073,-0.3422289021221,0
0.0001896875,510010975.85677,1.6857660875885e-05,5.6191701318093e-05,2.3806786668832e-05,1.0173444589299,0,0,0,0,0,0,0,0,0,0,0,0,0,0,0,0,0,0,0,0,0,0,0,0,0,0,0,0,0,0,0,0,0,0,0,0,0,0,0,0,0,0,0,0,0,0,0,0,-0.96401559152601,-0.29677030179673,-0.66269533734705,5.3180961996579,3.0433239093939,1.2231030535857,-3.3855853649067,1.6228329484835,2.7646455556394,-0.4892375278319,1.7351904138576,-5.3841219122495,1.4248608508656,-1.5891437665014,1.5850614825357,-4.3508275543363,2.1446454891418,4.7906204771825,-0.99084801667078,-4.6916890753442,1.6773591575293,1.6799131826436,0.071656769143021,-4.0688834948094,2.9995136090421,-2.0207734339426,1.1090288959626,1.1514111912491,-1.8034583111666,1.2435872542287,1.4555644710824,-0.32393418156066,0.80947857290701,-4.29000298121,-1.9537716972709,-3.5032491627271,5.2639686663043,-2.7971429539881,3.1548152018375,-0.4533132744521,-1.3807076061072,-6.9747635577247,0.89434787516895,-2.1197192629214,-3.4328208172874,1.183152965109,3.6915067954833,-3.9546581810169,193.09716824484,193.09716824484,193.09716824484,193.09716824484,193.09716824484,193.09716824484,193.09716824484,193.09716824484,193.09716824484,193.09716824484,193.09716824484,193.09716824484,193.09716824484,193.09716824484,193.09716824484,193.09716824484,193.09716824484,193.09716824484,193.09716824484,193.09716824484,193.09716824484,193.09716824484,193.09716824484,193.09716824484,193.09716824484,193.09716824484,193.09716824484,193.09716824484,193.09716824484,193.09716824484,193.09716824484,193.09716824484,193.09716824484,193.09716824484,193.09716824484,193.09716824484,193.09716824484,193.09716824484,193.09716824484,193.09716824484,193.09716824484,193.09716824484,193.09716824484,193.09716824484,193.09716824484,193.09716824484,193.09716824484,193.09716824484,230.70733524049,377.56192773408,-0.3358851608322,335.65132791722,-0.3440378934982,0
0.0001903125,512481486.79239,1.6910863571099e-05,5.6376919745086e-05,2.3885681390337e-05,1.0174046382359,0,0,0,0,0,0,0,0,0,0,0,0,0,0,0,0,0,0,0,0,0,0,0,0,0,0,0,0,0,0,0,0,0,0,0,0,0,0,0,0,0,0,0,0,0,0,0,0,-0.96414992080995,-0.29559610045406,-0.65952410632639,5.3172244223267,3.0432162801213,1.22227416258,-3.3849434573736,1.6226881532914,2.7646480699839,-0.48935680537576,1.7361708366011,-5.3845272005695,1.4251479148432,-1.5881962693528,1.5862558529497,-4.3512209160225,2.1439901706309,4.7895316532681,-0.9910072973241,-4.6904603417789,1.6786301783562,1.680471114719,0.071289587287613,-4.0680376044183,3.0006770915197,-2.0223318836546,1.1097250919357,1.150739872969,-1.803453287574,1.24318544006,1.4553462676747,-0.32420156562355,0.80951136868866,-4.2892859250995,-1.9526212920928,-3.5023583935553,5.2647262938175,-2.7973091101593,3.1545944308928,-0.45316363143816,-1.3801189853951,-6.974653450554,0.89535691208953,-2.118943139646,-3.4325129053099,1.1841866681574,3.6897511438463,-3.9529035101505,193.33704510538,193.33704510538,193.33704510538,193.33704510538,193.33704510538,193.33704510538,193.33704510538,193.33704510538,193.33704510538,193.33704510538,193.33704510538,193.33704510538,193.33704510538,193.33704510538,193.33704510538,193.33704510538,193.33704510538,193.33704510538,193.33704510538,193.33704510538,193.33704510538,193.33704510538,193.33704510538,193.33704510538,193.33704510538,193.33704510538,193.33704510538,193.33704510538,193.33704510538,193.33704510538,193.33704510538,193.33704510538,193.33704510538,193.33704510538,193.33704510538,193.33704510538,193.33704510538,193.33704510538,193.33704510538,193.33704510538,193.33704510538,193.33704510538,193.33704510538,193.33704510538,193.33704510538,193.33704510538,193.33704510538,193.33704510538,230.70124141751,378.06482887688,-0.33768348918176,336.08180609802,-0.34585083065553,0
0.0001909375,514957162.16743,1.6964052899894e-05,5.6562138326274e-05,2.3964574068288e-05,1.0174648165962,0,0,0,0,0,0,0,0,0,0,0,0,0,0,0,0,0,0,0,0,0,0,0,0,0,0,0,0,0,0,0,0,0,0,0,0,0,0,0,0,0,0,0,0,0,0,0,0,-0.96428324091695,-0.294426305246,-0.65637509942237,5.3163610025213,3.0431061592353,1.2214482025208,-3.3843007504323,1.6225427782556,2.7646493460873,-0.48947278076613,1.7371445023542,-5.3849278130957,1.4254352778792,-1.587251130893,1.587444770951,-4.35160344379,2.1433331707135,4.7884455131975,-0.99116853930784,-4.6892400269795,1.6798945950508,1.6810312211725,0.070924608218233,-4.0672038673895,3.001834667235,-2.0238869400138,1.1104160621102,1.1500726101465,-1.8034406918104,1.2427823041336,1.4551253648779,-0.32446402446934,0.80954348097435,-4.2885661342632,-1.9514730461918,-3.5014704469982,5.2654810060958,-2.7974664230803,3.1543756006895,-0.45301410219887,-1.3795337663988,-6.9745392951712,0.8963575005874,-2.1181640326281,-3.4322075256127,1.1852157851381,3.6880017586181,-3.9511520137035,193.57690566075,193.57690566075,193.57690566075,193.57690566075,193.57690566075,193.57690566075,193.57690566075,193.57690566075,193.57690566075,193.57690566075,193.57690566075,193.57690566075,193.57690566075,193.57690566075,193.57690566075,193.57690566075,193.57690566075,193.57690566075,193.57690566075,193.57690566075,193.57690566075,193.57690566075,193.57690566075,193.57690566075,193.57690566075,193.57690566075,193.57690566075,193.57690566075,193.57690566075,193.57690566075,193.57690566075,193.57690566075,193.57690566075,193.57690566075,193.57690566075,193.57690566075,193.57690566075,193.57690566075,193.57690566075,193.57690566075,193.57690566075,193.57690566075,193.57690566075,193.57690566075,193.57690566075,193.57690566075,193.57690566075,193.57690566075,230.69509914217,378.56761288107,-0.33948579774745,336.51221436731,-0.34766771122534,0
0.0001915625,517437996.56716,1.7017228900967e-05,5.6747357061394e-05,2.4043464750907e-05,1.0175249940107,0,0,0,0,0,0,0,0,0,0,0,0,0,0,0,0,0,0,0,0,0,0,0,0,0,0,0,0,0,0,0,0,0,0,0,0,0,0,0,0,0,0,0,0,0,0,0,0,-0.9644155708481,-0.29326091355716,-0.65324813270838,5.3155058415873,3.0429935923734,1.2206251774487,-3.3836572187178,1.6223968885899,2.7646493763378,-0.4895855458703,1.7381114395717,-5.3853238004101,1.4257229475866,-1.5863083131932,1.588628246441,-4.3519752055031,2.1426745101446,4.7873621084009,-0.99133169956806,-4.6880280533171,1.6811525227918,1.6815934700983,0.070561740612617,-4.0663821277045,3.0029863278794,-2.0254386331126,1.1111018359776,1.1494094130022,-1.8034205156675,1.2423778828413,1.454901773016,-0.32472164228942,0.80957490839891,-4.2878436473152,-1.9503269325273,-3.5005852981549,5.2662328042312,-2.7976149365584,3.154158747257,-0.45286468153503,-1.378951950659,-6.974421084414,0.89734966100795,-2.1173819912203,-3.4319046785705,1.1862403778603,3.6862585864449,-3.9494036588135,193.81674985774,193.81674985774,193.81674985774,193.81674985774,193.81674985774,193.81674985774,193.81674985774,193.81674985774,193.81674985774,193.81674985774,193.81674985774,193.81674985774,193.81674985774,193.81674985774,193.81674985774,193.81674985774,193.81674985774,193.81674985774,193.81674985774,193.81674985774,193.81674985774,193.81674985774,193.81674985774,193.81674985774,193.81674985774,193.81674985774,193.81674985774,193.81674985774,193.81674985774,193.81674985774,193.81674985774,193.81674985774,193.81674985774,193.81674985774,193.81674985774,193.81674985774,193.81674985774,193.81674985774,193.81674985774,193.81674985774,193.81674985774,193.81674985774,193.81674985774,193.81674985774,193.81674985774,193.81674985774,193.81674985774,193.81674985774,230.68890906837,379.07028033,-0.34129208423121,336.94255290698,-0.34948853281968,0
0.0001921875,519923984.60091,1.7070468630885e-05,5.6932575950197e-05,2.4122353484802e-05,1.0175851704795,0,0,0,0,0,0,0,0,0,0,0,0,0,0,0,0,0,0,0,0,0,0,0,0,0,0,0,0,0,0,0,0,0,0,0,0,0,0,0,0,0,0,0,0,0,0,0,0,-0.96454693054116,-0.292099921058,-0.65014302513153,5.3146588407173,3.0428786249985,1.2198050914717,-3.383012836925,1.6222505464191,2.7646481538291,-0.48969519038108,1.7390716787638,-5.3857152133717,1.4260109311787,-1.585367783657,1.5898062892417,-4.3523362705658,2.14201421247,4.7862814878316,-0.99149673479345,-4.6868243427386,1.6824040727267,1.6821578301352,0.070200897691677,-4.0655722311919,3.0041320680143,-2.0269869929521,1.1117824436546,1.1487502898415,-1.8033927558456,1.2419722120521,1.4546755028788,-0.32497450207175,0.80960565079639,-4.2871185041853,-1.949182927359,-3.4997029381234,5.2669816879829,-2.7977546976918,3.1539439093233,-0.45271536559652,-1.3783735390205,-6.9742988124429,0.89833341630382,-2.1165970933983,-3.4316043621624,1.1872605113914,3.684521576996,-3.9476584131833,194.05657764378,194.05657764378,194.05657764378,194.05657764378,194.05657764378,194.05657764378,194.05657764378,194.05657764378,194.05657764378,194.05657764378,194.05657764378,194.05657764378,194.05657764378,194.05657764378,194.05657764378,194.05657764378,194.05657764378,194.05657764378,194.05657764378,194.05657764378,194.05657764378,194.05657764378,194.05657764378,194.05657764378,194.05657764378,194.05657764378,194.05657764378,194.05657764378,194.05657764378,194.05657764378,194.05657764378,194.05657764378,194.05657764378,194.05657764378,194.05657764378,194.05657764378,194.05657764378,194.05657764378,194.05657764378,194.05657764378,194.05657764378,194.05657764378,194.05657764378,194.05657764378,194.05657764378,194.05657764378,194.05657764378,194.05657764378,230.6826717922,379.57283179859,-0.34310234636819,337.37282189672,-0.35131329304977,0
0.0001928125,522415120.90158,1.7124998694368e-05,5.7117794992453e-05,2.4201240315795e-05,1.0176453460025,0,0,0,0,0,0,0,0,0,0,0,0,0,0,0,0,0,0,0,0,0,0,0,0,0,0,0,0,0,0,0,0,0,0,0,0,0,0,0,0,0,0,0,0,0,0,0,0,-0.96467734080216,-0.29094332171272,-0.64705959895295,5.3138199009148,3.042761302388,1.2189879488382,-3.3823675800005,1.6221038105147,2.7646456725103,-0.48980180169278,1.7400252525724,-5.3861021029157,1.4262992354252,-1.5844295149538,1.5909789090666,-4.3526867098363,2.1413523040245,4.785203697782,-0.99166360135985,-4.6856288168021,1.6836493515759,1.6827242704813,0.069841997356003,-4.0647740257124,3.0052718852057,-2.0285320492956,1.1124579159591,1.1480952470013,-1.8033574145078,1.2415653269456,1.4544465658792,-0.32522268546376,0.80963570924194,-4.286390745995,-1.9480410102829,-3.498823373687,5.267727655737,-2.7978857568576,3.153731128042,-0.45256615187291,-1.3777985315949,-6.9741724747217,0.89930879214733,-2.1158094461487,-3.4313065719716,1.188276253833,3.6827906830595,-3.9459162452375,194.29638896691,194.29638896691,194.29638896691,194.29638896691,194.29638896691,194.29638896691,194.29638896691,194.29638896691,194.29638896691,194.29638896691,194.29638896691,194.29638896691,194.29638896691,194.29638896691,194.29638896691,194.29638896691,194.29638896691,194.29638896691,194.29638896691,194.29638896691,194.29638896691,194.29638896691,194.29638896691,194.29638896691,194.29638896691,194.29638896691,194.29638896691,194.29638896691,194.29638896691,194.29638896691,194.29638896691,194.29638896691,194.29638896691,194.29638896691,194.29638896691,194.29638896691,194.29638896691,194.29638896691,194.29638896691,194.29638896691,194.29638896691,194.29638896691,194.29638896691,194.29638896691,194.29638896691,194.29638896691,194.29638896691,194.29638896691,230.67638785115,380.07526785447,-0.34491658188948,337.80302151411,-0.35314198953152,0
0.0001934375,524911400.12511,1.7179512382317e-05,5.7303014187949e-05,2.4280125288698e-05,1.0177055205799,0,0,0,0,0,0,0,0,0,0,0,0,0,0,0,0,0,0,0,0,0,0,0,0,0,0,0,0,0,0,0,0,0,0,0,0,0,0,0,0,0,0,0,0,0,0,0,0,-0.9648068232307,-0.28979110780913,-0.64399768015759,5.3129889229821,3.0426416696254,1.2181737540236,-3.3817214231736,1.6219567360329,2.7646419272244,-0.48990546478608,1.7409721958146,-5.3864845200761,1.4265878666243,-1.5834934847727,1.5921461154469,-4.3530265955821,2.140688813922,4.7841287817067,-0.99183225527394,-4.6844413966137,1.6848884612324,1.6832927608538,0.069484962306077,-4.0639873614219,3.0064057801056,-2.0300738316939,1.1131282844941,1.147444288816,-1.8033144996405,1.2411572618446,1.4542149740773,-0.32546627263935,0.809665086081,-4.2856604150586,-1.9469011642171,-3.4979466267141,5.2684707043848,-2.7980081676752,3.1535204467269,-0.45241703909081,-1.3772269277543,-6.974042068111,0.90027581705666,-2.1150191854891,-3.4310113011275,1.1892876761004,3.6810658606189,-3.9441771242882,194.5361837757,194.5361837757,194.5361837757,194.5361837757,194.5361837757,194.5361837757,194.5361837757,194.5361837757,194.5361837757,194.5361837757,194.5361837757,194.5361837757,194.5361837757,194.5361837757,194.5361837757,194.5361837757,194.5361837757,194.5361837757,194.5361837757,194.5361837757,194.5361837757,194.5361837757,194.5361837757,194.5361837757,194.5361837757,194.5361837757,194.5361837757,194.5361837757,194.5361837757,194.5361837757,194.5361837757,194.5361837757,194.5361837757,194.5361837757,194.5361837757,194.5361837757,194.5361837757,194.5361837757,194.5361837757,194.5361837757,194.5361837757,194.5361837757,194.5361837757,194.5361837757,194.5361837757,194.5361837757,194.5361837757,194.5361837757,230.67005772377,380.57758905915,-0.34673478852345,338.23315193484,-0.35497461987917,0
0.0001940625,527412816.9498,1.7234009723273e-05,5.7488233536487e-05,2.4359008447237e-05,1.0177656942115,0,0,0,0,0,0,0,0,0,0,0,0,0,0,0,0,0,0,0,0,0,0,0,0,0,0,0,0,0,0,0,0,0,0,0,0,0,0,0,0,0,0,0,0,0,0,0,0,-0.96493540014181,-0.28864326999099,-0.64095709880753,5.3121658075318,3.042519771597,1.21736251179,-3.3810743421108,1.6218093742938,2.7646369135162,-0.49000626211836,1.7419125455253,-5.3868625159021,1.4268768305721,-1.5825596757051,1.5933079177009,-4.3533560014746,2.1400237739661,4.7830567800874,-0.99200265212693,-4.6832620028743,1.6861214984128,1.6838632712956,0.06912972014687,-4.0632120910095,3.007533756522,-2.0316123694251,1.1137935817143,1.1467974175838,-1.8032640254328,1.2407480500754,1.4539807400321,-0.32570534216453,0.80969378495987,-4.2849275548112,-1.9457633754002,-3.4970727335772,5.2692108292799,-2.7981219869846,3.1533119104913,-0.45226802720007,-1.3766587261075,-6.973907590995,0.90123452247655,-2.1142264762072,-3.4307185402961,1.1902948516497,3.6793470689457,-3.9424410206908,194.77596201918,194.77596201918,194.77596201918,194.77596201918,194.77596201918,194.77596201918,194.77596201918,194.77596201918,194.77596201918,194.77596201918,194.77596201918,194.77596201918,194.77596201918,194.77596201918,194.77596201918,194.77596201918,194.77596201918,194.77596201918,194.77596201918,194.77596201918,194.77596201918,194.77596201918,194.77596201918,194.77596201918,194.77596201918,194.77596201918,194.77596201918,194.77596201918,194.77596201918,194.77596201918,194.77596201918,194.77596201918,194.77596201918,194.77596201918,194.77596201918,194.77596201918,194.77596201918,194.77596201918,194.77596201918,194.77596201918,194.77596201918,194.77596201918,194.77596201918,194.77596201918,194.77596201918,194.77596201918,194.77596201918,194.77596201918,230.66368182986,381.07979596904,-0.34855696401484,338.66321333273,-0.35681118170425,0
0.0001946875,529919366.07559,1.7288490745637e-05,5.7673453037885e-05,2.4437889834081e-05,1.0178258668975,0,0,0,0,0,0,0,0,0,0,0,0,0,0,0,0,0,0,0,0,0,0,0,0,0,0,0,0,0,0,0,0,0,0,0,0,0,0,0,0,0,0,0,0,0,0,0,0,-0.96506309447742,-0.28749979726827,-0.63793768936923,5.3113504549762,3.0423956529572,1.2165542272461,-3.3804263129231,1.6216617725633,2.7646306279392,-0.49010427352804,1.7428463409673,-5.3872361413877,1.427166132531,-1.5816280748761,1.5944643248983,-4.3536750024733,2.1393572186401,4.7819877302428,-0.99217474704967,-4.6820905558052,1.6873485543086,1.6844357723265,0.068776203462458,-4.0624480699018,3.0086558214626,-2.0331476914551,1.1144538409883,1.1461546335395,-1.8032060125039,1.2403377238296,1.4537438770564,-0.32593997087365,0.80972181082986,-4.284192209739,-1.9446276333364,-3.4962017442154,5.2699480241596,-2.7982272747702,3.1531055660031,-0.45211911723488,-1.3760939244754,-6.9737690432571,0.90218494286538,-2.1134315112365,-3.4304282776342,1.1912978562335,3.677634270594,-3.9407079059444,195.01572364678,195.01572364678,195.01572364678,195.01572364678,195.01572364678,195.01572364678,195.01572364678,195.01572364678,195.01572364678,195.01572364678,195.01572364678,195.01572364678,195.01572364678,195.01572364678,195.01572364678,195.01572364678,195.01572364678,195.01572364678,195.01572364678,195.01572364678,195.01572364678,195.01572364678,195.01572364678,195.01572364678,195.01572364678,195.01572364678,195.01572364678,195.01572364678,195.01572364678,195.01572364678,195.01572364678,195.01572364678,195.01572364678,195.01572364678,195.01572364678,195.01572364678,195.01572364678,195.01572364678,195.01572364678,195.01572364678,195.01572364678,195.01572364678,195.01572364678,195.01572364678,195.01572364678,195.01572364678,195.01572364678,195.01572364678,230.65726053094,381.58188913659,-0.35038310608477,339.09320587991,-0.35865167263039,0
0.0001953125,532431042.22333,1.7342955477689e-05,5.7858672691973e-05,2.4516769491287e-05,1.0178860386379,0,0,0,0,0,0,0,0,0,0,0,0,0,0,0,0,0,0,0,0,0,0,0,0,0,0,0,0,0,0,0,0,0,0,0,0,0,0,0,0,0,0,0,0,0,0,0,0,-0.96518992972253,-0.28636067705523,-0.63493929096136,5.3105427655479,3.0422693581252,1.2157489059067,-3.3797773122809,1.6215139738819,2.7646230678621,-0.49019957615256,1.743773623648,-5.3876054474516,1.4274557772079,-1.5806986737227,1.5956153458488,-4.3539836747998,2.1386891849703,4.7809216662133,-0.9923484946706,-4.680926975189,1.6885697142979,1.6850102347606,0.06842434987722,-4.0616951564764,3.0097719851621,-2.0346798264345,1.1151090966654,1.1455159348509,-1.8031404881118,1.2399263140546,1.45350439906,-0.32617023375649,0.80974916996131,-4.2834544253318,-1.9434939307384,-3.4953337212334,5.2706822811353,-2.7983240940974,3.1529014610796,-0.45197031127516,-1.3755325198735,-6.9736264263862,0.90312711574672,-2.1126345107281,-3.4301404987932,1.192296767585,3.6759274314479,-3.9389777528257,195.25546860831,195.25546860831,195.25546860831,195.25546860831,195.25546860831,195.25546860831,195.25546860831,195.25546860831,195.25546860831,195.25546860831,195.25546860831,195.25546860831,195.25546860831,195.25546860831,195.25546860831,195.25546860831,195.25546860831,195.25546860831,195.25546860831,195.25546860831,195.25546860831,195.25546860831,195.25546860831,195.25546860831,195.25546860831,195.25546860831,195.25546860831,195.25546860831,195.25546860831,195.25546860831,195.25546860831,195.25546860831,195.25546860831,195.25546860831,195.25546860831,195.25546860831,195.25546860831,195.25546860831,195.25546860831,195.25546860831,195.25546860831,195.25546860831,195.25546860831,195.25546860831,195.25546860831,195.25546860831,195.25546860831,195.25546860831,230.65079413144,382.0838691113,-0.35221321251941,339.52312974686,-0.36049609029931,0
0.0001959375,534947840.13396,1.7397403947513e-05,5.8043892498598e-05,2.4595647459767e-05,1.0179462094327,0,0,0,0,0,0,0,0,0,0,0,0,0,0,0,0,0,0,0,0,0,0,0,0,0,0,0,0,0,0,0,0,0,0,0,0,0,0,0,0,0,0,0,0,0,0,0,0,-0.96531592980861,-0.28522589518022,-0.63196174756951,5.3097426393284,3.0421409312393,1.2149465537247,-3.3791273174548,1.6213660169116,2.7646142316814,-0.49029224436325,1.7446944372971,-5.387970484824,1.4277457687262,-1.5797714676393,1.5967609890957,-4.3542820958381,2.1380197124855,4.7798586185894,-0.99252384908838,-4.6797711803476,1.6897850576772,1.6855866297862,0.068074102078287,-4.0609532122445,3.0108822610716,-2.0362088026237,1.115759384118,1.144881317608,-1.8030674862608,1.2395138503576,1.4532623207454,-0.32639620385273,0.80977586992996,-4.2827142479692,-1.9423622634428,-3.4944687388068,5.271413590649,-2.7984125110183,3.1526996444306,-0.45182161233442,-1.3749745084797,-6.9734797434697,0.90406108176549,-2.11183572082,-3.4298551868737,1.1932916651457,3.6742265206654,-3.9372505354576,195.49519685384,195.49519685384,195.49519685384,195.49519685384,195.49519685384,195.49519685384,195.49519685384,195.49519685384,195.49519685384,195.49519685384,195.49519685384,195.49519685384,195.49519685384,195.49519685384,195.49519685384,195.49519685384,195.49519685384,195.49519685384,195.49519685384,195.49519685384,195.49519685384,195.49519685384,195.49519685384,195.49519685384,195.49519685384,195.49519685384,195.49519685384,195.49519685384,195.49519685384,195.49519685384,195.49519685384,195.49519685384,195.49519685384,195.49519685384,195.49519685384,195.49519685384,195.49519685384,195.49519685384,195.49519685384,195.49519685384,195.49519685384,195.49519685384,195.49519685384,195.49519685384,195.49519685384,195.49519685384,195.49519685384,195.49519685384,230.64428288024,382.58573644068,-0.35404728109439,339.95298510259,-0.36234443236717,0
0.0001965625,537469754.56783,1.7451836183038e-05,5.8229112457619e-05,2.467452377944e-05,1.0180063792819,0,0,0,0,0,0,0,0,0,0,0,0,0,0,0,0,0,0,0,0,0,0,0,0,0,0,0,0,0,0,0,0,0,0,0,0,0,0,0,0,0,0,0,0,0,0,0,0,-0.96544111901899,-0.28409543591618,-0.62900490817637,5.3089499762751,3.0420104161308,1.2141471771169,-3.37847630649,1.6212179358216,2.7646041185497,-0.49038234971037,1.7456088278502,-5.3883313040196,1.4280361106121,-1.5788464557134,1.5979012629504,-4.3545703440604,2.1373488430707,4.7787986144068,-0.9927007638499,-4.678623090278,1.6909946574478,1.6861649287795,0.067725407827395,-4.0602221019703,3.011986665838,-2.0377346479116,1.1164047397827,1.1442507758351,-1.8029870477888,1.2391003609242,1.4530176573764,-0.32661795216312,0.80980191961029,-4.2819717248451,-1.9412326303138,-3.4936068815473,5.2721419415503,-2.7984925944708,3.1525001652558,-0.45167302432686,-1.3744198856107,-6.9733289991983,0.90498688472275,-2.1110354120804,-3.4295723224959,1.1942826297157,3.6725315106631,-3.9355262293733,195.73490833366,195.73490833366,195.73490833366,195.73490833366,195.73490833366,195.73490833366,195.73490833366,195.73490833366,195.73490833366,195.73490833366,195.73490833366,195.73490833366,195.73490833366,195.73490833366,195.73490833366,195.73490833366,195.73490833366,195.73490833366,195.73490833366,195.73490833366,195.73490833366,195.73490833366,195.73490833366,195.73490833366,195.73490833366,195.73490833366,195.73490833366,195.73490833366,195.73490833366,195.73490833366,195.73490833366,195.73490833366,195.73490833366,195.73490833366,195.73490833366,195.73490833366,195.73490833366,195.73490833366,195.73490833366,195.73490833366,195.73490833366,195.73490833366,195.73490833366,195.73490833366,195.73490833366,195.73490833366,195.73490833366,195.73490833366,230.63772697283,383.08749167113,-0.35588530957309,340.38277211463,-0.36419669649615,0
0.0001971875,539996780.30388,1.7506252212017e-05,5.8414332568908e-05,2.4753398489383e-05,1.0180665481855,0,0,0,0,0,0,0,0,0,0,0,0,0,0,0,0,0,0,0,0,0,0,0,0,0,0,0,0,0,0,0,0,0,0,0,0,0,0,0,0,0,0,0,0,0,0,0,0,-0.96556552188357,-0.28296928201488,-0.62606862685783,5.3081646762786,3.0418778562852,1.2133507829859,-3.3778242581408,1.6210697601977,2.7645927286001,-0.49046996090099,1.7465168433861,-5.3886879552725,1.4283268057767,-1.5779236402956,1.5990361754843,-4.3548484989609,2.1366766208305,4.7777416770353,-0.99287919194279,-4.6774826235546,1.6921985801332,1.6867451033867,0.067378219931511,-4.0595016939184,3.0130852192321,-2.0392573897672,1.117045201193,1.1436243015116,-1.8028992202582,1.2386858724552,1.452770424976,-0.32683554757349,0.80982732914013,-4.2812269038667,-1.9401050331094,-3.4927482431864,5.2728673210434,-2.798564416152,3.1523030729243,-0.45152455193091,-1.3738686456994,-6.9731741999631,0.90590457155366,-2.110233877682,-3.4292918837501,1.1952697431459,3.6708423770538,-3.9338048115912,195.97460299827,195.97460299827,195.97460299827,195.97460299827,195.97460299827,195.97460299827,195.97460299827,195.97460299827,195.97460299827,195.97460299827,195.97460299827,195.97460299827,195.97460299827,195.97460299827,195.97460299827,195.97460299827,195.97460299827,195.97460299827,195.97460299827,195.97460299827,195.97460299827,195.97460299827,195.97460299827,195.97460299827,195.97460299827,195.97460299827,195.97460299827,195.97460299827,195.97460299827,195.97460299827,195.97460299827,195.97460299827,195.97460299827,195.97460299827,195.97460299827,195.97460299827,195.97460299827,195.97460299827,195.97460299827,195.97460299827,195.97460299827,195.97460299827,195.97460299827,195.97460299827,195.97460299827,195.97460299827,195.97460299827,195.97460299827,230.63112655328,383.58913534884,-0.35772729577998,340.8124909492,-0.36605288038345,0
0.0001978125,542528912.13899,1.7560652062018e-05,5.8599552832342e-05,2.4832271627746e-05,1.0181267161437,0,0,0,0,0,0,0,0,0,0,0,0,0,0,0,0,0,0,0,0,0,0,0,0,0,0,0,0,0,0,0,0,0,0,0,0,0,0,0,0,0,0,0,0,0,0,0,0,-0.9656891630678,-0.28184741473361,-0.62315276282901,5.3073866391909,3.0417432948006,1.2125573787365,-3.3771711519551,1.6209215149852,2.7645800628482,-0.49055514378325,1.7474185340666,-5.389040488514,1.4286178565037,-1.5770030265966,1.6001657345706,-4.355116640955,2.1360030919277,4.7766878260731,-0.99305908577267,-4.6763496984016,1.6933968856425,1.6873271254626,0.067032496192132,-4.0587918599489,3.0141779440814,-2.0407770552697,1.1176808070058,1.1430018846137,-1.8028040578446,1.2382704101194,1.4525206402383,-0.32704905679444,0.80985210988474,-4.2804798335604,-1.9389794763365,-3.4918929251925,5.2735897147434,-2.7986280503777,3.1521084165999,-0.45137620048813,-1.3733207822696,-6.9730153538258,0.90681419232285,-2.1094314313018,-3.4290138462221,1.1962530879771,3.6691590985415,-3.9320862606099,196.21428079827,196.21428079827,196.21428079827,196.21428079827,196.21428079827,196.21428079827,196.21428079827,196.21428079827,196.21428079827,196.21428079827,196.21428079827,196.21428079827,196.21428079827,196.21428079827,196.21428079827,196.21428079827,196.21428079827,196.21428079827,196.21428079827,196.21428079827,196.21428079827,196.21428079827,196.21428079827,196.21428079827,196.21428079827,196.21428079827,196.21428079827,196.21428079827,196.21428079827,196.21428079827,196.21428079827,196.21428079827,196.21428079827,196.21428079827,196.21428079827,196.21428079827,196.21428079827,196.21428079827,196.21428079827,196.21428079827,196.21428079827,196.21428079827,196.21428079827,196.21428079827,196.21428079827,196.21428079827,196.21428079827,196.21428079827,230.62448171774,384.09066802051,-0.35957323755164,341.24214177119,-0.36791298174523,0
0.0001984375,545066144.88732,1.7615035760439e-05,5.8784773247816e-05,2.4911143231857e-05,1.0181868831564,0,0,0,0,0,0,0,0,0,0,0,0,0,0,0,0,0,0,0,0,0,0,0,0,0,0,0,0,0,0,0,0,0,0,0,0,0,0,0,0,0,0,0,0,0,0,0,0,-0.96581206727074,-0.2807298138457,-0.62025718040955,5.3066157649098,3.0416067743159,1.2117669722581,-3.3765169684619,1.6207732204785,2.7645661233096,-0.49063796135432,1.7483139520755,-5.3893889531887,1.428909264436,-1.5760846224047,1.6012899479701,-4.3553748512067,2.1353283044868,4.7756370772352,-0.99324039718767,-4.6752242328677,1.6945896271958,1.6879109670952,0.066688199325269,-4.0580924755102,3.0152648661957,-2.0422936709902,1.1183115969976,1.1423835131531,-1.8027016212439,1.2378539975297,1.4522683206717,-0.32725854432603,0.80987627439428,-4.2797305628866,-1.9378559671075,-3.4910410354921,5.2743091068144,-2.7986835739276,3.1519162449776,-0.45122797596897,-1.3727762878917,-6.9728524703362,0.90771580020449,-2.1086284048606,-3.4287381830936,1.1972327471215,3.6674816567901,-3.9303705564276,196.45394168435,196.45394168435,196.45394168435,196.45394168435,196.45394168435,196.45394168435,196.45394168435,196.45394168435,196.45394168435,196.45394168435,196.45394168435,196.45394168435,196.45394168435,196.45394168435,196.45394168435,196.45394168435,196.45394168435,196.45394168435,196.45394168435,196.45394168435,196.45394168435,196.45394168435,196.45394168435,196.45394168435,196.45394168435,196.45394168435,196.45394168435,196.45394168435,196.45394168435,196.45394168435,196.45394168435,196.45394168435,196.45394168435,196.45394168435,196.45394168435,196.45394168435,196.45394168435,196.45394168435,196.45394168435,196.45394168435,196.45394168435,196.45394168435,196.45394168435,196.45394168435,196.45394168435,196.45394168435,196.45394168435,196.45394168435,230.61779251726,384.59209023404,-0.36142313272949,341.67172474432,-0.36977699832005,0
0.0001990625,547608473.3798,1.7669403334493e-05,5.8969993815227e-05,2.499001333824e-05,1.0182470492237,0,0,0,0,0,0,0,0,0,0,0,0,0,0,0,0,0,0,0,0,0,0,0,0,0,0,0,0,0,0,0,0,0,0,0,0,0,0,0,0,0,0,0,0,0,0,0,0,-0.96593425910352,-0.27961645772052,-0.61738174893965,5.3058519534267,3.0414683369898,1.2109795719283,-3.3758616890331,1.6206248923239,2.7645509127453,-0.4907184737896,1.7492031514895,-5.3897333983593,1.4292010305803,-1.5751684375775,1.6024088233362,-4.355623211661,2.1346523083146,4.774589442342,-0.99342307747169,-4.6741061447115,1.6957768512777,1.6884966004621,0.06634529685821,-4.0574034199614,3.0163460141966,-2.0438072631127,1.1189376120824,1.1417691732476,-1.8025919772811,1.2374366567258,1.4520134843456,-0.32746407242122,0.80989983633587,-4.2789791411959,-1.9367345149401,-3.4901926869184,5.2750254799434,-2.7987310658853,3.1517266058361,-0.45107988481838,-1.3722351541825,-6.9726855608399,0.90860945138945,-2.1078251459715,-3.4284648651062,1.198208803473,3.6658100363351,-3.9286576805337,196.69358560722,196.69358560722,196.69358560722,196.69358560722,196.69358560722,196.69358560722,196.69358560722,196.69358560722,196.69358560722,196.69358560722,196.69358560722,196.69358560722,196.69358560722,196.69358560722,196.69358560722,196.69358560722,196.69358560722,196.69358560722,196.69358560722,196.69358560722,196.69358560722,196.69358560722,196.69358560722,196.69358560722,196.69358560722,196.69358560722,196.69358560722,196.69358560722,196.69358560722,196.69358560722,196.69358560722,196.69358560722,196.69358560722,196.69358560722,196.69358560722,196.69358560722,196.69358560722,196.69358560722,196.69358560722,196.69358560722,196.69358560722,196.69358560722,196.69358560722,196.69358560722,196.69358560722,196.69358560722,196.69358560722,196.69358560722,230.61105896149,385.09340253913,-0.36327697921832,342.10124003111,-0.37164492788919,0
0.0001996875,550155892.46363,1.7723754811221e-05,5.9155214534483e-05,2.5068881982524e-05,1.0183072143456,0,0,0,0,0,0,0,0,0,0,0,0,0,0,0,0,0,0,0,0,0,0,0,0,0,0,0,0,0,0,0,0,0,0,0,0,0,0,0,0,0,0,0,0,0,0,0,0,-0.96605576297688,-0.27850732330799,-0.61452634266586,5.3050951049055,3.0413280244067,1.2101951865714,-3.3752052961726,1.6204765415759,2.7645344349824,-0.49079673848549,1.7500861882102,-5.3900738724573,1.4294931552904,-1.5742544837546,1.6035223683574,-4.3558618047442,2.1339751548147,4.7735449292068,-0.99360707738813,-4.6729953516986,1.6969585976589,1.689083998007,0.066003760992026,-4.0567245763248,3.017421419448,-2.0453178572878,1.1195588942834,1.1411588491836,-1.8024751987612,1.23701840818,1.4517561502148,-0.32766570109299,0.80992281043931,-4.2782256179884,-1.9356151315944,-3.4893479958843,5.2757388155769,-2.7987706074419,3.151539545827,-0.45093193392345,-1.3716973717383,-6.9725146379977,0.90949520504022,-2.1070220153492,-3.4281938607388,1.1991813395917,3.6641442243696,-3.9269476158575,196.9332125176,196.9332125176,196.9332125176,196.9332125176,196.9332125176,196.9332125176,196.9332125176,196.9332125176,196.9332125176,196.9332125176,196.9332125176,196.9332125176,196.9332125176,196.9332125176,196.9332125176,196.9332125176,196.9332125176,196.9332125176,196.9332125176,196.9332125176,196.9332125176,196.9332125176,196.9332125176,196.9332125176,196.9332125176,196.9332125176,196.9332125176,196.9332125176,196.9332125176,196.9332125176,196.9332125176,196.9332125176,196.9332125176,196.9332125176,196.9332125176,196.9332125176,196.9332125176,196.9332125176,196.9332125176,196.9332125176,196.9332125176,196.9332125176,196.9332125176,196.9332125176,196.9332125176,196.9332125176,196.9332125176,196.9332125176,230.60428102249,385.59460548782,-0.36513477491908,342.53068779298,-0.37351676826219,0
0.0002003125,552708397.00195,1.7778090217495e-05,5.93404354055e-05,2.5147749199603e-05,1.0183673785223,0,0,0,0,0,0,0,0,0,0,0,0,0,0,0,0,0,0,0,0,0,0,0,0,0,0,0,0,0,0,0,0,0,0,0,0,0,0,0,0,0,0,0,0,0,0,0,0,-0.96617660298129,-0.2774023862138,-0.61169084055406,5.3043451197805,3.0411858775329,1.2094138254507,-3.3745477734145,1.620328174765,2.7645166946847,-0.49087281011871,1.7509631198078,-5.3904104233629,1.4297856382807,-1.5733427738891,1.6046305907845,-4.3560907133763,2.1332968967219,4.7725035416393,-0.99379234718768,-4.6718917715553,1.6981348994444,1.6896731323034,0.065663568453751,-4.0560558315603,3.018491115851,-2.046825478732,1.1201754867204,1.1405525235153,-1.8023513639861,1.2365992708103,1.4514963379039,-0.32786348810754,0.80994521240933,-4.2774700428431,-1.9344978308511,-3.4885070808723,5.2764490939239,-2.798802281714,3.1513551100926,-0.45078413047676,-1.3711629301374,-6.9723397160483,0.91037312317165,-2.1062193840083,-3.4279251361885,1.200150437334,3.6624842106088,-3.9252403467424,197.17282236615,197.17282236615,197.17282236615,197.17282236615,197.17282236615,197.17282236615,197.17282236615,197.17282236615,197.17282236615,197.17282236615,197.17282236615,197.17282236615,197.17282236615,197.17282236615,197.17282236615,197.17282236615,197.17282236615,197.17282236615,197.17282236615,197.17282236615,197.17282236615,197.17282236615,197.17282236615,197.17282236615,197.17282236615,197.17282236615,197.17282236615,197.17282236615,197.17282236615,197.17282236615,197.17282236615,197.17282236615,197.17282236615,197.17282236615,197.17282236615,197.17282236615,197.17282236615,197.17282236615,197.17282236615,197.17282236615,197.17282236615,197.17282236615,197.17282236615,197.17282236615,197.17282236615,197.17282236615,197.17282236615,197.17282236615,230.5974586389,386.09569963488,-0.36699651775932,342.9600681903,-0.3753925172628,0
0.0002009375,555265981.8736,1.7832409580015e-05,5.9525656428195e-05,2.5226615023527e-05,1.0184275417538,0,0,0,0,0,0,0,0,0,0,0,0,0,0,0,0,0,0,0,0,0,0,0,0,0,0,0,0,0,0,0,0,0,0,0,0,0,0,0,0,0,0,0,0,0,0,0,0,-0.96629680276945,-0.27630162075386,-0.60887512606807,5.3036018988221,3.0410419366551,1.208635498213,-3.37388910539,1.6201797940116,2.7644976973873,-0.49094674072678,1.7518340053943,-5.3907430983167,1.4300784786285,-1.57243332185,1.605733498531,-4.356310020818,2.1326175878758,4.7714652794339,-0.99397883665829,-4.6707953220686,1.6993057831869,1.6902639760926,0.065324700312642,-4.0553970765209,3.0195551396886,-2.0483301522009,1.1207874335812,1.139950177152,-1.802220556357,1.2361792620122,1.4512340677411,-0.32805748901361,0.80996705884542,-4.276712465256,-1.9333826282911,-3.4876700610095,5.2771562941386,-2.7988261735344,3.1511733419495,-0.45063648188334,-1.3706318179119,-6.9721608106657,0.91124327051196,-2.1054176304402,-3.4276586555254,1.2011161774981,3.6608299870926,-3.9235358588606,197.41241510346,197.41241510346,197.41241510346,197.41241510346,197.41241510346,197.41241510346,197.41241510346,197.41241510346,197.41241510346,197.41241510346,197.41241510346,197.41241510346,197.41241510346,197.41241510346,197.41241510346,197.41241510346,197.41241510346,197.41241510346,197.41241510346,197.41241510346,197.41241510346,197.41241510346,197.41241510346,197.41241510346,197.41241510346,197.41241510346,197.41241510346,197.41241510346,197.41241510346,197.41241510346,197.41241510346,197.41241510346,197.41241510346,197.41241510346,197.41241510346,197.41241510346,197.41241510346,197.41241510346,197.41241510346,197.41241510346,197.41241510346,197.41241510346,197.41241510346,197.41241510346,197.41241510346,197.41241510346,197.41241510346,197.41241510346,230.59059172022,386.59668553812,-0.36886220574413,343.38938138236,-0.37727217279362,0
0.0002015625,557828641.97296,1.7886712925346e-05,5.9710877602498e-05,2.5305479487689e-05,1.0184877040401,0,0,0,0,0,0,0,0,0,0,0,0,0,0,0,0,0,0,0,0,0,0,0,0,0,0,0,0,0,0,0,0,0,0,0,0,0,0,0,0,0,0,0,0,0,0,0,0,-0.96641638544715,-0.2752049999513,-0.60607908688026,5.3028653432267,3.0408962412976,1.2078602148392,-3.3732292780869,1.6200313971712,2.7644774494946,-0.49101857978849,1.7526989054925,-5.391071943732,1.4303716747771,-1.571526142234,1.6068310998192,-4.3565198104633,2.1319372831152,4.7704301383591,-0.99416649517461,-4.6697059213828,1.7004712690498,1.690856502264,0.064987141790404,-4.0547482058167,3.020613529456,-2.0498319019118,1.1213947800669,1.1393517894621,-1.8020828640654,1.2357583977076,1.4509693608145,-0.32824775717989,0.80998836715832,-4.2759529344073,-1.9322695411036,-3.4868370548997,5.2778603945292,-2.7988423692371,3.1509942827232,-0.45048899577339,-1.3701040224941,-6.9719779386992,0.91210571443131,-2.1046171378215,-3.4273943808259,1.202078639531,3.6591815479794,-3.9218341391417,197.65199068005,197.65199068005,197.65199068005,197.65199068005,197.65199068005,197.65199068005,197.65199068005,197.65199068005,197.65199068005,197.65199068005,197.65199068005,197.65199068005,197.65199068005,197.65199068005,197.65199068005,197.65199068005,197.65199068005,197.65199068005,197.65199068005,197.65199068005,197.65199068005,197.65199068005,197.65199068005,197.65199068005,197.65199068005,197.65199068005,197.65199068005,197.65199068005,197.65199068005,197.65199068005,197.65199068005,197.65199068005,197.65199068005,197.65199068005,197.65199068005,197.65199068005,197.65199068005,197.65199068005,197.65199068005,197.65199068005,197.65199068005,197.65199068005,197.65199068005,197.65199068005,197.65199068005,197.65199068005,197.65199068005,197.65199068005,230.5836801512,387.09756375871,-0.37073183682346,343.81862752751,-0.37915573273936,0
0.0002021875,560396372.21001,1.7941000279914e-05,5.9896098928336e-05,2.5384342624922e-05,1.0185478653813,0,0,0,0,0,0,0,0,0,0,0,0,0,0,0,0,0,0,0,0,0,0,0,0,0,0,0,0,0,0,0,0,0,0,0,0,0,0,0,0,0,0,0,0,0,0,0,0,-0.96653537344499,-0.2741124956527,-0.60330261459242,5.3021353547283,3.0407488301849,1.2070879856139,-3.3725682786033,1.6198829779888,2.7644559582334,-0.49108837433111,1.7535578818499,-5.3913970053493,1.4306652245559,-1.5706212497572,1.6079234032022,-4.3567201658377,2.1312560379133,4.769398110227,-0.9943552717291,-4.6686234878533,1.7016313709901,1.6914506838791,0.064650882045976,-4.0541091180105,3.0216663256331,-2.0513307516889,1.1219975723586,1.1387573384026,-1.8019383794013,1.2353366923914,1.4507022388747,-0.32843434383784,0.81000915546028,-4.2751914991239,-1.9311585878211,-3.4860081790595,5.2785613725827,-2.7988509564433,3.1508179713423,-0.45034167977517,-1.3695795302322,-6.9717911183849,0.91296052470528,-2.1038182910779,-3.4271322722182,1.2030379011567,3.6575388893645,-3.9201351756783,197.89154904627,197.89154904627,197.89154904627,197.89154904627,197.89154904627,197.89154904627,197.89154904627,197.89154904627,197.89154904627,197.89154904627,197.89154904627,197.89154904627,197.89154904627,197.89154904627,197.89154904627,197.89154904627,197.89154904627,197.89154904627,197.89154904627,197.89154904627,197.89154904627,197.89154904627,197.89154904627,197.89154904627,197.89154904627,197.89154904627,197.89154904627,197.89154904627,197.89154904627,197.89154904627,197.89154904627,197.89154904627,197.89154904627,197.89154904627,197.89154904627,197.89154904627,197.89154904627,197.89154904627,197.89154904627,197.89154904627,197.89154904627,197.89154904627,197.89154904627,197.89154904627,197.89154904627,197.89154904627,197.89154904627,197.89154904627,230.57672379608,387.59833486123,-0.3726054090627,344.24780678303,-0.38104319507394,0
0.0002028125,562969167.51035,1.7995271670014e-05,6.0081320405639e-05,2.5463204467214e-05,1.0186080257777,0,0,0,0,0,0,0,0,0,0,0,0,0,0,0,0,0,0,0,0,0,0,0,0,0,0,0,0,0,0,0,0,0,0,0,0,0,0,0,0,0,0,0,0,0,0,0,0,-0.96665378841201,-0.27302407854258,-0.6005456044079,5.3014118356834,3.0405997411545,1.2063188210584,-3.3719060953694,1.6197345262887,2.7644332316425,-0.49115616903529,1.7544109972968,-5.3917183280427,1.4309591251958,-1.5697186590534,1.6090104177186,-4.3569111703871,2.1305739082285,4.7683691829207,-0.99454511499517,-4.6675479403118,1.7027860969941,1.6920464941686,0.064315913945024,-4.0534797154493,3.0227135705113,-2.0528267248651,1.1225958575433,1.1381668006364,-1.8017871983707,1.2349141591955,1.4504327243648,-0.32861729814226,0.81002944247445,-4.274428207646,-1.9300497880991,-3.4851835468415,5.2792592052289,-2.7988520238258,3.150644444167,-0.4501945415052,-1.3690583263565,-6.971600369071,0.91380777339917,-2.1030214741505,-3.4268722880789,1.2039940380928,3.655902009043,-3.9184389576215,198.13109015237,198.13109015237,198.13109015237,198.13109015237,198.13109015237,198.13109015237,198.13109015237,198.13109015237,198.13109015237,198.13109015237,198.13109015237,198.13109015237,198.13109015237,198.13109015237,198.13109015237,198.13109015237,198.13109015237,198.13109015237,198.13109015237,198.13109015237,198.13109015237,198.13109015237,198.13109015237,198.13109015237,198.13109015237,198.13109015237,198.13109015237,198.13109015237,198.13109015237,198.13109015237,198.13109015237,198.13109015237,198.13109015237,198.13109015237,198.13109015237,198.13109015237,198.13109015237,198.13109015237,198.13109015237,198.13109015237,198.13109015237,198.13109015237,198.13109015237,198.13109015237,198.13109015237,198.13109015237,198.13109015237,198.13109015237,230.56972250341,388.09899941378,-0.37448292052813,344.67691930528,-0.38293455778421,0
0.0002034375,565547022.81548,1.8049527121825e-05,6.026654203434e-05,2.5542065045958e-05,1.0186681852291,0,0,0,0,0,0,0,0,0,0,0,0,0,0,0,0,0,0,0,0,0,0,0,0,0,0,0,0,0,0,0,0,0,0,0,0,0,0,0,0,0,0,0,0,0,0,0,0,-0.96677165111417,-0.2719397182076,-0.59780795473375,5.300694689148,3.0404490111094,1.2055527318722,-3.3712427182145,1.6195860281979,2.7644092785277,-0.49122200634887,1.7552583155651,-5.3920359557857,1.4312533733434,-1.5688183843873,1.6100921529948,-4.3570929073508,2.1298909502819,4.7673433404857,-0.99473597338625,-4.6664791982014,1.7039354493698,1.6926439065195,0.063982233827725,-4.0528599041913,3.0237553079575,-2.0543198443221,1.1231896835549,1.1375801516622,-1.8016294201994,1.2344908099673,1.4501608404042,-0.32879666724089,0.81004924742585,-4.2736631074779,-1.9289431624842,-3.4843632673173,5.2799538689969,-2.7988456608852,3.1504737347879,-0.45004758851292,-1.3685403949549,-6.9714057111122,0.91464753467207,-2.1022270673064,-3.4266143851755,1.2049471237683,3.654270906312,-3.9167454750716,198.37061394842,198.37061394842,198.37061394842,198.37061394842,198.37061394842,198.37061394842,198.37061394842,198.37061394842,198.37061394842,198.37061394842,198.37061394842,198.37061394842,198.37061394842,198.37061394842,198.37061394842,198.37061394842,198.37061394842,198.37061394842,198.37061394842,198.37061394842,198.37061394842,198.37061394842,198.37061394842,198.37061394842,198.37061394842,198.37061394842,198.37061394842,198.37061394842,198.37061394842,198.37061394842,198.37061394842,198.37061394842,198.37061394842,198.37061394842,198.37061394842,198.37061394842,198.37061394842,198.37061394842,198.37061394842,198.37061394842,198.37061394842,198.37061394842,198.37061394842,198.37061394842,198.37061394842,198.37061394842,198.37061394842,198.37061394842,230.56267611029,388.59955798798,-0.37636436932594,345.10596524963,-0.38482981891093,0
0.0002040625,568129933.08313,1.8103766661436e-05,6.0451763814374e-05,2.5620924391939e-05,1.0187283437358,0,0,0,0,0,0,0,0,0,0,0,0,0,0,0,0,0,0,0,0,0,0,0,0,0,0,0,0,0,0,0,0,0,0,0,0,0,0,0,0,0,0,0,0,0,0,0,0,-0.96688898132591,-0.27085938319964,-0.59508956684491,5.2999838190073,3.0402966759531,1.2047897288731,-3.370578138384,1.6194374663639,2.7643841084471,-0.49128592660866,1.7560999011304,-5.3923499316159,1.4315479650873,-1.5679204393482,1.6111686193568,-4.3572654596519,2.1292072203434,4.7663205632198,-0.99492779511441,-4.6654171816806,1.7050794250397,1.6932428945074,0.063649841257998,-4.0522495939642,3.0247915832319,-2.0558101324885,1.1237790990963,1.1369973659509,-1.8014651467925,1.2340666553391,1.4498866107674,-0.32897249634928,0.8100685899417,-4.272896245247,-1.9278387321769,-3.4835474442412,5.2806453402031,-2.7988319577243,3.1503058738408,-0.44990082818698,-1.3680257189623,-6.97120716581,0.91547988459465,-2.1014354445714,-3.4263585188263,1.2058972290587,3.6526455817416,-3.9150547189532,198.61012038437,198.61012038437,198.61012038437,198.61012038437,198.61012038437,198.61012038437,198.61012038437,198.61012038437,198.61012038437,198.61012038437,198.61012038437,198.61012038437,198.61012038437,198.61012038437,198.61012038437,198.61012038437,198.61012038437,198.61012038437,198.61012038437,198.61012038437,198.61012038437,198.61012038437,198.61012038437,198.61012038437,198.61012038437,198.61012038437,198.61012038437,198.61012038437,198.61012038437,198.61012038437,198.61012038437,198.61012038437,198.61012038437,198.61012038437,198.61012038437,198.61012038437,198.61012038437,198.61012038437,198.61012038437,198.61012038437,198.61012038437,198.61012038437,198.61012038437,198.61012038437,198.61012038437,198.61012038437,198.61012038437,198.61012038437,230.55558444653,389.10001115882,-0.37824975359434,345.53494477052,-0.38672897653844,0
0.0002046875,570717893.28772,1.8157990314851e-05,6.0636985745672e-05,2.5699782535383e-05,1.0187885012979,0,0,0,0,0,0,0,0,0,0,0,0,0,0,0,0,0,0,0,0,0,0,0,0,0,0,0,0,0,0,0,0,0,0,0,0,0,0,0,0,0,0,0,0,0,0,0,0,-0.96700579773456,-0.26978304108832,-0.59239034444755,5.2992791300519,3.0401427705429,1.2040298229429,-3.369912348576,1.6192888202117,2.7643577316608,-0.49134796816348,1.7569358190172,-5.3926602975995,1.4318428959796,-1.5670248365753,1.6122398279134,-4.3574289097709,2.1285227744995,4.7653008278019,-0.99512052825065,-4.6643618117336,1.7062180158934,1.6938434318879,0.063318738769981,-4.051648698083,3.0258224427349,-2.0572976113695,1.1243641535643,1.1364184170904,-1.8012944822179,1.2336417048176,1.4496100598529,-0.32914482882878,0.81008748993674,-4.2721276665532,-1.9267365187895,-3.4827361750988,5.2813335951018,-2.7988110048091,3.1501408888177,-0.44975426768633,-1.3675142801588,-6.9710047553084,0.91630490095408,-2.1006469712969,-3.4261046430602,1.2068444220321,3.651026036971,-3.9133666809006,198.84960940997,198.84960940997,198.84960940997,198.84960940997,198.84960940997,198.84960940997,198.84960940997,198.84960940997,198.84960940997,198.84960940997,198.84960940997,198.84960940997,198.84960940997,198.84960940997,198.84960940997,198.84960940997,198.84960940997,198.84960940997,198.84960940997,198.84960940997,198.84960940997,198.84960940997,198.84960940997,198.84960940997,198.84960940997,198.84960940997,198.84960940997,198.84960940997,198.84960940997,198.84960940997,198.84960940997,198.84960940997,198.84960940997,198.84960940997,198.84960940997,198.84960940997,198.84960940997,198.84960940997,198.84960940997,198.84960940997,198.84960940997,198.84960940997,198.84960940997,198.84960940997,198.84960940997,198.84960940997,198.84960940997,198.84960940997,230.54844733916,389.60035950455,-0.38013907150996,345.9638580214,-0.38863202878081,0
0.0002053125,573310898.42086,1.8212198108009e-05,6.0822207828166e-05,2.5778639505835e-05,1.0188486579156,0,0,0,0,0,0,0,0,0,0,0,0,0,0,0,0,0,0,0,0,0,0,0,0,0,0,0,0,0,0,0,0,0,0,0,0,0,0,0,0,0,0,0,0,0,0,0,0,-0.96712211785875,-0.26871065853057,-0.58971019329609,5.2985805280628,3.0399873286408,1.2032730249587,-3.3692453430269,1.6191400661999,2.7643301590858,-0.49140816749742,1.7577661346395,-5.3929670947715,1.4321381610625,-1.5661315875813,1.6133057907003,-4.3575833396169,2.1278376684732,4.7642841074375,-0.99531412078468,-4.6633130103325,1.7073512091478,1.6944454926024,0.062988931614646,-4.0510571333132,3.0268479338178,-2.058782302545,1.1249448969642,1.1358432779187,-1.801117532232,1.2332159668722,1.4493312126585,-0.32931370627501,0.81010596751423,-4.2713574158259,-1.9256365441285,-3.4819295503695,5.2820186101211,-2.7987828927529,3.1499788039829,-0.44960791390346,-1.3670060591456,-6.970798502453,0.91712266304728,-2.0998620019588,-3.4258527108055,1.207788767758,3.6494122745106,-3.9116813531179,199.08908097482,199.08908097482,199.08908097482,199.08908097482,199.08908097482,199.08908097482,199.08908097482,199.08908097482,199.08908097482,199.08908097482,199.08908097482,199.08908097482,199.08908097482,199.08908097482,199.08908097482,199.08908097482,199.08908097482,199.08908097482,199.08908097482,199.08908097482,199.08908097482,199.08908097482,199.08908097482,199.08908097482,199.08908097482,199.08908097482,199.08908097482,199.08908097482,199.08908097482,199.08908097482,199.08908097482,199.08908097482,199.08908097482,199.08908097482,199.08908097482,199.08908097482,199.08908097482,199.08908097482,199.08908097482,199.08908097482,199.08908097482,199.08908097482,199.08908097482,199.08908097482,199.08908097482,199.08908097482,199.08908097482,199.08908097482,230.5412646161,390.10060360636,-0.38203232128963,346.39270515478,-0.39053897381172,0
0.0002059375,575908943.49203,1.8266390066812e-05,6.1007430061787e-05,2.5857495332517e-05,1.0189088135888,0,0,0,0,0,0,0,0,0,0,0,0,0,0,0,0,0,0,0,0,0,0,0,0,0,0,0,0,0,0,0,0,0,0,0,0,0,0,0,0,0,0,0,0,0,0,0,0,-0.96723795796456,-0.26764220133104,-0.58704902077024,5.2978879199197,3.0398303828698,1.2025193457393,-3.3685771175301,1.6189911780916,2.764301402295,-0.49146655935579,1.7585909136173,-5.393270363122,1.4324337548959,-1.5652407025151,1.6143665207503,-4.3577288304217,2.1271519574167,4.7632703720017,-0.99550852069655,-4.6622707005303,1.7084789877376,1.6950490508049,0.06266042749699,-4.0504748197843,3.0278681045533,-2.0602642271871,1.125521379821,1.1352719206736,-1.8009344037927,1.2327894490206,1.4490500947863,-0.329479168605,0.81012404285739,-4.270585536202,-1.9245388299698,-3.4811276527935,5.2827003620102,-2.7987477120933,3.1498196402498,-0.44946177338905,-1.3665010353541,-6.9705884307101,0.91793325147474,-2.0990808781064,-3.4256026740751,1.2087303281077,3.6478042975089,-3.9099987282709,199.32853502838,199.32853502838,199.32853502838,199.32853502838,199.32853502838,199.32853502838,199.32853502838,199.32853502838,199.32853502838,199.32853502838,199.32853502838,199.32853502838,199.32853502838,199.32853502838,199.32853502838,199.32853502838,199.32853502838,199.32853502838,199.32853502838,199.32853502838,199.32853502838,199.32853502838,199.32853502838,199.32853502838,199.32853502838,199.32853502838,199.32853502838,199.32853502838,199.32853502838,199.32853502838,199.32853502838,199.32853502838,199.32853502838,199.32853502838,199.32853502838,199.32853502838,199.32853502838,199.32853502838,199.32853502838,199.32853502838,199.32853502838,199.32853502838,199.32853502838,199.32853502838,199.32853502838,199.32853502838,199.32853502838,199.32853502838,230.53403611006,390.60074404818,-0.38392950116837,346.82148632224,-0.39244980983245,0
0.0002065625,578512023.52929,1.8320566217131e-05,6.1192652446459e-05,2.5936350044077e-05,1.0189689683178,0,0,0,0,0,0,0,0,0,0,0,0,0,0,0,0,0,0,0,0,0,0,0,0,0,0,0,0,0,0,0,0,0,0,0,0,0,0,0,0,0,0,0,0,0,0,0,0,-0.967353332996,-0.26657763449927,-0.58440673547616,5.2972012136755,3.0396719646806,1.2017687959863,-3.3679076694733,1.6188421272325,2.7642714734127,-0.49152317686527,1.7594102216084,-5.393570141562,1.4327296715914,-1.5643521900359,1.615422032202,-4.357865462625,2.1264656957365,4.7622595882308,-0.99570367600286,-4.6612348065842,1.7096013307176,1.6956540808354,0.06233323632453,-4.0499016808666,3.0288830035286,-2.0617434060815,1.1260936530923,1.1347043171256,-1.8007452045959,1.2323621579245,1.4487667323611,-0.32964125414398,0.81014173612998,-4.2698120693986,-1.9234433978329,-3.480330556863,5.2833788280289,-2.7987055530655,3.1496634151185,-0.44931585232208,-1.3659991870428,-6.9703745640561,0.9187367479502,-2.0983039265726,-3.4253544841396,1.2096691616059,3.6462021095885,-3.908318799348,199.56797151995,199.56797151995,199.56797151995,199.56797151995,199.56797151995,199.56797151995,199.56797151995,199.56797151995,199.56797151995,199.56797151995,199.56797151995,199.56797151995,199.56797151995,199.56797151995,199.56797151995,199.56797151995,199.56797151995,199.56797151995,199.56797151995,199.56797151995,199.56797151995,199.56797151995,199.56797151995,199.56797151995,199.56797151995,199.56797151995,199.56797151995,199.56797151995,199.56797151995,199.56797151995,199.56797151995,199.56797151995,199.56797151995,199.56797151995,199.56797151995,199.56797151995,199.56797151995,199.56797151995,199.56797151995,199.56797151995,199.56797151995,199.56797151995,199.56797151995,199.56797151995,199.56797151995,199.56797151995,199.56797151995,199.56797151995,230.52676166209,391.10078141623,-0.38583060943217,347.25020167432,-0.39436453510518,0
0.0002071875,581120133.58006,1.8374726584835e-05,6.1377874982107e-05,2.6015203668752e-05,1.0190291221028,0,0,0,0,0,0,0,0,0,0,0,0,0,0,0,0,0,0,0,0,0,0,0,0,0,0,0,0,0,0,0,0,0,0,0,0,0,0,0,0,0,0,0,0,0,0,0,0,-0.96746825651636,-0.26551692232152,-0.58178324683634,5.2965203186448,3.0395121043278,1.2010213862353,-3.3672369979017,1.6186928828329,2.7642403851097,-0.49157805165105,1.7602241241476,-5.3938664678991,1.4330259048376,-1.5634660571592,1.6164723403801,-4.3579933157758,2.1257789369211,4.7612517199126,-0.99589953482205,-4.6602052540784,1.710718213685,1.6962605572463,0.062007369957021,-4.0493376430289,3.0298926796521,-2.0632198596284,1.1266617680785,1.1341404387251,-1.8005500426757,1.2319340994778,1.4484811520368,-0.32979999971543,0.81015906737819,-4.2690370556077,-1.9223502687885,-3.4795383283507,5.2840539861187,-2.7986565054097,3.149510142635,-0.44917015646275,-1.3655004913024,-6.9701569268641,0.91953323508085,-2.0975314578836,-3.4251080917383,1.2106053232954,3.6446057146522,-3.906641559541,199.80739039869,199.80739039869,199.80739039869,199.80739039869,199.80739039869,199.80739039869,199.80739039869,199.80739039869,199.80739039869,199.80739039869,199.80739039869,199.80739039869,199.80739039869,199.80739039869,199.80739039869,199.80739039869,199.80739039869,199.80739039869,199.80739039869,199.80739039869,199.80739039869,199.80739039869,199.80739039869,199.80739039869,199.80739039869,199.80739039869,199.80739039869,199.80739039869,199.80739039869,199.80739039869,199.80739039869,199.80739039869,199.80739039869,199.80739039869,199.80739039869,199.80739039869,199.80739039869,199.80739039869,199.80739039869,199.80739039869,199.80739039869,199.80739039869,199.80739039869,199.80739039869,199.80739039869,199.80739039869,199.80739039869,199.80739039869,230.51944112457,391.60071629868,-0.38773564437785,347.67885136064,-0.39628314790478,0
0.0002078125,583733268.71194,1.8428871195781e-05,6.1563097668647e-05,2.6094056234203e-05,1.0190892749438,0,0,0,0,0,0,0,0,0,0,0,0,0,0,0,0,0,0,0,0,0,0,0,0,0,0,0,0,0,0,0,0,0,0,0,0,0,0,0,0,0,0,0,0,0,0,0,0,-0.96758274065841,-0.26446002842088,-0.57917846469646,5.2958451454739,3.0393508308491,1.2002771268068,-3.3665651035025,1.6185434122502,2.7642081505193,-0.49163121395729,1.7610326864745,-5.3941593788484,1.4333224479397,-1.5625823091586,1.6175174618836,-4.3581124684437,2.1250917333718,4.7602467280926,-0.9960960454248,-4.6591819699935,1.7118296092033,1.6968684547841,0.061682841952552,-4.048782635729,3.0308971819344,-2.0646936078878,1.1272257763312,1.1335802567331,-1.8003490259763,1.2315052789006,1.4481933809238,-0.32995544073068,0.81017605643669,-4.2682605334117,-1.9212594632544,-3.4787510240142,5.2847258150744,-2.7986006581625,3.1493598333637,-0.44902469111317,-1.3650049240668,-6.9699355438309,0.92032279617386,-2.0967637649248,-3.4248634472525,1.2115388646457,3.6430151167059,-3.9049670021394,200.04679161365,200.04679161365,200.04679161365,200.04679161365,200.04679161365,200.04679161365,200.04679161365,200.04679161365,200.04679161365,200.04679161365,200.04679161365,200.04679161365,200.04679161365,200.04679161365,200.04679161365,200.04679161365,200.04679161365,200.04679161365,200.04679161365,200.04679161365,200.04679161365,200.04679161365,200.04679161365,200.04679161365,200.04679161365,200.04679161365,200.04679161365,200.04679161365,200.04679161365,200.04679161365,200.04679161365,200.04679161365,200.04679161365,200.04679161365,200.04679161365,200.04679161365,200.04679161365,200.04679161365,200.04679161365,200.04679161365,200.04679161365,200.04679161365,200.04679161365,200.04679161365,200.04679161365,200.04679161365,200.04679161365,200.04679161365,230.51207436423,392.10054928518,-0.38964460436895,348.10743552978,-0.39820564657931,0
0.0002084375,586351424.01365,1.848300007589e-05,6.1748320505993e-05,2.6172907767953e-05,1.0191494268411,0,0,0,0,0,0,0,0,0,0,0,0,0,0,0,0,0,0,0,0,0,0,0,0,0,0,0,0,0,0,0,0,0,0,0,0,0,0,0,0,0,0,0,0,0,0,0,0,-0.96769679608332,-0.2634069158119,-0.57659229897484,5.29517560622,3.0391881720429,1.1995360277634,-3.3658919886834,1.6183936812689,2.7641747833145,-0.49168269274944,1.7618359734029,-5.3944489099597,1.4336192938412,-1.5617009494942,1.6185574146623,-4.3582229981146,2.1244041363077,4.7592445712725,-0.99629315628796,-4.6581648828325,1.7129354872291,1.697477748469,0.061359667336581,-4.0482365912558,3.0318965593491,-2.0661646705334,1.1277857295586,1.1330237423532,-1.8001422620423,1.2310757008249,1.4479034466777,-0.33010761127072,0.81019272284275,-4.2674825396689,-1.9201710008245,-3.4779686913855,5.2853942947028,-2.7985380994758,3.149212494463,-0.44887946109348,-1.3645124601128,-6.9697104398384,0.92110551504253,-2.0960011218427,-3.4246205009094,1.2124698335047,3.6414303196885,-3.9032951203983,200.28617511376,200.28617511376,200.28617511376,200.28617511376,200.28617511376,200.28617511376,200.28617511376,200.28617511376,200.28617511376,200.28617511376,200.28617511376,200.28617511376,200.28617511376,200.28617511376,200.28617511376,200.28617511376,200.28617511376,200.28617511376,200.28617511376,200.28617511376,200.28617511376,200.28617511376,200.28617511376,200.28617511376,200.28617511376,200.28617511376,200.28617511376,200.28617511376,200.28617511376,200.28617511376,200.28617511376,200.28617511376,200.28617511376,200.28617511376,200.28617511376,200.28617511376,200.28617511376,200.28617511376,200.28617511376,200.28617511376,200.28617511376,200.28617511376,200.28617511376,200.28617511376,200.28617511376,200.28617511376,200.28617511376,200.28617511376,230.50466126476,392.60028096641,-0.39155748777354,348.53595432936,-0.40013202949979,0
0.0002090625,588974594.59593,1.8537113251061e-05,6.193354349405e-05,2.6251758296827e-05,1.0192095777948,0,0,0,0,0,0,0,0,0,0,0,0,0,0,0,0,0,0,0,0,0,0,0,0,0,0,0,0,0,0,0,0,0,0,0,0,0,0,0,0,0,0,0,0,0,0,0,0,-0.9678104319561,-0.26235754697445,-0.57402465925379,5.2945116144208,3.039024154479,1.1987980988654,-3.3652176575754,1.6182436543794,2.7641402974152,-0.49173251582259,1.7626340491532,-5.3947350956933,1.4339164351697,-1.5608219797934,1.6195922180688,-4.3583249811527,2.1237161955897,4.7582452056669,-0.99649081614448,-4.6571539226994,1.7140358155496,1.6980884134371,0.061037862366616,-4.047699444618,3.0328908605974,-2.0676330669346,1.1283416795431,1.1324708668545,-1.799929857681,1.2306453693804,1.4476113772437,-0.33025654417157,0.81020908575374,-4.2667031094855,-1.9190849000867,-3.4771913687,5.2860594059709,-2.7984689164404,3.1490681296429,-0.44873447073692,-1.3640230730974,-6.9694816399384,0.92188147582304,-2.0952437831742,-3.424379202973,1.2133982740264,3.6398513273415,-3.901625907467,200.5255408479,200.5255408479,200.5255408479,200.5255408479,200.5255408479,200.5255408479,200.5255408479,200.5255408479,200.5255408479,200.5255408479,200.5255408479,200.5255408479,200.5255408479,200.5255408479,200.5255408479,200.5255408479,200.5255408479,200.5255408479,200.5255408479,200.5255408479,200.5255408479,200.5255408479,200.5255408479,200.5255408479,200.5255408479,200.5255408479,200.5255408479,200.5255408479,200.5255408479,200.5255408479,200.5255408479,200.5255408479,200.5255408479,200.5255408479,200.5255408479,200.5255408479,200.5255408479,200.5255408479,200.5255408479,200.5255408479,200.5255408479,200.5255408479,200.5255408479,200.5255408479,200.5255408479,200.5255408479,200.5255408479,200.5255408479,230.49720172909,393.09991193354,-0.39347429299077,348.96440790594,-0.40206229507134,0
0.0002096875,591602775.59244,1.8591210747318e-05,6.211876663272e-05,2.6330607847679e-05,1.0192697278051,0,0,0,0,0,0,0,0,0,0,0,0,0,0,0,0,0,0,0,0,0,0,0,0,0,0,0,0,0,0,0,0,0,0,0,0,0,0,0,0,0,0,0,0,0,0,0,0,-0.96792365592312,-0.26131188390133,-0.57147545450817,5.2938530851216,3.0388588034873,1.1980633495495,-3.3645421160237,1.6180932950467,2.7641047072761,-0.4917807098974,1.7634269772343,-5.395017969356,1.4342138642558,-1.5599453997676,1.6206218929225,-4.3584184926713,2.1230279596554,4.7572485854038,-0.99668897400849,-4.6561490213342,1.715130560199,1.6987004251601,0.060717444316886,-4.0471711333717,3.0338801340019,-2.0690988161217,1.1288936780504,1.1319216016911,-1.7997119186795,1.2302142882758,1.4473172011144,-0.33040227110622,0.81022516386909,-4.2659222761276,-1.9180011784781,-3.4764190848496,5.286721131129,-2.7983931949112,3.1489267393112,-0.44858972383183,-1.3635367355529,-6.9692491691719,0.92265076277764,-2.0944919832137,-3.4241395039134,1.214324226703,3.6382781430532,-3.8999593562432,200.76488876486,200.76488876486,200.76488876486,200.76488876486,200.76488876486,200.76488876486,200.76488876486,200.76488876486,200.76488876486,200.76488876486,200.76488876486,200.76488876486,200.76488876486,200.76488876486,200.76488876486,200.76488876486,200.76488876486,200.76488876486,200.76488876486,200.76488876486,200.76488876486,200.76488876486,200.76488876486,200.76488876486,200.76488876486,200.76488876486,200.76488876486,200.76488876486,200.76488876486,200.76488876486,200.76488876486,200.76488876486,200.76488876486,200.76488876486,200.76488876486,200.76488876486,200.76488876486,200.76488876486,200.76488876486,200.76488876486,200.76488876486,200.76488876486,200.76488876486,200.76488876486,200.76488876486,200.76488876486,200.76488876486,200.76488876486,230.48969568101,393.59944277778,-0.3953950184658,349.39279640504,-0.40399644175337,0
0.0002103125,594235962.1608,1.8645292590721e-05,6.2303989921896e-05,2.6409456446709e-05,1.0193298768722,0,0,0,0,0,0,0,0,0,0,0,0,0,0,0,0,0,0,0,0,0,0,0,0,0,0,0,0,0,0,0,0,0,0,0,0,0,0,0,0,0,0,0,0,0,0,0,0,-0.96803647411082,-0.2602698881624,-0.56894459273623,5.2931999349848,3.0386921431765,1.1973317888935,-3.3638653716616,1.6179425659759,2.7640680274923,-0.49182730070802,1.7642148203178,-5.3952975631532,1.4345115731789,-1.5590712073022,1.6216464615533,-4.3585036065366,2.1223394754025,4.7562546627831,-0.99688757923561,-4.6551501122499,1.7162196858859,1.6993137592188,0.060398431268381,-4.0466515975084,3.0348644273228,-2.0705619368206,1.129441776748,1.131375918615,-1.7994885495999,1.2297824608786,1.4470209469975,-0.33054482265443,0.81024097537008,-4.2651400710039,-1.9169198521393,-3.475651859566,5.28737945387,-2.7983110193775,3.1487883205998,-0.44844522366262,-1.3630534189325,-6.9690130525822,0.92341346014843,-2.0937459356117,-3.4239013546201,1.2152477283483,3.6367107697441,-3.8982954593405,201.0042188134,201.0042188134,201.0042188134,201.0042188134,201.0042188134,201.0042188134,201.0042188134,201.0042188134,201.0042188134,201.0042188134,201.0042188134,201.0042188134,201.0042188134,201.0042188134,201.0042188134,201.0042188134,201.0042188134,201.0042188134,201.0042188134,201.0042188134,201.0042188134,201.0042188134,201.0042188134,201.0042188134,201.0042188134,201.0042188134,201.0042188134,201.0042188134,201.0042188134,201.0042188134,201.0042188134,201.0042188134,201.0042188134,201.0042188134,201.0042188134,201.0042188134,201.0042188134,201.0042188134,201.0042188134,201.0042188134,201.0042188134,201.0042188134,201.0042188134,201.0042188134,201.0042188134,201.0042188134,201.0042188134,201.0042188134,230.48214306713,394.09887408977,-0.39731966264658,349.82111997113,-0.40593446802587,0
0.0002109375,596874149.48349,1.8699358807414e-05,6.2489213361461e-05,2.6488304120005e-05,1.0193900249961,0,0,0,0,0,0,0,0,0,0,0,0,0,0,0,0,0,0,0,0,0,0,0,0,0,0,0,0,0,0,0,0,0,0,0,0,0,0,0,0,0,0,0,0,0,0,0,0,-0.96814889112345,-0.25923152096502,-0.56643198071419,5.2925520822879,3.0385241964525,1.1966034255991,-3.3631874338367,1.6177914293601,2.7640302729817,-0.49187231308801,1.7649976401102,-5.3955739081923,1.4348095537891,-1.5581993984052,1.6226659478178,-4.3585803952855,2.1216507881186,4.7552633885056,-0.99708658153617,-4.6541571306985,1.7173031563912,1.699928391444,0.060080841913345,-4.0461407793346,3.0358437876226,-2.0720224474668,1.1299860271278,1.1308337897752,-1.7992598535387,1.2293498902833,1.4467226439735,-0.33068422837668,0.81025653784745,-4.2643565236336,-1.9158409357906,-3.4748897035225,5.2880343593908,-2.7982224728072,3.1486528675011,-0.44830097296072,-1.3625730936286,-6.9687733151267,0.92416965197328,-2.0930058331522,-3.4236647065438,1.2161688121624,3.635149209747,-3.8966342089758,201.24353094228,201.24353094228,201.24353094228,201.24353094228,201.24353094228,201.24353094228,201.24353094228,201.24353094228,201.24353094228,201.24353094228,201.24353094228,201.24353094228,201.24353094228,201.24353094228,201.24353094228,201.24353094228,201.24353094228,201.24353094228,201.24353094228,201.24353094228,201.24353094228,201.24353094228,201.24353094228,201.24353094228,201.24353094228,201.24353094228,201.24353094228,201.24353094228,201.24353094228,201.24353094228,201.24353094228,201.24353094228,201.24353094228,201.24353094228,201.24353094228,201.24353094228,201.24353094228,201.24353094228,201.24353094228,201.24353094228,201.24353094228,201.24353094228,201.24353094228,201.24353094228,201.24353094228,201.24353094228,201.24353094228,201.24353094228,230.47454385787,394.5982064591,-0.39924822402805,350.24937874761,-0.40787637241419,0
0.0002115625,599517332.76876,1.875340942368e-05,6.2674436951296e-05,2.656715089353e-05,1.0194501721773,0,0,0,0,0,0,0,0,0,0,0,0,0,0,0,0,0,0,0,0,0,0,0,0,0,0,0,0,0,0,0,0,0,0,0,0,0,0,0,0,0,0,0,0,0,0,0,0,-0.96826091006015,-0.25819674319452,-0.56393752372699,5.2919094469893,3.038354985027,1.19587826798,-3.3625083136604,1.6176398471223,2.7639914589403,-0.49191577104509,1.7657754972738,-5.3958470344824,1.4351077977437,-1.5573299672779,1.6236803771427,-4.3586489300759,2.120961941433,4.7542747119049,-0.9972859310163,-4.6531700137597,1.7183809349659,1.7005442979138,0.0597646953753,-4.0456386233105,3.0368182611676,-2.0734803661909,1.1305264804235,1.1302951878185,-1.7990259320051,1.2289165793818,1.4464223214692,-0.33082051688097,0.81027186825944,-4.2635716616278,-1.9147644426155,-3.4741326186314,5.2886858345188,-2.7981276365277,3.1485203710029,-0.44815697391606,-1.3620957289987,-6.968529981578,0.92491942194372,-2.0922718477717,-3.4234295118713,1.217087507801,3.6335934647166,-3.8949755969143,201.48282510026,201.48282510026,201.48282510026,201.48282510026,201.48282510026,201.48282510026,201.48282510026,201.48282510026,201.48282510026,201.48282510026,201.48282510026,201.48282510026,201.48282510026,201.48282510026,201.48282510026,201.48282510026,201.48282510026,201.48282510026,201.48282510026,201.48282510026,201.48282510026,201.48282510026,201.48282510026,201.48282510026,201.48282510026,201.48282510026,201.48282510026,201.48282510026,201.48282510026,201.48282510026,201.48282510026,201.48282510026,201.48282510026,201.48282510026,201.48282510026,201.48282510026,201.48282510026,201.48282510026,201.48282510026,201.48282510026,201.48282510026,201.48282510026,201.48282510026,201.48282510026,201.48282510026,201.48282510026,201.48282510026,201.48282510026,230.46689804852,395.09744047377,-0.40118070112654,350.67757287675,-0.40982215347713,0
0.0002121875,602165507.25165,1.8807444465861e-05,6.2859660691265e-05,2.6645996792712e-05,1.0195103184157,0,0,0,0,0,0,0,0,0,0,0,0,0,0,0,0,0,0,0,0,0,0,0,0,0,0,0,0,0,0,0,0,0,0,0,0,0,0,0,0,0,0,0,0,0,0,0,0,-0.96837253253789,-0.25716551548755,-0.56146112533381,5.2912719507562,3.0381845294636,1.19515632395,-3.3618280240002,1.617487781146,2.7639516005129,-0.49195769782753,1.7665484513069,-5.3961169710026,1.4354062965392,-1.5564629064214,1.6246897765098,-4.358709280704,2.1202729772314,4.7532885811975,-0.99748557818767,-4.65218870038,1.7194529847075,1.7011614547662,0.059450011039627,-4.0451450759639,3.0377878932754,-2.0749357108762,1.1310631875458,1.1297600859717,-1.7987868847805,1.2284825309244,1.4461200089743,-0.33095371587982,0.81028698287568,-4.2627855107089,-1.9136903841735,-3.4733805984047,5.2893338677883,-2.7980265901274,3.148390819161,-0.4480132282053,-1.3616212934206,-6.9682830765667,0.92566285326878,-2.0915441307145,-3.4231957237084,1.2180038414337,3.6320435355418,-3.8933196144187,201.72210123615,201.72210123615,201.72210123615,201.72210123615,201.72210123615,201.72210123615,201.72210123615,201.72210123615,201.72210123615,201.72210123615,201.72210123615,201.72210123615,201.72210123615,201.72210123615,201.72210123615,201.72210123615,201.72210123615,201.72210123615,201.72210123615,201.72210123615,201.72210123615,201.72210123615,201.72210123615,201.72210123615,201.72210123615,201.72210123615,201.72210123615,201.72210123615,201.72210123615,201.72210123615,201.72210123615,201.72210123615,201.72210123615,201.72210123615,201.72210123615,201.72210123615,201.72210123615,201.72210123615,201.72210123615,201.72210123615,201.72210123615,201.72210123615,201.72210123615,201.72210123615,201.72210123615,201.72210123615,201.72210123615,201.72210123615,230.45920565995,395.59657671959,-0.40311709245524,351.10570249972,-0.4117718097795,0
0.0002128125,604818668.19475,1.8861463960442e-05,6.304488458123e-05,2.6724841843075e-05,1.0195704637116,0,0,0,0,0,0,0,0,0,0,0,0,0,0,0,0,0,0,0,0,0,0,0,0,0,0,0,0,0,0,0,0,0,0,0,0,0,0,0,0,0,0,0,0,0,0,0,0,-0.9684837587197,-0.25613779825809,-0.55900268719684,5.2906395169901,3.0380128492002,1.1944376010211,-3.3611465794175,1.617335193481,2.7639107132075,-0.4919981159907,1.7673165604861,-5.3963837456777,1.4357050415319,-1.5555982066253,1.6256941744844,-4.3587615155188,2.1195839356946,4.7523049436942,-0.99768547399748,-4.6512131313334,1.7205192689129,1.7017798384816,0.059136808393123,-4.044660085736,3.0387527282652,-2.0763884991086,1.131596199014,1.1292284581196,-1.7985428098222,1.2280477475734,1.4458157364009,-0.33108385225217,0.81030189724266,-4.2619980947064,-1.912618770311,-3.4726336282607,5.2899784495041,-2.7979194113471,3.1482641973623,-0.44786973694874,-1.3611497542981,-6.9680326244319,0.92640002854627,-2.0908228128835,-3.4229632961988,1.2189178359036,3.6304994222488,-3.8916662521865,201.96135929883,201.96135929883,201.96135929883,201.96135929883,201.96135929883,201.96135929883,201.96135929883,201.96135929883,201.96135929883,201.96135929883,201.96135929883,201.96135929883,201.96135929883,201.96135929883,201.96135929883,201.96135929883,201.96135929883,201.96135929883,201.96135929883,201.96135929883,201.96135929883,201.96135929883,201.96135929883,201.96135929883,201.96135929883,201.96135929883,201.96135929883,201.96135929883,201.96135929883,201.96135929883,201.96135929883,201.96135929883,201.96135929883,201.96135929883,201.96135929883,201.96135929883,201.96135929883,201.96135929883,201.96135929883,201.96135929883,201.96135929883,201.96135929883,201.96135929883,201.96135929883,201.96135929883,201.96135929883,201.96135929883,201.96135929883,230.45146673853,396.09561577977,-0.40505739659588,351.53376775656,-0.41372533995863,0
0.0002134375,607476810.88916,1.8915467933999e-05,6.3230108621041e-05,2.6803686069503e-05,1.0196306080652,0,0,0,0,0,0,0,0,0,0,0,0,0,0,0,0,0,0,0,0,0,0,0,0,0,0,0,0,0,0,0,0,0,0,0,0,0,0,0,0,0,0,0,0,0,0,0,0,-0.96859458736172,-0.25511355175584,-0.55656210890355,5.2900120708514,3.0378399625881,1.1937221063102,-3.3604639962565,1.6171820465498,2.7638688125026,-0.49203704744458,1.7680798817947,-5.396647385426,1.4360040239712,-1.554735857164,1.6266936011961,-4.3588057014128,2.1188948552241,4.7513237460303,-0.99788556982868,-4.6502432493444,1.7215797514182,1.7023994256608,0.058825106892868,-4.0441836028196,3.0397128093638,-2.0778387482148,1.1321255648938,1.1287002788772,-1.7982938032586,1.227612231958,1.4455095337524,-0.33121095209348,0.81031662615526,-4.2612094355841,-1.9115496091074,-3.4718916860463,5.2906195718226,-2.7978061760052,3.1481404883944,-0.44772650078342,-1.3606810781194,-6.9677786491707,0.92713102964586,-2.0901080053239,-3.4227321847045,1.2198295108106,3.6289611239588,-3.8900155003115,202.20059923727,202.20059923727,202.20059923727,202.20059923727,202.20059923727,202.20059923727,202.20059923727,202.20059923727,202.20059923727,202.20059923727,202.20059923727,202.20059923727,202.20059923727,202.20059923727,202.20059923727,202.20059923727,202.20059923727,202.20059923727,202.20059923727,202.20059923727,202.20059923727,202.20059923727,202.20059923727,202.20059923727,202.20059923727,202.20059923727,202.20059923727,202.20059923727,202.20059923727,202.20059923727,202.20059923727,202.20059923727,202.20059923727,202.20059923727,202.20059923727,202.20059923727,202.20059923727,202.20059923727,202.20059923727,202.20059923727,202.20059923727,202.20059923727,202.20059923727,202.20059923727,202.20059923727,202.20059923727,202.20059923727,202.20059923727,230.44368135709,396.59455823434,-0.4070016120892,351.96176878615,-0.41568274264273,0
0.0002140625,610139930.65521,1.8969456413273e-05,6.3415332810538e-05,2.6882529497084e-05,1.0196907514767,0,0,0,0,0,0,0,0,0,0,0,0,0,0,0,0,0,0,0,0,0,0,0,0,0,0,0,0,0,0,0,0,0,0,0,0,0,0,0,0,0,0,0,0,0,0,0,0,-0.968705015852,-0.25409273612092,-0.55413928782058,5.2893895392803,3.0376658869417,1.1930098465423,-3.3597802924473,1.6170283033228,2.7638259139785,-0.49207451351059,1.7688384708508,-5.3969079162302,1.4363032350258,-1.5538758457845,1.6276880882923,-4.3588419038653,2.11820577246,4.7503449343904,-0.99808581752115,-4.6492789989224,1.7226343969131,1.7030201931097,0.058514925828733,-4.0437155791772,3.040668178616,-2.0792864752784,1.1326513347452,1.1281755236468,-1.7980399592563,1.227175986712,1.445201431233,-0.33133504076121,0.81033118362385,-4.2604195535014,-1.9104829068008,-3.471154742411,5.2912572287103,-2.7976869579236,3.1480196726717,-0.44758351980766,-1.3602152305003,-6.9675211745538,0.92785593759226,-2.0893997998194,-3.4225023458727,1.2207388826804,3.6274286388245,-3.8883673482774,202.43982100056,202.43982100056,202.43982100056,202.43982100056,202.43982100056,202.43982100056,202.43982100056,202.43982100056,202.43982100056,202.43982100056,202.43982100056,202.43982100056,202.43982100056,202.43982100056,202.43982100056,202.43982100056,202.43982100056,202.43982100056,202.43982100056,202.43982100056,202.43982100056,202.43982100056,202.43982100056,202.43982100056,202.43982100056,202.43982100056,202.43982100056,202.43982100056,202.43982100056,202.43982100056,202.43982100056,202.43982100056,202.43982100056,202.43982100056,202.43982100056,202.43982100056,202.43982100056,202.43982100056,202.43982100056,202.43982100056,202.43982100056,202.43982100056,202.43982100056,202.43982100056,202.43982100056,202.43982100056,202.43982100056,202.43982100056,230.43584961407,397.09340465967,-0.40894973754706,352.38970572617,-0.41764401650478,0
0.0002146875,612808022.84326,1.9023429425105e-05,6.3600557149552e-05,2.6961372150389e-05,1.0197508939463,0,0,0,0,0,0,0,0,0,0,0,0,0,0,0,0,0,0,0,0,0,0,0,0,0,0,0,0,0,0,0,0,0,0,0,0,0,0,0,0,0,0,0,0,0,0,0,0,-0.96881504027139,-0.25307531140943,-0.5517341190099,5.288771850997,3.0374906385764,1.1923008280706,-3.3590954876236,1.6168739274921,2.7637820331915,-0.49211053495484,1.769592381871,-5.3971653631328,1.4366026658083,-1.5530181589086,1.6286776689404,-4.3588701868998,2.1175167222851,4.749368454703,-0.99828616936334,-4.648320326495,1.7236831712331,1.7036421177849,0.058206284217366,-4.0432559683314,3.0416188768568,-2.0807316971237,1.1331735575689,1.127654168674,-1.7977813701062,1.2267390145177,1.4448914591464,-0.33145614291555,0.81034558286146,-4.2596284668373,-1.9094186677717,-3.4704227613841,5.291891416053,-2.7975618288857,3.1479017283789,-0.44744079365626,-1.3597521762248,-6.9672602239783,0.92857483249547,-2.0886982696217,-3.4222737378164,1.2216459651005,3.6259019639856,-3.8867217849195,202.67902453796,202.67902453796,202.67902453796,202.67902453796,202.67902453796,202.67902453796,202.67902453796,202.67902453796,202.67902453796,202.67902453796,202.67902453796,202.67902453796,202.67902453796,202.67902453796,202.67902453796,202.67902453796,202.67902453796,202.67902453796,202.67902453796,202.67902453796,202.67902453796,202.67902453796,202.67902453796,202.67902453796,202.67902453796,202.67902453796,202.67902453796,202.67902453796,202.67902453796,202.67902453796,202.67902453796,202.67902453796,202.67902453796,202.67902453796,202.67902453796,202.67902453796,202.67902453796,202.67902453796,202.67902453796,202.67902453796,202.67902453796,202.67902453796,202.67902453796,202.67902453796,202.67902453796,202.67902453796,202.67902453796,202.67902453796,230.42797163349,397.59215562805,-0.41090177155979,352.81757871314,-0.41960916023704,0
0.0002153125,615481082.83439,1.9077386996541e-05,6.3785781637904e-05,2.7040214054424e-05,1.0198110354742,0,0,0,0,0,0,0,0,0,0,0,0,0,0,0,0,0,0,0,0,0,0,0,0,0,0,0,0,0,0,0,0,0,0,0,0,0,0,0,0,0,0,0,0,0,0,0,0,-0.96892465544887,-0.25206123765123,-0.54934649513063,5.2881589365115,3.0373142328659,1.1915950568825,-3.3584096029788,1.6167188836175,2.7637371856911,-0.49214513202755,1.7703416676229,-5.3974197503081,1.4369023073947,-1.5521627816989,1.6296623777712,-4.3588906131109,2.1168277378239,4.74839425285,-0.99848657810615,-4.6473671802923,1.7247260416249,1.7042651768142,0.05789920069922,-4.042804725317,3.0425649436433,-2.0821744303395,1.1336922817666,1.1271361910841,-1.7975181261736,1.2263013181361,1.4445796479056,-0.33157428255967,0.81035983626839,-4.2588361922641,-1.9083568944992,-3.4696957008686,5.2925221316124,-2.7974308585809,3.1477866316606,-0.44729832148078,-1.3592918792881,-6.9669958205169,0.92928779343726,-2.0880034702654,-3.422046320184,1.2225507688966,3.6243810955387,-3.8850787984248,202.91820979888,202.91820979888,202.91820979888,202.91820979888,202.91820979888,202.91820979888,202.91820979888,202.91820979888,202.91820979888,202.91820979888,202.91820979888,202.91820979888,202.91820979888,202.91820979888,202.91820979888,202.91820979888,202.91820979888,202.91820979888,202.91820979888,202.91820979888,202.91820979888,202.91820979888,202.91820979888,202.91820979888,202.91820979888,202.91820979888,202.91820979888,202.91820979888,202.91820979888,202.91820979888,202.91820979888,202.91820979888,202.91820979888,202.91820979888,202.91820979888,202.91820979888,202.91820979888,202.91820979888,202.91820979888,202.91820979888,202.91820979888,202.91820979888,202.91820979888,202.91820979888,202.91820979888,202.91820979888,202.91820979888,202.91820979888,230.4200475644,398.09081170717,-0.41285771276496,353.24538788232,-0.4215781725562,0
0.0002159375,618159106.04098,1.9131329154745e-05,6.3971006275403e-05,2.7119055234063e-05,1.0198711760606,0,0,0,0,0,0,0,0,0,0,0,0,0,0,0,0,0,0,0,0,0,0,0,0,0,0,0,0,0,0,0,0,0,0,0,0,0,0,0,0,0,0,0,0,0,0,0,0,-0.96903385503241,-0.25105047487329,-0.54697630640866,5.2875507281273,3.0371366842841,1.1908925386372,-3.3577226612637,1.6165631372679,2.7636913869804,-0.49217832449566,1.7710863794042,-5.3976711010951,1.4372021508536,-1.5513096981917,1.6306422508223,-4.358903243654,2.1161388504825,4.747422274843,-0.99868699694635,-4.6464195103652,1.7257629769903,1.7048893474843,0.057593693447539,-4.0423618065626,3.0435064172437,-2.0836146912709,1.1342075550931,1.1266215689272,-1.7972503159546,1.2258629004403,1.444266028002,-0.33168948307331,0.81037395542747,-4.2580427448115,-1.90729758756,-3.4689735131636,5.2931493750227,-2.7972941145789,3.1476743567986,-0.44715610199026,-1.3588343029575,-6.9667279868591,0.92999489842229,-2.0873154404323,-3.4218200542557,1.2234533022994,3.6228660285046,-3.8834383763255,203.15737673296,203.15737673296,203.15737673296,203.15737673296,203.15737673296,203.15737673296,203.15737673296,203.15737673296,203.15737673296,203.15737673296,203.15737673296,203.15737673296,203.15737673296,203.15737673296,203.15737673296,203.15737673296,203.15737673296,203.15737673296,203.15737673296,203.15737673296,203.15737673296,203.15737673296,203.15737673296,203.15737673296,203.15737673296,203.15737673296,203.15737673296,203.15737673296,203.15737673296,203.15737673296,203.15737673296,203.15737673296,203.15737673296,203.15737673296,203.15737673296,203.15737673296,203.15737673296,203.15737673296,203.15737673296,203.15737673296,203.15737673296,203.15737673296,203.15737673296,203.15737673296,203.15737673296,203.15737673296,203.15737673296,203.15737673296,230.41207758012,398.58937345976,-0.41481755978197,353.67313336779,-0.42355105219249,0
0.0002165625,620842087.90732,1.9185255927009e-05,6.415623106185e-05,2.7197895713494e-05,1.0199313157056,0,0,0,0,0,0,0,0,0,0,0,0,0,0,0,0,0,0,0,0,0,0,0,0,0,0,0,0,0,0,0,0,0,0,0,0,0,0,0,0,0,0,0,0,0,0,0,0,-0.9691426315536,-0.25004298313984,-0.54462344060154,5.2869471599296,3.0369580064628,1.1901932786711,-3.3570346867653,1.6164066551345,2.7636446524696,-0.49221013166137,1.7718265670273,-5.3979194380212,1.4375021872582,-1.5504588914575,1.6316173255077,-4.3589081382779,2.1154500899988,4.7464524669968,-0.99888737953376,-4.645477268581,1.7267939481085,1.7055146072182,0.057289780100167,-4.0419271697871,3.0444433346197,-2.0850524960196,1.1347194246307,1.1261102811921,-1.7969780261459,1.2254237644249,1.4439506299702,-0.33180176724289,0.81038795110478,-4.2572481379201,-1.9062407456206,-3.468256145577,5.293773147819,-2.797151662316,3.1475648764252,-0.44701413348165,-1.3583794098074,-6.9664567453135,0.93069622431522,-2.0866342029363,-3.4215949030706,1.2243535711384,3.6213567568079,-3.8818005055049,203.39652529003,203.39652529003,203.39652529003,203.39652529003,203.39652529003,203.39652529003,203.39652529003,203.39652529003,203.39652529003,203.39652529003,203.39652529003,203.39652529003,203.39652529003,203.39652529003,203.39652529003,203.39652529003,203.39652529003,203.39652529003,203.39652529003,203.39652529003,203.39652529003,203.39652529003,203.39652529003,203.39652529003,203.39652529003,203.39652529003,203.39652529003,203.39652529003,203.39652529003,203.39652529003,203.39652529003,203.39652529003,203.39652529003,203.39652529003,203.39652529003,203.39652529003,203.39652529003,203.39652529003,203.39652529003,203.39652529003,203.39652529003,203.39652529003,203.39652529003,203.39652529003,203.39652529003,203.39652529003,203.39652529003,203.39652529003,230.40406187742,399.08784144321,-0.41678131125968,354.10081530232,-0.4255277979079,0
0.0002171875,623530023.91007,1.9239167340803e-05,6.4341455997034e-05,2.7276735517445e-05,1.0199914544095,0,0,0,0,0,0,0,0,0,0,0,0,0,0,0,0,0,0,0,0,0,0,0,0,0,0,0,0,0,0,0,0,0,0,0,0,0,0,0,0,0,0,0,0,0,0,0,0,-0.96925097650194,-0.24903872258695,-0.54228778300837,5.2863481677759,3.0367782122423,1.189497282041,-3.3563457051513,1.6162494051423,2.7635969974808,-0.49224057238891,1.7725622787926,-5.3981647828984,1.43780240771,-1.5496103436523,1.6325876405224,-4.3589053553466,2.1147614844381,4.7454847760901,-0.99908767995053,-4.644540408496,1.7278189278229,1.7061409335954,0.056987477689441,-4.0415007739767,3.0453757313944,-2.0864878604704,1.1352279367563,1.1256023078368,-1.7967013416279,1.2249839132428,1.443633484376,-0.33191115728445,0.81040183324803,-4.2564523835577,-1.9051863654431,-3.4675435408777,5.294393453335,-2.7970035650761,3.1474581616443,-0.44687241382718,-1.3579271617829,-6.9661821178458,0.93139184677743,-2.085959765656,-3.4213708314222,1.2252515790083,3.6198532732708,-3.8801651722044,203.63565542021,203.63565542021,203.63565542021,203.63565542021,203.63565542021,203.63565542021,203.63565542021,203.63565542021,203.63565542021,203.63565542021,203.63565542021,203.63565542021,203.63565542021,203.63565542021,203.63565542021,203.63565542021,203.63565542021,203.63565542021,203.63565542021,203.63565542021,203.63565542021,203.63565542021,203.63565542021,203.63565542021,203.63565542021,203.63565542021,203.63565542021,203.63565542021,203.63565542021,203.63565542021,203.63565542021,203.63565542021,203.63565542021,203.63565542021,203.63565542021,203.63565542021,203.63565542021,203.63565542021,203.63565542021,203.63565542021,203.63565542021,203.63565542021,203.63565542021,203.63565542021,203.63565542021,203.63565542021,203.63565542021,203.63565542021,230.39600067552,399.58621620917,-0.41874896583813,354.52843381745,-0.42750840846489,0
0.0002178125,626222909.55867,1.9293063423685e-05,6.4526681080733e-05,2.7355574669952e-05,1.0200515921724,0,0,0,0,0,0,0,0,0,0,0,0,0,0,0,0,0,0,0,0,0,0,0,0,0,0,0,0,0,0,0,0,0,0,0,0,0,0,0,0,0,0,0,0,0,0,0,0,-0.96935888040278,-0.2480376534592,-0.53996921648712,5.2857536892953,3.036597313731,1.1888045535464,-3.3556557434778,1.6160913565351,2.7635484371953,-0.49226966511822,1.7732935614995,-5.3984071568332,1.4381028033548,-1.5487640362185,1.6335532357851,-4.3588949518766,2.1140730602705,4.7445191495212,-0.99928785271477,-4.6436088853776,1.7288378912199,1.7067683043124,0.056686802593241,-4.0410825792708,3.0463036418741,-2.0879208002706,1.1357331371211,1.1250976297954,-1.7964203455839,1.2245433502008,1.4433146217831,-0.33201767487064,0.81041561100001,-4.2556554922761,-1.9041344419082,-3.4668356379368,5.2950102967076,-2.7968498840049,3.147354182264,-0.44673094053779,-1.3574775202494,-6.9659041260699,0.93208184022299,-2.0852921225974,-3.4211478059816,1.2261473274845,3.6183555696072,-3.8785323620666,203.87476707387,203.87476707387,203.87476707387,203.87476707387,203.87476707387,203.87476707387,203.87476707387,203.87476707387,203.87476707387,203.87476707387,203.87476707387,203.87476707387,203.87476707387,203.87476707387,203.87476707387,203.87476707387,203.87476707387,203.87476707387,203.87476707387,203.87476707387,203.87476707387,203.87476707387,203.87476707387,203.87476707387,203.87476707387,203.87476707387,203.87476707387,203.87476707387,203.87476707387,203.87476707387,203.87476707387,203.87476707387,203.87476707387,203.87476707387,203.87476707387,203.87476707387,203.87476707387,203.87476707387,203.87476707387,203.87476707387,203.87476707387,203.87476707387,203.87476707387,203.87476707387,203.87476707387,203.87476707387,203.87476707387,203.87476707387,230.38789421502,400.08449830326,-0.42072052217498,354.95598904344,-0.42949288264257,0
0.0002184375,628920740.39571,1.9346944203383e-05,6.4711906312715e-05,2.7434413195211e-05,1.0201117289946,0,0,0,0,0,0,0,0,0,0,0,0,0,0,0,0,0,0,0,0,0,0,0,0,0,0,0,0,0,0,0,0,0,0,0,0,0,0,0,0,0,0,0,0,0,0,0,0,-0.9694663328931,-0.24703973612148,-0.53766762149854,5.2851636638566,3.036415322352,1.1881150977611,-3.3549648300927,1.6159324799559,2.7634989866577,-0.49229742787771,1.7740204604425,-5.3986465802786,1.4384033653996,-1.5479199499651,1.6345141523615,-4.3588769835505,2.1133848424141,4.7435555354318,-0.99948785275253,-4.6426826561292,1.7298508157728,1.7073966972016,0.05638777049128,-4.0406725468907,3.0472270990447,-2.089351330834,1.1362350706263,1.1245962289801,-1.7961351195438,1.2241020787841,1.4429940727513,-0.33212134114904,0.81042929270708,-4.2548574733064,-1.9030849680399,-3.4661323722053,5.2956236848085,-2.7966906781132,3.1472529069371,-0.44658971076598,-1.357030446047,-6.9656227912297,0.93276627780022,-2.0846312548992,-3.4209257953046,1.2270408162951,3.6168636364191,-3.8769020601257,204.11386020167,204.11386020167,204.11386020167,204.11386020167,204.11386020167,204.11386020167,204.11386020167,204.11386020167,204.11386020167,204.11386020167,204.11386020167,204.11386020167,204.11386020167,204.11386020167,204.11386020167,204.11386020167,204.11386020167,204.11386020167,204.11386020167,204.11386020167,204.11386020167,204.11386020167,204.11386020167,204.11386020167,204.11386020167,204.11386020167,204.11386020167,204.11386020167,204.11386020167,204.11386020167,204.11386020167,204.11386020167,204.11386020167,204.11386020167,204.11386020167,204.11386020167,204.11386020167,204.11386020167,204.11386020167,204.11386020167,204.11386020167,204.11386020167,204.11386020167,204.11386020167,204.11386020167,204.11386020167,204.11386020167,204.11386020167,230.37974275689,400.58268826478,-0.42269597893733,355.38348110922,-0.43148121925568,0
0.0002190625,631623511.99718,1.9400809707735e-05,6.4897131692736e-05,2.7513251117303e-05,1.0201718648763,0,0,0,0,0,0,0,0,0,0,0,0,0,0,0,0,0,0,0,0,0,0,0,0,0,0,0,0,0,0,0,0,0,0,0,0,0,0,0,0,0,0,0,0,0,0,0,0,-0.96957332280067,-0.24604493110768,-0.53538287617848,5.2845780325446,3.0362322489054,1.1874289190714,-3.3542729945168,1.6157727475066,2.7634486607377,-0.49232387829536,1.774743019422,-5.3988830731055,1.4387040851242,-1.5470780651991,1.6354704323665,-4.3588515047869,2.1126968542663,4.7425938828383,-0.99968763539156,-4.6417616791917,1.7308576814648,1.7080260902088,0.05609039633194,-4.0402706391298,3.0481461345898,-2.0907794673614,1.1367337814154,1.1240980882847,-1.7958457434309,1.2236601026533,1.4426718677936,-0.33222217675882,0.8104428859362,-4.2540583346632,-1.9020379350394,-3.4654336762634,5.2962336261634,-2.7965260043013,3.1471543033222,-0.4464487213288,-1.3565858995496,-6.9653381342959,0.93344523133893,-2.0839771318743,-3.4207047698757,1.2279320435189,3.6153774632059,-3.8752742508637,204.35293475461,204.35293475461,204.35293475461,204.35293475461,204.35293475461,204.35293475461,204.35293475461,204.35293475461,204.35293475461,204.35293475461,204.35293475461,204.35293475461,204.35293475461,204.35293475461,204.35293475461,204.35293475461,204.35293475461,204.35293475461,204.35293475461,204.35293475461,204.35293475461,204.35293475461,204.35293475461,204.35293475461,204.35293475461,204.35293475461,204.35293475461,204.35293475461,204.35293475461,204.35293475461,204.35293475461,204.35293475461,204.35293475461,204.35293475461,204.35293475461,204.35293475461,204.35293475461,204.35293475461,204.35293475461,204.35293475461,204.35293475461,204.35293475461,204.35293475461,204.35293475461,204.35293475461,204.35293475461,204.35293475461,204.35293475461,230.37154658099,401.08078662641,-0.42467533479006,355.81091014243,-0.43347341710209,0
0.0002196875,634331219.97267,1.9454659964742e-05,6.5082357220542e-05,2.7592088460726e-05,1.0202319998175,0,0,0,0,0,0,0,0,0,0,0,0,0,0,0,0,0,0,0,0,0,0,0,0,0,0,0,0,0,0,0,0,0,0,0,0,0,0,0,0,0,0,0,0,0,0,0,0,-0.96967983822435,-0.24505319913016,-0.53311485640428,5.283996738154,3.0360481036135,1.1867460217044,-3.3535802674064,1.6156121328014,2.7633974741373,-0.49234903360462,1.7754612807602,-5.3991166546393,1.4390049538981,-1.5462383618411,1.6364221188845,-4.3588185687417,2.112009117768,4.7416341417307,-0.99988715634304,-4.6408459145414,1.7318584708961,1.7086564614024,0.055794694309389,-4.039876819228,3.0490607789095,-2.0922052248324,1.1372293128588,1.1236031915698,-1.7955522956512,1.2232174256551,1.4423480373848,-0.33232020184802,0.8104563974931,-4.2532580832317,-1.9009933323297,-3.4647394803212,5.2968401308899,-2.7963559173798,3.1470583382449,-0.44630796873632,-1.3561438407213,-6.9650501758881,0.9341187713412,-2.0833297120485,-3.4204847021222,1.2288210057782,3.6138970383748,-3.8736489182292,204.59199068399,204.59199068399,204.59199068399,204.59199068399,204.59199068399,204.59199068399,204.59199068399,204.59199068399,204.59199068399,204.59199068399,204.59199068399,204.59199068399,204.59199068399,204.59199068399,204.59199068399,204.59199068399,204.59199068399,204.59199068399,204.59199068399,204.59199068399,204.59199068399,204.59199068399,204.59199068399,204.59199068399,204.59199068399,204.59199068399,204.59199068399,204.59199068399,204.59199068399,204.59199068399,204.59199068399,204.59199068399,204.59199068399,204.59199068399,204.59199068399,204.59199068399,204.59199068399,204.59199068399,204.59199068399,204.59199068399,204.59199068399,204.59199068399,204.59199068399,204.59199068399,204.59199068399,204.59199068399,204.59199068399,204.59199068399,230.363305985,401.57879391403,-0.42665858841494,356.23827626938,-0.43546947500724,0
0.0002203125,637043859.9655,1.9508495002492e-05,6.5267582895867e-05,2.7670925249413e-05,1.0202921338187,0,0,0,0,0,0,0,0,0,0,0,0,0,0,0,0,0,0,0,0,0,0,0,0,0,0,0,0,0,0,0,0,0,0,0,0,0,0,0,0,0,0,0,0,0,0,0,0,-0.96978586661403,-0.24406450109853,-0.53086343591043,5.2834197251358,3.0358628961793,1.186066409761,-3.352886680479,1.6154506109995,2.7633454413573,-0.49237291064687,1.7761752853282,-5.3993473436799,1.4393059631912,-1.5454008195694,1.6373692558963,-4.3587782273715,2.1113216535059,4.7406762631715,-1.0000863716908,-4.639935323619,1.73285316936,1.7092877889493,0.055500677848014,-4.0394910513279,3.0499710611663,-2.0936286179926,1.1377217075519,1.1231115236474,-1.7952548531767,1.2227740518125,1.4420226119385,-0.33241543608649,0.81046983344567,-4.2524567248471,-1.8999511476122,-3.4640497127428,5.2974432106498,-2.7961804701196,3.1469649779004,-0.44616744923173,-1.3557042291623,-6.9647589363269,0.93478696699377,-2.0826889441838,-3.4202655664624,1.2297076984459,3.6124223492483,-3.8720260456822,204.83102794149,204.83102794149,204.83102794149,204.83102794149,204.83102794149,204.83102794149,204.83102794149,204.83102794149,204.83102794149,204.83102794149,204.83102794149,204.83102794149,204.83102794149,204.83102794149,204.83102794149,204.83102794149,204.83102794149,204.83102794149,204.83102794149,204.83102794149,204.83102794149,204.83102794149,204.83102794149,204.83102794149,204.83102794149,204.83102794149,204.83102794149,204.83102794149,204.83102794149,204.83102794149,204.83102794149,204.83102794149,204.83102794149,204.83102794149,204.83102794149,204.83102794149,204.83102794149,204.83102794149,204.83102794149,204.83102794149,204.83102794149,204.83102794149,204.83102794149,204.83102794149,204.83102794149,204.83102794149,204.83102794149,204.83102794149,230.35502128301,402.07671064648,-0.42864573846345,356.66557961506,-0.43746939179813,0
0.0002209375,639761427.65278,1.9562314849224e-05,6.5452808718436e-05,2.774976150778e-05,1.0203522668798,0,0,0,0,0,0,0,0,0,0,0,0,0,0,0,0,0,0,0,0,0,0,0,0,0,0,0,0,0,0,0,0,0,0,0,0,0,0,0,0,0,0,0,0,0,0,0,0,-0.96989139484941,-0.243078798158,-0.52862848638211,5.2828469395949,3.0356766358294,1.1853900872575,-3.3521922663396,1.6152881588378,2.7632925767131,-0.4923955258801,1.7768850725647,-5.3995751586047,1.439607104585,-1.5445654178787,1.6383118881429,-4.3587305314775,2.1106344806752,4.7397201993793,-1.0002852378611,-4.6390298692109,1.7338417649112,1.7099200511478,0.055208359589467,-4.039113300467,3.0508770093034,-2.0950496613859,1.1382110073067,1.122623070263,-1.7949534915421,1.2223299853335,1.4416956217908,-0.3325078986777,0.81048319914467,-4.2516542644276,-1.8989113669085,-3.4633643004679,5.2980428784832,-2.7959997132771,3.1468741878941,-0.44602715878204,-1.3552670241855,-6.9644644356852,0.935449886106,-2.0820547682574,-3.4200473392383,1.2305921158011,3.6109533820914,-3.8704056162186,205.07004647913,205.07004647913,205.07004647913,205.07004647913,205.07004647913,205.07004647913,205.07004647913,205.07004647913,205.07004647913,205.07004647913,205.07004647913,205.07004647913,205.07004647913,205.07004647913,205.07004647913,205.07004647913,205.07004647913,205.07004647913,205.07004647913,205.07004647913,205.07004647913,205.07004647913,205.07004647913,205.07004647913,205.07004647913,205.07004647913,205.07004647913,205.07004647913,205.07004647913,205.07004647913,205.07004647913,205.07004647913,205.07004647913,205.07004647913,205.07004647913,205.07004647913,205.07004647913,205.07004647913,205.07004647913,205.07004647913,205.07004647913,205.07004647913,205.07004647913,205.07004647913,205.07004647913,205.07004647913,205.07004647913,205.07004647913,230.34669280419,402.57453733542,-0.43063678363147,357.09282030307,-0.43947316631565,0
0.0002215625,642483918.74536,1.961611953327e-05,6.5638034687962e-05,2.7828597259988e-05,1.0204123990011,0,0,0,0,0,0,0,0,0,0,0,0,0,0,0,0,0,0,0,0,0,0,0,0,0,0,0,0,0,0,0,0,0,0,0,0,0,0,0,0,0,0,0,0,0,0,0,0,-0.9699964093168,-0.2420960516866,-0.52640987757152,5.2822783292443,3.0354893313729,1.1847170581459,-3.3514970584776,1.6151247546439,2.7632388942905,-0.49241689537342,1.777590680503,-5.3998001173567,1.4399083697796,-1.5437321362369,1.6392500610716,-4.3586755307558,2.1099476172366,4.7387659037965,-1.0004837116241,-4.6381295154505,1.7348242484076,1.7105532263708,0.054917751397809,-4.0387435324845,3.0517786500784,-2.0964683693241,1.1386972531625,1.1221378180597,-1.7946482849738,1.2218852305992,1.4413670971912,-0.33259760836986,0.81049649924793,-4.2508507060302,-1.8978739746307,-3.4626831695125,5.2986391488001,-2.7958136956543,3.1467859334791,-0.44588709313541,-1.3548321848555,-6.9641666937867,0.93610759516604,-2.0814271164572,-3.4198299987735,1.2314742512476,3.6094901221292,-3.8687876124409,205.30904624932,205.30904624932,205.30904624932,205.30904624932,205.30904624932,205.30904624932,205.30904624932,205.30904624932,205.30904624932,205.30904624932,205.30904624932,205.30904624932,205.30904624932,205.30904624932,205.30904624932,205.30904624932,205.30904624932,205.30904624932,205.30904624932,205.30904624932,205.30904624932,205.30904624932,205.30904624932,205.30904624932,205.30904624932,205.30904624932,205.30904624932,205.30904624932,205.30904624932,205.30904624932,205.30904624932,205.30904624932,205.30904624932,205.30904624932,205.30904624932,205.30904624932,205.30904624932,205.30904624932,205.30904624932,205.30904624932,205.30904624932,205.30904624932,205.30904624932,205.30904624932,205.30904624932,205.30904624932,205.30904624932,205.30904624932,230.33832089152,403.07227448519,-0.43263172256707,357.5199984557,-0.44148079739165,0
0.0002221875,645211328.98777,1.9669909083049e-05,6.5823260804145e-05,2.7907432530176e-05,1.0204725301828,0,0,0,0,0,0,0,0,0,0,0,0,0,0,0,0,0,0,0,0,0,0,0,0,0,0,0,0,0,0,0,0,0,0,0,0,0,0,0,0,0,0,0,0,0,0,0,0,-0.97010089598792,-0.24111622332533,-0.52420747744809,5.2817138433614,3.0353009912405,1.1840473263575,-3.3508010910819,1.6149603783451,2.7631844079524,-0.49243703481258,1.7782921458152,-5.4000222375361,1.4402097506109,-1.5429009541433,1.6401838207058,-4.3586132738469,2.109261079905,4.7378133311467,-1.0006817500548,-4.6372342276766,1.735800613537,1.7111872930928,0.054628864353084,-4.0383817140211,3.0526760091297,-2.0978847559216,1.1391804853822,1.1216557545501,-1.7943393063728,1.2214397921606,1.4410370682837,-0.33268458346362,0.81050973775154,-4.2500460529787,-1.8968389536419,-3.4620062453534,5.2992320372287,-2.7956224641441,3.1467001796135,-0.44574724781679,-1.3543996700664,-6.9638657302617,0.93676015930508,-2.0808059140936,-3.4196135253176,1.2323540974779,3.6080325535597,-3.8671720165697,205.54802720488,205.54802720488,205.54802720488,205.54802720488,205.54802720488,205.54802720488,205.54802720488,205.54802720488,205.54802720488,205.54802720488,205.54802720488,205.54802720488,205.54802720488,205.54802720488,205.54802720488,205.54802720488,205.54802720488,205.54802720488,205.54802720488,205.54802720488,205.54802720488,205.54802720488,205.54802720488,205.54802720488,205.54802720488,205.54802720488,205.54802720488,205.54802720488,205.54802720488,205.54802720488,205.54802720488,205.54802720488,205.54802720488,205.54802720488,205.54802720488,205.54802720488,205.54802720488,205.54802720488,205.54802720488,205.54802720488,205.54802720488,205.54802720488,205.54802720488,205.54802720488,205.54802720488,205.54802720488,205.54802720488,205.54802720488,230.32990590041,403.56992259268,-0.43463055395232,357.94711419387,-0.44349228388083,0
0.0002228125,647943654.15808,1.9723683527066e-05,6.6008487066677e-05,2.7986267342448e-05,1.0205326604251,0,0,0,0,0,0,0,0,0,0,0,0,0,0,0,0,0,0,0,0,0,0,0,0,0,0,0,0,0,0,0,0,0,0,0,0,0,0,0,0,0,0,0,0,0,0,0,0,-0.97020484049355,-0.24013927498852,-0.5220211523115,5.2811534327652,3.0351116235395,1.1833808958216,-3.3501043989919,1.6147950114675,2.7631291313678,-0.49245595949552,1.7789895038341,-5.4002415364239,1.4405112390508,-1.5420718512176,1.6411132135621,-4.3585438083785,2.1085748842169,4.7368624374926,-1.0008793105333,-4.6363439724176,1.7367708568288,1.7118222299132,0.05434170877042,-4.0380278124362,3.0535691109922,-2.0992988350833,1.1396607434652,1.12117686807,-1.7940266273978,1.2209936747346,1.4407055651254,-0.3327688418228,0.81052291801242,-4.2492403079452,-1.8958062853251,-3.4613334533171,5.29982156052,-2.7954260637896,3.1466168910807,-0.4456076181543,-1.3539694385809,-6.963561564535,0.9374076423093,-2.0801910805119,-3.4193979010066,1.2332316466492,3.6065806596015,-3.8655588104991,205.786989299,205.786989299,205.786989299,205.786989299,205.786989299,205.786989299,205.786989299,205.786989299,205.786989299,205.786989299,205.786989299,205.786989299,205.786989299,205.786989299,205.786989299,205.786989299,205.786989299,205.786989299,205.786989299,205.786989299,205.786989299,205.786989299,205.786989299,205.786989299,205.786989299,205.786989299,205.786989299,205.786989299,205.786989299,205.786989299,205.786989299,205.786989299,205.786989299,205.786989299,205.786989299,205.786989299,205.786989299,205.786989299,205.786989299,205.786989299,205.786989299,205.786989299,205.786989299,205.786989299,205.786989299,205.786989299,205.786989299,205.786989299,230.32144819736,404.06748214728,-0.43663327645821,358.3741676371,-0.44550762463335,0
0.0002234375,650680890.06768,1.9777442893914e-05,6.6193713475241e-05,2.8065101720922e-05,1.0205927897281,0,0,0,0,0,0,0,0,0,0,0,0,0,0,0,0,0,0,0,0,0,0,0,0,0,0,0,0,0,0,0,0,0,0,0,0,0,0,0,0,0,0,0,0,0,0,0,0,-0.97030822819779,-0.23916516886678,-0.51985076694549,5.2805970497765,3.0349212360802,1.1827177704973,-3.3494070176377,1.6146286371266,2.7630730779639,-0.49247368433159,1.7796827886075,-5.40045803098,1.4408128272168,-1.5412448073595,1.6420382865611,-4.3584671810036,2.1078890446416,4.7359131802495,-1.001076350724,-4.6354587173521,1.7377349776534,1.7124580155023,0.05405629420635,-4.0376817957423,3.0544579791763,-2.100710620474,1.1401380661477,1.1207011477353,-1.7937103185342,1.2205468831902,1.4403726176686,-0.33285040088367,0.81053604278096,-4.2484334730173,-1.8947759496674,-3.460664719036,5.3004077364861,-2.7952245378508,3.1465360326588,-0.44546819933513,-1.3535414490937,-6.9632542158226,0.93805010666075,-2.0795825299729,-3.419183109873,1.2341068905774,3.6051344224958,-3.8639479758475,206.02593248533,206.02593248533,206.02593248533,206.02593248533,206.02593248533,206.02593248533,206.02593248533,206.02593248533,206.02593248533,206.02593248533,206.02593248533,206.02593248533,206.02593248533,206.02593248533,206.02593248533,206.02593248533,206.02593248533,206.02593248533,206.02593248533,206.02593248533,206.02593248533,206.02593248533,206.02593248533,206.02593248533,206.02593248533,206.02593248533,206.02593248533,206.02593248533,206.02593248533,206.02593248533,206.02593248533,206.02593248533,206.02593248533,206.02593248533,206.02593248533,206.02593248533,206.02593248533,206.02593248533,206.02593248533,206.02593248533,206.02593248533,206.02593248533,206.02593248533,206.02593248533,206.02593248533,206.02593248533,206.02593248533,206.02593248533,230.31294815876,404.56495363083,-0.438639888706,358.80115890359,-0.44752681848238,0
0.0002240625,653423032.56098,1.9831187212244e-05,6.6378940029505e-05,2.8143935689769e-05,1.020652918092,0,0,0,0,0,0,0,0,0,0,0,0,0,0,0,0,0,0,0,0,0,0,0,0,0,0,0,0,0,0,0,0,0,0,0,0,0,0,0,0,0,0,0,0,0,0,0,0,-0.97041104426281,-0.23819386745804,-0.51769618476929,5.2800446481835,3.0347298364436,1.1820579544067,-3.3487089827665,1.6144612400077,2.7630162609361,-0.49249022384395,1.7803720329194,-5.400671737993,1.4411145073843,-1.5404198026792,1.6429590868943,-4.3583834375213,2.1072035745415,4.7349655182475,-1.0012728285489,-4.6345784311003,1.7386929781968,1.7130946286304,0.05377262947469,-4.0373436327068,3.0553426361895,-2.1021201256026,1.1406124914314,1.1202285833917,-1.7933904489953,1.2200994225424,1.4400382557289,-0.33292927765674,0.81054911422414,-4.2476255498472,-1.893747925307,-3.4599999686339,5.3009905838231,-2.7950179278633,3.1464575691271,-0.44532898634453,-1.3531156603018,-6.9629437033365,0.93868761350492,-2.0789801724077,-3.4189691377406,1.2349798208877,3.603693823557,-3.8623394940004,206.2648567179,206.2648567179,206.2648567179,206.2648567179,206.2648567179,206.2648567179,206.2648567179,206.2648567179,206.2648567179,206.2648567179,206.2648567179,206.2648567179,206.2648567179,206.2648567179,206.2648567179,206.2648567179,206.2648567179,206.2648567179,206.2648567179,206.2648567179,206.2648567179,206.2648567179,206.2648567179,206.2648567179,206.2648567179,206.2648567179,206.2648567179,206.2648567179,206.2648567179,206.2648567179,206.2648567179,206.2648567179,206.2648567179,206.2648567179,206.2648567179,206.2648567179,206.2648567179,206.2648567179,206.2648567179,206.2648567179,206.2648567179,206.2648567179,206.2648567179,206.2648567179,206.2648567179,206.2648567179,206.2648567179,206.2648567179,230.30440616946,405.06233751755,-0.44065038938261,359.22808811014,-0.44954986429455,0
0.0002246875,656170077.51514,1.9884916510749e-05,6.6564166729124e-05,2.8222769273083e-05,1.020713045517,0,0,0,0,0,0,0,0,0,0,0,0,0,0,0,0,0,0,0,0,0,0,0,0,0,0,0,0,0,0,0,0,0,0,0,0,0,0,0,0,0,0,0,0,0,0,0,0,-0.97051327371743,-0.23722533356538,-0.51555726798965,5.2794961831855,3.0345374320009,1.1814014516519,-3.3480103304181,1.6142928063418,2.7629586932751,-0.49250559216708,1.7810572683324,-5.4008826740765,1.4414162719926,-1.5395968175976,1.6438756619353,-4.3582926228657,2.1065184862492,4.7340194117269,-1.0014687021735,-4.6337030832195,1.7396448634305,1.7137320481902,0.053490722666999,-4.0370132927103,3.0562231035881,-2.1035273637943,1.1410840565851,1.1197591655585,-1.7930670868081,1.2196512979378,1.4397025090063,-0.33300548873935,0.8105621339547,-4.2468165397205,-1.892722189618,-3.4593391290722,5.3015701220177,-2.7948062736968,3.1463814653536,-0.4451899740045,-1.3526920309619,-6.9626300461657,0.93932022269317,-2.0783839142182,-3.4187559721796,1.2358504291599,3.6022588431941,-3.8607333461311,206.50376195119,206.50376195119,206.50376195119,206.50376195119,206.50376195119,206.50376195119,206.50376195119,206.50376195119,206.50376195119,206.50376195119,206.50376195119,206.50376195119,206.50376195119,206.50376195119,206.50376195119,206.50376195119,206.50376195119,206.50376195119,206.50376195119,206.50376195119,206.50376195119,206.50376195119,206.50376195119,206.50376195119,206.50376195119,206.50376195119,206.50376195119,206.50376195119,206.50376195119,206.50376195119,206.50376195119,206.50376195119,206.50376195119,206.50376195119,206.50376195119,206.50376195119,206.50376195119,206.50376195119,206.50376195119,206.50376195119,206.50376195119,206.50376195119,206.50376195119,206.50376195119,206.50376195119,206.50376195119,206.50376195119,206.50376195119,230.29582262193,405.55963427406,-0.4426647771592,359.65495537213,-0.45157676093754,0
0.0002253125,658922020.83964,1.993863081817e-05,6.6749393573749e-05,2.8301602494975e-05,1.0207731720033,0,0,0,0,0,0,0,0,0,0,0,0,0,0,0,0,0,0,0,0,0,0,0,0,0,0,0,0,0,0,0,0,0,0,0,0,0,0,0,0,0,0,0,0,0,0,0,0,-0.97061490152632,-0.23625953028746,-0.51343387773735,5.278951611364,3.0343440299521,1.1807482664264,-3.3473110969518,1.614123323886,2.7629003877299,-0.49251980303939,1.7817385252573,-5.4010908555879,1.441718113643,-1.5387758330651,1.6447880591952,-4.3581947811565,2.1058337911989,4.7330748223455,-1.0016639300123,-4.632832644252,1.7405906410837,1.7143702531359,0.053210581179954,-4.0366907456658,3.057099402065,-2.1049323481116,1.1415527981608,1.1192928853573,-1.7927402989204,1.2192025146507,1.4393654070998,-0.33307905032327,0.81057510306908,-4.2460064435685,-1.8916987188074,-3.4586821286073,5.3021463713354,-2.7945896136431,3.1463076864886,-0.44505115706966,-1.3522705199171,-6.9623132632703,0.93994799282716,-2.0777936590506,-3.4185436025185,1.2367187071445,3.6008294609355,-3.8591295132848,206.74264814013,206.74264814013,206.74264814013,206.74264814013,206.74264814013,206.74264814013,206.74264814013,206.74264814013,206.74264814013,206.74264814013,206.74264814013,206.74264814013,206.74264814013,206.74264814013,206.74264814013,206.74264814013,206.74264814013,206.74264814013,206.74264814013,206.74264814013,206.74264814013,206.74264814013,206.74264814013,206.74264814013,206.74264814013,206.74264814013,206.74264814013,206.74264814013,206.74264814013,206.74264814013,206.74264814013,206.74264814013,206.74264814013,206.74264814013,206.74264814013,206.74264814013,206.74264814013,206.74264814013,206.74264814013,206.74264814013,206.74264814013,206.74264814013,206.74264814013,206.74264814013,206.74264814013,206.74264814013,206.74264814013,206.74264814013,230.28719791453,406.0568443594,-0.44468305066034,360.08176080361,-0.45360750725026,0
0.0002259375,661678858.47586,1.9992330163283e-05,6.6934620563016e-05,2.8380435379615e-05,1.0208332975511,0,0,0,0,0,0,0,0,0,0,0,0,0,0,0,0,0,0,0,0,0,0,0,0,0,0,0,0,0,0,0,0,0,0,0,0,0,0,0,0,0,0,0,0,0,0,0,0,-0.97071591264478,-0.23529642104278,-0.51132587422591,5.2784108906431,3.0341496373715,1.1800984030389,-3.3466113187887,1.6139527818833,2.7628413568341,-0.49253286980992,1.7824158329669,-5.4012962987966,1.4420200251112,-1.537956830442,1.6456963261819,-4.3580899557838,2.1051494998846,4.7321317131974,-1.0018584706942,-4.6319670855333,1.7415303215825,1.715009222532,0.052932211732435,-4.0363759620675,3.0579715514598,-2.106335091455,1.1420187520171,1.1188297344512,-1.7924101510962,1.2187530780676,1.4390269794809,-0.33314997819936,0.81058802216606,-4.2451952621236,-1.8906774879701,-3.4580288968501,5.3027193526333,-2.7943679844757,3.1462361979185,-0.44491253015757,-1.3518510861806,-6.9619933736014,0.94057098125155,-2.0772093084096,-3.4183320197189,1.2375846468653,3.5994056554714,-3.8575279763822,206.98151524008,206.98151524008,206.98151524008,206.98151524008,206.98151524008,206.98151524008,206.98151524008,206.98151524008,206.98151524008,206.98151524008,206.98151524008,206.98151524008,206.98151524008,206.98151524008,206.98151524008,206.98151524008,206.98151524008,206.98151524008,206.98151524008,206.98151524008,206.98151524008,206.98151524008,206.98151524008,206.98151524008,206.98151524008,206.98151524008,206.98151524008,206.98151524008,206.98151524008,206.98151524008,206.98151524008,206.98151524008,206.98151524008,206.98151524008,206.98151524008,206.98151524008,206.98151524008,206.98151524008,206.98151524008,206.98151524008,206.98151524008,206.98151524008,206.98151524008,206.98151524008,206.98151524008,206.98151524008,206.98151524008,206.98151524008,230.27853245072,406.55396822508,-0.44670520851486,360.50850451727,-0.45564210207233,0
0.0002265625,664440586.39662,2.0046014574871e-05,6.7119847696551e-05,2.8459267951097e-05,1.0208934221604,0,0,0,0,0,0,0,0,0,0,0,0,0,0,0,0,0,0,0,0,0,0,0,0,0,0,0,0,0,0,0,0,0,0,0,0,0,0,0,0,0,0,0,0,0,0,0,0,-0.97081629207872,-0.23433596956476,-0.50923311693217,5.2778739802452,3.0339542612313,1.1794518659256,-3.3459110323171,1.6137811710263,2.7627816129178,-0.49254480543431,1.7830892196595,-5.401499019909,1.4423219993551,-1.5371397915606,1.6466005103179,-4.3579781894621,2.1044656219173,4.7311900487954,-1.002052283056,-4.6311063791361,1.7424639179882,1.7156489355605,0.052655620394441,-4.0360689129571,3.0588395708511,-2.1077356065638,1.1424819533355,1.1183697049701,-1.7920767079214,1.2183029936797,1.4386872555025,-0.33321828776545,0.81060089137957,-4.2443829959951,-1.8896584711733,-3.4573793650242,5.3032890872681,-2.7941414215276,3.1461669653535,-0.44477408776342,-1.3514336889891,-6.9616703961324,0.9411892440822,-2.0766307622962,-3.418121216309,1.2384482407876,3.5979874046759,-3.8559287162691,207.22036320685,207.22036320685,207.22036320685,207.22036320685,207.22036320685,207.22036320685,207.22036320685,207.22036320685,207.22036320685,207.22036320685,207.22036320685,207.22036320685,207.22036320685,207.22036320685,207.22036320685,207.22036320685,207.22036320685,207.22036320685,207.22036320685,207.22036320685,207.22036320685,207.22036320685,207.22036320685,207.22036320685,207.22036320685,207.22036320685,207.22036320685,207.22036320685,207.22036320685,207.22036320685,207.22036320685,207.22036320685,207.22036320685,207.22036320685,207.22036320685,207.22036320685,207.22036320685,207.22036320685,207.22036320685,207.22036320685,207.22036320685,207.22036320685,207.22036320685,207.22036320685,207.22036320685,207.22036320685,207.22036320685,207.22036320685,230.26982663787,407.05100631509,-0.44873124938154,360.93518662435,-0.45768054427758,0
0.0002271875,667207200.60567,2.0099684081719e-05,6.730507497397e-05,2.853810023353e-05,1.0209535458316,0,0,0,0,0,0,0,0,0,0,0,0,0,0,0,0,0,0,0,0,0,0,0,0,0,0,0,0,0,0,0,0,0,0,0,0,0,0,0,0,0,0,0,0,0,0,0,0,-0.97091602493742,-0.2333781399134,-0.50715546470474,5.2773408406511,3.0337579084398,1.1788086596541,-3.3452102738242,1.6136084834133,2.7627211680843,-0.49255562247765,1.783758712488,-5.4016990350454,1.4426240295122,-1.536324698793,1.6475006588723,-4.3578595242708,2.1037821660827,4.7302497950787,-1.0022453261406,-4.630250497829,1.7433914459341,1.7162893714873,0.052380812612863,-4.0357695698655,3.0597034785714,-2.1091339059754,1.1429424366392,1.1179127894318,-1.7917400328277,1.2178522670665,1.438346264392,-0.33328399403509,0.81061371040244,-4.2435696457083,-1.8886416415289,-3.4567334661931,5.3038555970293,-2.793909958755,3.146099954883,-0.444635824292,-1.3510182878426,-6.9613443498579,0.94180283624345,-2.0760579198027,-3.4179111863392,1.2393094819589,3.5965746856563,-3.8543317137671,207.4591919967,207.4591919967,207.4591919967,207.4591919967,207.4591919967,207.4591919967,207.4591919967,207.4591919967,207.4591919967,207.4591919967,207.4591919967,207.4591919967,207.4591919967,207.4591919967,207.4591919967,207.4591919967,207.4591919967,207.4591919967,207.4591919967,207.4591919967,207.4591919967,207.4591919967,207.4591919967,207.4591919967,207.4591919967,207.4591919967,207.4591919967,207.4591919967,207.4591919967,207.4591919967,207.4591919967,207.4591919967,207.4591919967,207.4591919967,207.4591919967,207.4591919967,207.4591919967,207.4591919967,207.4591919967,207.4591919967,207.4591919967,207.4591919967,207.4591919967,207.4591919967,207.4591919967,207.4591919967,207.4591919967,207.4591919967,230.2610808864,407.54795906603,-0.45076117188277,361.36180723477,-0.45972283270449,0
0.0002278125,669978697.13712,2.0153338712601e-05,6.7490302394884e-05,2.8616932251036e-05,1.0210136685647,0,0,0,0,0,0,0,0,0,0,0,0,0,0,0,0,0,0,0,0,0,0,0,0,0,0,0,0,0,0,0,0,0,0,0,0,0,0,0,0,0,0,0,0,0,0,0,0,-0.97101509649216,-0.23242289643375,-0.50509277591654,5.2768114335523,3.0335605858557,1.1781687889163,-3.3445090795396,1.6134347125165,2.7626600342244,-0.49256533310863,1.7844243376301,-5.4018963601961,1.4429261089034,-1.5355115351979,1.6483968189127,-4.3577340016706,2.1030991404539,4.7293109193619,-1.0024375591927,-4.6293994151449,1.7443129235631,1.7169305096588,0.052107793242531,-4.0354779046929,3.0605632922959,-2.1105300019899,1.1434002358102,1.1174589806518,-1.7914001881873,1.217400903896,1.4380040352955,-0.33334711164707,0.81062647852298,-4.2427552117321,-1.887626971295,-3.4560911355526,5.3044189041065,-2.7936736288295,3.1460351331079,-0.44449773413598,-1.350604842544,-6.961015253709,0.94241181153186,-2.0754906797003,-3.4177019253393,1.2401683641763,3.5951674747533,-3.8527369496952,207.69800156634,207.69800156634,207.69800156634,207.69800156634,207.69800156634,207.69800156634,207.69800156634,207.69800156634,207.69800156634,207.69800156634,207.69800156634,207.69800156634,207.69800156634,207.69800156634,207.69800156634,207.69800156634,207.69800156634,207.69800156634,207.69800156634,207.69800156634,207.69800156634,207.69800156634,207.69800156634,207.69800156634,207.69800156634,207.69800156634,207.69800156634,207.69800156634,207.69800156634,207.69800156634,207.69800156634,207.69800156634,207.69800156634,207.69800156634,207.69800156634,207.69800156634,207.69800156634,207.69800156634,207.69800156634,207.69800156634,207.69800156634,207.69800156634,207.69800156634,207.69800156634,207.69800156634,207.69800156634,207.69800156634,207.69800156634,230.25229560858,408.04482690715,-0.45279497455646,361.78836645713,-0.46176896616563,0
0.0002284375,672755072.05485,2.0206978496302e-05,6.7675529958888e-05,2.8695764027773e-05,1.0210737903599,0,0,0,0,0,0,0,0,0,0,0,0,0,0,0,0,0,0,0,0,0,0,0,0,0,0,0,0,0,0,0,0,0,0,0,0,0,0,0,0,0,0,0,0,0,0,0,0,-0.97111349220681,-0.23147020381334,-0.50304490865598,5.2762857218274,3.033362300339,1.1775322585537,-3.3438074852169,1.613259853112,2.7625982230517,-0.49257394911129,1.7850861203054,-5.4020910114873,1.4432282310517,-1.5347002842236,1.6492890371448,-4.3576016626431,2.1024165522523,4.7283733903633,-1.0026289416317,-4.6285531050615,1.7452283714157,1.7175723295789,0.051836566565574,-4.0351938898688,3.0614190290713,-2.1119239068458,1.1438553841234,1.1170082716724,-1.7910572350523,1.2169489098976,1.4376605972108,-0.33340765486694,0.81063919463895,-4.2419396946759,-1.8866144319047,-3.4554523102381,5.3049790308661,-2.7934324631876,3.1459724669711,-0.44435981150741,-1.3501933132981,-6.960683126827,0.94301622257413,-2.0749289407979,-3.4174934301645,1.2410248820519,3.5937657476099,-3.8511444049049,207.93679187294,207.93679187294,207.93679187294,207.93679187294,207.93679187294,207.93679187294,207.93679187294,207.93679187294,207.93679187294,207.93679187294,207.93679187294,207.93679187294,207.93679187294,207.93679187294,207.93679187294,207.93679187294,207.93679187294,207.93679187294,207.93679187294,207.93679187294,207.93679187294,207.93679187294,207.93679187294,207.93679187294,207.93679187294,207.93679187294,207.93679187294,207.93679187294,207.93679187294,207.93679187294,207.93679187294,207.93679187294,207.93679187294,207.93679187294,207.93679187294,207.93679187294,207.93679187294,207.93679187294,207.93679187294,207.93679187294,207.93679187294,207.93679187294,207.93679187294,207.93679187294,207.93679187294,207.93679187294,207.93679187294,207.93679187294,230.2434712175,408.54161026046,-0.45483265607537,362.21486439855,-0.46381894352403,0
0.0002290625,675536321.45189,2.0260603461555e-05,6.7860757665567e-05,2.8774595587873e-05,1.0211339112174,0,0,0,0,0,0,0,0,0,0,0,0,0,0,0,0,0,0,0,0,0,0,0,0,0,0,0,0,0,0,0,0,0,0,0,0,0,0,0,0,0,0,0,0,0,0,0,0,-0.97121119779496,-0.23052002703683,-0.50101172082394,5.2757636694972,3.0331630587591,1.1768990735296,-3.3431055262773,1.6130839012482,2.7625357460783,-0.49258148187985,1.7857440848319,-5.4022830049944,1.4435303896715,-1.533890929958,1.6501773599105,-4.3574625476672,2.1017344080275,4.7274371781498,-1.0028194330675,-4.6277115421324,1.746137812371,1.7182148108408,0.051567136326904,-4.0349174981667,3.0622707053691,-2.1133156325581,1.1443079142571,1.1165606556572,-1.790711233323,1.216496290866,1.4373159790444,-0.33346563760073,0.81065185728789,-4.241123095237,-1.8856039940763,-3.4548169297042,5.3055359998703,-2.7931864921185,3.1459119239633,-0.44422205057408,-1.3497836607171,-6.9603479883852,0.94361612091739,-2.0743726025016,-3.4172856989624,1.241879031203,3.5923694791794,-3.8495540603124,208.17556287411,208.17556287411,208.17556287411,208.17556287411,208.17556287411,208.17556287411,208.17556287411,208.17556287411,208.17556287411,208.17556287411,208.17556287411,208.17556287411,208.17556287411,208.17556287411,208.17556287411,208.17556287411,208.17556287411,208.17556287411,208.17556287411,208.17556287411,208.17556287411,208.17556287411,208.17556287411,208.17556287411,208.17556287411,208.17556287411,208.17556287411,208.17556287411,208.17556287411,208.17556287411,208.17556287411,208.17556287411,208.17556287411,208.17556287411,208.17556287411,208.17556287411,208.17556287411,208.17556287411,208.17556287411,208.17556287411,208.17556287411,208.17556287411,208.17556287411,208.17556287411,208.17556287411,208.17556287411,208.17556287411,208.17556287411,230.23460812672,409.03830954085,-0.45687421500574,362.64130116488,-0.46587276360486,0
0.0002296875,678322441.44979,2.0314213637063e-05,6.8045985514499e-05,2.8853426955523e-05,1.0211940311373,0,0,0,0,0,0,0,0,0,0,0,0,0,0,0,0,0,0,0,0,0,0,0,0,0,0,0,0,0,0,0,0,0,0,0,0,0,0,0,0,0,0,0,0,0,0,0,0,-0.97130819925662,-0.22957233138693,-0.49899307028913,5.2752452416751,3.0329628680207,1.1762692389258,-3.3424032376684,1.6129068541878,2.7624726146214,-0.49258794242552,1.7863982546759,-5.402472356835,1.4438325786812,-1.5330834570637,1.6510618331068,-4.3573166968028,2.1010527136413,4.7265022541217,-1.0030089932955,-4.6268747013934,1.7470412715457,1.7188579331459,0.051299505758101,-4.0346487027256,3.0631183371473,-2.1147051909916,1.1447578583162,1.1161161258005,-1.7903622416889,1.2160430526442,1.4369702095932,-0.33352107340202,0.81066446467379,-4.2403054142918,-1.8845956278709,-3.4541849357345,5.306089833797,-2.7929357448332,3.1458534720804,-0.44408444542879,-1.3493758458849,-6.9600098576948,0.94421155704942,-2.0738215651858,-3.4170787311104,1.242730808351,3.5909786437707,-3.8479658969331,208.41431452793,208.41431452793,208.41431452793,208.41431452793,208.41431452793,208.41431452793,208.41431452793,208.41431452793,208.41431452793,208.41431452793,208.41431452793,208.41431452793,208.41431452793,208.41431452793,208.41431452793,208.41431452793,208.41431452793,208.41431452793,208.41431452793,208.41431452793,208.41431452793,208.41431452793,208.41431452793,208.41431452793,208.41431452793,208.41431452793,208.41431452793,208.41431452793,208.41431452793,208.41431452793,208.41431452793,208.41431452793,208.41431452793,208.41431452793,208.41431452793,208.41431452793,208.41431452793,208.41431452793,208.41431452793,208.41431452793,208.41431452793,208.41431452793,208.41431452793,208.41431452793,208.41431452793,208.41431452793,208.41431452793,208.41431452793,230.22570674886,409.5349251562,-0.45891964994343,363.06767686056,-0.46793042524449,0
0.0002303125,681113428.19791,2.0367809051468e-05,6.8231213505248e-05,2.8932258154933e-05,1.0212541501199,0,0,0,0,0,0,0,0,0,0,0,0,0,0,0,0,0,0,0,0,0,0,0,0,0,0,0,0,0,0,0,0,0,0,0,0,0,0,0,0,0,0,0,0,0,0,0,0,-0.97140448291209,-0.22862708243869,-0.49698881503778,5.2747304045366,3.0327617350838,1.175642759931,-3.341700653784,1.6127287103584,2.7624088398282,-0.4925933413795,1.7870486525028,-5.4026590831714,1.444134792201,-1.5322778507727,1.6519425021292,-4.3571641497292,2.1003714743012,4.7255685909732,-1.0031975822917,-4.6260425583259,1.747938776202,1.7195016763191,0.051033677604611,-4.0343874769894,3.0639619399176,-2.1160925938501,1.1452052478561,1.1156746752298,-1.7900103176027,1.215589201116,1.4366233175642,-0.33357397548037,0.81067701469137,-4.2394866529327,-1.8835893027711,-3.4535562725084,5.3066405553702,-2.7926802495401,3.1457970798397,-0.44394699009093,-1.3489698303969,-6.9596687541937,0.94480258043791,-2.0732757305565,-3.4168725271302,1.2435802114361,3.5895932150697,-3.8463798958963,208.65304679292,208.65304679292,208.65304679292,208.65304679292,208.65304679292,208.65304679292,208.65304679292,208.65304679292,208.65304679292,208.65304679292,208.65304679292,208.65304679292,208.65304679292,208.65304679292,208.65304679292,208.65304679292,208.65304679292,208.65304679292,208.65304679292,208.65304679292,208.65304679292,208.65304679292,208.65304679292,208.65304679292,208.65304679292,208.65304679292,208.65304679292,208.65304679292,208.65304679292,208.65304679292,208.65304679292,208.65304679292,208.65304679292,208.65304679292,208.65304679292,208.65304679292,208.65304679292,208.65304679292,208.65304679292,208.65304679292,208.65304679292,208.65304679292,208.65304679292,208.65304679292,208.65304679292,208.65304679292,208.65304679292,208.65304679292,230.21676749522,410.0314575075,-0.46096895946475,363.49399158871,-0.46999192726305,0
0.0002309375,683909277.87276,2.0421389733326e-05,6.8416441637372e-05,2.9011089210207e-05,1.0213142681652,0,0,0,0,0,0,0,0,0,0,0,0,0,0,0,0,0,0,0,0,0,0,0,0,0,0,0,0,0,0,0,0,0,0,0,0,0,0,0,0,0,0,0,0,0,0,0,0,-0.97150003544204,-0.22768424605264,-0.49499881327442,5.2742191252907,3.032559666988,1.1750196418069,-3.3409978083763,1.6125494692968,2.762344432652,-0.4925976889954,1.7876953002059,-5.4028432002502,1.4444370245626,-1.5314740968568,1.6528194118193,-4.3570049457864,2.0996906945848,4.7246361626737,-1.0033851602338,-4.6252150888028,1.7488303556507,1.7201460202954,0.050769654153486,-4.0341337946781,3.0648015287594,-2.1174778526923,1.145650113905,1.1152362968986,-1.7896555172557,1.2151347421969,1.4362753315514,-0.33362435670919,0.81068950494544,-4.2386668125357,-1.8825849877379,-3.452930886614,5.3071881873132,-2.7924200335046,3.1457427162906,-0.44380967850301,-1.3485655764085,-6.959324697466,0.94538923956452,-2.0727350019628,-3.4166670886186,1.2444272397279,3.5882131661757,-3.8447960384794,208.89175962805,208.89175962805,208.89175962805,208.89175962805,208.89175962805,208.89175962805,208.89175962805,208.89175962805,208.89175962805,208.89175962805,208.89175962805,208.89175962805,208.89175962805,208.89175962805,208.89175962805,208.89175962805,208.89175962805,208.89175962805,208.89175962805,208.89175962805,208.89175962805,208.89175962805,208.89175962805,208.89175962805,208.89175962805,208.89175962805,208.89175962805,208.89175962805,208.89175962805,208.89175962805,208.89175962805,208.89175962805,208.89175962805,208.89175962805,208.89175962805,208.89175962805,208.89175962805,208.89175962805,208.89175962805,208.89175962805,208.89175962805,208.89175962805,208.89175962805,208.89175962805,208.89175962805,208.89175962805,208.89175962805,208.89175962805,230.20779077486,410.52790698899,-0.46302214213701,363.92024545111,-0.4720572684823,0
0.0002315625,686709986.67726,2.0474955711094e-05,6.8601669910418e-05,2.9089920145206e-05,1.0213743852735,0,0,0,0,0,0,0,0,0,0,0,0,0,0,0,0,0,0,0,0,0,0,0,0,0,0,0,0,0,0,0,0,0,0,0,0,0,0,0,0,0,0,0,0,0,0,0,0,-0.97159484391147,-0.22674378834928,-0.49302292356711,5.273711372132,3.0323566708663,1.1743998898812,-3.3402947345115,1.6123691315944,2.7622794039,-0.49260099515903,1.7883382189736,-5.4030247243895,1.4447392703061,-1.5306721816495,1.6536926064233,-4.3568391240226,2.0990103784977,4.7237049444295,-1.0035716874944,-4.6243922690707,1.7497160411534,1.7207909451403,0.050507437255953,-4.0338876297338,3.0656371184108,-2.1188609789243,1.1460924869823,1.1148009834916,-1.7892978955796,1.2146796818208,1.4359262800857,-0.33367222963812,0.81070193277844,-4.2378458947764,-1.8815826512925,-3.4523087271221,5.3077327522991,-2.79215512313,3.1456903510555,-0.44367250454786,-1.3481630466684,-6.9589777072445,0.94597158198242,-2.0721992847121,-3.4164624181784,1.2452718939458,3.5868384696359,-3.8432143061237,209.13045299273,209.13045299273,209.13045299273,209.13045299273,209.13045299273,209.13045299273,209.13045299273,209.13045299273,209.13045299273,209.13045299273,209.13045299273,209.13045299273,209.13045299273,209.13045299273,209.13045299273,209.13045299273,209.13045299273,209.13045299273,209.13045299273,209.13045299273,209.13045299273,209.13045299273,209.13045299273,209.13045299273,209.13045299273,209.13045299273,209.13045299273,209.13045299273,209.13045299273,209.13045299273,209.13045299273,209.13045299273,209.13045299273,209.13045299273,209.13045299273,209.13045299273,209.13045299273,209.13045299273,209.13045299273,209.13045299273,209.13045299273,209.13045299273,209.13045299273,209.13045299273,209.13045299273,209.13045299273,209.13045299273,209.13045299273,230.19877699398,411.02427398831,-0.46507919652629,364.34643854818,-0.47412644772428,0
0.0002321875,689515550.84001,2.0528507013146e-05,6.8786898323924e-05,2.9168750983854e-05,1.021434501445,0,0,0,0,0,0,0,0,0,0,0,0,0,0,0,0,0,0,0,0,0,0,0,0,0,0,0,0,0,0,0,0,0,0,0,0,0,0,0,0,0,0,0,0,0,0,0,0,-0.97168889580198,-0.22580567570905,-0.4910610049593,5.2732071142238,3.0321527539588,1.1737835094979,-3.3395914644831,1.6121876988471,2.7622137642139,-0.49260326939117,1.7889774293177,-5.4032036720184,1.4450415241878,-1.5298720919651,1.6545621295472,-4.3566667232482,2.0983305294607,4.7227749126372,-1.0037571246679,-4.6235740757,1.7505958658188,1.721436431049,0.050247028352481,-4.0336489563017,3.0664687232902,-2.1202419838149,1.146532397121,1.1143687273086,-1.7889375062059,1.2142240259397,1.4355761916065,-0.33371760649878,0.81071429528685,-4.2370239016906,-1.8805822615678,-3.4516897455143,5.3082742729091,-2.7918855440188,3.1456399542826,-0.44353546202067,-1.3477622045627,-6.9586278034532,0.94654965433764,-2.0716684862876,-3.4162585193446,1.2461141763364,3.5854690974551,-3.8416346804566,209.36912684682,209.36912684682,209.36912684682,209.36912684682,209.36912684682,209.36912684682,209.36912684682,209.36912684682,209.36912684682,209.36912684682,209.36912684682,209.36912684682,209.36912684682,209.36912684682,209.36912684682,209.36912684682,209.36912684682,209.36912684682,209.36912684682,209.36912684682,209.36912684682,209.36912684682,209.36912684682,209.36912684682,209.36912684682,209.36912684682,209.36912684682,209.36912684682,209.36912684682,209.36912684682,209.36912684682,209.36912684682,209.36912684682,209.36912684682,209.36912684682,209.36912684682,209.36912684682,209.36912684682,209.36912684682,209.36912684682,209.36912684682,209.36912684682,209.36912684682,209.36912684682,209.36912684682,209.36912684682,209.36912684682,209.36912684682,230.18972655548,411.52055888662,-0.46714012116254,364.77257097905,-0.47619946379033,0
0.0002328125,692325966.61457,2.0582043667791e-05,6.897212687742e-05,2.9247581750233e-05,1.0214946166797,0,0,0,0,0,0,0,0,0,0,0,0,0,0,0,0,0,0,0,0,0,0,0,0,0,0,0,0,0,0,0,0,0,0,0,0,0,0,0,0,0,0,0,0,0,0,0,0,-0.97178217903325,-0.22486987476181,-0.48911291708741,5.2727063216483,3.0319479236346,1.1731705059955,-3.3388880297495,1.6120051735967,2.7621475240797,-0.49260452085406,1.789612951127,-5.4033800596918,1.4453437811781,-1.5290738150921,1.6554280241214,-4.3564877820678,2.0976511503386,4.7218460448702,-1.0039414325746,-4.6227604855477,1.7514698645031,1.722082458348,0.049988428498189,-4.0334177486739,3.0672963575597,-2.1216208785115,1.1469698738911,1.1139395201648,-1.7885744014505,1.2137677805078,1.4352250944725,-0.33376049921489,0.81072658934429,-4.2362008357048,-1.8795837863689,-3.4510738956882,5.3088127716035,-2.7916113210358,3.1455914966564,-0.44339854463867,-1.3473630141504,-6.958275006195,0.94712350240871,-2.0711425165765,-3.4160553965235,1.2469540907742,3.5841050211519,-3.8400571433007,209.60778115062,209.60778115062,209.60778115062,209.60778115062,209.60778115062,209.60778115062,209.60778115062,209.60778115062,209.60778115062,209.60778115062,209.60778115062,209.60778115062,209.60778115062,209.60778115062,209.60778115062,209.60778115062,209.60778115062,209.60778115062,209.60778115062,209.60778115062,209.60778115062,209.60778115062,209.60778115062,209.60778115062,209.60778115062,209.60778115062,209.60778115062,209.60778115062,209.60778115062,209.60778115062,209.60778115062,209.60778115062,209.60778115062,209.60778115062,209.60778115062,209.60778115062,209.60778115062,209.60778115062,209.60778115062,209.60778115062,209.60778115062,209.60778115062,209.60778115062,209.60778115062,209.60778115062,209.60778115062,209.60778115062,209.60778115062,230.18063985825,412.01676205876,-0.46920491459488,365.19864284153,-0.47827631548002,0
0.0002334375,695141230.2787,2.0635565703157e-05,6.9157355570422e-05,2.9326412467964e-05,1.0215547309778,0,0,0,0,0,0,0,0,0,0,0,0,0,0,0,0,0,0,0,0,0,0,0,0,0,0,0,0,0,0,0,0,0,0,0,0,0,0,0,0,0,0,0,0,0,0,0,0,-0.97187468198469,-0.22393635235545,-0.48717852030679,5.2722089653996,3.031742187397,1.1725608846608,-3.3381844608861,1.6118215592788,2.7620806938324,-0.4926047583628,1.7902448037193,-5.4035539040831,1.44564603647,-1.528277338744,1.6562903323723,-4.3563023389215,2.096972243483,4.7209183198315,-1.0041245722916,-4.6219514757383,1.752338073702,1.722729007501,0.049731638379085,-4.0331939812473,3.068120035188,-2.1229976740208,1.1474049464101,1.1135133532831,-1.7882086322969,1.213310951479,1.4348730169647,-0.33380091941451,0.81073881162402,-4.2353766996561,-1.8785871932448,-3.4504611339053,5.3093482706939,-2.791332478376,3.1455449494039,-0.44326174603183,-1.3469654402023,-6.9579193357612,0.94769317117172,-2.0706212880529,-3.4158530549221,1.2477916428447,3.582746211772,-3.8384816766988,209.84641586484,209.84641586484,209.84641586484,209.84641586484,209.84641586484,209.84641586484,209.84641586484,209.84641586484,209.84641586484,209.84641586484,209.84641586484,209.84641586484,209.84641586484,209.84641586484,209.84641586484,209.84641586484,209.84641586484,209.84641586484,209.84641586484,209.84641586484,209.84641586484,209.84641586484,209.84641586484,209.84641586484,209.84641586484,209.84641586484,209.84641586484,209.84641586484,209.84641586484,209.84641586484,209.84641586484,209.84641586484,209.84641586484,209.84641586484,209.84641586484,209.84641586484,209.84641586484,209.84641586484,209.84641586484,209.84641586484,209.84641586484,209.84641586484,209.84641586484,209.84641586484,209.84641586484,209.84641586484,209.84641586484,209.84641586484,230.17151729667,412.51288387335,-0.47127357536335,365.62465423207,-0.48035700161587,0
0.0002340625,697961338.13355,2.0689073147326e-05,6.9342584402444e-05,2.9405243161126e-05,1.0216148443396,0,0,0,0,0,0,0,0,0,0,0,0,0,0,0,0,0,0,0,0,0,0,0,0,0,0,0,0,0,0,0,0,0,0,0,0,0,0,0,0,0,0,0,0,0,0,0,0,-0.97196639351633,-0.22300507555159,-0.48525767576888,5.2717150173252,3.0315355528988,1.1719546506877,-3.3374807875574,1.6116368601697,2.7620132836747,-0.4926039903864,1.7908730058796,-5.4037252219968,1.4459482854739,-1.5274826510431,1.6571490957999,-4.3561104321135,2.0962938107454,4.7199917173157,-1.004306505171,-4.6211470236464,1.7532005314536,1.7233760591139,0.049476658337931,-4.0329776284605,3.06893976998,-2.12437238123,1.1478376433713,1.1130902171888,-1.787840248401,1.2128535447966,1.4345199873089,-0.33383887843478,0.81075095861616,-4.2345514968213,-1.8775924495346,-3.4498514187531,5.3098807923336,-2.7910490396231,3.1455002842807,-0.44312505975238,-1.3465694482236,-6.957560812609,0.94825870482668,-2.0701047159319,-3.4156515005041,1.2486268399202,3.5813926399147,-3.8369082629222,210.08503095065,210.08503095065,210.08503095065,210.08503095065,210.08503095065,210.08503095065,210.08503095065,210.08503095065,210.08503095065,210.08503095065,210.08503095065,210.08503095065,210.08503095065,210.08503095065,210.08503095065,210.08503095065,210.08503095065,210.08503095065,210.08503095065,210.08503095065,210.08503095065,210.08503095065,210.08503095065,210.08503095065,210.08503095065,210.08503095065,210.08503095065,210.08503095065,210.08503095065,210.08503095065,210.08503095065,210.08503095065,210.08503095065,210.08503095065,210.08503095065,210.08503095065,210.08503095065,210.08503095065,210.08503095065,210.08503095065,210.08503095065,210.08503095065,210.08503095065,210.08503095065,210.08503095065,210.08503095065,210.08503095065,210.08503095065,230.16235926027,413.00892469301,-0.47334610198716,366.05060524588,-0.48244152098353,0
0.0002346875,700786286.50301,2.0742566028221e-05,6.9527813372987e-05,2.9484073853674e-05,1.0216749567652,0,0,0,0,0,0,0,0,0,0,0,0,0,0,0,0,0,0,0,0,0,0,0,0,0,0,0,0,0,0,0,0,0,0,0,0,0,0,0,0,0,0,0,0,0,0,0,0,-0.97205730298176,-0.22207601160472,-0.48335024554849,5.2712244501318,3.0313280279491,1.1713518091226,-3.3367770384489,1.6114510813321,2.7619453036674,-0.49260222506238,1.7914975759089,-5.4038940303951,1.4462505238269,-1.5266897404297,1.6580043551562,-4.3559120998707,2.0956158534786,4.7190662181826,-1.0044871928769,-4.6203471068657,1.7540572772273,1.72402359394,0.049223488390048,-4.0327686647796,3.069755575641,-2.1257450109129,1.1482679930521,1.1126701016034,-1.7874692980546,1.2123955663896,1.434166033654,-0.33387438733602,0.81076302664614,-4.2337252309494,-1.8765995224265,-3.4492447110265,5.3104103584962,-2.7907610278133,3.1454574735322,-0.4429884792444,-1.3461750044945,-6.9571994574125,0.94882014684392,-2.0695927182825,-3.4154507399099,1.2494596912195,3.5800442757697,-3.8353368844843,210.32362636961,210.32362636961,210.32362636961,210.32362636961,210.32362636961,210.32362636961,210.32362636961,210.32362636961,210.32362636961,210.32362636961,210.32362636961,210.32362636961,210.32362636961,210.32362636961,210.32362636961,210.32362636961,210.32362636961,210.32362636961,210.32362636961,210.32362636961,210.32362636961,210.32362636961,210.32362636961,210.32362636961,210.32362636961,210.32362636961,210.32362636961,210.32362636961,210.32362636961,210.32362636961,210.32362636961,210.32362636961,210.32362636961,210.32362636961,210.32362636961,210.32362636961,210.32362636961,210.32362636961,210.32362636961,210.32362636961,210.32362636961,210.32362636961,210.32362636961,210.32362636961,210.32362636961,210.32362636961,210.32362636961,210.32362636961,230.15316613315,413.50488487441,-0.47542249297637,366.47649597683,-0.48452987237173,0
0.0002353125,703616071.73282,2.0796044373623e-05,6.9713042481542e-05,2.9562904569357e-05,1.0217350682548,0,0,0,0,0,0,0,0,0,0,0,0,0,0,0,0,0,0,0,0,0,0,0,0,0,0,0,0,0,0,0,0,0,0,0,0,0,0,0,0,0,0,0,0,0,0,0,0,-0.97214740024616,-0.2211491279443,-0.48145609272401,5.2707372373346,3.031119620526,1.1707523648134,-3.3360732412603,1.6112642285673,2.7618767637388,-0.49259947019941,1.7921185316753,-5.4040603463796,1.4465527473865,-1.5258985956659,1.658856150438,-4.355707380342,2.0949383725959,4.7181418043164,-1.0046665974182,-4.6195517032033,1.754908351829,1.7246715928809,0.048972128242975,-4.0325670646047,3.0705674658263,-2.1271155737248,1.1486960233374,1.1122529953436,-1.7870958282004,1.2119370221651,1.4338111840889,-0.33390745690767,0.8107750118964,-4.2328979062666,-1.8756083790084,-3.4486409736943,5.310936990993,-2.7904684654825,3.1454164899246,-0.44285199786911,-1.3457820760885,-6.9568352909922,0.94937754002158,-2.0690852161389,-3.4152507804347,1.2502902078815,3.5787010891339,-3.8337675241523,210.56220208372,210.56220208372,210.56220208372,210.56220208372,210.56220208372,210.56220208372,210.56220208372,210.56220208372,210.56220208372,210.56220208372,210.56220208372,210.56220208372,210.56220208372,210.56220208372,210.56220208372,210.56220208372,210.56220208372,210.56220208372,210.56220208372,210.56220208372,210.56220208372,210.56220208372,210.56220208372,210.56220208372,210.56220208372,210.56220208372,210.56220208372,210.56220208372,210.56220208372,210.56220208372,210.56220208372,210.56220208372,210.56220208372,210.56220208372,210.56220208372,210.56220208372,210.56220208372,210.56220208372,210.56220208372,210.56220208372,210.56220208372,210.56220208372,210.56220208372,210.56220208372,210.56220208372,210.56220208372,210.56220208372,210.56220208372,230.1439382938,414.00076476849,-0.47750274685119,366.90232651754,-0.48662205458518,0
0.0002359375,706450690.18991,2.0849508211161e-05,6.9898271727596e-05,2.9641735331966e-05,1.0217951788085,0,0,0,0,0,0,0,0,0,0,0,0,0,0,0,0,0,0,0,0,0,0,0,0,0,0,0,0,0,0,0,0,0,0,0,0,0,0,0,0,0,0,0,0,0,0,0,0,-0.97223667569413,-0.22022439216197,-0.47957508148303,5.2702533532443,3.0309103387771,1.1701563223552,-3.3353694226536,1.6110763083611,2.7618076737032,-0.49259573329162,1.7927358906593,-5.4042241872201,1.4468549522359,-1.5251092057239,1.6597045208624,-4.3554963116611,2.094261368543,4.717218458596,-1.0048446811843,-4.6187607906475,1.7557537972915,1.7253200370121,0.048722577308865,-4.0323728022625,3.0713754541969,-2.1284840802227,1.1491217617266,1.1118388862267,-1.7867198844109,1.211477918007,1.4334554666449,-0.33393809768027,0.81078691042186,-4.2320695275049,-1.8746189863204,-3.4480401717353,5.311460711439,-2.790171374732,3.1453773066789,-0.44271560886561,-1.3453906309053,-6.9564683343696,0.94993092650562,-2.0685821335568,-3.4150516299378,1.2511184029993,3.5773630494427,-3.8322001649452,210.80075805536,210.80075805536,210.80075805536,210.80075805536,210.80075805536,210.80075805536,210.80075805536,210.80075805536,210.80075805536,210.80075805536,210.80075805536,210.80075805536,210.80075805536,210.80075805536,210.80075805536,210.80075805536,210.80075805536,210.80075805536,210.80075805536,210.80075805536,210.80075805536,210.80075805536,210.80075805536,210.80075805536,210.80075805536,210.80075805536,210.80075805536,210.80075805536,210.80075805536,210.80075805536,210.80075805536,210.80075805536,210.80075805536,210.80075805536,210.80075805536,210.80075805536,210.80075805536,210.80075805536,210.80075805536,210.80075805536,210.80075805536,210.80075805536,210.80075805536,210.80075805536,210.80075805536,210.80075805536,210.80075805536,210.80075805536,230.13467611472,414.49656472053,-0.47958686210249,367.32809695932,-0.48871806639612,0
0.0002365625,709290138.26154,2.0902957568302e-05,7.0083501110624e-05,2.9720566165095e-05,1.0218552884265,0,0,0,0,0,0,0,0,0,0,0,0,0,0,0,0,0,0,0,0,0,0,0,0,0,0,0,0,0,0,0,0,0,0,0,0,0,0,0,0,0,0,0,0,0,0,0,0,-0.97232512024113,-0.21930177198771,-0.47770707720722,5.2697727729433,3.030700191033,1.1695636860254,-3.3346656082489,1.610887327836,2.7617380432108,-0.49259102152071,1.7933496700039,-5.4043855703447,1.4471571346842,-1.5243215597883,1.6605495048759,-4.355278931958,2.0935848413399,4.7162961648638,-1.0050214069954,-4.6179743473709,1.7565936567739,1.7259689075378,0.048474834725564,-4.0321858519299,3.0721795544708,-2.1298505408602,1.1495452353546,1.111427760974,-1.7863415108979,1.2110182597681,1.4330989092638,-0.33396631993017,0.81079871817069,-4.2312400999043,-1.8736313114008,-3.447442272088,5.3119815412945,-2.7898697772746,3.1453398974677,-0.44257930537562,-1.3450006376888,-6.9560986087234,0.95048034785472,-2.0680833976739,-3.4148532968316,1.2519442916596,3.5760301257974,-3.8306347901608,211.03929424735,211.03929424735,211.03929424735,211.03929424735,211.03929424735,211.03929424735,211.03929424735,211.03929424735,211.03929424735,211.03929424735,211.03929424735,211.03929424735,211.03929424735,211.03929424735,211.03929424735,211.03929424735,211.03929424735,211.03929424735,211.03929424735,211.03929424735,211.03929424735,211.03929424735,211.03929424735,211.03929424735,211.03929424735,211.03929424735,211.03929424735,211.03929424735,211.03929424735,211.03929424735,211.03929424735,211.03929424735,211.03929424735,211.03929424735,211.03929424735,211.03929424735,211.03929424735,211.03929424735,211.03929424735,211.03929424735,211.03929424735,211.03929424735,211.03929424735,211.03929424735,211.03929424735,211.03929424735,211.03929424735,211.03929424735,230.12537996209,414.99228507032,-0.48167483723847,367.75380739221,-0.4908179066018,0
0.0002371875,712134412.35462,2.0956392472362e-05,7.0268730630094e-05,2.97993970924e-05,1.021915397109,0,0,0,0,0,0,0,0,0,0,0,0,0,0,0,0,0,0,0,0,0,0,0,0,0,0,0,0,0,0,0,0,0,0,0,0,0,0,0,0,0,0,0,0,0,0,0,0,-0.97241272534001,-0.21838123526477,-0.47585194655599,5.2692954722633,3.0304891857996,1.1689744597238,-3.3339618226083,1.6106972947028,2.7616678818592,-0.49258534177117,1.7939598865663,-5.4045445133372,1.4474592912643,-1.5235356471592,1.661391140146,-4.3550552793685,2.0929087906191,4.7153749078851,-1.0051967381528,-4.6171923517229,1.7574279744635,1.726618185875,0.048228899364254,-4.0320061875606,3.0729797804811,-2.1312149659843,1.1499664709932,1.1110196051274,-1.7859607505164,1.2105580532663,1.432741539882,-0.33399213369562,0.81081043100265,-4.230409629224,-1.8726453213388,-3.4468472434864,5.3124995018575,-2.7895636944846,3.1453042364244,-0.44244308041511,-1.3446120660473,-6.9557261353413,0.9510258450907,-2.06758893873,-3.4146557900206,1.2527678909859,3.5747022869811,-3.8290713833732,211.27781062287,211.27781062287,211.27781062287,211.27781062287,211.27781062287,211.27781062287,211.27781062287,211.27781062287,211.27781062287,211.27781062287,211.27781062287,211.27781062287,211.27781062287,211.27781062287,211.27781062287,211.27781062287,211.27781062287,211.27781062287,211.27781062287,211.27781062287,211.27781062287,211.27781062287,211.27781062287,211.27781062287,211.27781062287,211.27781062287,211.27781062287,211.27781062287,211.27781062287,211.27781062287,211.27781062287,211.27781062287,211.27781062287,211.27781062287,211.27781062287,211.27781062287,211.27781062287,211.27781062287,211.27781062287,211.27781062287,211.27781062287,211.27781062287,211.27781062287,211.27781062287,211.27781062287,211.27781062287,211.27781062287,211.27781062287,230.11605019555,415.48792615225,-0.48376667074031,368.17945790503,-0.49292157397804,0
0.0002378125,714983508.89491,2.1009812950487e-05,7.0453960285466e-05,2.9878228137353e-05,1.0219755048562,0,0,0,0,0,0,0,0,0,0,0,0,0,0,0,0,0,0,0,0,0,0,0,0,0,0,0,0,0,0,0,0,0,0,0,0,0,0,0,0,0,0,0,0,0,0,0,0,-0.97249948298583,-0.21746274994909,-0.47400955755317,5.2688214277651,3.030277331776,1.1683886468925,-3.3332580892199,1.6105062172166,2.7615971990634,-0.49257870063469,1.7945665569585,-5.404701033965,1.4477614187327,-1.5227514572304,1.6622294635637,-4.3548253920945,2.0922332156006,4.714454673335,-1.0053706385053,-4.6164147822105,1.7582567954743,1.7272678535786,0.047984769846304,-4.0318337828792,3.0737761462201,-2.1325773658648,1.1503854950728,1.1106144029614,-1.7855776447683,1.2100973042863,1.4323833863136,-0.33401554877848,0.810822044704,-4.2295781217562,-1.871660983312,-3.4462550563715,5.3130146142894,-2.789253147449,3.1452702980666,-0.44230692688726,-1.3442248864735,-6.9553509356813,0.95156745872456,-2.0670986900812,-3.4144591188678,1.253589220131,3.5733795014969,-3.8275099284478,211.5163071455,211.5163071455,211.5163071455,211.5163071455,211.5163071455,211.5163071455,211.5163071455,211.5163071455,211.5163071455,211.5163071455,211.5163071455,211.5163071455,211.5163071455,211.5163071455,211.5163071455,211.5163071455,211.5163071455,211.5163071455,211.5163071455,211.5163071455,211.5163071455,211.5163071455,211.5163071455,211.5163071455,211.5163071455,211.5163071455,211.5163071455,211.5163071455,211.5163071455,211.5163071455,211.5163071455,211.5163071455,211.5163071455,211.5163071455,211.5163071455,211.5163071455,211.5163071455,211.5163071455,211.5163071455,211.5163071455,211.5163071455,211.5163071455,211.5163071455,211.5163071455,211.5163071455,211.5163071455,211.5163071455,211.5163071455,230.10668716812,415.98348829549,-0.48586236111032,368.60504858528,-0.495029067318,0
0.0002384375,717837424.32631,2.106321902965e-05,7.0639190076193e-05,2.9957059323407e-05,1.0220356116683,0,0,0,0,0,0,0,0,0,0,0,0,0,0,0,0,0,0,0,0,0,0,0,0,0,0,0,0,0,0,0,0,0,0,0,0,0,0,0,0,0,0,0,0,0,0,0,0,-0.97258538572081,-0.21654628408457,-0.4721797796605,5.2683506167134,3.0300646378389,1.1678062504675,-3.3325544304973,1.610314104133,2.7615260041393,-0.49257110442011,1.7951696976092,-5.4048551501502,1.4480635140692,-1.5219689794075,1.6630645112419,-4.3545893083911,2.0915581151304,4.7135354477532,-1.005543072486,-4.6156416175054,1.759080165752,1.7279178923966,0.047742444552928,-4.031668611286,3.074568665908,-2.1339377506774,1.1508023336781,1.1102121374206,-1.7851922338112,1.2096360185775,1.4320244763183,-0.33403657475631,0.81083355500884,-4.2287455843172,-1.8706782646361,-3.4456656827296,5.3135268996154,-2.7889381570111,3.1452380573049,-0.44217083756521,-1.3438390703606,-6.9549730312816,0.95210522880757,-2.0666125881826,-3.4142632931432,1.254408300298,3.5720617375831,-3.825950409528,211.75478377921,211.75478377921,211.75478377921,211.75478377921,211.75478377921,211.75478377921,211.75478377921,211.75478377921,211.75478377921,211.75478377921,211.75478377921,211.75478377921,211.75478377921,211.75478377921,211.75478377921,211.75478377921,211.75478377921,211.75478377921,211.75478377921,211.75478377921,211.75478377921,211.75478377921,211.75478377921,211.75478377921,211.75478377921,211.75478377921,211.75478377921,211.75478377921,211.75478377921,211.75478377921,211.75478377921,211.75478377921,211.75478377921,211.75478377921,211.75478377921,211.75478377921,211.75478377921,211.75478377921,211.75478377921,211.75478377921,211.75478377921,211.75478377921,211.75478377921,211.75478377921,211.75478377921,211.75478377921,211.75478377921,211.75478377921,230.09729122599,416.47897182402,-0.48796190682087,369.03057951927,-0.49714038539826,0
0.0002390625,720696155.11006,2.1116610736626e-05,7.0824420001717e-05,3.0035890673786e-05,1.0220957175455,0,0,0,0,0,0,0,0,0,0,0,0,0,0,0,0,0,0,0,0,0,0,0,0,0,0,0,0,0,0,0,0,0,0,0,0,0,0,0,0,0,0,0,0,0,0,0,0,-0.97267042663562,-0.21563180578584,-0.47036248385935,5.2678830170614,3.0298511130624,1.1672272727905,-3.331850867741,1.6101209646642,2.7614543062338,-0.49256255916258,1.7957693248033,-5.4050068800024,1.4483655744754,-1.5211882030536,1.663896318522,-4.3543470666342,2.0908834876866,4.7126172185413,-1.0057140052102,-4.6148728363905,1.7598981319757,1.7285682842293,0.047501921636591,-4.0315106458774,3.0753573540354,-2.1352961305236,1.1512170125656,1.1098127900504,-1.7848045564504,1.2091742018531,1.431664837534,-0.33405522098727,0.81084495761513,-4.2279120242656,-1.8696971328017,-3.4450790959575,5.3140363787523,-2.7886187438167,3.1452074894005,-0.44203480508666,-1.3434545900173,-6.9545924438522,0.95263919497725,-2.0661305725528,-3.4140683229926,1.2552251547218,3.570748963251,-3.8243928110848,211.99324048832,211.99324048832,211.99324048832,211.99324048832,211.99324048832,211.99324048832,211.99324048832,211.99324048832,211.99324048832,211.99324048832,211.99324048832,211.99324048832,211.99324048832,211.99324048832,211.99324048832,211.99324048832,211.99324048832,211.99324048832,211.99324048832,211.99324048832,211.99324048832,211.99324048832,211.99324048832,211.99324048832,211.99324048832,211.99324048832,211.99324048832,211.99324048832,211.99324048832,211.99324048832,211.99324048832,211.99324048832,211.99324048832,211.99324048832,211.99324048832,211.99324048832,211.99324048832,211.99324048832,211.99324048832,211.99324048832,211.99324048832,211.99324048832,211.99324048832,211.99324048832,211.99324048832,211.99324048832,211.99324048832,211.99324048832,230.08786270826,416.9743770568,-0.49006530635786,369.45605079203,-0.49925552699554,0
0.0002396875,723559697.72404,2.1169988098e-05,7.1009650061475e-05,3.011472221155e-05,1.0221558224879,0,0,0,0,0,0,0,0,0,0,0,0,0,0,0,0,0,0,0,0,0,0,0,0,0,0,0,0,0,0,0,0,0,0,0,0,0,0,0,0,0,0,0,0,0,0,0,0,-0.97275459936981,-0.21471928321958,-0.46855754272591,5.2674186074334,3.0296367666921,1.1666517155429,-3.3311474212207,1.6099268084407,2.7613821144145,-0.49255307063221,1.7963654547445,-5.4051562417861,1.4486675973667,-1.5204091174657,1.6647249199939,-4.3540987052636,2.0902093314164,4.7116999739054,-1.0058834025318,-4.6141084178428,1.7607107414659,1.72921901119,0.047263199028785,-4.0313598592751,3.0761422254356,-2.1366525154234,1.1516295571559,1.1094163409428,-1.7844146502101,1.2087118597926,1.4313044975535,-0.3340714966244,0.81085624820495,-4.2270774494814,-1.8687175555233,-3.4444952707683,5.3145430725386,-2.7882949283488,3.1451785699661,-0.44189882196533,-1.3430714186679,-6.9542091950801,0.95316939650364,-2.0656525857703,-3.4138742189065,1.2560398086599,3.5694411462922,-3.822837117892,212.23167723755,212.23167723755,212.23167723755,212.23167723755,212.23167723755,212.23167723755,212.23167723755,212.23167723755,212.23167723755,212.23167723755,212.23167723755,212.23167723755,212.23167723755,212.23167723755,212.23167723755,212.23167723755,212.23167723755,212.23167723755,212.23167723755,212.23167723755,212.23167723755,212.23167723755,212.23167723755,212.23167723755,212.23167723755,212.23167723755,212.23167723755,212.23167723755,212.23167723755,212.23167723755,212.23167723755,212.23167723755,212.23167723755,212.23167723755,212.23167723755,212.23167723755,212.23167723755,212.23167723755,212.23167723755,212.23167723755,212.23167723755,212.23167723755,212.23167723755,212.23167723755,212.23167723755,212.23167723755,212.23167723755,212.23167723755,230.07840194714,417.46970430786,-0.49217255820851,369.88146248738,-0.50137449090007,0
0.0002403125,726428048.6621,2.1223351140204e-05,7.1194880254899e-05,3.0193553959912e-05,1.0222159264958,0,0,0,0,0,0,0,0,0,0,0,0,0,0,0,0,0,0,0,0,0,0,0,0,0,0,0,0,0,0,0,0,0,0,0,0,0,0,0,0,0,0,0,0,0,0,0,0,-0.97283789811169,-0.21380868458226,-0.4667648305163,5.2669573670981,3.0294216081573,1.166079579671,-3.3304441101522,1.6097316454724,2.7613094377434,-0.49254264434147,1.796958103611,-5.4053032539122,1.448969580372,-1.5196317117771,1.6655503495087,-4.3538442627958,2.0895356441641,4.7107837028382,-1.0060512311265,-4.6133483410023,1.76151804209,1.7298700556671,0.047026274446697,-4.0312162235801,3.0769232953551,-2.1380069153109,1.1520399925457,1.1090227686947,-1.7840225513235,1.208248998044,1.4309434839736,-0.33408541062124,0.81086742246346,-4.2262418683597,-1.8677395007863,-3.4439141829832,5.3150470017639,-2.7879667309732,3.1451512749531,-0.44176288057069,-1.3426895304604,-6.9538233066002,0.95369587233478,-2.0651785733751,-3.4136809916901,1.25685228936,3.5681382542884,-3.8212833150334,212.47009399194,212.47009399194,212.47009399194,212.47009399194,212.47009399194,212.47009399194,212.47009399194,212.47009399194,212.47009399194,212.47009399194,212.47009399194,212.47009399194,212.47009399194,212.47009399194,212.47009399194,212.47009399194,212.47009399194,212.47009399194,212.47009399194,212.47009399194,212.47009399194,212.47009399194,212.47009399194,212.47009399194,212.47009399194,212.47009399194,212.47009399194,212.47009399194,212.47009399194,212.47009399194,212.47009399194,212.47009399194,212.47009399194,212.47009399194,212.47009399194,212.47009399194,212.47009399194,212.47009399194,212.47009399194,212.47009399194,212.47009399194,212.47009399194,212.47009399194,212.47009399194,212.47009399194,212.47009399194,212.47009399194,212.47009399194,230.06890926772,417.96495388637,-0.49428366084349,370.30681468794,-0.50349727590028,0
0.0002409375,729301204.43328,2.1276699889476e-05,7.138011058141e-05,3.0272385941958e-05,1.0222760295693,0,0,0,0,0,0,0,0,0,0,0,0,0,0,0,0,0,0,0,0,0,0,0,0,0,0,0,0,0,0,0,0,0,0,0,0,0,0,0,0,0,0,0,0,0,0,0,0,-0.97292031759788,-0.21289997811693,-0.4649842232076,5.2664992759674,3.0292056470645,1.1655108653068,-3.3297409526725,1.6095354861182,2.7612362850247,-0.49253128555305,1.7975472875939,-5.4054479349853,1.4492715213312,-1.5188559749377,1.6663726401716,-4.3535837779138,2.0888624234378,4.7098683951206,-1.0062174585844,-4.6125925851284,1.7623200821788,1.7305214001745,0.046791145407794,-4.0310797104352,3.0777005794748,-2.1393593400695,1.1524483435032,1.1086320503721,-1.7836282947356,1.2077856222345,1.4305818241613,-0.33409697173545,0.8108784760957,-4.225405289832,-1.8667629368679,-3.4433358094388,5.3155481871688,-2.7876341719735,3.1451255805751,-0.44162697313977,-1.3423089004876,-6.9534348001523,0.95421866111937,-2.0647084838191,-3.4134886524131,1.2576626260027,3.5668402546827,-3.8197313879417,212.70849071691,212.70849071691,212.70849071691,212.70849071691,212.70849071691,212.70849071691,212.70849071691,212.70849071691,212.70849071691,212.70849071691,212.70849071691,212.70849071691,212.70849071691,212.70849071691,212.70849071691,212.70849071691,212.70849071691,212.70849071691,212.70849071691,212.70849071691,212.70849071691,212.70849071691,212.70849071691,212.70849071691,212.70849071691,212.70849071691,212.70849071691,212.70849071691,212.70849071691,212.70849071691,212.70849071691,212.70849071691,212.70849071691,212.70849071691,212.70849071691,212.70849071691,212.70849071691,212.70849071691,212.70849071691,212.70849071691,212.70849071691,212.70849071691,212.70849071691,212.70849071691,212.70849071691,212.70849071691,212.70849071691,212.70849071691,230.05938498812,418.46012609677,-0.49639861274433,370.73210747509,-0.50562388078487,0
0.0002415625,732179161.56119,2.1330034371846e-05,7.1565341040425e-05,3.0351218180549e-05,1.0223361317086,0,0,0,0,0,0,0,0,0,0,0,0,0,0,0,0,0,0,0,0,0,0,0,0,0,0,0,0,0,0,0,0,0,0,0,0,0,0,0,0,0,0,0,0,0,0,0,0,-0.97300185310754,-0.21199313207577,-0.4632155985897,5.2660443145573,3.0289888931886,1.1649455717029,-3.3290379659236,1.6093383410467,2.7611626648988,-0.49251899928641,1.7981330229606,-5.4055903037806,1.4495734182904,-1.5180818956803,1.6671918243733,-4.353317289414,2.0881896664543,4.7089540412765,-1.0063820534841,-4.6118411296704,1.7631169104351,1.7311730274124,0.046557809233712,-4.0309502908689,3.0784740939969,-2.1407097995382,1.1528546344665,1.1082441614951,-1.7832319141704,1.2073217379669,1.430219545333,-0.33410618853901,0.81088940484838,-4.2245677233425,-1.8657878324019,-3.4427601278628,5.3160466494976,-2.7872972715937,3.1451014632997,-0.44149109178495,-1.3419295047787,-6.9530436973959,0.95473780126823,-2.0642422684034,-3.4132972124047,1.2584708496374,3.5655471147708,-3.8181813223938,212.94686737819,212.94686737819,212.94686737819,212.94686737819,212.94686737819,212.94686737819,212.94686737819,212.94686737819,212.94686737819,212.94686737819,212.94686737819,212.94686737819,212.94686737819,212.94686737819,212.94686737819,212.94686737819,212.94686737819,212.94686737819,212.94686737819,212.94686737819,212.94686737819,212.94686737819,212.94686737819,212.94686737819,212.94686737819,212.94686737819,212.94686737819,212.94686737819,212.94686737819,212.94686737819,212.94686737819,212.94686737819,212.94686737819,212.94686737819,212.94686737819,212.94686737819,212.94686737819,212.94686737819,212.94686737819,212.94686737819,212.94686737819,212.94686737819,212.94686737819,212.94686737819,212.94686737819,212.94686737819,212.94686737819,212.94686737819,230.04982941941,418.95522123878,-0.49851741238074,371.15734092902,-0.50775430433819,0
0.0002421875,735061916.58324,2.138335461315e-05,7.175057163135e-05,3.043005069841e-05,1.0223962329141,0,0,0,0,0,0,0,0,0,0,0,0,0,0,0,0,0,0,0,0,0,0,0,0,0,0,0,0,0,0,0,0,0,0,0,0,0,0,0,0,0,0,0,0,0,0,0,0,-0.97308250045929,-0.21108811472446,-0.4614588363288,5.2655924639698,3.0287713564723,1.1643836971523,-3.3283351659664,1.6091402212108,2.7610885859045,-0.49250579032957,1.7987153261009,-5.4057303792241,1.4498752694933,-1.5173094624301,1.6680079337905,-4.3530448362637,2.087517370141,4.708040632574,-1.0065449854954,-4.6110939541483,1.7639085758509,1.7318249203181,0.046326263054097,-4.0308279353586,3.079243855691,-2.1420583034831,1.153258889544,1.1078590760242,-1.7828334420995,1.2068573508383,1.4298566745884,-0.33411306942254,0.81090020452506,-4.2237291788352,-1.8648141563925,-3.4421871166951,5.3165424094856,-2.7869560500633,3.1450788998325,-0.44135522846715,-1.3415513203035,-6.9526500200198,0.95525333096676,-2.0637798811702,-3.4131066831832,1.2592769931252,3.5642588017434,-3.8166331045236,213.18522394188,213.18522394188,213.18522394188,213.18522394188,213.18522394188,213.18522394188,213.18522394188,213.18522394188,213.18522394188,213.18522394188,213.18522394188,213.18522394188,213.18522394188,213.18522394188,213.18522394188,213.18522394188,213.18522394188,213.18522394188,213.18522394188,213.18522394188,213.18522394188,213.18522394188,213.18522394188,213.18522394188,213.18522394188,213.18522394188,213.18522394188,213.18522394188,213.18522394188,213.18522394188,213.18522394188,213.18522394188,213.18522394188,213.18522394188,213.18522394188,213.18522394188,213.18522394188,213.18522394188,213.18522394188,213.18522394188,213.18522394188,213.18522394188,213.18522394188,213.18522394188,213.18522394188,213.18522394188,213.18522394188,213.18522394188,230.04024286565,419.45023960754,-0.5006400582477,371.58251512876,-0.5098885453669,0
0.0002428125,737949466.05006,2.1436660639068e-05,7.1935802353588e-05,3.0508883518388e-05,1.0224563331857,0,0,0,0,0,0,0,0,0,0,0,0,0,0,0,0,0,0,0,0,0,0,0,0,0,0,0,0,0,0,0,0,0,0,0,0,0,0,0,0,0,0,0,0,0,0,0,0,-0.97316225600373,-0.21018489433069,-0.45971381804215,5.2651437058642,3.028553047007,1.1638252389226,-3.3276325678357,1.6089411378156,2.7610140565209,-0.49249166324219,1.799294213586,-5.4058681804011,1.4501770733728,-1.5165386632718,1.6688209994061,-4.3527664575723,2.0868455311882,4.7071281609754,-1.0067062254767,-4.6103510381912,1.7646951276231,1.7324770620985,0.046096503815633,-4.030712613723,3.0800098819639,-2.1434048616214,1.1536611325057,1.1074767663695,-1.7824329097903,1.2063924664418,1.4294932389393,-0.33411762260306,0.81091087100809,-4.222889666746,-1.8638418782736,-3.4416167549661,5.3170354878877,-2.7866105276362,3.1450578671272,-0.44121937500456,-1.3411743249644,-6.9522537896237,0.95576528822664,-2.063321278818,-3.4129170764366,1.2600810910606,3.5629752826847,-3.8150867208408,213.42356037439,213.42356037439,213.42356037439,213.42356037439,213.42356037439,213.42356037439,213.42356037439,213.42356037439,213.42356037439,213.42356037439,213.42356037439,213.42356037439,213.42356037439,213.42356037439,213.42356037439,213.42356037439,213.42356037439,213.42356037439,213.42356037439,213.42356037439,213.42356037439,213.42356037439,213.42356037439,213.42356037439,213.42356037439,213.42356037439,213.42356037439,213.42356037439,213.42356037439,213.42356037439,213.42356037439,213.42356037439,213.42356037439,213.42356037439,213.42356037439,213.42356037439,213.42356037439,213.42356037439,213.42356037439,213.42356037439,213.42356037439,213.42356037439,213.42356037439,213.42356037439,213.42356037439,213.42356037439,213.42356037439,213.42356037439,230.03062562426,419.94518149366,-0.50276654885848,372.00763015214,-0.51202660267744,0
0.0002434375,740841806.52485,2.1489952475049e-05,7.2121033206533e-05,3.0587716663005e-05,1.0225164325239,0,0,0,0,0,0,0,0,0,0,0,0,0,0,0,0,0,0,0,0,0,0,0,0,0,0,0,0,0,0,0,0,0,0,0,0,0,0,0,0,0,0,0,0,0,0,0,0,-0.97324111662399,-0.20928343916064,-0.45798042735649,5.2646980224529,3.0283339750238,1.1632701931796,-3.3269301856572,1.608741102302,2.7609390848901,-0.49247662236203,1.7998697022296,-5.4060037265748,1.4504788285536,-1.515769485954,1.6696310515315,-4.3524821925627,2.086174146001,4.706216619145,-1.0068657455713,-4.6096123616416,1.7654766150794,1.7331294360845,0.045868528291631,-4.030604294991,3.0807721909216,-2.1447494836535,1.1540613867701,1.107097203405,-1.7820303473858,1.2059270903891,1.4291292650406,-0.33411985613572,0.81092140028521,-4.2220491980025,-1.8628709679488,-3.4410490221999,5.31752590554,-2.7862607246147,3.1450383422667,-0.44108352310816,-1.3407984976075,-6.9518550275981,0.95627371092053,-2.0628664206105,-3.4127284040157,1.2608831796375,3.5616965246379,-3.8135421582442,213.66187664245,213.66187664245,213.66187664245,213.66187664245,213.66187664245,213.66187664245,213.66187664245,213.66187664245,213.66187664245,213.66187664245,213.66187664245,213.66187664245,213.66187664245,213.66187664245,213.66187664245,213.66187664245,213.66187664245,213.66187664245,213.66187664245,213.66187664245,213.66187664245,213.66187664245,213.66187664245,213.66187664245,213.66187664245,213.66187664245,213.66187664245,213.66187664245,213.66187664245,213.66187664245,213.66187664245,213.66187664245,213.66187664245,213.66187664245,213.66187664245,213.66187664245,213.66187664245,213.66187664245,213.66187664245,213.66187664245,213.66187664245,213.66187664245,213.66187664245,213.66187664245,213.66187664245,213.66187664245,213.66187664245,213.66187664245,230.02097798606,420.44004718321,-0.50489688269436,372.43268607585,-0.51416847507532,0
0.0002440625,743738934.58266,2.1543230146316e-05,7.2306264189572e-05,3.0666550154456e-05,1.0225765309287,0,0,0,0,0,0,0,0,0,0,0,0,0,0,0,0,0,0,0,0,0,0,0,0,0,0,0,0,0,0,0,0,0,0,0,0,0,0,0,0,0,0,0,0,0,0,0,0,-0.97331907972247,-0.20838371746637,-0.45625854996812,5.2642553964694,3.0281141508885,1.1627185549207,-3.3262280325846,1.6085401263168,2.7608636790758,-0.49246067181075,1.8004418091262,-5.4061370371395,1.4507805338337,-1.5150019178234,1.6704381198129,-4.3521920806061,2.0855032107735,4.7053060004185,-1.0070235193163,-4.6088779044523,1.7662530875984,1.7337820258879,0.045642333084416,-4.0305029474585,3.0815308014106,-2.1460921792298,1.154459675404,1.106720356498,-1.7816257838944,1.2054612283185,1.4287647794108,-0.33411977791189,0.8109317884606,-4.2212077839807,-1.8619013958277,-3.4404838982707,5.3180136833291,-2.7859066613838,3.1450203025291,-0.44094766436303,-1.3404238180015,-6.9514537551872,0.95677863681284,-2.0624152682664,-3.412540677865,1.2616832965753,3.5604224945986,-3.8119994040341,213.90017271311,213.90017271311,213.90017271311,213.90017271311,213.90017271311,213.90017271311,213.90017271311,213.90017271311,213.90017271311,213.90017271311,213.90017271311,213.90017271311,213.90017271311,213.90017271311,213.90017271311,213.90017271311,213.90017271311,213.90017271311,213.90017271311,213.90017271311,213.90017271311,213.90017271311,213.90017271311,213.90017271311,213.90017271311,213.90017271311,213.90017271311,213.90017271311,213.90017271311,213.90017271311,213.90017271311,213.90017271311,213.90017271311,213.90017271311,213.90017271311,213.90017271311,213.90017271311,213.90017271311,213.90017271311,213.90017271311,213.90017271311,213.90017271311,213.90017271311,213.90017271311,213.90017271311,213.90017271311,213.90017271311,213.90017271311,230.01130023509,420.93483695787,-0.50703105825388,372.85768297542,-0.51631416137151,0
0.0002446875,746640846.80987,2.1596493677935e-05,7.2491495302087e-05,3.0745384015043e-05,1.0226366284005,0,0,0,0,0,0,0,0,0,0,0,0,0,0,0,0,0,0,0,0,0,0,0,0,0,0,0,0,0,0,0,0,0,0,0,0,0,0,0,0,0,0,0,0,0,0,0,0,-0.97339614321638,-0.20748569749686,-0.45454807372905,5.263815811134,3.0278935850779,1.1621703179104,-3.3255261207722,1.6083382216955,2.760787847043,-0.49244381550554,1.8010105517183,-5.4062681316424,1.4510821881758,-1.514235945783,1.6712422332599,-4.3518961612482,2.0848327215004,4.7043962987811,-1.0071795217516,-4.6081476466193,1.7670245945355,1.7344348153998,0.045417914629629,-4.0304085387005,3.0822857330996,-2.1474329579639,1.1548560211063,1.1063461935518,-1.7812192471933,1.2049948859138,1.4283998083889,-0.33411739566987,0.81094203178158,-4.2203654365154,-1.8609331328642,-3.4399213632898,5.3184988422336,-2.7855483584393,3.1450037253681,-0.44081179022273,-1.3400502668265,-6.9510499935319,0.95728010358501,-2.0619677858504,-3.4123539099969,1.2624814810073,3.5591531595526,-3.8104584459428,214.13844855372,214.13844855372,214.13844855372,214.13844855372,214.13844855372,214.13844855372,214.13844855372,214.13844855372,214.13844855372,214.13844855372,214.13844855372,214.13844855372,214.13844855372,214.13844855372,214.13844855372,214.13844855372,214.13844855372,214.13844855372,214.13844855372,214.13844855372,214.13844855372,214.13844855372,214.13844855372,214.13844855372,214.13844855372,214.13844855372,214.13844855372,214.13844855372,214.13844855372,214.13844855372,214.13844855372,214.13844855372,214.13844855372,214.13844855372,214.13844855372,214.13844855372,214.13844855372,214.13844855372,214.13844855372,214.13844855372,214.13844855372,214.13844855372,214.13844855372,214.13844855372,214.13844855372,214.13844855372,214.13844855372,214.13844855372,230.00159264919,421.42955109491,-0.50916907407963,373.2826209253,-0.51846366040353,0
0.0002453125,749547539.80356,2.1649743094746e-05,7.2676726543457e-05,3.0824218266652e-05,1.0226967249393,0,0,0,0,0,0,0,0,0,0,0,0,0,0,0,0,0,0,0,0,0,0,0,0,0,0,0,0,0,0,0,0,0,0,0,0,0,0,0,0,0,0,0,0,0,0,0,0,-0.97347230553959,-0.20658934746758,-0.45284888869545,5.2633792501728,3.0276722881536,1.16162547461,-3.3248244617514,1.6081354004541,2.760711596563,-0.49242605715533,1.801575947871,-5.406397029733,1.4513837906971,-1.5134715563654,1.672043420297,-4.3515944739646,2.0841626740259,4.7034875088273,-1.0073337295284,-4.6074215685799,1.7677911851592,1.7350877887726,0.045195269205659,-4.0303210350747,3.0830370065612,-2.148771829446,1.155250446183,1.1059746810569,-1.7808107642561,1.204528068931,1.4280343780323,-0.33411271701712,0.81095212666908,-4.2195221678461,-1.8599661506393,-3.4393613975436,5.3189814034185,-2.7851858364041,3.1449885883876,-0.4406758921025,-1.3396778256548,-6.9506437630214,0.95777814890656,-2.0615239396827,-3.412168112516,1.263277773331,3.5578884864787,-3.8089192721196,214.37670413193,214.37670413193,214.37670413193,214.37670413193,214.37670413193,214.37670413193,214.37670413193,214.37670413193,214.37670413193,214.37670413193,214.37670413193,214.37670413193,214.37670413193,214.37670413193,214.37670413193,214.37670413193,214.37670413193,214.37670413193,214.37670413193,214.37670413193,214.37670413193,214.37670413193,214.37670413193,214.37670413193,214.37670413193,214.37670413193,214.37670413193,214.37670413193,214.37670413193,214.37670413193,214.37670413193,214.37670413193,214.37670413193,214.37670413193,214.37670413193,214.37670413193,214.37670413193,214.37670413193,214.37670413193,214.37670413193,214.37670413193,214.37670413193,214.37670413193,214.37670413193,214.37670413193,214.37670413193,214.37670413193,214.37670413193,229.99185550056,421.92418986726,-0.5113109286093,373.70749999885,-0.52061697098024,0
0.0002459375,752459010.17093,2.170297842141e-05,7.2861957913052e-05,3.0903052931162e-05,1.0227568205455,0,0,0,0,0,0,0,0,0,0,0,0,0,0,0,0,0,0,0,0,0,0,0,0,0,0,0,0,0,0,0,0,0,0,0,0,0,0,0,0,0,0,0,0,0,0,0,0,-0.9735475656152,-0.20569463562128,-0.45116088718313,5.2629456977339,3.0274502707723,1.1610840161373,-3.3241230658973,1.6079316747619,2.7606349352004,-0.49240740027456,1.8021380158708,-5.4065237512625,1.4516853406623,-1.5127087355299,1.6728417086943,-4.351287058581,2.0834930639529,4.7025796257946,-1.0074861209997,-4.6066996505698,1.7685529085766,1.7357409303947,0.044974392939948,-4.0302404024805,3.0837846432516,-2.1501088032726,1.1556429725555,1.1056057841639,-1.7804003608714,1.2040607832104,1.427668514072,-0.33410574939962,0.81096206971843,-4.2186779906661,-1.859000421335,-3.4388039812664,5.3194613880671,-2.7848191160779,3.1449748692599,-0.44053996125315,-1.3393064769641,-6.9502350843188,0.95827281037221,-2.0610836981641,-3.4119832974487,1.2640722150764,3.556628442427,-3.8073818711892,214.6149394157,214.6149394157,214.6149394157,214.6149394157,214.6149394157,214.6149394157,214.6149394157,214.6149394157,214.6149394157,214.6149394157,214.6149394157,214.6149394157,214.6149394157,214.6149394157,214.6149394157,214.6149394157,214.6149394157,214.6149394157,214.6149394157,214.6149394157,214.6149394157,214.6149394157,214.6149394157,214.6149394157,214.6149394157,214.6149394157,214.6149394157,214.6149394157,214.6149394157,214.6149394157,214.6149394157,214.6149394157,214.6149394157,214.6149394157,214.6149394157,214.6149394157,214.6149394157,214.6149394157,214.6149394157,214.6149394157,214.6149394157,214.6149394157,214.6149394157,214.6149394157,214.6149394157,214.6149394157,214.6149394157,214.6149394157,229.98208905512,422.41875354352,-0.51345662040076,374.13232026836,-0.52277409195107,0
0.0002465625,755375254.52879,2.1756199682408e-05,7.3047189410235e-05,3.0981888030333e-05,1.0228169152193,0,0,0,0,0,0,0,0,0,0,0,0,0,0,0,0,0,0,0,0,0,0,0,0,0,0,0,0,0,0,0,0,0,0,0,0,0,0,0,0,0,0,0,0,0,0,0,0,-0.9736219228568,-0.20480153019866,-0.44948396384832,5.2625151383834,3.0272275436511,1.1605459322005,-3.3234219427692,1.6077270569363,2.7605578703135,-0.49238784818488,1.8026967745073,-5.4066483162112,1.4519868374711,-1.5119474687629,1.6736371256374,-4.3509739549925,2.0828238867415,4.701672645507,-1.0076366763435,-4.6059818729653,1.76930981367,1.7363942249118,0.04475528181109,-4.0301666058398,3.0845286656134,-2.1514438890352,1.1560336217315,1.1052394667544,-1.7799880618586,1.2035930347036,1.4273022419,-0.3340965001315,0.81097185773313,-4.2178329180597,-1.8580359178214,-3.4382490946452,5.3199388175017,-2.7844482184424,3.1449625457713,-0.44040398885543,-1.3389362041059,-6.9498239776623,0.95876412558526,-2.0606470317131,-3.4117994767831,1.2648648487689,3.5553729945039,-3.8058462322664,214.85315437325,214.85315437325,214.85315437325,214.85315437325,214.85315437325,214.85315437325,214.85315437325,214.85315437325,214.85315437325,214.85315437325,214.85315437325,214.85315437325,214.85315437325,214.85315437325,214.85315437325,214.85315437325,214.85315437325,214.85315437325,214.85315437325,214.85315437325,214.85315437325,214.85315437325,214.85315437325,214.85315437325,214.85315437325,214.85315437325,214.85315437325,214.85315437325,214.85315437325,214.85315437325,214.85315437325,214.85315437325,214.85315437325,214.85315437325,214.85315437325,214.85315437325,214.85315437325,214.85315437325,214.85315437325,214.85315437325,214.85315437325,214.85315437325,214.85315437325,214.85315437325,214.85315437325,214.85315437325,214.85315437325,214.85315437325,229.97229357388,422.91324238799,-0.51560614800814,374.55708180505,-0.52493502217941,0
0.0002471875,758296269.50298,2.1809406902036e-05,7.323242103437e-05,3.1060723585704e-05,1.0228770089609,0,0,0,0,0,0,0,0,0,0,0,0,0,0,0,0,0,0,0,0,0,0,0,0,0,0,0,0,0,0,0,0,0,0,0,0,0,0,0,0,0,0,0,0,0,0,0,0,-0.97369537716864,-0.20390999943924,-0.44781801573945,5.2620875570784,3.0270041175367,1.1600112110475,-3.3227211012657,1.6075215594419,2.7604804090709,-0.49236740401632,1.803252243145,-5.406770744648,1.4522882806429,-1.5111877411201,1.6744296977648,-4.3506552030961,2.0821551377419,4.7007665643517,-1.0077853776646,-4.6052682164083,1.7700619490411,1.7370476572718,0.044537931661468,-4.0300996089416,3.0852690971492,-2.1527770963067,1.156422414778,1.1048756915281,-1.779573891174,1.2031248295093,1.4269355865575,-0.3340849764072,0.81098148775612,-4.21698696347,-1.8570726137094,-3.4376967177641,5.3204137132354,-2.7840731646813,3.1449515958118,-0.44026796607361,-1.3385669912803,-6.9494104626733,0.95925213218898,-2.060213912646,-3.4116166624544,1.2656557177768,3.5541221099087,-3.8043123449415,215.09134897312,215.09134897312,215.09134897312,215.09134897312,215.09134897312,215.09134897312,215.09134897312,215.09134897312,215.09134897312,215.09134897312,215.09134897312,215.09134897312,215.09134897312,215.09134897312,215.09134897312,215.09134897312,215.09134897312,215.09134897312,215.09134897312,215.09134897312,215.09134897312,215.09134897312,215.09134897312,215.09134897312,215.09134897312,215.09134897312,215.09134897312,215.09134897312,215.09134897312,215.09134897312,215.09134897312,215.09134897312,215.09134897312,215.09134897312,215.09134897312,215.09134897312,215.09134897312,215.09134897312,215.09134897312,215.09134897312,215.09134897312,215.09134897312,215.09134897312,215.09134897312,215.09134897312,215.09134897312,215.09134897312,215.09134897312,229.96246931271,423.40765666067,-0.5177595099359,374.98178467917,-0.52709976050885,0
0.0002478125,761222051.72789,2.1862600104404e-05,7.3417652784807e-05,3.1139559618647e-05,1.0229371017705,0,0,0,0,0,0,0,0,0,0,0,0,0,0,0,0,0,0,0,0,0,0,0,0,0,0,0,0,0,0,0,0,0,0,0,0,0,0,0,0,0,0,0,0,0,0,0,0,-0.97376792892018,-0.20302001161438,-0.44616294235538,5.2616629391263,3.0267800031943,1.1594798394322,-3.3220205493416,1.6073151948753,2.7604025584089,-0.4923460707173,1.8038044417278,-5.4068910568283,1.4525896698075,-1.5104295370732,1.6752194511335,-4.3503308429899,2.0814868121376,4.6998613792746,-1.0079322090854,-4.6045586614623,1.7708093629459,1.7377012126931,0.044322338201181,-4.0300393748316,3.0860059624147,-2.1541084347057,1.1568093723141,1.1045144201003,-1.7791578717706,1.2026561738963,1.4265685726622,-0.33407118528694,0.81099095707346,-4.2161401407331,-1.8561104833645,-3.4371468304081,5.3208860968602,-2.7836939762182,3.144941997311,-0.44013188397383,-1.3381988235295,-6.9489945588528,0.95973686783299,-2.0597843150282,-3.4114348662108,1.2664448661531,3.5528757559768,-3.8027801993339,215.32952318409,215.32952318409,215.32952318409,215.32952318409,215.32952318409,215.32952318409,215.32952318409,215.32952318409,215.32952318409,215.32952318409,215.32952318409,215.32952318409,215.32952318409,215.32952318409,215.32952318409,215.32952318409,215.32952318409,215.32952318409,215.32952318409,215.32952318409,215.32952318409,215.32952318409,215.32952318409,215.32952318409,215.32952318409,215.32952318409,215.32952318409,215.32952318409,215.32952318409,215.32952318409,215.32952318409,215.32952318409,215.32952318409,215.32952318409,215.32952318409,215.32952318409,215.32952318409,215.32952318409,215.32952318409,215.32952318409,215.32952318409,215.32952318409,215.32952318409,215.32952318409,215.32952318409,215.32952318409,215.32952318409,215.32952318409,229.95261652245,423.90199661733,-0.51991670475828,375.40642895997,-0.5292683058153,0
0.0002484375,764152597.84597,2.1915779313437e-05,7.3602884660898e-05,3.1218396150315e-05,1.0229971936484,0,0,0,0,0,0,0,0,0,0,0,0,0,0,0,0,0,0,0,0,0,0,0,0,0,0,0,0,0,0,0,0,0,0,0,0,0,0,0,0,0,0,0,0,0,0,0,0,-0.97383957894532,-0.20213153502338,-0.44451864570599,5.2612412701584,3.0265552113809,1.1589518025701,-3.3213202942253,1.6071079759684,2.7603243250493,-0.49232385105375,1.804353390853,-5.4070092731055,1.45289100469,-1.5096728405942,1.6760064112629,-4.350000914812,2.0808189050224,4.69895708775,-1.0080771568573,-4.6038531888058,1.7715521032461,1.7383548767043,0.044108497015773,-4.0299858655103,3.0867392871005,-2.1554379138566,1.1571945144865,1.1041556131067,-1.7787400257371,1.2021870743376,1.4262012243994,-0.33405513371466,0.81100026324731,-4.21529246401,-1.8551495019727,-3.4365994120637,5.3213559901187,-2.7833106747246,3.1449337282667,-0.43999573360219,-1.3378316867116,-6.9485762851791,0.9602183702311,-2.0593582145782,-3.4112540996201,1.2672323384766,3.5516339001935,-3.8012497860984,215.56767697524,215.56767697524,215.56767697524,215.56767697524,215.56767697524,215.56767697524,215.56767697524,215.56767697524,215.56767697524,215.56767697524,215.56767697524,215.56767697524,215.56767697524,215.56767697524,215.56767697524,215.56767697524,215.56767697524,215.56767697524,215.56767697524,215.56767697524,215.56767697524,215.56767697524,215.56767697524,215.56767697524,215.56767697524,215.56767697524,215.56767697524,215.56767697524,215.56767697524,215.56767697524,215.56767697524,215.56767697524,215.56767697524,215.56767697524,215.56767697524,215.56767697524,215.56767697524,215.56767697524,215.56767697524,215.56767697524,215.56767697524,215.56767697524,215.56767697524,215.56767697524,215.56767697524,215.56767697524,215.56767697524,215.56767697524,229.94273544989,424.39626250942,-0.52207773104061,375.83101471575,-0.53144065698292,0
0.0002490625,767087904.50722,2.1968944552898e-05,7.3788116661986e-05,3.1297233201763e-05,1.0230572845947,0,0,0,0,0,0,0,0,0,0,0,0,0,0,0,0,0,0,0,0,0,0,0,0,0,0,0,0,0,0,0,0,0,0,0,0,0,0,0,0,0,0,0,0,0,0,0,0,-0.97391032853294,-0.20124453801929,-0.44288503036137,5.2608225360898,3.0263297528145,1.1584270841124,-3.3206203423949,1.6068999155833,2.7602457154676,-0.49230074761658,1.8048991118054,-5.4071254139701,1.4531922850968,-1.508917635147,1.6767906031472,-4.3496654587841,2.0801514113951,4.6980536877524,-1.0082202094334,-4.6031517791586,1.7722902173515,1.7390086351331,0.043896403573651,-4.0299390420213,3.0874690980546,-2.1567655434255,1.1575778609449,1.1037992303113,-1.7783203743105,1.2017175375429,1.4258335654681,-0.33403682852149,0.81100940413559,-4.2144439477976,-1.8541896455776,-3.436054441853,5.3218234148839,-2.7829232821441,3.1449267667334,-0.43985950599204,-1.3374655674736,-6.9481556602144,0.96069667715185,-2.0589355885546,-3.4110743740007,1.2680181797077,3.5503965102234,-3.799721096433,215.80581031592,215.80581031592,215.80581031592,215.80581031592,215.80581031592,215.80581031592,215.80581031592,215.80581031592,215.80581031592,215.80581031592,215.80581031592,215.80581031592,215.80581031592,215.80581031592,215.80581031592,215.80581031592,215.80581031592,215.80581031592,215.80581031592,215.80581031592,215.80581031592,215.80581031592,215.80581031592,215.80581031592,215.80581031592,215.80581031592,215.80581031592,215.80581031592,215.80581031592,215.80581031592,215.80581031592,215.80581031592,215.80581031592,215.80581031592,215.80581031592,215.80581031592,215.80581031592,215.80581031592,215.80581031592,215.80581031592,215.80581031592,215.80581031592,215.80581031592,215.80581031592,215.80581031592,215.80581031592,215.80581031592,215.80581031592,229.93282633778,424.89045458417,-0.52424258737701,376.2555420139,-0.53361681291113,0
0.0002496875,770027968.36885,2.2022095846371e-05,7.3973348787411e-05,3.1376070793805e-05,1.0231173746098,0,0,0,0,0,0,0,0,0,0,0,0,0,0,0,0,0,0,0,0,0,0,0,0,0,0,0,0,0,0,0,0,0,0,0,0,0,0,0,0,0,0,0,0,0,0,0,0,-0.97398017941485,-0.20035898901024,-0.44126200350879,5.2604067230927,3.0261036381467,1.1579056661127,-3.3199206996195,1.6066910267233,2.7601667359122,-0.4922767628208,1.8054416266027,-5.4072395000221,1.453493510906,-1.5081639036789,1.6775720512583,-4.3493245151593,2.0794843261787,4.6971511777345,-1.0083613575743,-4.6024544132826,1.7730237521807,1.7396624741476,0.043686053235702,-4.0298988643965,3.0881954233308,-2.1580913331109,1.1579594308193,1.1034452307226,-1.7778989379174,1.2012475705042,1.4254656190588,-0.33401627642827,0.81101837791299,-4.2135946068898,-1.8532308911332,-3.435511898454,5.3222883931438,-2.7825318207076,3.1449210907947,-0.43972319218477,-1.3371004532372,-6.9477327020002,0.96117182644119,-2.0585164156315,-3.4108957003596,1.268802435007,3.5491635539444,-3.798194122104,216.04392317571,216.04392317571,216.04392317571,216.04392317571,216.04392317571,216.04392317571,216.04392317571,216.04392317571,216.04392317571,216.04392317571,216.04392317571,216.04392317571,216.04392317571,216.04392317571,216.04392317571,216.04392317571,216.04392317571,216.04392317571,216.04392317571,216.04392317571,216.04392317571,216.04392317571,216.04392317571,216.04392317571,216.04392317571,216.04392317571,216.04392317571,216.04392317571,216.04392317571,216.04392317571,216.04392317571,216.04392317571,216.04392317571,216.04392317571,216.04392317571,216.04392317571,216.04392317571,216.04392317571,216.04392317571,216.04392317571,216.04392317571,216.04392317571,216.04392317571,216.04392317571,216.04392317571,216.04392317571,216.04392317571,216.04392317571,229.92288942531,425.38457308451,-0.52641127235077,376.68001092099,-0.53579677250761,0
0.0002503125,772972786.09477,2.2075233217284e-05,7.4158581036507e-05,3.1454908947034e-05,1.0231774636938,0,0,0,0,0,0,0,0,0,0,0,0,0,0,0,0,0,0,0,0,0,0,0,0,0,0,0,0,0,0,0,0,0,0,0,0,0,0,0,0,0,0,0,0,0,0,0,0,-0.97404913375856,-0.19947485648982,-0.43964947500389,5.2599938175533,3.0258768779317,1.1573875290194,-3.3192213709595,1.606481322529,2.7600873923668,-0.49225189891234,1.8059809580315,-5.4073515519927,1.4537946820464,-1.507411628643,1.6783507795798,-4.3489781242395,2.0788176442455,4.6962495565968,-1.0085005944078,-4.6017610719461,1.773752754108,1.7403163802376,0.043477441262637,-4.0298652916832,3.088918292215,-2.1594152926776,1.1583392426952,1.1030935727172,-1.7774757361878,1.2007771805274,1.4250974077969,-0.33399348405426,0.81102718309156,-4.2127444563759,-1.8522732165437,-3.4349717600758,5.3227509470132,-2.7821363129563,3.1449166785793,-0.43958678325187,-1.3367363321578,-6.9473074280899,0.96164385602865,-2.0581006757923,-3.410718089342,1.2695851495925,3.5479349994693,-3.7966688554552,216.2820155245,216.2820155245,216.2820155245,216.2820155245,216.2820155245,216.2820155245,216.2820155245,216.2820155245,216.2820155245,216.2820155245,216.2820155245,216.2820155245,216.2820155245,216.2820155245,216.2820155245,216.2820155245,216.2820155245,216.2820155245,216.2820155245,216.2820155245,216.2820155245,216.2820155245,216.2820155245,216.2820155245,216.2820155245,216.2820155245,216.2820155245,216.2820155245,216.2820155245,216.2820155245,216.2820155245,216.2820155245,216.2820155245,216.2820155245,216.2820155245,216.2820155245,216.2820155245,216.2820155245,216.2820155245,216.2820155245,216.2820155245,216.2820155245,216.2820155245,216.2820155245,216.2820155245,216.2820155245,216.2820155245,216.2820155245,229.91292494863,425.87861824913,-0.52858378457086,377.1044215027,-0.53798053469068,0
0.0002509375,775922354.3553,2.2128356688905e-05,7.4343813408606e-05,3.1533747681831e-05,1.0232375518469,0,0,0,0,0,0,0,0,0,0,0,0,0,0,0,0,0,0,0,0,0,0,0,0,0,0,0,0,0,0,0,0,0,0,0,0,0,0,0,0,0,0,0,0,0,0,0,0,-0.9741171941527,-0.19859210905158,-0.43804735739988,5.2595838060386,3.0256494825958,1.1568726516577,-3.318522360789,1.6062708162914,2.7600076905658,-0.49222615796812,1.8065171296775,-5.4074615907233,1.4540957984876,-1.5066607919833,1.6791268115989,-4.348626326354,2.0781513604157,4.6953488236591,-1.0086379155024,-4.6010717358969,1.7744772689287,1.7409703402523,0.043270562826276,-4.0298382819581,3.0896377352368,-2.1607374319482,1.1587173145929,1.1027442141589,-1.7770507879944,1.2003063752787,1.4247289537164,-0.33396845791721,0.81103581854076,-4.2118935116087,-1.8513166007021,-3.4344340043902,5.3232110986949,-2.7817367817486,3.1449135082382,-0.43945027030289,-1.3363731931104,-6.9468798555313,0.96211280392168,-2.057688350222,-3.4105415511571,1.2703663685772,3.546710815181,-3.795145289414,216.52008733241,216.52008733241,216.52008733241,216.52008733241,216.52008733241,216.52008733241,216.52008733241,216.52008733241,216.52008733241,216.52008733241,216.52008733241,216.52008733241,216.52008733241,216.52008733241,216.52008733241,216.52008733241,216.52008733241,216.52008733241,216.52008733241,216.52008733241,216.52008733241,216.52008733241,216.52008733241,216.52008733241,216.52008733241,216.52008733241,216.52008733241,216.52008733241,216.52008733241,216.52008733241,216.52008733241,216.52008733241,216.52008733241,216.52008733241,216.52008733241,216.52008733241,216.52008733241,216.52008733241,216.52008733241,216.52008733241,216.52008733241,216.52008733241,216.52008733241,216.52008733241,216.52008733241,216.52008733241,216.52008733241,216.52008733241,229.90293314117,426.37259031241,-0.53076012267328,377.52877382399,-0.54016809839473,0
0.0002515625,778876669.82672,2.2181466284349e-05,7.4529045903033e-05,3.1612587018424e-05,1.0232976390695,0,0,0,0,0,0,0,0,0,0,0,0,0,0,0,0,0,0,0,0,0,0,0,0,0,0,0,0,0,0,0,0,0,0,0,0,0,0,0,0,0,0,0,0,0,0,0,0,-0.97418436360374,-0.19771071540966,-0.43645556600135,5.2591766752569,3.0254214624067,1.1563610112295,-3.3178236728312,1.6060595214599,2.7599276359846,-0.49219954190023,1.8070501659603,-5.4075696371827,1.4543968602245,-1.5059113751757,1.6799001703318,-4.3482691618306,2.0774854694882,4.6944489786292,-1.0087733189264,-4.6003863858582,1.7751973418203,1.7416243414067,0.043065413015522,-4.0298177923013,3.0903537842046,-2.1620577608286,1.1590936639406,1.1023971125257,-1.7766241114866,1.1998351628284,1.4243602782215,-0.33394120444117,0.81104428350536,-4.2110417882031,-1.8503610235439,-3.4338986085136,5.3236688704833,-2.7813332502832,3.1449115579566,-0.43931364452908,-1.3360110256545,-6.9464500008037,0.96257870821954,-2.0572794211955,-3.410366095522,1.2711461368237,3.5454909697482,-3.7936234175072,216.75813856982,216.75813856982,216.75813856982,216.75813856982,216.75813856982,216.75813856982,216.75813856982,216.75813856982,216.75813856982,216.75813856982,216.75813856982,216.75813856982,216.75813856982,216.75813856982,216.75813856982,216.75813856982,216.75813856982,216.75813856982,216.75813856982,216.75813856982,216.75813856982,216.75813856982,216.75813856982,216.75813856982,216.75813856982,216.75813856982,216.75813856982,216.75813856982,216.75813856982,216.75813856982,216.75813856982,216.75813856982,216.75813856982,216.75813856982,216.75813856982,216.75813856982,216.75813856982,216.75813856982,216.75813856982,216.75813856982,216.75813856982,216.75813856982,216.75813856982,216.75813856982,216.75813856982,216.75813856982,216.75813856982,216.75813856982,229.89291423414,426.86648950444,-0.53294028528184,377.95306794906,-0.54235946255544,0
0.0002521875,781835729.19104,2.2234562026592e-05,7.4714278519113e-05,3.1691426976716e-05,1.0233577253617,0,0,0,0,0,0,0,0,0,0,0,0,0,0,0,0,0,0,0,0,0,0,0,0,0,0,0,0,0,0,0,0,0,0,0,0,0,0,0,0,0,0,0,0,0,0,0,0,-0.97425064552084,-0.19683064441997,-0.43487401888842,5.2587724120285,3.0251928274319,1.1558525833208,-3.3171253101588,1.6058474516528,2.7598472338166,-0.49217205245704,1.807580092151,-5.4076757124513,1.454697867267,-1.5051633592317,1.6806708783221,-4.347906670991,2.0768199662465,4.6935500215642,-1.0089068052863,-4.5997050024889,1.7759130173085,1.7422783712874,0.042861986850736,-4.0298037788343,3.0910664721975,-2.163376289307,1.1594683075483,1.1020522250375,-1.7761957241088,1.199363551696,1.4239914020354,-0.33391172995852,0.81105257762346,-4.2101893020043,-1.8494064660799,-3.4333655489745,5.3241242847245,-2.7809257421055,3.1449108059399,-0.43917689721231,-1.3356498200156,-6.9460178798395,0.9630416071084,-2.0568738719765,-3.4101917315746,1.2719244987888,3.5442754321639,-3.7921032338532,216.99616920737,216.99616920737,216.99616920737,216.99616920737,216.99616920737,216.99616920737,216.99616920737,216.99616920737,216.99616920737,216.99616920737,216.99616920737,216.99616920737,216.99616920737,216.99616920737,216.99616920737,216.99616920737,216.99616920737,216.99616920737,216.99616920737,216.99616920737,216.99616920737,216.99616920737,216.99616920737,216.99616920737,216.99616920737,216.99616920737,216.99616920737,216.99616920737,216.99616920737,216.99616920737,216.99616920737,216.99616920737,216.99616920737,216.99616920737,216.99616920737,216.99616920737,216.99616920737,216.99616920737,216.99616920737,216.99616920737,216.99616920737,216.99616920737,216.99616920737,216.99616920737,216.99616920737,216.99616920737,216.99616920737,216.99616920737,229.88286845706,427.360316051,-0.53512427105794,378.37730394143,-0.54455462614145,0
0.0002528125,784799529.13564,2.2287643938471e-05,7.4899511256163e-05,3.1770267576451e-05,1.0234178107237,0,0,0,0,0,0,0,0,0,0,0,0,0,0,0,0,0,0,0,0,0,0,0,0,0,0,0,0,0,0,0,0,0,0,0,0,0,0,0,0,0,0,0,0,0,0,0,0,-0.97431604370983,-0.19595186510239,-0.4333026369514,5.2583710032305,3.0249635875087,1.1553473419094,-3.3164272752175,1.6056346206717,2.7597664890064,-0.4921436912273,1.8081069343995,-5.4077798377328,1.4549988196188,-1.5044167247136,1.6814389576695,-4.3475388941258,2.0761548454828,4.692651952837,-1.0090383777646,-4.5990275663604,1.7766243392366,1.7429324178962,0.042660279290329,-4.0297961967198,3.0917758335814,-2.1646930274808,1.1598412615859,1.1017095087764,-1.7757656426346,1.1988915508992,1.423622345187,-0.33388004071769,0.81106070094293,-4.2093360690825,-1.8484529104365,-3.4328348016866,5.3245773638219,-2.7805142811196,3.1449112304252,-0.43904001974817,-1.335289567041,-6.9455835079874,0.96350153886717,-2.0564716867228,-3.4100184678231,1.2727014983908,3.5430641717596,-3.7905847331597,217.23417921595,217.23417921595,217.23417921595,217.23417921595,217.23417921595,217.23417921595,217.23417921595,217.23417921595,217.23417921595,217.23417921595,217.23417921595,217.23417921595,217.23417921595,217.23417921595,217.23417921595,217.23417921595,217.23417921595,217.23417921595,217.23417921595,217.23417921595,217.23417921595,217.23417921595,217.23417921595,217.23417921595,217.23417921595,217.23417921595,217.23417921595,217.23417921595,217.23417921595,217.23417921595,217.23417921595,217.23417921595,217.23417921595,217.23417921595,217.23417921595,217.23417921595,217.23417921595,217.23417921595,217.23417921595,217.23417921595,217.23417921595,217.23417921595,217.23417921595,217.23417921595,217.23417921595,217.23417921595,217.23417921595,217.23417921595,229.87279603801,427.85407017355,-0.53731207866873,378.801481864,-0.54675358811913,0
0.0002534375,787768066.35302,2.2340712042692e-05,7.5084744113499e-05,3.1849108837118e-05,1.0234778951558,0,0,0,0,0,0,0,0,0,0,0,0,0,0,0,0,0,0,0,0,0,0,0,0,0,0,0,0,0,0,0,0,0,0,0,0,0,0,0,0,0,0,0,0,0,0,0,0,-0.97438056236084,-0.19507434666852,-0.43174134391366,5.2579724357824,3.0247337522108,1.1548452593932,-3.3157295698199,1.6054210425183,2.7596854062041,-0.49211445964026,1.8086307197449,-5.4078820343607,1.4552997172747,-1.5036714517594,1.6822044300149,-4.3471658714903,2.075490101993,4.691754773104,-1.0091680421399,-4.5983540579164,1.7773313507432,1.7435864696256,0.042460285242612,-4.0297950002133,3.0924819040001,-2.1660079855609,1.1602125415597,1.1013689208162,-1.7753338831763,1.1984191700062,1.4232531269493,-0.33384614288017,0.81106865393556,-4.2084821057205,-1.8475003398979,-3.4323063419305,5.3250281301744,-2.7800988916025,3.1449128096646,-0.43890300367101,-1.3349302581894,-6.945146900036,0.96395854185126,-2.0560728503795,-3.4098463120418,1.2734771788702,3.5418571582393,-3.7890679107421,217.4721685667,217.4721685667,217.4721685667,217.4721685667,217.4721685667,217.4721685667,217.4721685667,217.4721685667,217.4721685667,217.4721685667,217.4721685667,217.4721685667,217.4721685667,217.4721685667,217.4721685667,217.4721685667,217.4721685667,217.4721685667,217.4721685667,217.4721685667,217.4721685667,217.4721685667,217.4721685667,217.4721685667,217.4721685667,217.4721685667,217.4721685667,217.4721685667,217.4721685667,217.4721685667,217.4721685667,217.4721685667,217.4721685667,217.4721685667,217.4721685667,217.4721685667,217.4721685667,217.4721685667,217.4721685667,217.4721685667,217.4721685667,217.4721685667,217.4721685667,217.4721685667,217.4721685667,217.4721685667,217.4721685667,217.4721685667,229.86269720427,428.34775208919,-0.53950370680724,379.22560177908,-0.54895634747121,0
0.0002540625,790741337.54059,2.2393766361842e-05,7.5269977090433e-05,3.1927950777899e-05,1.0235379786582,0,0,0,0,0,0,0,0,0,0,0,0,0,0,0,0,0,0,0,0,0,0,0,0,0,0,0,0,0,0,0,0,0,0,0,0,0,0,0,0,0,0,0,0,0,0,0,0,-0.97444420604269,-0.19419805853448,-0.43019006633164,5.2575766965891,3.0245033308059,1.1543463066154,-3.315032195193,1.6052067314087,2.7596039898053,-0.49208435896819,1.8091514761274,-5.4079823237892,1.4556005602015,-1.502927520114,1.6829673165706,-4.3467876432707,2.0748257306219,4.6908584832594,-1.0092958067828,-4.5976844574737,1.778034094239,1.7442405153151,0.042261999579047,-4.0298001426431,3.0931847203585,-2.1673211738866,1.1605821622871,1.1010304183366,-1.7749004612336,1.1979464191814,1.4228837658343,-0.33381004253053,0.81107643751093,-4.2076274283939,-1.8465487389344,-3.4317801443568,5.3254766061892,-2.7796795982077,3.1449155219655,-0.4387658406815,-1.33457188549,-6.9447080701568,0.96441265450454,-2.0556773486038,-3.4096752712229,1.2742515826798,3.5406543617015,-3.7875527624757,217.71013723101,217.71013723101,217.71013723101,217.71013723101,217.71013723101,217.71013723101,217.71013723101,217.71013723101,217.71013723101,217.71013723101,217.71013723101,217.71013723101,217.71013723101,217.71013723101,217.71013723101,217.71013723101,217.71013723101,217.71013723101,217.71013723101,217.71013723101,217.71013723101,217.71013723101,217.71013723101,217.71013723101,217.71013723101,217.71013723101,217.71013723101,217.71013723101,217.71013723101,217.71013723101,217.71013723101,217.71013723101,217.71013723101,217.71013723101,217.71013723101,217.71013723101,217.71013723101,217.71013723101,217.71013723101,217.71013723101,217.71013723101,217.71013723101,217.71013723101,217.71013723101,217.71013723101,217.71013723101,217.71013723101,217.71013723101,229.8525721827,428.84136201064,-0.54169915416801,379.64966374844,-0.5511629031958,0
0.0002546875,793719339.40043,2.2446806918383e-05,7.5455210186275e-05,3.2006793417822e-05,1.0235980612311,0,0,0,0,0,0,0,0,0,0,0,0,0,0,0,0,0,0,0,0,0,0,0,0,0,0,0,0,0,0,0,0,0,0,0,0,0,0,0,0,0,0,0,0,0,0,0,0,-0.97450697969138,-0.19332297035465,-0.42864873362103,5.2571837725184,3.0242723322222,1.1538504529038,-3.3143351519529,1.6049917017985,2.7595222439356,-0.49205339032893,1.809669232388,-5.4080807276043,1.4559013483271,-1.5021849091474,1.6837276381152,-4.3464042495797,2.0741617262334,4.689963084391,-1.0094216826594,-4.5970187451649,1.7787326113901,1.7448945442517,0.042065417141628,-4.0298115764831,3.0938843208024,-2.1686326029373,1.1609501378779,1.1006939587442,-1.774465391691,1.1974733092474,1.422514279549,-0.33377174567583,0.81108405302537,-4.2067720537644,-1.8455980932382,-3.4312561829757,5.3259228142235,-2.7792564259729,3.1449193456417,-0.43862852266227,-1.3342144415173,-6.9442670319456,0.9648639153328,-2.0552851676701,-3.4095053514715,1.2750247513495,3.5394557526531,-3.7860392848128,217.94808518053,217.94808518053,217.94808518053,217.94808518053,217.94808518053,217.94808518053,217.94808518053,217.94808518053,217.94808518053,217.94808518053,217.94808518053,217.94808518053,217.94808518053,217.94808518053,217.94808518053,217.94808518053,217.94808518053,217.94808518053,217.94808518053,217.94808518053,217.94808518053,217.94808518053,217.94808518053,217.94808518053,217.94808518053,217.94808518053,217.94808518053,217.94808518053,217.94808518053,217.94808518053,217.94808518053,217.94808518053,217.94808518053,217.94808518053,217.94808518053,217.94808518053,217.94808518053,217.94808518053,217.94808518053,217.94808518053,217.94808518053,217.94808518053,217.94808518053,217.94808518053,217.94808518053,217.94808518053,217.94808518053,217.94808518053,229.8424212001,429.33490014626,-0.54389841947375,380.0736678334,-0.55337325430004,0
0.0002553125,796702068.63919,2.2499833734708e-05,7.5640443400329e-05,3.2085636775908e-05,1.0236581428747,0,0,0,0,0,0,0,0,0,0,0,0,0,0,0,0,0,0,0,0,0,0,0,0,0,0,0,0,0,0,0,0,0,0,0,0,0,0,0,0,0,0,0,0,0,0,0,0,-0.97456888860179,-0.19244905203444,-0.42711727803726,5.2567936503549,3.0240407650082,1.1533576661194,-3.313638440134,1.6047759683927,2.7594401724605,-0.49202155468605,1.8101840182702,-5.4081772675332,1.456202081535,-1.50144359787,1.6844854150009,-4.3460157304314,2.0734980837768,4.6890685777413,-1.0095456832912,-4.5963569009246,1.7794269431024,1.7455485461973,0.041870532756393,-4.0298292533629,3.0945807446897,-2.1699422833547,1.1613164817097,1.1003594997814,-1.7740286888516,1.1969998517277,1.4221446849708,-0.33373125824845,0.81109150229206,-4.2059159986702,-1.8446483897454,-3.4307344311371,5.3263667765648,-2.7788294003212,3.1449242590798,-0.43849104169785,-1.33385791937,-6.9438237983948,0.96531236292755,-2.0548962943792,-3.4093365579328,1.2757967254021,3.5382613020372,-3.7845274747368,218.18601238716,218.18601238716,218.18601238716,218.18601238716,218.18601238716,218.18601238716,218.18601238716,218.18601238716,218.18601238716,218.18601238716,218.18601238716,218.18601238716,218.18601238716,218.18601238716,218.18601238716,218.18601238716,218.18601238716,218.18601238716,218.18601238716,218.18601238716,218.18601238716,218.18601238716,218.18601238716,218.18601238716,218.18601238716,218.18601238716,218.18601238716,218.18601238716,218.18601238716,218.18601238716,218.18601238716,218.18601238716,218.18601238716,218.18601238716,218.18601238716,218.18601238716,218.18601238716,218.18601238716,218.18601238716,218.18601238716,218.18601238716,218.18601238716,218.18601238716,218.18601238716,218.18601238716,218.18601238716,218.18601238716,218.18601238716,229.83224448376,429.82836669996,-0.54610150145554,380.49761409483,-0.55558739981302,0
0.0002559375,799689521.96789,2.2552846833033e-05,7.5825676731899e-05,3.2164480870293e-05,1.0237182235892,0,0,0,0,0,0,0,0,0,0,0,0,0,0,0,0,0,0,0,0,0,0,0,0,0,0,0,0,0,0,0,0,0,0,0,0,0,0,0,0,0,0,0,0,0,0,0,0,-0.97462993842283,-0.19157627376476,-0.42559563467931,5.2564063167772,3.0238086373034,1.1528679127106,-3.3129420591926,1.6045595461795,2.7593577789807,-0.49198885285238,1.8106958644076,-5.408271965454,1.4565027596478,-1.5007035649862,1.6852406671703,-4.3456221257294,2.0728347982434,4.6881749646655,-1.0096678247273,-4.595698904461,1.7801171295177,1.7462025113932,0.041677341245126,-4.0298531241141,3.0952740325496,-2.1712502259508,1.1616812064144,1.1000269996372,-1.7735903664566,1.1965260589135,1.4217749981167,-0.33368858611007,0.81109878758646,-4.2050592801252,-1.8436996166665,-3.4302148615735,5.326808515405,-2.7783985470682,3.1449302406869,-0.43835339010701,-1.3335023126319,-6.9433783819053,0.96575803592366,-2.0545107160042,-3.4091688947065,1.2765675442377,3.5370709812533,-3.7830173297617,218.42391882305,218.42391882305,218.42391882305,218.42391882305,218.42391882305,218.42391882305,218.42391882305,218.42391882305,218.42391882305,218.42391882305,218.42391882305,218.42391882305,218.42391882305,218.42391882305,218.42391882305,218.42391882305,218.42391882305,218.42391882305,218.42391882305,218.42391882305,218.42391882305,218.42391882305,218.42391882305,218.42391882305,218.42391882305,218.42391882305,218.42391882305,218.42391882305,218.42391882305,218.42391882305,218.42391882305,218.42391882305,218.42391882305,218.42391882305,218.42391882305,218.42391882305,218.42391882305,218.42391882305,218.42391882305,218.42391882305,218.42391882305,218.42391882305,218.42391882305,218.42391882305,218.42391882305,218.42391882305,218.42391882305,218.42391882305,229.82204226177,430.32176187125,-0.54830839886559,380.92150259325,-0.55780533875841,0
0.0002565625,802681696.10182,2.2605846235554e-05,7.6010910180287e-05,3.2243325719308e-05,1.0237783033748,0,0,0,0,0,0,0,0,0,0,0,0,0,0,0,0,0,0,0,0,0,0,0,0,0,0,0,0,0,0,0,0,0,0,0,0,0,0,0,0,0,0,0,0,0,0,0,0,-0.97469013514609,-0.19070460603159,-0.42408374144995,5.2560217583201,3.0235759567981,1.152381157771,-3.3122460080267,1.6043424504465,2.7592750668539,-0.49195528548804,1.8112048023083,-5.4083648433885,1.4568033824234,-1.4999647889138,1.6859934141523,-4.3452234752323,2.0721718647217,4.6872822465829,-1.0097881254809,-4.5950447352395,1.7808032100083,1.746856430593,0.041485837436484,-4.0298831387826,3.0959642260285,-2.1725564417203,1.1620443238576,1.0996964170412,-1.7731504377098,1.1960519439137,1.4214052341371,-0.33364373505116,0.81110591164979,-4.2042019152985,-1.8427517635031,-3.4296974463925,5.3272480528031,-2.7779638924189,3.1449372689466,-0.4382155604579,-1.333147615354,-6.9429307942493,0.96620097301518,-2.0541284201998,-3.4090023647607,1.2773372460659,3.5358847621688,-3.7815088478747,218.6618044606,218.6618044606,218.6618044606,218.6618044606,218.6618044606,218.6618044606,218.6618044606,218.6618044606,218.6618044606,218.6618044606,218.6618044606,218.6618044606,218.6618044606,218.6618044606,218.6618044606,218.6618044606,218.6618044606,218.6618044606,218.6618044606,218.6618044606,218.6618044606,218.6618044606,218.6618044606,218.6618044606,218.6618044606,218.6618044606,218.6618044606,218.6618044606,218.6618044606,218.6618044606,218.6618044606,218.6618044606,218.6618044606,218.6618044606,218.6618044606,218.6618044606,218.6618044606,218.6618044606,218.6618044606,218.6618044606,218.6618044606,218.6618044606,218.6618044606,218.6618044606,218.6618044606,218.6618044606,218.6618044606,218.6618044606,229.81181476351,430.81508585516,-0.55051911045475,381.34533338885,-0.56002707018412,0
0.0002571875,805678587.76054,2.2658831964348e-05,7.6196143744791e-05,3.2322171340854e-05,1.0238383822318,0,0,0,0,0,0,0,0,0,0,0,0,0,0,0,0,0,0,0,0,0,0,0,0,0,0,0,0,0,0,0,0,0,0,0,0,0,0,0,0,0,0,0,0,0,0,0,0,-0.9747494851004,-0.18983401964346,-0.42258153904663,5.2556399613428,3.0233427306983,1.1518973651205,-3.3115502849379,1.6041246968022,2.7591920392077,-0.49192085310736,1.811710864329,-5.4084559235335,1.4571039495461,-1.4992272477892,1.6867436750691,-4.3448198185763,2.0715092783907,4.6863904249309,-1.0099066064588,-4.5943943724139,1.7814852231715,1.7475102950832,0.041296016176434,-4.0299192467456,3.0966513678359,-2.1738609418653,1.1624058451262,1.0993677113662,-1.7727089152682,1.195577520709,1.4210354072934,-0.33359671079438,0.81111287768759,-4.2033439215261,-1.8418048210592,-3.4291821570766,5.3276854106411,-2.7775254629692,3.1449453224086,-0.43807754557278,-1.332793822026,-6.9424810466738,0.96664121293848,-2.0537493949437,-3.4088369698352,1.2781058678262,3.5347026171415,-3.7800020275215,218.89966927247,218.89966927247,218.89966927247,218.89966927247,218.89966927247,218.89966927247,218.89966927247,218.89966927247,218.89966927247,218.89966927247,218.89966927247,218.89966927247,218.89966927247,218.89966927247,218.89966927247,218.89966927247,218.89966927247,218.89966927247,218.89966927247,218.89966927247,218.89966927247,218.89966927247,218.89966927247,218.89966927247,218.89966927247,218.89966927247,218.89966927247,218.89966927247,218.89966927247,218.89966927247,218.89966927247,218.89966927247,218.89966927247,218.89966927247,218.89966927247,218.89966927247,218.89966927247,218.89966927247,218.89966927247,218.89966927247,218.89966927247,218.89966927247,218.89966927247,218.89966927247,218.89966927247,218.89966927247,218.89966927247,218.89966927247,229.80156221988,431.30833884228,-0.55273363500687,381.76910654155,-0.56225259314233,0
0.0002578125,808680193.66773,2.2711804041413e-05,7.6381377424708e-05,3.240101775232e-05,1.0238984601602,0,0,0,0,0,0,0,0,0,0,0,0,0,0,0,0,0,0,0,0,0,0,0,0,0,0,0,0,0,0,0,0,0,0,0,0,0,0,0,0,0,0,0,0,0,0,0,0,-0.97480799494811,-0.18896448574908,-0.42108897090356,5.2552609120006,3.0231089656996,1.1514164973806,-3.3108548876974,1.6039063012128,2.7591086989383,-0.4918855560754,1.8122140836566,-5.4085452282703,1.457404460622,-1.4984909195278,1.6874914686452,-4.3444111952069,2.0708470345311,4.6854995011273,-1.0100232908696,-4.5937477948624,1.7821632068462,1.7481640966994,0.041107872341119,-4.0299613966663,3.0973355016848,-2.1751637378141,1.1627657805149,1.0990408427133,-1.7722658112947,1.1951028042196,1.4206655309344,-0.33354751899534,0.81111968937304,-4.2024853163098,-1.8408587814616,-3.4286689645159,5.3281206106171,-2.7770832856984,3.1449543796955,-0.43793933856739,-1.3324409275565,-6.942029149784,0.96707879446434,-2.053373628468,-3.4086727103692,1.2788734451204,3.5335245190307,-3.7784968675452,219.13751323157,219.13751323157,219.13751323157,219.13751323157,219.13751323157,219.13751323157,219.13751323157,219.13751323157,219.13751323157,219.13751323157,219.13751323157,219.13751323157,219.13751323157,219.13751323157,219.13751323157,219.13751323157,219.13751323157,219.13751323157,219.13751323157,219.13751323157,219.13751323157,219.13751323157,219.13751323157,219.13751323157,219.13751323157,219.13751323157,219.13751323157,219.13751323157,219.13751323157,219.13751323157,219.13751323157,219.13751323157,219.13751323157,219.13751323157,219.13751323157,219.13751323157,219.13751323157,219.13751323157,219.13751323157,219.13751323157,219.13751323157,219.13751323157,219.13751323157,219.13751323157,219.13751323157,219.13751323157,219.13751323157,219.13751323157,229.7912848639,431.8015210187,-0.55495197130023,382.19282211108,-0.56448190669871,0
0.0002584375,811686510.55127,2.2764762488711e-05,7.6566611219332e-05,3.2479864971253e-05,1.0239585371603,0,0,0,0,0,0,0,0,0,0,0,0,0,0,0,0,0,0,0,0,0,0,0,0,0,0,0,0,0,0,0,0,0,0,0,0,0,0,0,0,0,0,0,0,0,0,0,0,-0.97486567167212,-0.18809597585957,-0.41960598314933,5.254884596214,3.0228746679477,1.1509385160583,-3.3101598134382,1.6036872800133,2.7590250487053,-0.49184939461311,1.8127144942444,-5.4086327801757,1.4577049151737,-1.4977557818228,1.6882368131919,-4.3439976444467,2.0701851285362,4.6846094765137,-1.0101382041271,-4.5931049810388,1.7828371981092,1.7488178278072,0.040921400846631,-4.030009536694,3.0980166721836,-2.1764648412281,1.1631241395175,1.0987157719913,-1.7718211374116,1.1946278103517,1.4202956174817,-0.3334961652388,0.81112635083041,-4.2016261173117,-1.8399136381465,-3.4281578390246,5.3285536741462,-2.7766373879683,3.1449644195232,-0.43780093283801,-1.3320889272465,-6.9415751137579,0.96751375638509,-2.053001109206,-3.4085095853636,1.2796400121678,3.5323504412105,-3.7769933671684,219.37533631109,219.37533631109,219.37533631109,219.37533631109,219.37533631109,219.37533631109,219.37533631109,219.37533631109,219.37533631109,219.37533631109,219.37533631109,219.37533631109,219.37533631109,219.37533631109,219.37533631109,219.37533631109,219.37533631109,219.37533631109,219.37533631109,219.37533631109,219.37533631109,219.37533631109,219.37533631109,219.37533631109,219.37533631109,219.37533631109,219.37533631109,219.37533631109,219.37533631109,219.37533631109,219.37533631109,219.37533631109,219.37533631109,219.37533631109,219.37533631109,219.37533631109,219.37533631109,219.37533631109,219.37533631109,219.37533631109,219.37533631109,219.37533631109,219.37533631109,219.37533631109,219.37533631109,219.37533631109,219.37533631109,219.37533631109,229.78098293097,432.29463256601,-0.5571741181569,382.61648015695,-0.56671500993575,0
0.0002590625,814697535.14324,2.2817707328123e-05,7.6751845127957e-05,3.2558713014678e-05,1.0240186132323,0,0,0,0,0,0,0,0,0,0,0,0,0,0,0,0,0,0,0,0,0,0,0,0,0,0,0,0,0,0,0,0,0,0,0,0,0,0,0,0,0,0,0,0,0,0,0,0,-0.97492252257917,-0.18722846185449,-0.41813252454497,5.254510999649,3.0226398430164,1.150463381642,-3.3094650588078,1.6034676499486,2.7589410910282,-0.49181236879639,1.8132121308013,-5.4087186020404,1.4580053126346,-1.4970218121913,1.688979726642,-4.3435792053568,2.0695235559433,4.6837203523209,-1.0102513737297,-4.5924659091181,1.783507233302,1.7494714814126,0.040736596661717,-4.0300636143055,3.0986949248011,-2.1777642640321,1.163480930819,1.0983924609935,-1.7713749047986,1.194152556066,1.4199256784744,-0.33344265504861,0.81113286663653,-4.2007663423666,-1.8389693858814,-3.4276487503551,5.3289846224099,-2.7761877975083,3.1449754207214,-0.43766232209946,-1.3317378167672,-6.9411189480638,0.96794613752228,-2.052631825743,-3.4083475923481,1.2804056017584,3.5311803575806,-3.7754915259021,219.61313848445,219.61313848445,219.61313848445,219.61313848445,219.61313848445,219.61313848445,219.61313848445,219.61313848445,219.61313848445,219.61313848445,219.61313848445,219.61313848445,219.61313848445,219.61313848445,219.61313848445,219.61313848445,219.61313848445,219.61313848445,219.61313848445,219.61313848445,219.61313848445,219.61313848445,219.61313848445,219.61313848445,219.61313848445,219.61313848445,219.61313848445,219.61313848445,219.61313848445,219.61313848445,219.61313848445,219.61313848445,219.61313848445,219.61313848445,219.61313848445,219.61313848445,219.61313848445,219.61313848445,219.61313848445,219.61313848445,219.61313848445,219.61313848445,219.61313848445,219.61313848445,219.61313848445,219.61313848445,219.61313848445,219.61313848445,229.77065665905,432.78767366128,-0.55940007437851,383.04008073857,-0.56895190193835,0
0.0002596875,817713264.17993,2.2870638581487e-05,7.6937079149874e-05,3.263756189923e-05,1.0240786883763,0,0,0,0,0,0,0,0,0,0,0,0,0,0,0,0,0,0,0,0,0,0,0,0,0,0,0,0,0,0,0,0,0,0,0,0,0,0,0,0,0,0,0,0,0,0,0,0,-0.97497855529011,-0.18636191600867,-0.41666854641349,5.2541401076857,3.0224044958751,1.1499910536971,-3.3087706198431,1.6032474281899,2.758856828184,-0.49177447855999,1.8137070287112,-5.4088027168852,1.4583056523494,-1.4962889880171,1.6897202265311,-4.3431559168344,2.0688623124207,4.682832129617,-1.010362829134,-4.59183055683,1.7841733480379,1.7501250510704,0.040553454815821,-4.0301235765479,3.0993703057247,-2.1790620184232,1.1638361622906,1.0980708724632,-1.7709271241309,1.1936770594254,1.4195557244809,-0.33338699387875,0.81113924180145,-4.1999060094807,-1.8380260207454,-3.4271416677568,5.3294134762601,-2.7757345424134,3.1449873622267,-0.43752350039476,-1.3313875921387,-6.940660661744,0.96837597670647,-2.052265766763,-3.4081867272464,1.2811702452136,3.5300142425743,-3.7739913435242,219.85091972538,219.85091972538,219.85091972538,219.85091972538,219.85091972538,219.85091972538,219.85091972538,219.85091972538,219.85091972538,219.85091972538,219.85091972538,219.85091972538,219.85091972538,219.85091972538,219.85091972538,219.85091972538,219.85091972538,219.85091972538,219.85091972538,219.85091972538,219.85091972538,219.85091972538,219.85091972538,219.85091972538,219.85091972538,219.85091972538,219.85091972538,219.85091972538,219.85091972538,219.85091972538,219.85091972538,219.85091972538,219.85091972538,219.85091972538,219.85091972538,219.85091972538,219.85091972538,219.85091972538,219.85091972538,219.85091972538,219.85091972538,219.85091972538,219.85091972538,219.85091972538,219.85091972538,219.85091972538,219.85091972538,219.85091972538,229.76030628919,433.28064447705,-0.56162983878318,383.46362391527,-0.57119258178767,0
0.0002603125,820733694.40192,2.2923556270596e-05,7.7122313284374e-05,3.2716411641383e-05,1.0241387625925,0,0,0,0,0,0,0,0,0,0,0,0,0,0,0,0,0,0,0,0,0,0,0,0,0,0,0,0,0,0,0,0,0,0,0,0,0,0,0,0,0,0,0,0,0,0,0,0,-0.97503377773905,-0.18549631098983,-0.41521400253879,5.2537719053992,3.0221686308731,1.1495214909757,-3.3080764920431,1.6030266323737,2.7587722623496,-0.49173572369773,1.8141992239874,-5.4088851479946,1.4586059335739,-1.4955572865299,1.6904583300085,-4.3427278175238,2.0682013937928,4.6819448092708,-1.0104726016058,-4.591198901518,1.7848355772383,1.750778531003,0.040371970412066,-4.0301893699848,3.1000428617799,-2.1803581169072,1.1641898409946,1.0977509701564,-1.7704778056357,1.1932013396649,1.4191857651957,-0.33332918711827,0.81114548175337,-4.1990451368542,-1.8370835401189,-3.4266365599476,5.3298402562117,-2.7752776511229,3.1450002231057,-0.43738446208361,-1.3310382497166,-6.9402002632629,0.96880331278077,-2.0519029210042,-3.4080269842989,1.2819339723674,3.5288520711668,-3.7724928199869,220.08868000783,220.08868000783,220.08868000783,220.08868000783,220.08868000783,220.08868000783,220.08868000783,220.08868000783,220.08868000783,220.08868000783,220.08868000783,220.08868000783,220.08868000783,220.08868000783,220.08868000783,220.08868000783,220.08868000783,220.08868000783,220.08868000783,220.08868000783,220.08868000783,220.08868000783,220.08868000783,220.08868000783,220.08868000783,220.08868000783,220.08868000783,220.08868000783,220.08868000783,220.08868000783,220.08868000783,220.08868000783,220.08868000783,220.08868000783,220.08868000783,220.08868000783,220.08868000783,220.08868000783,220.08868000783,220.08868000783,220.08868000783,220.08868000783,220.08868000783,220.08868000783,220.08868000783,220.08868000783,220.08868000783,220.08868000783,229.74993206553,433.77354518132,-0.563863410206,383.88710974631,-0.573437048595,0
0.0002609375,823758822.55419,2.297646041717e-05,7.7307547530746e-05,3.2795262257176e-05,1.024198835881,0,0,0,0,0,0,0,0,0,0,0,0,0,0,0,0,0,0,0,0,0,0,0,0,0,0,0,0,0,0,0,0,0,0,0,0,0,0,0,0,0,0,0,0,0,0,0,0,-0.97508819816864,-0.18463161988667,-0.41376884909531,5.2534063775472,3.0219322517128,1.1490546515311,-3.3073826703051,1.6028052806237,2.7586873955445,-0.49169610386821,1.8146887531985,-5.4089659189406,1.4589061554741,-1.4948266848607,1.6911940538345,-4.3422949458549,2.0675407960534,4.6810583919119,-1.0105807240702,-4.5905709200513,1.7854939551516,1.7514319160453,0.040192138633154,-4.0302609408316,3.1007126403133,-2.18165257231,1.1645419731809,1.0974327188985,-1.7700269590614,1.1927254172413,1.4188158093872,-0.33326924008953,0.81115159231736,-4.1981837428913,-1.8361419426701,-3.426133395184,5.330264982388,-2.774817152417,3.145013982584,-0.43724520186057,-1.3306897861696,-6.939737760642,0.96922818458763,-2.0515432772241,-3.4078683559539,1.2826968115552,3.5276938188832,-3.7709959553903,220.32641930605,220.32641930605,220.32641930605,220.32641930605,220.32641930605,220.32641930605,220.32641930605,220.32641930605,220.32641930605,220.32641930605,220.32641930605,220.32641930605,220.32641930605,220.32641930605,220.32641930605,220.32641930605,220.32641930605,220.32641930605,220.32641930605,220.32641930605,220.32641930605,220.32641930605,220.32641930605,220.32641930605,220.32641930605,220.32641930605,220.32641930605,220.32641930605,220.32641930605,220.32641930605,220.32641930605,220.32641930605,220.32641930605,220.32641930605,220.32641930605,220.32641930605,220.32641930605,220.32641930605,220.32641930605,220.32641930605,220.32641930605,220.32641930605,220.32641930605,220.32641930605,220.32641930605,220.32641930605,220.32641930605,220.32641930605,229.73953423595,434.26637593758,-0.56610078750543,384.31053829095,-0.5756853014737,0
0.0002615625,826788645.38621,2.3029351042912e-05,7.749278188828e-05,3.2874113762239e-05,1.024258908242,0,0,0,0,0,0,0,0,0,0,0,0,0,0,0,0,0,0,0,0,0,0,0,0,0,0,0,0,0,0,0,0,0,0,0,0,0,0,0,0,0,0,0,0,0,0,0,0,-0.97514182513059,-0.18376781619609,-0.41233304453127,5.2530435085395,3.0216953614383,1.1485904928164,-3.3066891489963,1.6025833915834,2.7586022296623,-0.49165561859308,1.8151756533994,-5.409045053585,1.459206317128,-1.4940971600746,1.6919274143901,-4.3418573399914,2.0668805153908,4.6801728778958,-1.0106872309534,-4.5899465888756,1.7861485153916,1.7520852016783,0.040013954756173,-4.0303382349566,3.1013796890805,-2.1829453977948,1.164892564294,1.0971160846224,-1.7695745937356,1.1922493138948,1.4184458649198,-0.33320715804857,0.81115757969193,-4.1973218462017,-1.835201228336,-3.4256321412891,5.3306876745021,-2.7743530753946,3.145028620052,-0.43710571477177,-1.3303421984644,-6.9392731613961,0.96965063099191,-2.0511868241692,-3.407710832781,1.2834587895985,3.5265394618071,-3.7695007498881,220.56413759458,220.56413759458,220.56413759458,220.56413759458,220.56413759458,220.56413759458,220.56413759458,220.56413759458,220.56413759458,220.56413759458,220.56413759458,220.56413759458,220.56413759458,220.56413759458,220.56413759458,220.56413759458,220.56413759458,220.56413759458,220.56413759458,220.56413759458,220.56413759458,220.56413759458,220.56413759458,220.56413759458,220.56413759458,220.56413759458,220.56413759458,220.56413759458,220.56413759458,220.56413759458,220.56413759458,220.56413759458,220.56413759458,220.56413759458,220.56413759458,220.56413759458,220.56413759458,220.56413759458,220.56413759458,220.56413759458,220.56413759458,220.56413759458,220.56413759458,220.56413759458,220.56413759458,220.56413759458,220.56413759458,220.56413759458,229.7291130521,434.75913690474,-0.5683419695264,384.73390960845,-0.57793733954021,0
0.0002621875,829823159.65206,2.3082228169495e-05,7.7678016356264e-05,3.2952966171909e-05,1.0243189796757,0,0,0,0,0,0,0,0,0,0,0,0,0,0,0,0,0,0,0,0,0,0,0,0,0,0,0,0,0,0,0,0,0,0,0,0,0,0,0,0,0,0,0,0,0,0,0,0,-0.97519466748303,-0.18290487384226,-0.41090654944871,5.2526832824195,3.0214579624082,1.1481289718158,-3.3059959218934,1.6023609844445,2.7585167665096,-0.49161426726385,1.8156599620408,-5.4091225761528,1.4595064175289,-1.4933686891775,1.69265842768,-4.3414150378318,2.0662205481981,4.6792882672508,-1.0107921580039,-4.5893258839344,1.7867992909736,1.7527383840499,0.039837414153469,-4.030421197978,3.1020440561029,-2.184236606916,1.1652416189792,1.0968010344178,-1.7691207185346,1.1917730527023,1.4180759387776,-0.33314294618415,0.81116345041821,-4.1964594656472,-1.8342613982854,-3.4251327656805,5.3311083518213,-2.7738854494522,3.1450441150933,-0.43696599620102,-1.3299954838487,-6.9388064725952,0.97007069086327,-2.0508335505378,-3.4075544033761,1.2842199318118,3.5253889765654,-3.7680072036296,220.80183484821,220.80183484821,220.80183484821,220.80183484821,220.80183484821,220.80183484821,220.80183484821,220.80183484821,220.80183484821,220.80183484821,220.80183484821,220.80183484821,220.80183484821,220.80183484821,220.80183484821,220.80183484821,220.80183484821,220.80183484821,220.80183484821,220.80183484821,220.80183484821,220.80183484821,220.80183484821,220.80183484821,220.80183484821,220.80183484821,220.80183484821,220.80183484821,220.80183484821,220.80183484821,220.80183484821,220.80183484821,220.80183484821,220.80183484821,220.80183484821,220.80183484821,220.80183484821,220.80183484821,220.80183484821,220.80183484821,220.80183484821,220.80183484821,220.80183484821,220.80183484821,220.80183484821,220.80183484821,220.80183484821,220.80183484821,229.71866876954,435.25182823716,-0.57058695511329,385.15722375814,-0.58019316190847,0
0.0002628125,832862362.11059,2.3135091818559e-05,7.7863250933984e-05,3.3031819501294e-05,1.0243790501821,0,0,0,0,0,0,0,0,0,0,0,0,0,0,0,0,0,0,0,0,0,0,0,0,0,0,0,0,0,0,0,0,0,0,0,0,0,0,0,0,0,0,0,0,0,0,0,0,-0.97524673438977,-0.18204276717866,-0.40948932648401,5.2523256828597,3.0212200563047,1.1476700451632,-3.3053029821756,1.602138078982,2.758431007808,-0.49157204914469,1.8161417168778,-5.4091985112318,1.4598064555918,-1.4926412491173,1.6933871093243,-4.3409680770329,2.0655608910693,4.6784045596687,-1.010895542114,-4.5887087806461,1.7874463143585,1.7533914599684,0.039662512305793,-4.0305097753658,3.1027057895367,-2.1855262136149,1.1655891411032,1.0964875365642,-1.7686653418868,1.1912966581405,1.4177060370669,-0.33307660961842,0.81116921134579,-4.1955966203427,-1.83332245489,-3.4246352353757,5.3315270331212,-2.773414304277,3.145060447475,-0.43682604186255,-1.3296496398471,-6.9383377009592,0.97048840307776,-2.0504834449446,-3.4073990542546,1.2849802620013,3.5242423403502,-3.7665153166938,221.03951104203,221.03951104203,221.03951104203,221.03951104203,221.03951104203,221.03951104203,221.03951104203,221.03951104203,221.03951104203,221.03951104203,221.03951104203,221.03951104203,221.03951104203,221.03951104203,221.03951104203,221.03951104203,221.03951104203,221.03951104203,221.03951104203,221.03951104203,221.03951104203,221.03951104203,221.03951104203,221.03951104203,221.03951104203,221.03951104203,221.03951104203,221.03951104203,221.03951104203,221.03951104203,221.03951104203,221.03951104203,221.03951104203,221.03951104203,221.03951104203,221.03951104203,221.03951104203,221.03951104203,221.03951104203,221.03951104203,221.03951104203,221.03951104203,221.03951104203,221.03951104203,221.03951104203,221.03951104203,221.03951104203,221.03951104203,229.708201648,435.7444500847,-0.57283574315309,385.58048079939,-0.58245276771818,0
0.0002634375,835906249.52549,2.3187942011761e-05,7.8048485620731e-05,3.3110673765172e-05,1.0244391197614,0,0,0,0,0,0,0,0,0,0,0,0,0,0,0,0,0,0,0,0,0,0,0,0,0,0,0,0,0,0,0,0,0,0,0,0,0,0,0,0,0,0,0,0,0,0,0,0,-0.9752980353263,-0.18118147097042,-0.40808134017189,5.2519706931343,3.0209816441038,1.1472136692603,-3.3046103225196,1.6019146955806,2.7583449552697,-0.49152896337388,1.8166209558881,-5.4092728838043,1.4601064301538,-1.491914816855,1.6941134745913,-4.3405164948893,2.0649015408752,4.6775217544508,-1.0109974211397,-4.5880952539894,1.7880896174994,1.7540444269517,0.039489244807989,-4.0306039123434,3.1033649375501,-2.1868142322615,1.1659351337539,1.0961755605604,-1.7682084718407,1.1908201561334,1.4173361650885,-0.33300815341057,0.81117486960191,-4.1947333296808,-1.8323844016996,-3.4241395170729,5.3319437366977,-2.7729396698088,3.1450775972173,-0.43668584783335,-1.32930466423,-6.9378668526406,0.97090380655811,-2.0501364959187,-3.4072447697874,1.2857398024849,3.5230995309042,-3.7650250890022,221.27716615142,221.27716615142,221.27716615142,221.27716615142,221.27716615142,221.27716615142,221.27716615142,221.27716615142,221.27716615142,221.27716615142,221.27716615142,221.27716615142,221.27716615142,221.27716615142,221.27716615142,221.27716615142,221.27716615142,221.27716615142,221.27716615142,221.27716615142,221.27716615142,221.27716615142,221.27716615142,221.27716615142,221.27716615142,221.27716615142,221.27716615142,221.27716615142,221.27716615142,221.27716615142,221.27716615142,221.27716615142,221.27716615142,221.27716615142,221.27716615142,221.27716615142,221.27716615142,221.27716615142,221.27716615142,221.27716615142,221.27716615142,221.27716615142,221.27716615142,221.27716615142,221.27716615142,221.27716615142,221.27716615142,221.27716615142,229.69771195177,436.23700259262,-0.5750883324901,386.00368079164,-0.58471615609598,0
0.0002640625,838954818.6655,2.3240778770717e-05,7.8233720415792e-05,3.3189528977649e-05,1.0244991884136,0,0,0,0,0,0,0,0,0,0,0,0,0,0,0,0,0,0,0,0,0,0,0,0,0,0,0,0,0,0,0,0,0,0,0,0,0,0,0,0,0,0,0,0,0,0,0,0,-0.97534858007439,-0.18032096041133,-0.40668255679677,5.2516182961165,3.0207427260852,1.1467598003985,-3.3039179349631,1.6016908552643,2.7582586105327,-0.49148500897268,1.8170977171431,-5.4093457193128,1.4604063399869,-1.4911893693348,1.6948375383674,-4.3400603284659,2.0642424947306,4.6766398504902,-1.0110978337145,-4.5874852783461,1.7887292318916,1.7546972831676,0.039317607373117,-4.0307035541739,3.1040215481432,-2.1881006776927,1.1662795992712,1.0958650771451,-1.7677501159878,1.1903435741079,1.4169663272863,-0.33293758255139,0.81118043254052,-4.1938696133729,-1.8314472433768,-3.4236455771494,5.332358480276,-2.7724615762349,3.1450955445751,-0.43654541051102,-1.3289605550212,-6.9373939335769,0.97131694024907,-2.0497926918613,-3.4070915320613,1.2864985741091,3.5219605265233,-3.7635365202689,221.51480015206,221.51480015206,221.51480015206,221.51480015206,221.51480015206,221.51480015206,221.51480015206,221.51480015206,221.51480015206,221.51480015206,221.51480015206,221.51480015206,221.51480015206,221.51480015206,221.51480015206,221.51480015206,221.51480015206,221.51480015206,221.51480015206,221.51480015206,221.51480015206,221.51480015206,221.51480015206,221.51480015206,221.51480015206,221.51480015206,221.51480015206,221.51480015206,221.51480015206,221.51480015206,221.51480015206,221.51480015206,221.51480015206,221.51480015206,221.51480015206,221.51480015206,221.51480015206,221.51480015206,221.51480015206,221.51480015206,221.51480015206,221.51480015206,221.51480015206,221.51480015206,221.51480015206,221.51480015206,221.51480015206,221.51480015206,229.68719994934,436.72948590169,-0.57734472198512,386.42682379445,-0.58698332616985,0
0.0002646875,842008066.3045,2.3293602117034e-05,7.8418955318455e-05,3.326838515261e-05,1.024559256139,0,0,0,0,0,0,0,0,0,0,0,0,0,0,0,0,0,0,0,0,0,0,0,0,0,0,0,0,0,0,0,0,0,0,0,0,0,0,0,0,0,0,0,0,0,0,0,0,-0.97539837873022,-0.17946121110941,-0.4052929442366,5.2512684742526,3.0205033018243,1.1463083948861,-3.3032258109756,1.6014665797305,2.7581719752587,-0.49144018484927,1.8175720387044,-5.4094170436871,1.4607061838004,-1.4904648835049,1.6955593151795,-4.3395996145014,2.0635837500505,4.6757588462477,-1.0111968190557,-4.586878827563,1.7893651886297,1.7553500274964,0.039147595838361,-4.0308086460981,3.1046756690029,-2.1893855652427,1.1666225392588,1.0955560583195,-1.7672902815105,1.1898669410474,1.4165965273341,-0.33286490196931,0.81118590769951,-4.1930054914764,-1.8305109856625,-3.4231533816925,5.3327712810241,-2.7719800539529,3.1451142700798,-0.43640472661649,-1.328617310481,-6.9369189493298,0.97172784315535,-2.0494520210316,-3.4069393208164,1.2872565962711,3.520825306057,-3.7620496099182,221.75241301992,221.75241301992,221.75241301992,221.75241301992,221.75241301992,221.75241301992,221.75241301992,221.75241301992,221.75241301992,221.75241301992,221.75241301992,221.75241301992,221.75241301992,221.75241301992,221.75241301992,221.75241301992,221.75241301992,221.75241301992,221.75241301992,221.75241301992,221.75241301992,221.75241301992,221.75241301992,221.75241301992,221.75241301992,221.75241301992,221.75241301992,221.75241301992,221.75241301992,221.75241301992,221.75241301992,221.75241301992,221.75241301992,221.75241301992,221.75241301992,221.75241301992,221.75241301992,221.75241301992,221.75241301992,221.75241301992,221.75241301992,221.75241301992,221.75241301992,221.75241301992,221.75241301992,221.75241301992,221.75241301992,221.75241301992,229.67666591399,437.22190014812,-0.57960491052534,386.84990986743,-0.58925427709064,0
0.0002653125,845065989.22167,2.3346412072318e-05,7.860419032801e-05,3.3347242303578e-05,1.0246193229376,0,0,0,0,0,0,0,0,0,0,0,0,0,0,0,0,0,0,0,0,0,0,0,0,0,0,0,0,0,0,0,0,0,0,0,0,0,0,0,0,0,0,0,0,0,0,0,0,-0.97544744170664,-0.1786021990707,-0.40391247181318,5.2509212095461,3.0202633701929,1.1458594091684,-3.302533941436,1.6012418913788,2.7580850511227,-0.49139448980469,1.8180439585133,-5.4094868833824,1.4610059602532,-1.4897413363476,1.6962788192035,-4.3391343894249,2.0629253045613,4.6748787397154,-1.0112944167753,-4.5862758749169,1.7899975184653,1.7560026595011,0.038979206169143,-4.0309191334159,3.1053273473573,-2.1906689107747,1.1669639546094,1.0952484773603,-1.7668289751748,1.1893902875403,1.4162267681517,-0.3327901165334,0.81119130275442,-4.1921409844215,-1.8295756353288,-3.4226628965573,5.3331821555213,-2.7714951335552,3.1451337545519,-0.43626379319079,-1.3282749290937,-6.936441905159,0.97213655435333,-2.0491144715428,-3.4067881133499,1.2880138869453,3.5196938488947,-3.760564357015,221.99000473127,221.99000473127,221.99000473127,221.99000473127,221.99000473127,221.99000473127,221.99000473127,221.99000473127,221.99000473127,221.99000473127,221.99000473127,221.99000473127,221.99000473127,221.99000473127,221.99000473127,221.99000473127,221.99000473127,221.99000473127,221.99000473127,221.99000473127,221.99000473127,221.99000473127,221.99000473127,221.99000473127,221.99000473127,221.99000473127,221.99000473127,221.99000473127,221.99000473127,221.99000473127,221.99000473127,221.99000473127,221.99000473127,221.99000473127,221.99000473127,221.99000473127,221.99000473127,221.99000473127,221.99000473127,221.99000473127,221.99000473127,221.99000473127,221.99000473127,221.99000473127,221.99000473127,221.99000473127,221.99000473127,221.99000473127,229.66611012364,437.71424546365,-0.58186889698064,387.27293907028,-0.59152900799261,0
0.0002659375,848128584.20154,2.3399208658161e-05,7.8789425443745e-05,3.3426100443677e-05,1.0246793888095,0,0,0,0,0,0,0,0,0,0,0,0,0,0,0,0,0,0,0,0,0,0,0,0,0,0,0,0,0,0,0,0,0,0,0,0,0,0,0,0,0,0,0,0,0,0,0,0,-0.97549577973775,-0.17774390070095,-0.40254111009893,5.2505764835697,3.0200229293581,1.1454127999383,-3.3018423166383,1.6010168133408,2.7579978398332,-0.49134792254134,1.8185135142452,-5.4095552654333,1.4613056679615,-1.489018704873,1.6969960642565,-4.3386646893372,2.0622671563444,4.6739995283951,-1.0113906667049,-4.5856763931136,1.7906262518731,1.7566551794274,0.038812434459027,-4.0310349615623,3.1059766297764,-2.1919507307172,1.1673038455267,1.0949423088243,-1.7663662033385,1.1889136458272,1.4158570519299,-0.33271323105463,0.81119662545669,-4.1912761130545,-1.8286412001121,-3.4221740873635,5.3335911197157,-2.7710068457919,3.1451539791422,-0.43612260757883,-1.3279334095663,-6.9359628060494,0.97254311301363,-2.0487800313241,-3.4066378844174,1.2887704627175,3.5185661349551,-3.759080760213,222.2275752627,222.2275752627,222.2275752627,222.2275752627,222.2275752627,222.2275752627,222.2275752627,222.2275752627,222.2275752627,222.2275752627,222.2275752627,222.2275752627,222.2275752627,222.2275752627,222.2275752627,222.2275752627,222.2275752627,222.2275752627,222.2275752627,222.2275752627,222.2275752627,222.2275752627,222.2275752627,222.2275752627,222.2275752627,222.2275752627,222.2275752627,222.2275752627,222.2275752627,222.2275752627,222.2275752627,222.2275752627,222.2275752627,222.2275752627,222.2275752627,222.2275752627,222.2275752627,222.2275752627,222.2275752627,222.2275752627,222.2275752627,222.2275752627,222.2275752627,222.2275752627,222.2275752627,222.2275752627,222.2275752627,222.2275752627,229.65553286098,438.20652197547,-0.58413668021072,387.69591146277,-0.59380751802401,0
0.0002665625,851195848.03414,2.3451991896138e-05,7.8974660664952e-05,3.350495958526e-05,1.0247394537547,0,0,0,0,0,0,0,0,0,0,0,0,0,0,0,0,0,0,0,0,0,0,0,0,0,0,0,0,0,0,0,0,0,0,0,0,0,0,0,0,0,0,0,0,0,0,0,0,-0.97554340388578,-0.17688629276974,-0.40117883076348,5.2502342774127,3.0197819767869,1.1449685242676,-3.3011509263077,1.6007913695086,2.7579103431663,-0.49130048166942,1.8189807431974,-5.4096222174874,1.4616053055038,-1.4882969661509,1.6977110638297,-4.3381905500162,2.0616093038738,4.6731212092731,-1.0114856086906,-4.5850803542902,1.7912514191126,1.7573075882104,0.038647276935337,-4.0311560761504,3.1066235620347,-2.1932310421128,1.1676422115524,1.0946375285598,-1.7659019719635,1.1884370498426,1.4154873801861,-0.33263425029212,0.81120188358185,-4.1904108986624,-1.8277076886663,-3.4216869195627,5.333998188947,-2.7705152215564,3.1451749253623,-0.4359811674257,-1.3275927508095,-6.9354816567458,0.97294755844359,-2.0484486881297,-3.4064886061737,1.2895263388249,3.517442144686,-3.7575988176701,222.46512459112,222.46512459112,222.46512459112,222.46512459112,222.46512459112,222.46512459112,222.46512459112,222.46512459112,222.46512459112,222.46512459112,222.46512459112,222.46512459112,222.46512459112,222.46512459112,222.46512459112,222.46512459112,222.46512459112,222.46512459112,222.46512459112,222.46512459112,222.46512459112,222.46512459112,222.46512459112,222.46512459112,222.46512459112,222.46512459112,222.46512459112,222.46512459112,222.46512459112,222.46512459112,222.46512459112,222.46512459112,222.46512459112,222.46512459112,222.46512459112,222.46512459112,222.46512459112,222.46512459112,222.46512459112,222.46512459112,222.46512459112,222.46512459112,222.46512459112,222.46512459112,222.46512459112,222.46512459112,222.46512459112,222.46512459112,229.64493441336,438.69872980633,-0.58640825908404,388.11882710474,-0.59608980632021,0
0.0002671875,854267777.51504,2.3504761807842e-05,7.9159895990923e-05,3.3583819740824e-05,1.0247995177735,0,0,0,0,0,0,0,0,0,0,0,0,0,0,0,0,0,0,0,0,0,0,0,0,0,0,0,0,0,0,0,0,0,0,0,0,0,0,0,0,0,0,0,0,0,0,0,0,-0.975590325547,-0.17602935241663,-0.39982560636741,5.2498945717103,3.0195405092536,1.1445265397056,-3.3004597595421,1.6005655845649,2.7578225629754,-0.49125216571927,1.8194456821284,-5.4096877678804,1.4619048714407,-1.4875760972803,1.6984238310644,-4.3377120069252,2.0609517460238,4.6722437788057,-1.0115792824345,-4.5844877299524,1.7918730503044,1.7579598874586,0.03848372995605,-4.0312824230856,3.1072681888992,-2.1945098626509,1.1679790515934,1.0943341137021,-1.7654362865805,1.1879605352595,1.415117753786,-0.33255317895878,0.81120708486042,-4.1895453630356,-1.826775110494,-3.4212013584281,5.3344033778627,-2.7700202918516,3.1451965750836,-0.43583947063785,-1.3272529519447,-6.9349984618418,0.97334993009216,-2.0481204295058,-3.4063402480444,1.2902815291796,3.5163218590506,-3.756118527006,222.70265269374,222.70265269374,222.70265269374,222.70265269374,222.70265269374,222.70265269374,222.70265269374,222.70265269374,222.70265269374,222.70265269374,222.70265269374,222.70265269374,222.70265269374,222.70265269374,222.70265269374,222.70265269374,222.70265269374,222.70265269374,222.70265269374,222.70265269374,222.70265269374,222.70265269374,222.70265269374,222.70265269374,222.70265269374,222.70265269374,222.70265269374,222.70265269374,222.70265269374,222.70265269374,222.70265269374,222.70265269374,222.70265269374,222.70265269374,222.70265269374,222.70265269374,222.70265269374,222.70265269374,222.70265269374,222.70265269374,222.70265269374,222.70265269374,222.70265269374,222.70265269374,222.70265269374,222.70265269374,222.70265269374,222.70265269374,229.63431507288,439.19086907454,-0.58868363246944,388.54168605603,-0.59837587202356,0
0.0002678125,857344369.4454,2.3557518414857e-05,7.934513142095e-05,3.3662680922295e-05,1.0248595808657,0,0,0,0,0,0,0,0,0,0,0,0,0,0,0,0,0,0,0,0,0,0,0,0,0,0,0,0,0,0,0,0,0,0,0,0,0,0,0,0,0,0,0,0,0,0,0,0,-0.97563655645917,-0.17517305711402,-0.3984814101941,5.2495573465913,3.0192985228415,1.1440868043918,-3.2997688048693,1.600339484004,2.7577345012049,-0.49120297315073,1.8199083671273,-5.4097519456659,1.4622043643168,-1.4868560754323,1.6991343787919,-4.3372290951898,2.0602944821423,4.6713672328753,-1.0116717273071,-4.5838984910199,1.7924911754912,1.7586120794406,0.038321790006202,-4.0314139485679,3.1079105539711,-2.1957872107226,1.1683143639515,1.0940320426686,-1.7649691523273,1.1874841395167,1.4147481729866,-0.33247002173035,0.8112122369163,-4.1886795284881,-1.8258434758892,-3.4207173691184,5.3348067004654,-2.7695220877636,3.145218910607,-0.43569751539021,-1.326914012284,-6.9345132257558,0.97375026761053,-2.0477952427965,-3.406192776701,1.2910360464284,3.5152052594939,-3.754639885236,222.94015954809,222.94015954809,222.94015954809,222.94015954809,222.94015954809,222.94015954809,222.94015954809,222.94015954809,222.94015954809,222.94015954809,222.94015954809,222.94015954809,222.94015954809,222.94015954809,222.94015954809,222.94015954809,222.94015954809,222.94015954809,222.94015954809,222.94015954809,222.94015954809,222.94015954809,222.94015954809,222.94015954809,222.94015954809,222.94015954809,222.94015954809,222.94015954809,222.94015954809,222.94015954809,222.94015954809,222.94015954809,222.94015954809,222.94015954809,222.94015954809,222.94015954809,222.94015954809,222.94015954809,222.94015954809,222.94015954809,222.94015954809,222.94015954809,222.94015954809,222.94015954809,222.94015954809,222.94015954809,222.94015954809,222.94015954809,229.62367513641,439.68293989393,-0.59096279921409,388.96448837648,-0.60066571426686,0
0.0002684375,860425620.63193,2.3610261738761e-05,7.9530366954327e-05,3.3741543141038e-05,1.0249196430316,0,0,0,0,0,0,0,0,0,0,0,0,0,0,0,0,0,0,0,0,0,0,0,0,0,0,0,0,0,0,0,0,0,0,0,0,0,0,0,0,0,0,0,0,0,0,0,0,-0.9756821087106,-0.17431738464574,-0.39714621603332,5.2492225816796,3.0190560129409,1.1436492771646,-3.299078050226,1.6001130941632,2.7576461599251,-0.49115290236329,1.8203688334602,-5.409814780671,1.4625037826779,-1.4861368778309,1.699842719526,-4.3367418496003,2.0596375120769,4.6704915667737,-1.0117629821859,-4.5833126077982,1.793105824724,1.7592641670892,0.038161453700637,-4.031550599173,3.1085506994934,-2.1970631054568,1.1686481463446,1.0937312951593,-1.7645005739363,1.1870079018569,1.4143786374905,-0.33238478325202,0.81121734719598,-4.1878134179061,-1.8249127958709,-3.4202349166748,5.3352081700621,-2.7690206404325,3.1452419146782,-0.43555530009769,-1.3265759313335,-6.9340259527898,0.97414861088004,-2.0474731151161,-3.4060461559554,1.2917899019853,3.5140923279468,-3.7531628887209,223.17764513207,223.17764513207,223.17764513207,223.17764513207,223.17764513207,223.17764513207,223.17764513207,223.17764513207,223.17764513207,223.17764513207,223.17764513207,223.17764513207,223.17764513207,223.17764513207,223.17764513207,223.17764513207,223.17764513207,223.17764513207,223.17764513207,223.17764513207,223.17764513207,223.17764513207,223.17764513207,223.17764513207,223.17764513207,223.17764513207,223.17764513207,223.17764513207,223.17764513207,223.17764513207,223.17764513207,223.17764513207,223.17764513207,223.17764513207,223.17764513207,223.17764513207,223.17764513207,223.17764513207,223.17764513207,223.17764513207,223.17764513207,223.17764513207,223.17764513207,223.17764513207,223.17764513207,223.17764513207,223.17764513207,223.17764513207,229.6130149053,440.174942374,-0.59324575817621,389.38723412585,-0.60295933219811,0
0.0002690625,863511527.88686,2.3662991801126e-05,7.9715602590352e-05,3.3820406408054e-05,1.0249797042712,0,0,0,0,0,0,0,0,0,0,0,0,0,0,0,0,0,0,0,0,0,0,0,0,0,0,0,0,0,0,0,0,0,0,0,0,0,0,0,0,0,0,0,0,0,0,0,0,-0.97572699474685,-0.17346231308968,-0.39581999799709,5.2488902560857,3.0188129742631,1.143213917643,-3.2983874829424,1.599886442242,2.7575575413116,-0.49110195171232,1.820827115411,-5.4098763035614,1.4628031250752,-1.4854184817664,1.7005488654865,-4.3362503046324,2.0589808362175,4.6696167751787,-1.0118530853046,-4.582730049958,1.7937170281306,1.7599161539453,0.038002717775893,-4.0316923219353,3.1091886661574,-2.1983375667734,1.1689803959459,1.0934318521344,-1.7640305557196,1.1865318633469,1.4140091464649,-0.33229746815231,0.8112224228945,-4.1869470547968,-1.8239830821099,-3.4197539660713,5.3356077992674,-2.7685159810247,3.1452655705216,-0.43541282339344,-1.3262387087752,-6.9335366472199,0.97454500005264,-2.0471540333461,-3.4059003467065,1.2925431060819,3.5129830468008,-3.7516875331328,223.41510942386,223.41510942386,223.41510942386,223.41510942386,223.41510942386,223.41510942386,223.41510942386,223.41510942386,223.41510942386,223.41510942386,223.41510942386,223.41510942386,223.41510942386,223.41510942386,223.41510942386,223.41510942386,223.41510942386,223.41510942386,223.41510942386,223.41510942386,223.41510942386,223.41510942386,223.41510942386,223.41510942386,223.41510942386,223.41510942386,223.41510942386,223.41510942386,223.41510942386,223.41510942386,223.41510942386,223.41510942386,223.41510942386,223.41510942386,223.41510942386,223.41510942386,223.41510942386,223.41510942386,223.41510942386,223.41510942386,223.41510942386,223.41510942386,223.41510942386,223.41510942386,223.41510942386,223.41510942386,223.41510942386,223.41510942386,229.60233468541,440.66687661983,-0.59553250819633,389.80992336381,-0.60525672493432,0
0.0002696875,866602088.02792,2.371570862352e-05,7.9900838328322e-05,3.3899270733852e-05,1.0250397645845,0,0,0,0,0,0,0,0,0,0,0,0,0,0,0,0,0,0,0,0,0,0,0,0,0,0,0,0,0,0,0,0,0,0,0,0,0,0,0,0,0,0,0,0,0,0,0,0,-0.97577122738359,-0.17260782078981,-0.3945027303005,5.2485603483771,3.0185694008381,1.1427806863307,-3.2976970897615,1.5996595563238,2.7574686476879,-0.49105011952147,1.8212832461258,-5.4099365458955,1.4631023900837,-1.4847008645827,1.7012528285988,-4.3357544944396,2.0583244555339,4.6687428521105,-1.0119420740955,-4.5821507865454,1.7943248159988,1.7605680441806,0.037845579082649,-4.0318390643826,3.1098244929134,-2.1996106154396,1.169311109407,1.0931336958093,-1.7635591015811,1.186056066897,1.4136396985978,-0.33220808105319,0.81122747088118,-4.1860804633327,-1.8230543468717,-3.4192744822122,5.336005599977,-2.7680081407065,3.1452898618637,-0.43527008410862,-1.3259023444737,-6.9330453133107,0.97493947558856,-2.0468379841135,-3.4057553068697,1.2932956678074,3.5118773988657,-3.7502138133969,223.65255240202,223.65255240202,223.65255240202,223.65255240202,223.65255240202,223.65255240202,223.65255240202,223.65255240202,223.65255240202,223.65255240202,223.65255240202,223.65255240202,223.65255240202,223.65255240202,223.65255240202,223.65255240202,223.65255240202,223.65255240202,223.65255240202,223.65255240202,223.65255240202,223.65255240202,223.65255240202,223.65255240202,223.65255240202,223.65255240202,223.65255240202,223.65255240202,223.65255240202,223.65255240202,223.65255240202,223.65255240202,223.65255240202,223.65255240202,223.65255240202,223.65255240202,223.65255240202,223.65255240202,223.65255240202,223.65255240202,223.65255240202,223.65255240202,223.65255240202,223.65255240202,223.65255240202,223.65255240202,223.65255240202,223.65255240202,229.59163478683,441.15874273223,-0.59782304810639,390.23255614982,-0.60755789160542,0
0.0002703125,869697297.87811,2.3768412227495e-05,8.0086074167538e-05,3.3978136128413e-05,1.0250998239715,0,0,0,0,0,0,0,0,0,0,0,0,0,0,0,0,0,0,0,0,0,0,0,0,0,0,0,0,0,0,0,0,0,0,0,0,0,0,0,0,0,0,0,0,0,0,0,0,-0.97581481981379,-0.17175388631395,-0.39319438707169,5.2482328365647,3.0183252860106,1.1423495446891,-3.2970068568617,1.5994324653917,2.7573794815424,-0.49099740409994,1.8217372574547,-5.40999554016,1.4634015763085,-1.4839840037069,1.7019546205344,-4.3352544528382,2.0576683716636,4.6678697909004,-1.0120299850651,-4.5815747859951,1.7949292188477,1.7612198425634,0.037690034580763,-4.0319907745489,3.1104582167865,-2.2008822731043,1.1696402828861,1.0928368096308,-1.763086215029,1.185580557268,1.4132702921599,-0.33211662659198,0.8112324976233,-4.1852136683835,-1.822126602942,-3.4187964299914,5.3364015834098,-2.7674971506139,3.1453147730178,-0.43512708126341,-1.3255668384548,-6.9325519553191,0.97533207832733,-2.0465249537936,-3.4056109913621,1.2940475951817,3.5107753673572,-3.7487417236718,223.88997404542,223.88997404542,223.88997404542,223.88997404542,223.88997404542,223.88997404542,223.88997404542,223.88997404542,223.88997404542,223.88997404542,223.88997404542,223.88997404542,223.88997404542,223.88997404542,223.88997404542,223.88997404542,223.88997404542,223.88997404542,223.88997404542,223.88997404542,223.88997404542,223.88997404542,223.88997404542,223.88997404542,223.88997404542,223.88997404542,223.88997404542,223.88997404542,223.88997404542,223.88997404542,223.88997404542,223.88997404542,223.88997404542,223.88997404542,223.88997404542,223.88997404542,223.88997404542,223.88997404542,223.88997404542,223.88997404542,223.88997404542,223.88997404542,223.88997404542,223.88997404542,223.88997404542,223.88997404542,223.88997404542,223.88997404542,229.58091552383,441.65054080774,-0.60011737671937,390.65513254313,-0.60986283132575,0
0.0002709375,872797154.26555,2.3821102634591e-05,8.02713101073e-05,3.4057002601412e-05,1.0251598824324,0,0,0,0,0,0,0,0,0,0,0,0,0,0,0,0,0,0,0,0,0,0,0,0,0,0,0,0,0,0,0,0,0,0,0,0,0,0,0,0,0,0,0,0,0,0,0,0,-0.97585778561571,-0.17090048845001,-0.39189494213986,5.2479076980896,3.0180806224502,1.1419204552213,-3.296316769754,1.59920519934,2.7572900454827,-0.49094380376055,1.8221891797764,-5.4100533198714,1.4637006823979,-1.4832678765741,1.7026542526874,-4.3347502133858,2.0570125868953,4.6669975841669,-1.0121168536559,-4.5810020160301,1.7955302675096,1.7618715544039,0.037536081328691,-4.0321474011687,3.1110898726684,-2.2021525623776,1.169967912081,1.0925411782615,-1.7626118990955,1.1851053810703,1.4129009249849,-0.33202310942852,0.81123750910214,-4.1843466955866,-1.8211998635581,-3.4183197742303,5.3367957600272,-2.7669830418307,3.1453402888475,-0.43498381400563,-1.3252321909146,-6.9320565777266,0.97572284949925,-2.0462149284512,-3.4054673520082,1.2947988951766,3.5096769358738,-3.7472712573207,224.1273743333,224.1273743333,224.1273743333,224.1273743333,224.1273743333,224.1273743333,224.1273743333,224.1273743333,224.1273743333,224.1273743333,224.1273743333,224.1273743333,224.1273743333,224.1273743333,224.1273743333,224.1273743333,224.1273743333,224.1273743333,224.1273743333,224.1273743333,224.1273743333,224.1273743333,224.1273743333,224.1273743333,224.1273743333,224.1273743333,224.1273743333,224.1273743333,224.1273743333,224.1273743333,224.1273743333,224.1273743333,224.1273743333,224.1273743333,224.1273743333,224.1273743333,224.1273743333,224.1273743333,224.1273743333,224.1273743333,224.1273743333,224.1273743333,224.1273743333,224.1273743333,224.1273743333,224.1273743333,224.1273743333,224.1273743333,229.5701772145,442.14227093867,-0.60241549287434,391.07765260261,-0.61217154321299,0
0.0002715625,875901654.02326,2.3873779866312e-05,8.0456546146914e-05,3.4135870162049e-05,1.0252199399673,0,0,0,0,0,0,0,0,0,0,0,0,0,0,0,0,0,0,0,0,0,0,0,0,0,0,0,0,0,0,0,0,0,0,0,0,0,0,0,0,0,0,0,0,0,0,0,0,-0.9759001387683,-0.17004760615543,-0.3906043688254,5.2475849097901,3.0178354021371,1.1414933815333,-3.2956268134218,1.598977788985,2.7572003423102,-0.49088931683644,1.8226390418522,-5.4101099195802,1.4639997070559,-1.4825524607065,1.7033517362341,-4.3342418093142,2.0563571042817,4.6661262237514,-1.0122027141406,-4.5804324437771,1.7961279932061,1.7625231855735,0.037383716472084,-4.0323088935635,3.1117194931453,-2.2034215068571,1.1702939922527,1.0922467875507,-1.7621361564344,1.1846305867541,1.4125315945834,-0.33192753427324,0.81124251074148,-4.1834795713624,-1.8202741423427,-3.4178444797904,5.3371881396153,-2.7664658453557,3.1453663948748,-0.43484028163095,-1.3248984021955,-6.9315591850925,0.97611183080042,-2.0459078938774,-3.4053243375706,1.2955495737957,3.5085820883388,-3.7458024068794,224.36475324523,224.36475324523,224.36475324523,224.36475324523,224.36475324523,224.36475324523,224.36475324523,224.36475324523,224.36475324523,224.36475324523,224.36475324523,224.36475324523,224.36475324523,224.36475324523,224.36475324523,224.36475324523,224.36475324523,224.36475324523,224.36475324523,224.36475324523,224.36475324523,224.36475324523,224.36475324523,224.36475324523,224.36475324523,224.36475324523,224.36475324523,224.36475324523,224.36475324523,224.36475324523,224.36475324523,224.36475324523,224.36475324523,224.36475324523,224.36475324523,224.36475324523,224.36475324523,224.36475324523,224.36475324523,224.36475324523,224.36475324523,224.36475324523,224.36475324523,224.36475324523,224.36475324523,224.36475324523,224.36475324523,224.36475324523,229.55942018053,442.63393321319,-0.60471739536543,391.50011638671,-0.6144840263624,0
0.0002721875,879010793.98882,2.3926443944177e-05,8.0641782285688e-05,3.4214738818773e-05,1.025279996576,0,0,0,0,0,0,0,0,0,0,0,0,0,0,0,0,0,0,0,0,0,0,0,0,0,0,0,0,0,0,0,0,0,0,0,0,0,0,0,0,0,0,0,0,0,0,0,0,-0.97594189365659,-0.16919521853092,-0.38932263973664,5.2472644478964,3.017589616357,1.1410682883982,-3.2949369722705,1.5987502660702,2.7571103749512,-0.49083394170124,1.8230868706579,-5.4101653749369,1.4642986490465,-1.4818377336862,1.7040470821366,-4.3337292735835,2.0557019276625,4.665255700683,-1.0122875995222,-4.5798660357225,1.7967224276289,1.7631747424223,0.037232937233512,-4.0324752017718,3.1123471083093,-2.2046891311829,1.17061851825,1.0919536245125,-1.7616589892671,1.1841562245861,1.4121622981207,-0.33182990590495,0.81124750732329,-4.1826123229607,-1.8193494532392,-3.4173705115555,5.337578731261,-2.7659455920824,3.1453930772861,-0.43469648355092,-1.3245654727818,-6.9310597822218,0.97649906443645,-2.0456038355418,-3.4051818937191,1.2962996361199,3.5074908089802,-3.7443351640545,224.60211076116,224.60211076116,224.60211076116,224.60211076116,224.60211076116,224.60211076116,224.60211076116,224.60211076116,224.60211076116,224.60211076116,224.60211076116,224.60211076116,224.60211076116,224.60211076116,224.60211076116,224.60211076116,224.60211076116,224.60211076116,224.60211076116,224.60211076116,224.60211076116,224.60211076116,224.60211076116,224.60211076116,224.60211076116,224.60211076116,224.60211076116,224.60211076116,224.60211076116,224.60211076116,224.60211076116,224.60211076116,224.60211076116,224.60211076116,224.60211076116,224.60211076116,224.60211076116,224.60211076116,224.60211076116,224.60211076116,224.60211076116,224.60211076116,224.60211076116,224.60211076116,224.60211076116,224.60211076116,224.60211076116,224.60211076116,229.54864474684,443.1255277154,-0.60702308296828,391.92252395336,-0.61680027985256,0
0.0002728125,882124571.00404,2.3979094889656e-05,8.0827018522929e-05,3.4293608579662e-05,1.0253400522587,0,0,0,0,0,0,0,0,0,0,0,0,0,0,0,0,0,0,0,0,0,0,0,0,0,0,0,0,0,0,0,0,0,0,0,0,0,0,0,0,0,0,0,0,0,0,0,0,-0.97598306508306,-0.16834330479762,-0.3880497265572,5.2469462880062,3.0173432556965,1.1406451418013,-3.2942472300976,1.598522663261,2.7570201465288,-0.49077767679289,1.8235326912139,-5.4102197227664,1.4645975072097,-1.481123673116,1.704740301153,-4.3332126388953,2.0550470617133,4.6643860051247,-1.0123715414445,-4.5793027576731,1.797313603008,1.7638262317967,0.037083740894978,-4.0326462765947,3.11297274555,-2.2059554611062,1.1709414845399,1.0916616772899,-1.7611803993612,1.1836823466148,1.4117930325078,-0.33173022919613,0.81125250290758,-4.1817449785168,-1.8184258104404,-3.4168978344144,5.3379675433451,-2.765422312771,3.1454203229824,-0.43455241924684,-1.3242334032978,-6.9305583742247,0.97688459315332,-2.0453027385675,-3.4050399630208,1.2970490863695,3.5064030822789,-3.7428695197076,224.83944686136,224.83944686136,224.83944686136,224.83944686136,224.83944686136,224.83944686136,224.83944686136,224.83944686136,224.83944686136,224.83944686136,224.83944686136,224.83944686136,224.83944686136,224.83944686136,224.83944686136,224.83944686136,224.83944686136,224.83944686136,224.83944686136,224.83944686136,224.83944686136,224.83944686136,224.83944686136,224.83944686136,224.83944686136,224.83944686136,224.83944686136,224.83944686136,224.83944686136,224.83944686136,224.83944686136,224.83944686136,224.83944686136,224.83944686136,224.83944686136,224.83944686136,224.83944686136,224.83944686136,224.83944686136,224.83944686136,224.83944686136,224.83944686136,224.83944686136,224.83944686136,224.83944686136,224.83944686136,224.83944686136,224.83944686136,229.5378512412,443.61705452538,-0.60933255446174,392.34487535983,-0.61912030276267,0
0.0002734375,885242981.9145,2.4031732724186e-05,8.1012254857952e-05,3.4372479452331e-05,1.0254001070155,0,0,0,0,0,0,0,0,0,0,0,0,0,0,0,0,0,0,0,0,0,0,0,0,0,0,0,0,0,0,0,0,0,0,0,0,0,0,0,0,0,0,0,0,0,0,0,0,-0.97602366827212,-0.16749184426288,-0.38678559984566,5.246630405065,3.017096310035,1.1402239089955,-3.2935575701362,1.598295014137,2.7569296603177,-0.49072052063524,1.8239765264419,-5.4102730010905,1.4648962804678,-1.4804102566393,1.7054314038719,-4.3326919377133,2.0543925119954,4.6635171263296,-1.0124545701186,-4.5787425747898,1.7979015521891,1.7644776609698,0.0369361247844,-4.0328220696292,3.1135964294002,-2.2072205235216,1.1712628852292,1.0913709351328,-1.7607003880465,1.1832090066137,1.4114237944082,-0.33162850913952,0.81125750075765,-4.1808775670698,-1.8175032283322,-3.4164264132988,5.3383545835706,-2.7648960380298,3.1454481196076,-0.43440808826082,-1.3239021944885,-6.930054966582,0.9772684602928,-2.0450045877154,-3.4048984849775,1.2977979279575,3.5053188929337,-3.741405463874,225.07676152649,225.07676152649,225.07676152649,225.07676152649,225.07676152649,225.07676152649,225.07676152649,225.07676152649,225.07676152649,225.07676152649,225.07676152649,225.07676152649,225.07676152649,225.07676152649,225.07676152649,225.07676152649,225.07676152649,225.07676152649,225.07676152649,225.07676152649,225.07676152649,225.07676152649,225.07676152649,225.07676152649,225.07676152649,225.07676152649,225.07676152649,225.07676152649,225.07676152649,225.07676152649,225.07676152649,225.07676152649,225.07676152649,225.07676152649,225.07676152649,225.07676152649,225.07676152649,225.07676152649,225.07676152649,225.07676152649,225.07676152649,225.07676152649,225.07676152649,225.07676152649,225.07676152649,225.07676152649,225.07676152649,225.07676152649,229.52703999399,444.10851371935,-0.61164580861444,392.76717066262,-0.62144409415225,0
0.0002740625,888366023.56913,2.4084357469155e-05,8.119749129007e-05,3.4451351443722e-05,1.0254601608464,0,0,0,0,0,0,0,0,0,0,0,0,0,0,0,0,0,0,0,0,0,0,0,0,0,0,0,0,0,0,0,0,0,0,0,0,0,0,0,0,0,0,0,0,0,0,0,0,-0.97606371888377,-0.16664081629589,-0.38553022885747,5.2463167733412,3.0168487685213,1.1398045585306,-3.2928679750517,1.5980673531756,2.7568389197459,-0.49066247186009,1.8244183970147,-5.4103252491848,1.4651949678347,-1.4796974619324,1.706120400731,-4.3321672022849,2.0537382849991,4.6626490525678,-1.0125367142539,-4.578185451576,1.7984863086948,1.7651290376174,0.036790086258326,-4.0330025333176,3.1142181813677,-2.2084843465229,1.1715827140874,1.091081388357,-1.7602189561985,1.1827362600194,1.4110545802762,-0.33152475087242,0.81126250326504,-4.1800101186057,-1.816581721418,-3.4159562131887,5.3387398589794,-2.7643667982875,3.145476455596,-0.43426349017359,-1.3235718472138,-6.9295495652191,0.97765070982127,-2.0447093673507,-3.4047573960634,1.2985461635566,3.5042382258054,-3.7399429857416,225.31405473755,225.31405473755,225.31405473755,225.31405473755,225.31405473755,225.31405473755,225.31405473755,225.31405473755,225.31405473755,225.31405473755,225.31405473755,225.31405473755,225.31405473755,225.31405473755,225.31405473755,225.31405473755,225.31405473755,225.31405473755,225.31405473755,225.31405473755,225.31405473755,225.31405473755,225.31405473755,225.31405473755,225.31405473755,225.31405473755,225.31405473755,225.31405473755,225.31405473755,225.31405473755,225.31405473755,225.31405473755,225.31405473755,225.31405473755,225.31405473755,225.31405473755,225.31405473755,225.31405473755,225.31405473755,225.31405473755,225.31405473755,225.31405473755,225.31405473755,225.31405473755,225.31405473755,225.31405473755,225.31405473755,225.31405473755,229.51621133764,444.59990536965,-0.61396284418225,393.18940991732,-0.62377165307102,0
0.0002746875,891493692.8196,2.4136969145931e-05,8.1382727818604e-05,3.4530224560465e-05,1.0255202137513,0,0,0,0,0,0,0,0,0,0,0,0,0,0,0,0,0,0,0,0,0,0,0,0,0,0,0,0,0,0,0,0,0,0,0,0,0,0,0,0,0,0,0,0,0,0,0,0,-0.97610323301389,-0.16579020029575,-0.38428358132028,5.2460053664136,3.0166006195691,1.1393870602808,-3.2921784269715,1.5978397157276,2.7567479284003,-0.49060352923462,1.8248583212136,-5.4103765075927,1.4654935684259,-1.4789852667034,1.7068073020475,-4.3316384646548,2.0530843882076,4.6617817710781,-1.0126180010159,-4.5776313519001,1.7990679067959,1.7657803697765,0.036645622682493,-4.0331876209528,3.1148380197606,-2.2097469594328,1.171900964568,1.0907930283079,-1.7597361042523,1.1822641638388,1.4106853864072,-0.33141895971242,0.81126751188039,-4.179142664069,-1.8156613042744,-3.4154871991285,5.3391233759776,-2.7638346237785,3.1455053202262,-0.43411862458283,-1.3232423624309,-6.9290421765469,0.97803138637718,-2.04441706143,-3.4046166298,1.299293795162,3.5031610658687,-3.7384820736824,225.55132647592,225.55132647592,225.55132647592,225.55132647592,225.55132647592,225.55132647592,225.55132647592,225.55132647592,225.55132647592,225.55132647592,225.55132647592,225.55132647592,225.55132647592,225.55132647592,225.55132647592,225.55132647592,225.55132647592,225.55132647592,225.55132647592,225.55132647592,225.55132647592,225.55132647592,225.55132647592,225.55132647592,225.55132647592,225.55132647592,225.55132647592,225.55132647592,225.55132647592,225.55132647592,225.55132647592,225.55132647592,225.55132647592,225.55132647592,225.55132647592,225.55132647592,225.55132647592,225.55132647592,225.55132647592,225.55132647592,225.55132647592,225.55132647592,225.55132647592,225.55132647592,225.55132647592,225.55132647592,225.55132647592,225.55132647592,229.50536560627,445.09122954498,-0.61628365987702,393.61159317852,-0.62610297854106,0
0.0002753125,894625986.51973,2.4189567775804e-05,8.1567964442873e-05,3.4609098808677e-05,1.0255802657305,0,0,0,0,0,0,0,0,0,0,0,0,0,0,0,0,0,0,0,0,0,0,0,0,0,0,0,0,0,0,0,0,0,0,0,0,0,0,0,0,0,0,0,0,0,0,0,0,-0.97614222720033,-0.16493997568038,-0.38304562327345,5.2456961571518,3.0163518508368,1.1389713854768,-3.2914889074566,1.5976121379833,2.7566566900092,-0.49054369168598,1.8252963147973,-5.4104268181936,1.4657920814605,-1.4782736486662,1.7074921180337,-4.3311057567188,2.0524308300864,4.6609152680111,-1.0126984559804,-4.577080238964,1.7996463815631,1.7664316658066,0.036502731413779,-4.0333772867685,3.1154559595477,-2.2110083928631,1.1722176298303,1.0905058473312,-1.7592518321589,1.1817927765474,1.4103162089486,-0.33131114118409,0.81127252704411,-4.1782752354064,-1.8147419914813,-3.4150193362106,5.3395051403493,-2.763299544523,3.1455347036106,-0.43397349106959,-1.3229137411855,-6.9285328076064,0.97841053527152,-2.0441276534468,-3.404476116832,1.3000408241442,3.5020873981734,-3.7370227152757,225.78857672333,225.78857672333,225.78857672333,225.78857672333,225.78857672333,225.78857672333,225.78857672333,225.78857672333,225.78857672333,225.78857672333,225.78857672333,225.78857672333,225.78857672333,225.78857672333,225.78857672333,225.78857672333,225.78857672333,225.78857672333,225.78857672333,225.78857672333,225.78857672333,225.78857672333,225.78857672333,225.78857672333,225.78857672333,225.78857672333,225.78857672333,225.78857672333,225.78857672333,225.78857672333,225.78857672333,225.78857672333,225.78857672333,225.78857672333,225.78857672333,225.78857672333,225.78857672333,225.78857672333,225.78857672333,225.78857672333,225.78857672333,225.78857672333,225.78857672333,225.78857672333,225.78857672333,225.78857672333,225.78857672333,225.78857672333,229.49450313504,445.5824863104,-0.61860825442485,394.03372049961,-0.62843806955911,0
0.0002759375,897762901.52487,2.4242153380009e-05,8.1753201162203e-05,3.4687974193847e-05,1.0256403167839,0,0,0,0,0,0,0,0,0,0,0,0,0,0,0,0,0,0,0,0,0,0,0,0,0,0,0,0,0,0,0,0,0,0,0,0,0,0,0,0,0,0,0,0,0,0,0,0,-0.97618071842525,-0.16409012185732,-0.38181631890117,5.2453891177024,3.0161024492136,1.1385575067123,-3.2907993975525,1.5973846569246,2.756565208437,-0.49048295832522,1.8257323908917,-5.4104762241923,1.4660905062773,-1.4775625855533,1.7081748588287,-4.3305691102389,2.0517776201549,4.6600495283545,-1.01277810311,-4.5765320753416,1.8002217689149,1.7670829343455,0.036361409779335,-4.0335714859384,3.116072012237,-2.2122686787255,1.1725327027612,1.0902198387262,-1.758766139415,1.1813221579547,1.4099470439463,-0.33120130105238,0.81127754813076,-4.177407865562,-1.8138237975699,-3.4145525896013,5.3398851572967,-2.7627615903099,3.1455645967698,-0.43382808918835,-1.3225859846004,-6.9280214661077,0.97878820252376,-2.043841126418,-3.4043357850555,1.3007872513227,3.5010172077674,-3.7355648973228,226.02580546188,226.02580546188,226.02580546188,226.02580546188,226.02580546188,226.02580546188,226.02580546188,226.02580546188,226.02580546188,226.02580546188,226.02580546188,226.02580546188,226.02580546188,226.02580546188,226.02580546188,226.02580546188,226.02580546188,226.02580546188,226.02580546188,226.02580546188,226.02580546188,226.02580546188,226.02580546188,226.02580546188,226.02580546188,226.02580546188,226.02580546188,226.02580546188,226.02580546188,226.02580546188,226.02580546188,226.02580546188,226.02580546188,226.02580546188,226.02580546188,226.02580546188,226.02580546188,226.02580546188,226.02580546188,226.02580546188,226.02580546188,226.02580546188,226.02580546188,226.02580546188,226.02580546188,226.02580546188,226.02580546188,226.02580546188,229.48362425986,446.07367572756,-0.62093662652796,394.45579193265,-0.63077692511534,0
0.0002765625,900904434.69113,2.429472597971e-05,8.1938437975922e-05,3.4766850720933e-05,1.0257003669116,0,0,0,0,0,0,0,0,0,0,0,0,0,0,0,0,0,0,0,0,0,0,0,0,0,0,0,0,0,0,0,0,0,0,0,0,0,0,0,0,0,0,0,0,0,0,0,0,-0.97621872411222,-0.16324061821277,-0.38059563033921,5.245084219476,3.0158524008018,1.1381453979524,-3.2901098777877,1.597157310274,2.7564734876654,-0.49042132847653,1.8261665598807,-5.4105247701434,1.4663888423289,-1.4768520551021,1.7088555345295,-4.3300285568632,2.0511247689963,4.6591845358882,-1.0128569647432,-4.5759868229717,1.8007941056713,1.7677341842598,0.036221655054462,-4.0337701745968,3.116686185744,-2.2135278502606,1.1728461759907,1.089934996707,-1.7582790250384,1.1808523690546,1.4095778873648,-0.3310894453575,0.81128257339176,-4.1765405884907,-1.8129067369706,-3.414086924529,5.3402634314791,-2.7622207906764,3.1455949916511,-0.43368241844239,-1.3222590938505,-6.9275081604903,0.97916443486311,-2.0435574628314,-3.4041955597729,1.3015330770294,3.4999504796676,-3.7341086058956,226.26301267404,226.26301267404,226.26301267404,226.26301267404,226.26301267404,226.26301267404,226.26301267404,226.26301267404,226.26301267404,226.26301267404,226.26301267404,226.26301267404,226.26301267404,226.26301267404,226.26301267404,226.26301267404,226.26301267404,226.26301267404,226.26301267404,226.26301267404,226.26301267404,226.26301267404,226.26301267404,226.26301267404,226.26301267404,226.26301267404,226.26301267404,226.26301267404,226.26301267404,226.26301267404,226.26301267404,226.26301267404,226.26301267404,226.26301267404,226.26301267404,226.26301267404,226.26301267404,226.26301267404,226.26301267404,226.26301267404,226.26301267404,226.26301267404,226.26301267404,226.26301267404,226.26301267404,226.26301267404,226.26301267404,226.26301267404,229.47272931678,446.56479785473,-0.62326877486183,394.87780752823,-0.63311954416325,0
0.0002771875,904050582.87463,2.4347285595995e-05,8.2123674883361e-05,3.4845728394338e-05,1.0257604161137,0,0,0,0,0,0,0,0,0,0,0,0,0,0,0,0,0,0,0,0,0,0,0,0,0,0,0,0,0,0,0,0,0,0,0,0,0,0,0,0,0,0,0,0,0,0,0,0,-0.97625626212537,-0.16239144410414,-0.37938351755274,5.2447814331397,3.0156016909109,1.1377350345454,-3.2894203282041,1.5969301364246,2.7563815317887,-0.49035880170328,1.8265988293318,-5.4105725019565,1.4666870891966,-1.4761420350548,1.709534155207,-4.3294841281877,2.0504722882469,4.6583202731295,-1.0129350615781,-4.5754444431839,1.8013634295791,1.7683854246152,0.03608346444162,-4.0339733098872,3.1172984843169,-2.2147859420586,1.173158041916,1.0896513163672,-1.7577904875759,1.1803834718491,1.4092087351132,-0.33097558044982,0.81128759991651,-4.1756734391575,-1.8119908239641,-3.4136223062967,5.3406399670319,-2.7616771749053,3.145625881126,-0.43353647826574,-1.3219330701549,-6.9269929000497,0.97953927970366,-2.0432766446196,-3.4040553638543,1.3022783011596,3.4988871987992,-3.7326538263605,226.50019834262,226.50019834262,226.50019834262,226.50019834262,226.50019834262,226.50019834262,226.50019834262,226.50019834262,226.50019834262,226.50019834262,226.50019834262,226.50019834262,226.50019834262,226.50019834262,226.50019834262,226.50019834262,226.50019834262,226.50019834262,226.50019834262,226.50019834262,226.50019834262,226.50019834262,226.50019834262,226.50019834262,226.50019834262,226.50019834262,226.50019834262,226.50019834262,226.50019834262,226.50019834262,226.50019834262,226.50019834262,226.50019834262,226.50019834262,226.50019834262,226.50019834262,226.50019834262,226.50019834262,226.50019834262,226.50019834262,226.50019834262,226.50019834262,226.50019834262,226.50019834262,226.50019834262,226.50019834262,226.50019834262,226.50019834262,229.46181864131,447.05585274704,-0.62560469811183,395.2997673353,-0.63546592564777,0
0.0002778125,907201342.9307,2.4399832249863e-05,8.2308911883855e-05,3.4924607217886e-05,1.0258204643903,0,0,0,0,0,0,0,0,0,0,0,0,0,0,0,0,0,0,0,0,0,0,0,0,0,0,0,0,0,0,0,0,0,0,0,0,0,0,0,0,0,0,0,0,0,0,0,0,-0.97629335075869,-0.16154257884914,-0.37817993819312,5.2444807286015,3.0153503040415,1.1373263932185,-3.2887307283688,1.596703174358,2.756289345006,-0.49029537783175,1.8270292039228,-5.4106194668821,1.4669852465888,-1.4754325031494,1.7102107309467,-4.3289358557713,2.0498201906357,4.6574567212794,-1.0130124126798,-4.5749048966987,1.8019297793388,1.7690366646268,0.035946835049072,-4.0341808499735,3.1179089084553,-2.2160429900614,1.1734682927185,1.089368793637,-1.7573005250941,1.1799155291381,1.4088395830826,-0.33085971302158,0.81129262359122,-4.1748064535226,-1.8110760726359,-3.4131587002728,5.3410147676396,-2.7611307720053,3.1456572590447,-0.43339026800334,-1.3216079147566,-6.9264756949869,0.97991278515156,-2.0429986531109,-3.4039151179769,1.3030229232476,3.4978273499471,-3.7312005434326,226.73736245082,226.73736245082,226.73736245082,226.73736245082,226.73736245082,226.73736245082,226.73736245082,226.73736245082,226.73736245082,226.73736245082,226.73736245082,226.73736245082,226.73736245082,226.73736245082,226.73736245082,226.73736245082,226.73736245082,226.73736245082,226.73736245082,226.73736245082,226.73736245082,226.73736245082,226.73736245082,226.73736245082,226.73736245082,226.73736245082,226.73736245082,226.73736245082,226.73736245082,226.73736245082,226.73736245082,226.73736245082,226.73736245082,226.73736245082,226.73736245082,226.73736245082,226.73736245082,226.73736245082,226.73736245082,226.73736245082,226.73736245082,226.73736245082,226.73736245082,226.73736245082,226.73736245082,226.73736245082,226.73736245082,226.73736245082,229.45089256805,447.54684045661,-0.62794439491781,395.72167140105,-0.6378160684637,0
0.0002784375,910356711.71295,2.4452365962227e-05,8.2494148976745e-05,3.5003487194873e-05,1.0258805117413,0,0,0,0,0,0,0,0,0,0,0,0,0,0,0,0,0,0,0,0,0,0,0,0,0,0,0,0,0,0,0,0,0,0,0,0,0,0,0,0,0,0,0,0,0,0,0,0,-0.97633000872563,-0.1606940017348,-0.37698484746768,5.2441820750281,3.015098223883,1.1369194520667,-3.2880410574042,1.5964764635519,2.7561969315905,-0.49023105697944,1.8274576854024,-5.4106657134869,1.4672833143449,-1.4747234371162,1.710885271858,-4.3283837711843,2.049168489943,4.6565938601822,-1.0130890354955,-4.5743681436585,1.8024931946179,1.7696879136071,0.035811763866958,-4.0343927540625,3.1185174548595,-2.2172990315519,1.1737769203857,1.0890874252386,-1.756809135182,1.1794486042941,1.4084704271525,-0.33074185014364,0.81129763907672,-4.1739396685155,-1.8101624968275,-3.4126960718879,5.341387836546,-2.7605816107025,3.1456891202254,-0.43324378689436,-1.3212836289057,-6.9259565565034,0.98028499994011,-2.0427234689885,-3.4037747408492,1.3037669425228,3.4967709177061,-3.7297487412247,226.97450498219,226.97450498219,226.97450498219,226.97450498219,226.97450498219,226.97450498219,226.97450498219,226.97450498219,226.97450498219,226.97450498219,226.97450498219,226.97450498219,226.97450498219,226.97450498219,226.97450498219,226.97450498219,226.97450498219,226.97450498219,226.97450498219,226.97450498219,226.97450498219,226.97450498219,226.97450498219,226.97450498219,226.97450498219,226.97450498219,226.97450498219,226.97450498219,226.97450498219,226.97450498219,226.97450498219,226.97450498219,226.97450498219,226.97450498219,226.97450498219,226.97450498219,226.97450498219,226.97450498219,226.97450498219,226.97450498219,226.97450498219,226.97450498219,226.97450498219,226.97450498219,226.97450498219,226.97450498219,226.97450498219,226.97450498219,229.43995143007,448.03776103268,-0.63028786391347,396.14351977074,-0.6401699714944,0
0.0002790625,913516686.07247,2.4504886753894e-05,8.2679386161371e-05,3.5082368327986e-05,1.025940558167,0,0,0,0,0,0,0,0,0,0,0,0,0,0,0,0,0,0,0,0,0,0,0,0,0,0,0,0,0,0,0,0,0,0,0,0,0,0,0,0,0,0,0,0,0,0,0,0,-0.97636625514283,-0.15984569202325,-0.37579819805612,5.2438854408421,3.0148454333132,1.1365141905455,-3.2873512940255,1.5962500438698,2.7561042958838,-0.4901658395791,1.8278842725727,-5.4107112916233,1.4675812924374,-1.4740148146889,1.7115577881179,-4.3278279060385,2.0485172009672,4.6557316682995,-1.0131649458749,-4.5738341436563,1.8030537160513,1.770339180929,0.035678247745529,-4.0346089824156,3.1191241164264,-2.2185541051391,1.1740839167303,1.0888072086496,-1.7563163149572,1.1789827609955,1.4081012632178,-0.33062199929899,0.81130263979365,-4.1730731220074,-1.8092501101034,-3.4122343866424,5.3417591766406,-2.7600297194341,3.1457214604353,-0.43309703406444,-1.3209602138387,-6.9254354968665,0.98065597337946,-2.0424510722414,-3.4036341495264,1.3045103579586,3.495717886441,-3.728298403303,227.21162592064,227.21162592064,227.21162592064,227.21162592064,227.21162592064,227.21162592064,227.21162592064,227.21162592064,227.21162592064,227.21162592064,227.21162592064,227.21162592064,227.21162592064,227.21162592064,227.21162592064,227.21162592064,227.21162592064,227.21162592064,227.21162592064,227.21162592064,227.21162592064,227.21162592064,227.21162592064,227.21162592064,227.21162592064,227.21162592064,227.21162592064,227.21162592064,227.21162592064,227.21162592064,227.21162592064,227.21162592064,227.21162592064,227.21162592064,227.21162592064,227.21162592064,227.21162592064,227.21162592064,227.21162592064,227.21162592064,227.21162592064,227.21162592064,227.21162592064,227.21162592064,227.21162592064,227.21162592064,227.21162592064,227.21162592064,229.42899555822,448.52861452181,-0.63263510372314,396.56531248755,-0.64252763358291,0
0.0002796875,916681262.85682,2.4557394645566e-05,8.2864623437082e-05,3.5161250619351e-05,1.0260006036674,0,0,0,0,0,0,0,0,0,0,0,0,0,0,0,0,0,0,0,0,0,0,0,0,0,0,0,0,0,0,0,0,0,0,0,0,0,0,0,0,0,0,0,0,0,0,0,0,-0.97640210950959,-0.15899762896818,-0.37461994002165,5.2435907937307,3.0145919144101,1.1361105894616,-3.286661416562,1.5960239554359,2.7560114422796,-0.49009972640131,1.8283089612942,-5.4107562523593,1.4678791809746,-1.4733066135915,1.7122282899883,-4.3272682920267,2.0478663395046,4.6548701226926,-1.0132401580916,-4.5733028557523,1.803611385231,1.7709904759801,0.03554628337446,-4.034829496368,3.1197288822544,-2.2198082507156,1.1743892734162,1.088528142065,-1.7558220610672,1.1785180629365,1.4077320872105,-0.33050016841275,0.81130761791981,-4.1722068527509,-1.8083389257117,-3.411773610094,5.3421287905008,-2.7594751263391,3.145754276419,-0.43295000850483,-1.3206376707603,-6.9249125294887,0.9810257552846,-2.0421814421244,-3.4034932597318,1.3052531683397,3.494668240252,-3.7268495127401,227.44872525044,227.44872525044,227.44872525044,227.44872525044,227.44872525044,227.44872525044,227.44872525044,227.44872525044,227.44872525044,227.44872525044,227.44872525044,227.44872525044,227.44872525044,227.44872525044,227.44872525044,227.44872525044,227.44872525044,227.44872525044,227.44872525044,227.44872525044,227.44872525044,227.44872525044,227.44872525044,227.44872525044,227.44872525044,227.44872525044,227.44872525044,227.44872525044,227.44872525044,227.44872525044,227.44872525044,227.44872525044,227.44872525044,227.44872525044,227.44872525044,227.44872525044,227.44872525044,227.44872525044,227.44872525044,227.44872525044,227.44872525044,227.44872525044,227.44872525044,227.44872525044,227.44872525044,227.44872525044,227.44872525044,227.44872525044,229.41802528062,449.01940096806,-0.63498611294721,396.98704959244,-0.64488905353882,0
0.0002803125,919850438.90908,2.4609889657831e-05,8.3049860803227e-05,3.5240134070542e-05,1.0260606482426,0,0,0,0,0,0,0,0,0,0,0,0,0,0,0,0,0,0,0,0,0,0,0,0,0,0,0,0,0,0,0,0,0,0,0,0,0,0,0,0,0,0,0,0,0,0,0,0,-0.97643759168038,-0.15814979184224,-0.37345002074742,5.2432981006736,3.0143376484672,1.1357086309484,-3.2859714030048,1.5957982384988,2.7559183752027,-0.49003271857868,1.8287317445148,-5.4108006479173,1.4681769801973,-1.4725988115514,1.7128967878392,-4.3267049609629,2.0472159222713,4.6540091990188,-1.0133146848835,-4.5727742385206,1.804166244679,1.7716418081145,0.035415867260447,-4.0350542583256,3.1203317376787,-2.2210615094138,1.1746929819824,1.0882502243518,-1.7553263697003,1.1780545735091,1.4073628951105,-0.33037636588756,0.81131256439939,-4.1713409003225,-1.8074289565502,-3.4113137078592,5.3424966804498,-2.7589178592565,3.1457875658569,-0.43280270906845,-1.320316000824,-6.9243876689938,0.98139439587306,-2.0419145571031,-3.4033519862279,1.3059953723125,3.4936219629383,-3.7254020521895,227.68580295619,227.68580295619,227.68580295619,227.68580295619,227.68580295619,227.68580295619,227.68580295619,227.68580295619,227.68580295619,227.68580295619,227.68580295619,227.68580295619,227.68580295619,227.68580295619,227.68580295619,227.68580295619,227.68580295619,227.68580295619,227.68580295619,227.68580295619,227.68580295619,227.68580295619,227.68580295619,227.68580295619,227.68580295619,227.68580295619,227.68580295619,227.68580295619,227.68580295619,227.68580295619,227.68580295619,227.68580295619,227.68580295619,227.68580295619,227.68580295619,227.68580295619,227.68580295619,227.68580295619,227.68580295619,227.68580295619,227.68580295619,227.68580295619,227.68580295619,227.68580295619,227.68580295619,227.68580295619,227.68580295619,227.68580295619,229.40704092211,449.51012041319,-0.63734089017556,397.40873112406,-0.64725423013715,0
0.0002809375,923024211.06689,2.4662371811161e-05,8.3235098259161e-05,3.5319018682556e-05,1.0261206918928,0,0,0,0,0,0,0,0,0,0,0,0,0,0,0,0,0,0,0,0,0,0,0,0,0,0,0,0,0,0,0,0,0,0,0,0,0,0,0,0,0,0,0,0,0,0,0,0,-0.97647272183299,-0.15730215996856,-0.37228838491956,5.2430073279621,3.0140826160148,1.1353082984602,-3.2852812310423,1.595572933274,2.7558250990895,-0.48996481762506,1.8291526123341,-5.410844531578,1.4684746904813,-1.4718913862937,1.713563292177,-4.3261379448217,2.0465659668311,4.6531488715447,-1.0133885374792,-4.5722482500782,1.8047183378047,1.7722931866016,0.035286995706915,-4.0352832317885,3.1209326643625,-2.2223139235338,1.1749950338669,1.0879734550211,-1.7548292365975,1.1775923554511,1.4069936829636,-0.33025060062852,0.8113174689659,-4.1704753050449,-1.8065202151389,-3.4108546455963,5.342862848624,-2.7583579457195,3.1458213273497,-0.43265513445507,-1.3199952051071,-6.9238609312978,0.98176194563938,-2.0416503948024,-3.4032102432307,1.3067369684318,3.4925790379796,-3.7239560039468,227.92285902287,227.92285902287,227.92285902287,227.92285902287,227.92285902287,227.92285902287,227.92285902287,227.92285902287,227.92285902287,227.92285902287,227.92285902287,227.92285902287,227.92285902287,227.92285902287,227.92285902287,227.92285902287,227.92285902287,227.92285902287,227.92285902287,227.92285902287,227.92285902287,227.92285902287,227.92285902287,227.92285902287,227.92285902287,227.92285902287,227.92285902287,227.92285902287,227.92285902287,227.92285902287,227.92285902287,227.92285902287,227.92285902287,227.92285902287,227.92285902287,227.92285902287,227.92285902287,227.92285902287,227.92285902287,227.92285902287,227.92285902287,227.92285902287,227.92285902287,227.92285902287,227.92285902287,227.92285902287,227.92285902287,227.92285902287,229.39604280362,450.00077289682,-0.63969943397626,397.83035711858,-0.64962316213239,0
0.0002815625,926202576.16147,2.4714841125906e-05,8.3420335804243e-05,3.5397904455799e-05,1.0261807346181,0,0,0,0,0,0,0,0,0,0,0,0,0,0,0,0,0,0,0,0,0,0,0,0,0,0,0,0,0,0,0,0,0,0,0,0,0,0,0,0,0,0,0,0,0,0,0,0,-0.97650752042634,-0.15645471276783,-0.37113497449246,5.2427184412457,3.0138267968702,1.1349095767377,-3.2845908781185,1.5953480797744,2.7557316183849,-0.48989602545367,1.8295715520844,-5.4108879575595,1.46877231233,-1.4711843155594,1.7142278136582,-4.3255672757563,2.0459164914745,4.6522891131839,-1.0134617256549,-4.571724848146,1.8052677088497,1.7729446206036,0.035159664794832,-4.0355163813321,3.1215316403846,-2.2235655364512,1.1752954204435,1.0876978341836,-1.7543306570743,1.1771314704681,1.406624446897,-0.33012288207083,0.8113223201766,-4.1696101078823,-1.8056127135887,-3.410396389014,5.3432272970416,-2.7577954129476,3.1458555603381,-0.43250728321078,-1.3196752845955,-6.9233323336328,0.98212845521063,-2.0413889319624,-3.4030679448711,1.3074779551948,3.491539448512,-3.7225113500139,228.15989343578,228.15989343578,228.15989343578,228.15989343578,228.15989343578,228.15989343578,228.15989343578,228.15989343578,228.15989343578,228.15989343578,228.15989343578,228.15989343578,228.15989343578,228.15989343578,228.15989343578,228.15989343578,228.15989343578,228.15989343578,228.15989343578,228.15989343578,228.15989343578,228.15989343578,228.15989343578,228.15989343578,228.15989343578,228.15989343578,228.15989343578,228.15989343578,228.15989343578,228.15989343578,228.15989343578,228.15989343578,228.15989343578,228.15989343578,228.15989343578,228.15989343578,228.15989343578,228.15989343578,228.15989343578,228.15989343578,228.15989343578,228.15989343578,228.15989343578,228.15989343578,228.15989343578,228.15989343578,228.15989343578,228.15989343578,229.38503124161,450.49135845663,-0.64206174290825,398.25192760965,-0.65199584821182,0
0.0002821875,929385531.01661,2.4767297622292e-05,8.3605573437836e-05,3.5476791390155e-05,1.0262407764185,0,0,0,0,0,0,0,0,0,0,0,0,0,0,0,0,0,0,0,0,0,0,0,0,0,0,0,0,0,0,0,0,0,0,0,0,0,0,0,0,0,0,0,0,0,0,0,0,-0.97654200815894,-0.15560742980839,-0.36998972872895,5.2424314055724,3.0135701701814,1.1345124517967,-3.2839003214713,1.5951237176228,2.755637937503,-0.48982634439317,1.82998854845,-5.4109309808832,1.4690698463767,-1.4704775771127,1.7148903631139,-4.3249929861516,2.0452675151305,4.6514298955533,-1.0135342577704,-4.5712039900882,1.8058144028122,1.7735961191021,0.03503387036454,-4.0357536726189,3.1221286403986,-2.2248163925073,1.1755941330508,1.0874233625205,-1.7538306260294,1.176671978824,1.4062551831242,-0.32999322020232,0.81132710546152,-4.1687453503334,-1.8047064635844,-3.4099389038612,5.3435900276688,-2.7572302878528,3.1458902651029,-0.43235915372333,-1.3193562401583,-6.9228018946319,0.98249397518197,-2.0411301443815,-3.4029250056854,1.3082183311005,3.4905031773309,-3.7210680721855,228.39690618057,228.39690618057,228.39690618057,228.39690618057,228.39690618057,228.39690618057,228.39690618057,228.39690618057,228.39690618057,228.39690618057,228.39690618057,228.39690618057,228.39690618057,228.39690618057,228.39690618057,228.39690618057,228.39690618057,228.39690618057,228.39690618057,228.39690618057,228.39690618057,228.39690618057,228.39690618057,228.39690618057,228.39690618057,228.39690618057,228.39690618057,228.39690618057,228.39690618057,228.39690618057,228.39690618057,228.39690618057,228.39690618057,228.39690618057,228.39690618057,228.39690618057,228.39690618057,228.39690618057,228.39690618057,228.39690618057,228.39690618057,228.39690618057,228.39690618057,228.39690618057,228.39690618057,228.39690618057,228.39690618057,228.39690618057,229.37400654734,450.98187712859,-0.64442781551085,398.67344262824,-0.65437228704525,0
0.0002828125,932573072.44767,2.4819741320427e-05,8.3790811159307e-05,3.5555679484926e-05,1.0263008172944,0,0,0,0,0,0,0,0,0,0,0,0,0,0,0,0,0,0,0,0,0,0,0,0,0,0,0,0,0,0,0,0,0,0,0,0,0,0,0,0,0,0,0,0,0,0,0,0,-0.97657620591443,-0.15476029087034,-0.36885258422145,5.2421461854443,3.0133127144905,1.1341169108994,-3.2832095382045,1.5948998858569,2.7555440608275,-0.48975577720205,1.8304035836041,-5.4109736572233,1.4693672933746,-1.4697711487475,1.7155509515682,-4.3244151086386,2.0446190571843,4.650571189049,-1.0136061408261,-4.5706856329789,1.8063584653609,1.7742476908758,0.034909607998838,-4.0359950723942,3.1227236357957,-2.2260665368894,1.1758911630283,1.0871500412475,-1.7533291379846,1.1762139389169,1.4058858879631,-0.3298616255841,0.81133181118154,-4.1678810743018,-1.8038014763563,-3.4094821559119,5.3439510425062,-2.7566625970277,3.1459254426447,-0.43221074421831,-1.3190380725258,-6.9222696343561,0.98285855590413,-2.0408740068628,-3.4027813411635,1.3089580946681,3.4894702068915,-3.7196261521177,228.63389724321,228.63389724321,228.63389724321,228.63389724321,228.63389724321,228.63389724321,228.63389724321,228.63389724321,228.63389724321,228.63389724321,228.63389724321,228.63389724321,228.63389724321,228.63389724321,228.63389724321,228.63389724321,228.63389724321,228.63389724321,228.63389724321,228.63389724321,228.63389724321,228.63389724321,228.63389724321,228.63389724321,228.63389724321,228.63389724321,228.63389724321,228.63389724321,228.63389724321,228.63389724321,228.63389724321,228.63389724321,228.63389724321,228.63389724321,228.63389724321,228.63389724321,228.63389724321,228.63389724321,228.63389724321,228.63389724321,228.63389724321,228.63389724321,228.63389724321,228.63389724321,228.63389724321,228.63389724321,228.63389724321,228.63389724321,229.36296902648,451.47232894714,-0.64679765030278,399.09490220267,-0.65675247724858,0
0.0002834375,935765197.26065,2.4872172240297e-05,8.3976048968028e-05,3.5634568738921e-05,1.0263608572458,0,0,0,0,0,0,0,0,0,0,0,0,0,0,0,0,0,0,0,0,0,0,0,0,0,0,0,0,0,0,0,0,0,0,0,0,0,0,0,0,0,0,0,0,0,0,0,0,-0.97661013470137,-0.15391327602235,-0.36772347497724,5.2418627448804,3.0130544078212,1.1337229425385,-3.2825185053448,1.5946766227101,2.7554499926892,-0.48968432707849,1.8308166373759,-5.4110160427138,1.4696646541958,-1.4690650083166,1.7162095902435,-4.3238336761212,2.0439711373375,4.6497129629546,-1.0136773805067,-4.5701697336668,1.806899942721,1.7748993444534,0.034786873006157,-4.0362405484606,3.1233165949125,-2.2273160154702,1.176186501763,1.0868778720892,-1.7528261871085,1.1757574068205,1.4055165578406,-0.32972810936529,0.81133642270331,-4.1670173219418,-1.8028977626661,-3.4090261109779,5.3443103436432,-2.7560923667488,3.1459610946292,-0.43206205276605,-1.3187207822706,-6.9217355743158,0.98322224727278,-2.0406204931705,-3.4026368683056,1.3096972444715,3.4884405193193,-3.718185571402,228.87086661,228.87086661,228.87086661,228.87086661,228.87086661,228.87086661,228.87086661,228.87086661,228.87086661,228.87086661,228.87086661,228.87086661,228.87086661,228.87086661,228.87086661,228.87086661,228.87086661,228.87086661,228.87086661,228.87086661,228.87086661,228.87086661,228.87086661,228.87086661,228.87086661,228.87086661,228.87086661,228.87086661,228.87086661,228.87086661,228.87086661,228.87086661,228.87086661,228.87086661,228.87086661,228.87086661,228.87086661,228.87086661,228.87086661,228.87086661,228.87086661,228.87086661,228.87086661,228.87086661,228.87086661,228.87086661,228.87086661,228.87086661,229.35191897851,451.96271394537,-0.64917124580405,399.51630635846,-0.65913641740313,0
0.0002840625,938961902.25119,2.492459040176e-05,8.4161286863374e-05,3.5713459150371e-05,1.0264208962729,0,0,0,0,0,0,0,0,0,0,0,0,0,0,0,0,0,0,0,0,0,0,0,0,0,0,0,0,0,0,0,0,0,0,0,0,0,0,0,0,0,0,0,0,0,0,0,0,-0.97664381558699,-0.15306636569795,-0.36660233250659,5.2415810475024,3.0127952277708,1.1333305364071,-3.2818271999096,1.5944539653936,2.7553557373513,-0.48961199766858,1.8312276874469,-5.4110581937508,1.4699619298216,-1.4683591337314,1.7168662905847,-4.3232487218028,2.0433237753921,4.6488551855733,-1.0137479812376,-4.5696562488514,1.8074388815591,1.7755510880766,0.034665660407568,-4.0364900696814,3.1239074832777,-2.2285648746391,1.1764801407316,1.0866068572462,-1.7523217672461,1.175302435817,1.4051471892999,-0.32959268329558,0.8113409244813,-4.1661541354967,-1.8019953327892,-3.4085707348727,5.3446679333638,-2.7555196229718,3.1459972232542,-0.4319130772786,-1.3184043697824,-6.9211997375126,0.98358509847154,-2.0403695759566,-3.402491506252,1.3104357791509,3.4874140964416,-3.716746311642,229.10781426757,229.10781426757,229.10781426757,229.10781426757,229.10781426757,229.10781426757,229.10781426757,229.10781426757,229.10781426757,229.10781426757,229.10781426757,229.10781426757,229.10781426757,229.10781426757,229.10781426757,229.10781426757,229.10781426757,229.10781426757,229.10781426757,229.10781426757,229.10781426757,229.10781426757,229.10781426757,229.10781426757,229.10781426757,229.10781426757,229.10781426757,229.10781426757,229.10781426757,229.10781426757,229.10781426757,229.10781426757,229.10781426757,229.10781426757,229.10781426757,229.10781426757,229.10781426757,229.10781426757,229.10781426757,229.10781426757,229.10781426757,229.10781426757,229.10781426757,229.10781426757,229.10781426757,229.10781426757,229.10781426757,229.10781426757,229.34085669599,452.45303215525,-0.65154860051664,399.93765511839,-0.66152410605853,0
0.0002846875,942163184.20373,2.4976995824553e-05,8.4346524844727e-05,3.5792350716906e-05,1.026480934376,0,0,0,0,0,0,0,0,0,0,0,0,0,0,0,0,0,0,0,0,0,0,0,0,0,0,0,0,0,0,0,0,0,0,0,0,0,0,0,0,0,0,0,0,0,0,0,0,-0.9766772696226,-0.15221954080169,-0.36548908595489,5.2413010566143,3.0125351516144,1.1329396833767,-3.2811355989793,1.5942319498518,2.7552612989826,-0.48953879307168,1.8316367095535,-5.411100166766,1.4702591213357,-1.4676535029981,1.7175210642533,-4.3226602791911,2.0426769910647,4.647997824374,-1.0138179462434,-4.5691451351566,1.8079753288312,1.7762029296471,0.034545964923065,-4.0367436059524,3.1244962638629,-2.2298131611068,1.1767720715466,1.0863369993697,-1.7518158719635,1.1748490759073,1.4047777790005,-0.32945535973275,0.81134530015069,-4.165291557115,-1.8010941965031,-3.4081159934289,5.3450238142046,-2.7549443913247,3.1460338311718,-0.43176381552216,-1.318088835253,-6.9206621484314,0.98394715770008,-2.0401212267267,-3.4023451769055,1.3111736974416,3.4863909198181,-3.7153083545401,229.34474020285,229.34474020285,229.34474020285,229.34474020285,229.34474020285,229.34474020285,229.34474020285,229.34474020285,229.34474020285,229.34474020285,229.34474020285,229.34474020285,229.34474020285,229.34474020285,229.34474020285,229.34474020285,229.34474020285,229.34474020285,229.34474020285,229.34474020285,229.34474020285,229.34474020285,229.34474020285,229.34474020285,229.34474020285,229.34474020285,229.34474020285,229.34474020285,229.34474020285,229.34474020285,229.34474020285,229.34474020285,229.34474020285,229.34474020285,229.34474020285,229.34474020285,229.34474020285,229.34474020285,229.34474020285,229.34474020285,229.34474020285,229.34474020285,229.34474020285,229.34474020285,229.34474020285,229.34474020285,229.34474020285,229.34474020285,229.32978246421,452.94328360782,-0.65392971290613,400.35894850245,-0.66391554168778,0
0.0002853125,945369039.89052,2.5029388528306e-05,8.4531762911471e-05,3.5871243435713e-05,1.0265409715552,0,0,0,0,0,0,0,0,0,0,0,0,0,0,0,0,0,0,0,0,0,0,0,0,0,0,0,0,0,0,0,0,0,0,0,0,0,0,0,0,0,0,0,0,0,0,0,0,-0.97671051775993,-0.15137278279411,-0.36438366224011,5.2410227352985,3.0122741564431,1.1325503754743,-3.2804436797868,1.5940106105299,2.7551666816547,-0.48946471784114,1.8320436777268,-5.4111420179568,1.4705562299153,-1.4669480942461,1.718173923138,-4.3220683821167,2.042030803739,4.6471408461867,-1.0138872776016,-4.5686363492248,1.8085093316392,1.7768548766929,0.034427780959875,-4.0370011281962,3.1250828973818,-2.2310609216816,1.177062286018,1.086068301538,-1.7513084945984,1.1743973733249,1.4044083237386,-0.32931615164281,0.81134953263035,-4.1644296286337,-1.800194363071,-3.4076618524945,5.3453779890401,-2.7543666971048,3.1460709213395,-0.43161426512691,-1.3177741786509,-6.9201228330565,0.98430847188083,-2.0398754157834,-3.4021978055969,1.3119109981792,3.4853709707855,-3.7138716819778,229.58164440305,229.58164440305,229.58164440305,229.58164440305,229.58164440305,229.58164440305,229.58164440305,229.58164440305,229.58164440305,229.58164440305,229.58164440305,229.58164440305,229.58164440305,229.58164440305,229.58164440305,229.58164440305,229.58164440305,229.58164440305,229.58164440305,229.58164440305,229.58164440305,229.58164440305,229.58164440305,229.58164440305,229.58164440305,229.58164440305,229.58164440305,229.58164440305,229.58164440305,229.58164440305,229.58164440305,229.58164440305,229.58164440305,229.58164440305,229.58164440305,229.58164440305,229.58164440305,229.58164440305,229.58164440305,229.58164440305,229.58164440305,229.58164440305,229.58164440305,229.58164440305,229.58164440305,229.58164440305,229.58164440305,229.58164440305,229.3186965604,453.43346833337,-0.65631458145275,400.78018652789,-0.66631072274787,0
0.0002859375,948579466.07093,2.508176853254e-05,8.4717001062996e-05,3.5950137303465e-05,1.0266010078108,0,0,0,0,0,0,0,0,0,0,0,0,0,0,0,0,0,0,0,0,0,0,0,0,0,0,0,0,0,0,0,0,0,0,0,0,0,0,0,0,0,0,0,0,0,0,0,0,-0.97674358076813,-0.15052607381563,-0.36328598625025,5.2407460465228,3.0120122192967,1.132162605853,-3.2797514197845,1.5937899801192,2.7550718893198,-0.48938977698384,1.8324485645429,-5.4111838030259,1.4708532568201,-1.4662428857502,1.7188248793611,-4.3214730647322,2.0413852322108,4.6462842174032,-1.0139559763041,-4.5681298477996,1.8090409370482,1.7775069363336,0.034311102602718,-4.0372626083217,3.1256673426123,-2.2323082030345,1.1773507762053,1.0858007672292,-1.7507996282964,1.17394737004,1.4040388204373,-0.32917507260049,0.81135360423499,-4.1635683913718,-1.7992958412349,-3.4072082779232,5.3457304611722,-2.7537865652724,3.146108496873,-0.43146442359752,-1.3174603997,-6.9195818188435,0.98466908633209,-2.0396321121757,-3.4020493217641,1.3126476803,3.48435423052,-3.712436276094,229.81852685571,229.81852685571,229.81852685571,229.81852685571,229.81852685571,229.81852685571,229.81852685571,229.81852685571,229.81852685571,229.81852685571,229.81852685571,229.81852685571,229.81852685571,229.81852685571,229.81852685571,229.81852685571,229.81852685571,229.81852685571,229.81852685571,229.81852685571,229.81852685571,229.81852685571,229.81852685571,229.81852685571,229.81852685571,229.81852685571,229.81852685571,229.81852685571,229.81852685571,229.81852685571,229.81852685571,229.81852685571,229.81852685571,229.81852685571,229.81852685571,229.81852685571,229.81852685571,229.81852685571,229.81852685571,229.81852685571,229.81852685571,229.81852685571,229.81852685571,229.81852685571,229.81852685571,229.81852685571,229.81852685571,229.81852685571,229.30759925342,453.92358636168,-0.6587032046055,401.20136920925,-0.66870964764006,0
0.0002865625,951794459.49058,2.5134135856691e-05,8.4902239298695e-05,3.602903231638e-05,1.026661043143,0,0,0,0,0,0,0,0,0,0,0,0,0,0,0,0,0,0,0,0,0,0,0,0,0,0,0,0,0,0,0,0,0,0,0,0,0,0,0,0,0,0,0,0,0,0,0,0,-0.97677647913351,-0.1496793968016,-0.36219598101825,5.2404709532548,3.0117493173243,1.1317763687716,-3.2790587967453,1.5935700893125,2.7549769257934,-0.48931397595608,1.8328513413786,-5.4112255768877,1.4711502033862,-1.4655378559656,1.7194739452579,-4.3208743615084,2.0407402944329,4.6454279042142,-1.0140240423038,-4.5676255878349,1.8095701919139,1.7781591152395,0.034195923605446,-4.0375280192123,3.1262495567127,-2.2335550514475,1.1776375344828,1.0855344003041,-1.7502892660732,1.173499103271,1.4036692661525,-0.3290321367809,0.81135749679033,-4.1627078858917,-1.7983986392005,-3.4067552355681,5.3460812343807,-2.7532040204353,3.1461465609072,-0.43131428833091,-1.3171474978689,-6.9190391347046,0.98502904443904,-2.0393912836437,-3.4018996596253,1.3133837428398,3.4833406801008,-3.7110021193488,230.05538754862,230.05538754862,230.05538754862,230.05538754862,230.05538754862,230.05538754862,230.05538754862,230.05538754862,230.05538754862,230.05538754862,230.05538754862,230.05538754862,230.05538754862,230.05538754862,230.05538754862,230.05538754862,230.05538754862,230.05538754862,230.05538754862,230.05538754862,230.05538754862,230.05538754862,230.05538754862,230.05538754862,230.05538754862,230.05538754862,230.05538754862,230.05538754862,230.05538754862,230.05538754862,230.05538754862,230.05538754862,230.05538754862,230.05538754862,230.05538754862,230.05538754862,230.05538754862,230.05538754862,230.05538754862,230.05538754862,230.05538754862,230.05538754862,230.05538754862,230.05538754862,230.05538754862,230.05538754862,230.05538754862,230.05538754862,229.29649080308,454.41363772211,-0.66109558082387,401.62249655841,-0.67111231473982,0
0.0002871875,955014016.88071,2.5186490520101e-05,8.5087477617968e-05,3.6107928470154e-05,1.026721077552,0,0,0,0,0,0,0,0,0,0,0,0,0,0,0,0,0,0,0,0,0,0,0,0,0,0,0,0,0,0,0,0,0,0,0,0,0,0,0,0,0,0,0,0,0,0,0,0,-0.97680923296451,-0.14883273560526,-0.3611135679595,5.2401974185854,3.0114854279534,1.1313916595631,-3.27836578885,1.5933509665518,2.7548817947419,-0.48923732065779,1.8332519786841,-5.4112673933551,1.4714470710099,-1.4648329835696,1.7201211333965,-4.3202723072196,2.0400960072135,4.6445718728633,-1.0140914745854,-4.5671235265975,1.8100971426772,1.7788114195947,0.034082237379075,-4.037797334681,3.1268294955771,-2.2348015125369,1.1779225536044,1.0852692049792,-1.749777400866,1.1730526050108,1.4032996580754,-0.32888735894935,0.8113611917527,-4.1618481517526,-1.797502764632,-3.4063026912928,5.3464303130432,-2.7526190868396,3.1461851164075,-0.4311638566346,-1.3168354723417,-6.9184948109539,0.98538838729713,-2.0391528965731,-3.4017487588876,1.314119184924,3.4823303005787,-3.7095691946251,230.29222646987,230.29222646987,230.29222646987,230.29222646987,230.29222646987,230.29222646987,230.29222646987,230.29222646987,230.29222646987,230.29222646987,230.29222646987,230.29222646987,230.29222646987,230.29222646987,230.29222646987,230.29222646987,230.29222646987,230.29222646987,230.29222646987,230.29222646987,230.29222646987,230.29222646987,230.29222646987,230.29222646987,230.29222646987,230.29222646987,230.29222646987,230.29222646987,230.29222646987,230.29222646987,230.29222646987,230.29222646987,230.29222646987,230.29222646987,230.29222646987,230.29222646987,230.29222646987,230.29222646987,230.29222646987,230.29222646987,230.29222646987,230.29222646987,230.29222646987,230.29222646987,230.29222646987,230.29222646987,230.29222646987,230.29222646987,229.28537145957,454.9036224439,-0.66349170851664,402.04356858478,-0.67351872233815,0
0.0002878125,958238134.95746,2.523883254205e-05,8.5272716020218e-05,3.6186825760066e-05,1.0267811110381,0,0,0,0,0,0,0,0,0,0,0,0,0,0,0,0,0,0,0,0,0,0,0,0,0,0,0,0,0,0,0,0,0,0,0,0,0,0,0,0,0,0,0,0,0,0,0,0,-0.97684186188142,-0.14798607513024,-0.36003866710209,5.2399254058671,3.0112205290719,1.1310084746073,-3.2776723747767,1.5931326377865,2.7547864996693,-0.48915981742116,1.8336504462606,-5.4113093048095,1.4717438611381,-1.4641282474748,1.7207664565373,-4.3196669369381,2.0394523859383,4.6437160899232,-1.014158271218,-4.5666236217706,1.8106218351647,1.7794638550714,0.033970036987609,-4.0380705294637,3.1274071141874,-2.2360476309571,1.1782058267743,1.0850051858096,-1.7492640255933,1.1726079015726,1.402929993528,-0.32874075444234,0.81136467033596,-4.1609892272492,-1.7966082246373,-3.4058506109387,5.3467777021567,-2.7520317883532,3.1462241660171,-0.43101312573546,-1.3165243220125,-6.9179488792879,0.98574715335379,-2.0389169159433,-3.4015965653924,1.3148540057571,3.4813230730573,-3.708137485287,230.52904360779,230.52904360779,230.52904360779,230.52904360779,230.52904360779,230.52904360779,230.52904360779,230.52904360779,230.52904360779,230.52904360779,230.52904360779,230.52904360779,230.52904360779,230.52904360779,230.52904360779,230.52904360779,230.52904360779,230.52904360779,230.52904360779,230.52904360779,230.52904360779,230.52904360779,230.52904360779,230.52904360779,230.52904360779,230.52904360779,230.52904360779,230.52904360779,230.52904360779,230.52904360779,230.52904360779,230.52904360779,230.52904360779,230.52904360779,230.52904360779,230.52904360779,230.52904360779,230.52904360779,230.52904360779,230.52904360779,230.52904360779,230.52904360779,230.52904360779,230.52904360779,230.52904360779,230.52904360779,230.52904360779,230.52904360779,229.27424146312,455.39354055625,-0.66589158611599,402.46458529527,-0.67592886872621,0
0.0002884375,961466810.42144,2.529116194178e-05,8.5457954504852e-05,3.6265724181124e-05,1.0268411436016,0,0,0,0,0,0,0,0,0,0,0,0,0,0,0,0,0,0,0,0,0,0,0,0,0,0,0,0,0,0,0,0,0,0,0,0,0,0,0,0,0,0,0,0,0,0,0,0,-0.97687438491194,-0.14713940145845,-0.35897119735788,5.2396548788304,3.0109545992205,1.1306268112933,-3.2769785338053,1.5929151262427,2.7546910438866,-0.48908147299916,1.8340467135467,-5.411351361849,1.4720405752558,-1.4634236269345,1.7214099276371,-4.3190582859961,2.0388094442529,4.642860522589,-1.0142244294263,-4.5661258315686,1.8111443143768,1.7801164267623,0.033859315140251,-4.0383475791473,3.1279823669951,-2.2372934500978,1.1784873477158,1.0847423476622,-1.7487491332228,1.172165013173,1.4025602699705,-0.32859233914951,0.81136791363684,-4.1601311491353,-1.795715025768,-3.4053989604063,5.3471234074381,-2.7514421484521,3.1462637118556,-0.43086209283253,-1.3162140454636,-6.9174013726818,0.9861053780325,-2.0386833053029,-3.4014430317853,1.315588204605,3.4803189787782,-3.7067069752762,230.76583895098,230.76583895098,230.76583895098,230.76583895098,230.76583895098,230.76583895098,230.76583895098,230.76583895098,230.76583895098,230.76583895098,230.76583895098,230.76583895098,230.76583895098,230.76583895098,230.76583895098,230.76583895098,230.76583895098,230.76583895098,230.76583895098,230.76583895098,230.76583895098,230.76583895098,230.76583895098,230.76583895098,230.76583895098,230.76583895098,230.76583895098,230.76583895098,230.76583895098,230.76583895098,230.76583895098,230.76583895098,230.76583895098,230.76583895098,230.76583895098,230.76583895098,230.76583895098,230.76583895098,230.76583895098,230.76583895098,230.76583895098,230.76583895098,230.76583895098,230.76583895098,230.76583895098,230.76583895098,230.76583895098,230.76583895098,229.2631010433,455.88339208853,-0.66829521202142,402.88554669455,-0.67834275212173,0
0.0002890625,964700039.9572,2.5343478738489e-05,8.5643193071284e-05,3.6344623727883e-05,1.0269011752428,0,0,0,0,0,0,0,0,0,0,0,0,0,0,0,0,0,0,0,0,0,0,0,0,0,0,0,0,0,0,0,0,0,0,0,0,0,0,0,0,0,0,0,0,0,0,0,0,-0.97690682037773,-0.14629270199156,-0.35791107677779,5.2393858017447,3.010687617797,1.1302466679956,-3.2762842459154,1.592698452202,2.7545954305222,-0.48900229455171,1.8344407498826,-5.4113936129622,1.4723372148764,-1.4627191015107,1.7220515598301,-4.3184463899593,2.0381671937537,4.6420051389951,-1.0142899456363,-4.5656301148635,1.8116646242711,1.7807691392031,0.033750064182885,-4.0386284601626,3.1285552082581,-2.2385390117839,1.1787671107484,1.0844806957007,-1.7482327168272,1.1717239535483,1.4021904849883,-0.32844212948617,0.81137090275852,-4.1592739523635,-1.7948231739961,-3.4049477055582,5.3474674353821,-2.7508501901888,3.1463037553188,-0.43071075508678,-1.315904640953,-6.9168523253425,0.98646309336554,-2.0384520266891,-3.4012881181325,1.3163217807589,3.4793179992104,-3.7052776491515,231.00261248825,231.00261248825,231.00261248825,231.00261248825,231.00261248825,231.00261248825,231.00261248825,231.00261248825,231.00261248825,231.00261248825,231.00261248825,231.00261248825,231.00261248825,231.00261248825,231.00261248825,231.00261248825,231.00261248825,231.00261248825,231.00261248825,231.00261248825,231.00261248825,231.00261248825,231.00261248825,231.00261248825,231.00261248825,231.00261248825,231.00261248825,231.00261248825,231.00261248825,231.00261248825,231.00261248825,231.00261248825,231.00261248825,231.00261248825,231.00261248825,231.00261248825,231.00261248825,231.00261248825,231.00261248825,231.00261248825,231.00261248825,231.00261248825,231.00261248825,231.00261248825,231.00261248825,231.00261248825,231.00261248825,231.00261248825,229.2519504187,456.37317707043,-0.67070258463619,403.30645278513,-0.6807603707207,0
0.0002896875,967937820.23282,2.5395782951372e-05,8.5828431718931e-05,3.6423524394543e-05,1.0269612059619,0,0,0,0,0,0,0,0,0,0,0,0,0,0,0,0,0,0,0,0,0,0,0,0,0,0,0,0,0,0,0,0,0,0,0,0,0,0,0,0,0,0,0,0,0,0,0,0,-0.97693918578149,-0.1454459655723,-0.35685822283847,5.239118139551,3.0104195652566,1.129868044024,-3.2755894918855,1.5924826328005,2.7544996624786,-0.48892228963009,1.8348325247935,-5.4114361041482,1.4726337815266,-1.4620146511944,1.7226913663949,-4.3178312845837,2.0375256437019,4.6411499085208,-1.0143548155522,-4.5651364312936,1.8121828075489,1.7814219962931,0.033642276092818,-4.0389131497231,3.1291255924233,-2.2397843559393,1.179045110858,1.0842202353554,-1.7477147696576,1.1712847296238,1.4018206362943,-0.32829014236753,0.81137361893632,-4.158417669793,-1.7939326747159,-3.4044968123187,5.347809793306,-2.7502559361729,3.1463442969183,-0.43055910968283,-1.3155961064076,-6.9163017726053,0.9868203276353,-2.0382230406239,-3.4011317924919,1.3170547335268,3.4783201161353,-3.703849492178,231.23936420867,231.23936420867,231.23936420867,231.23936420867,231.23936420867,231.23936420867,231.23936420867,231.23936420867,231.23936420867,231.23936420867,231.23936420867,231.23936420867,231.23936420867,231.23936420867,231.23936420867,231.23936420867,231.23936420867,231.23936420867,231.23936420867,231.23936420867,231.23936420867,231.23936420867,231.23936420867,231.23936420867,231.23936420867,231.23936420867,231.23936420867,231.23936420867,231.23936420867,231.23936420867,231.23936420867,231.23936420867,231.23936420867,231.23936420867,231.23936420867,231.23936420867,231.23936420867,231.23936420867,231.23936420867,231.23936420867,231.23936420867,231.23936420867,231.23936420867,231.23936420867,231.23936420867,231.23936420867,231.23936420867,231.23936420867,229.2407897965,456.86289553214,-0.67311370233934,403.72730356759,-0.68318172266431,0
0.0002903125,971180147.89972,2.5448074599631e-05,8.6013670447215e-05,3.6502426175011e-05,1.0270212357593,0,0,0,0,0,0,0,0,0,0,0,0,0,0,0,0,0,0,0,0,0,0,0,0,0,0,0,0,0,0,0,0,0,0,0,0,0,0,0,0,0,0,0,0,0,0,0,0,-0.97697149769222,-0.14459918262312,-0.35581255272691,5.2388518580051,3.0101504233297,1.1294909395844,-3.2748942533909,1.592267681849,2.7544037424341,-0.48884146615689,1.8352220082445,-5.4114788785791,1.4729302767356,-1.4613102564148,1.7233293607362,-4.3172130057689,2.0368848007081,4.6402948021275,-1.0144190342165,-4.5646447413867,1.8126989054385,1.7820750012903,0.033535942471161,-4.0392016257882,3.1296934744622,-2.2410295202859,1.1793213437755,1.0839609722995,-1.7471952852034,1.1708473412413,1.4014507217216,-0.32813639517244,0.81137604365627,-4.1575623319195,-1.793043532722,-3.4040462466338,5.3481504893974,-2.7496594085384,3.1463853360594,-0.43040715383591,-1.3152884394077,-6.9157497508371,0.9871771050191,-2.0379963060558,-3.4009740314234,1.3177870621907,3.4773253117366,-3.702422490386,231.47609410149,231.47609410149,231.47609410149,231.47609410149,231.47609410149,231.47609410149,231.47609410149,231.47609410149,231.47609410149,231.47609410149,231.47609410149,231.47609410149,231.47609410149,231.47609410149,231.47609410149,231.47609410149,231.47609410149,231.47609410149,231.47609410149,231.47609410149,231.47609410149,231.47609410149,231.47609410149,231.47609410149,231.47609410149,231.47609410149,231.47609410149,231.47609410149,231.47609410149,231.47609410149,231.47609410149,231.47609410149,231.47609410149,231.47609410149,231.47609410149,231.47609410149,231.47609410149,231.47609410149,231.47609410149,231.47609410149,231.47609410149,231.47609410149,231.47609410149,231.47609410149,231.47609410149,231.47609410149,231.47609410149,231.47609410149,229.22961937195,457.35254750442,-0.67552856350657,404.14809904073,-0.68560680606638,0
0.0002909375,974427019.59237,2.5500353702497e-05,8.6198909255562e-05,3.65813290629e-05,1.0270812646353,0,0,0,0,0,0,0,0,0,0,0,0,0,0,0,0,0,0,0,0,0,0,0,0,0,0,0,0,0,0,0,0,0,0,0,0,0,0,0,0,0,0,0,0,0,0,0,0,-0.9770037716368,-0.14375234526317,-0.3547739836242,5.2385869238242,3.0098801752237,1.1291153557312,-3.2741985131052,1.5920536096825,2.7543076728254,-0.4887598324081,1.8356091708985,-5.4115219762334,1.4732267020255,-1.4606058981166,1.7239655563552,-4.3165915895074,2.0362446684523,4.6394397926717,-1.0144825960779,-4.564155006681,1.8132129574923,1.7827281567794,0.033431054533896,-4.039493867019,3.1302588102238,-2.2422745400079,1.1795958060462,1.0837029124221,-1.74667425726,1.170411780951,1.4010807392259,-0.32798090570997,0.81137815877274,-4.156707966598,-1.7921557522031,-3.4035959745133,5.3484895327662,-2.7490606289135,3.1464268708676,-0.43025488483773,-1.3149816371862,-6.9151962973338,0.98753344525121,-2.0377717803392,-3.4008148204542,1.3185187659816,3.4763335686722,-3.7009966306285,231.7128021562,231.7128021562,231.7128021562,231.7128021562,231.7128021562,231.7128021562,231.7128021562,231.7128021562,231.7128021562,231.7128021562,231.7128021562,231.7128021562,231.7128021562,231.7128021562,231.7128021562,231.7128021562,231.7128021562,231.7128021562,231.7128021562,231.7128021562,231.7128021562,231.7128021562,231.7128021562,231.7128021562,231.7128021562,231.7128021562,231.7128021562,231.7128021562,231.7128021562,231.7128021562,231.7128021562,231.7128021562,231.7128021562,231.7128021562,231.7128021562,231.7128021562,231.7128021562,231.7128021562,231.7128021562,231.7128021562,231.7128021562,231.7128021562,231.7128021562,231.7128021562,231.7128021562,231.7128021562,231.7128021562,231.7128021562,229.21843932809,457.84213301881,-0.67794716649603,404.56883920178,-0.68803561899807,0
0.0002915625,977678431.92823,2.5552620279261e-05,8.6384148143404e-05,3.6660233051596e-05,1.0271412925901,0,0,0,0,0,0,0,0,0,0,0,0,0,0,0,0,0,0,0,0,0,0,0,0,0,0,0,0,0,0,0,0,0,0,0,0,0,0,0,0,0,0,0,0,0,0,0,0,-0.97703602198731,-0.14290544742565,-0.35374243299218,5.2383233048266,3.0096088058375,1.1287412943067,-3.2735022547889,1.5918404230373,2.7542114558221,-0.48867739699268,1.8359939843435,-5.41156543357,1.4735230589009,-1.4599015578136,1.7245999668138,-4.3159670718294,2.0356052474112,4.6385848552352,-1.0145454950679,-4.563667189835,1.8137250013889,1.783381464644,0.033327603106262,-4.0397898527351,3.1308215567425,-2.243519447457,1.1798684951061,1.0834460617955,-1.7461516799874,1.1699780338781,1.4007106868649,-0.32782369218054,0.81137994661699,-4.1558545987856,-1.7912693367186,-3.4031459620492,5.3488269334529,-2.7484596183821,3.1464688979993,-0.43010230008405,-1.3146756966204,-6.9146414502103,0.98788936331667,-2.0375494191992,-3.4006541544291,1.3192498440449,3.4753448701674,-3.6995719006409,231.94948836243,231.94948836243,231.94948836243,231.94948836243,231.94948836243,231.94948836243,231.94948836243,231.94948836243,231.94948836243,231.94948836243,231.94948836243,231.94948836243,231.94948836243,231.94948836243,231.94948836243,231.94948836243,231.94948836243,231.94948836243,231.94948836243,231.94948836243,231.94948836243,231.94948836243,231.94948836243,231.94948836243,231.94948836243,231.94948836243,231.94948836243,231.94948836243,231.94948836243,231.94948836243,231.94948836243,231.94948836243,231.94948836243,231.94948836243,231.94948836243,231.94948836243,231.94948836243,231.94948836243,231.94948836243,231.94948836243,231.94948836243,231.94948836243,231.94948836243,231.94948836243,231.94948836243,231.94948836243,231.94948836243,231.94948836243,229.20724983554,458.3316521077,-0.680369509667,404.98952404661,-0.69046815949626,0
0.0002921875,980934381.5078,2.56048743493e-05,8.6569387110178e-05,3.6739138134288e-05,1.0272013196241,0,0,0,0,0,0,0,0,0,0,0,0,0,0,0,0,0,0,0,0,0,0,0,0,0,0,0,0,0,0,0,0,0,0,0,0,0,0,0,0,0,0,0,0,0,0,0,0,-0.97706826186271,-0.14205848495868,-0.35271781885046,5.2380609700649,3.0093363019562,1.128368757884,-3.2728054633878,1.591628124968,2.7541150933159,-0.48859416883047,1.8363764213194,-5.4116092831897,1.4738193488385,-1.4591972176502,1.7252326057035,-4.3153394887249,2.0349665346077,4.6377299674302,-1.0146077246617,-4.5631812547507,1.8142350727499,1.7840349260399,0.033225578611804,-4.0400895628564,3.1313816725526,-2.2447642718459,1.1801394093451,1.083190426641,-1.7456275479743,1.1695460776779,1.4003405628016,-0.32766477313399,0.81138139010205,-4.1550022502841,-1.7903842891903,-3.4026961754342,5.3491627024628,-2.7478563974436,3.1465114124638,-0.42994939711667,-1.314370614232,-6.9140852482535,0.98824486916779,-2.0373291767085,-3.4004920378007,1.3199802954013,3.4743592000698,-3.6981482890825,232.18615271004,232.18615271004,232.18615271004,232.18615271004,232.18615271004,232.18615271004,232.18615271004,232.18615271004,232.18615271004,232.18615271004,232.18615271004,232.18615271004,232.18615271004,232.18615271004,232.18615271004,232.18615271004,232.18615271004,232.18615271004,232.18615271004,232.18615271004,232.18615271004,232.18615271004,232.18615271004,232.18615271004,232.18615271004,232.18615271004,232.18615271004,232.18615271004,232.18615271004,232.18615271004,232.18615271004,232.18615271004,232.18615271004,232.18615271004,232.18615271004,232.18615271004,232.18615271004,232.18615271004,232.18615271004,232.18615271004,232.18615271004,232.18615271004,232.18615271004,232.18615271004,232.18615271004,232.18615271004,232.18615271004,232.18615271004,229.19605105219,458.82110480448,-0.68279559136612,405.41015356995,-0.69290442556588,0
0.0002928125,984194864.91462,2.5657115932077e-05,8.6754626155323e-05,3.6818044303957e-05,1.0272613457376,0,0,0,0,0,0,0,0,0,0,0,0,0,0,0,0,0,0,0,0,0,0,0,0,0,0,0,0,0,0,0,0,0,0,0,0,0,0,0,0,0,0,0,0,0,0,0,0,-0.97710050302542,-0.14121145571682,-0.35170006004567,5.2377998899452,3.0090626524426,1.1279977496933,-3.2721081251188,1.5914167147922,2.7540185869094,-0.48851015713074,1.8367564559114,-5.4116535535333,1.4741155732819,-1.458492860459,1.7258634866107,-4.3147088760882,2.0343285233956,4.6368751096941,-1.0146692779624,-4.5626971666773,1.8147432049756,1.7846885413907,0.033124971063431,-4.0403929778492,3.1319391179604,-2.2460090389745,1.1804085481714,1.0829360132895,-1.7451018562935,1.1691158825568,1.399970365295,-0.3275041674299,0.81138247281791,-4.1541509395074,-1.7895006118834,-3.4022465809951,5.3494968517678,-2.7472509859776,3.1465544074685,-0.42979617365219,-1.3140663861861,-6.9135277308038,0.9885999674897,-2.037111005265,-3.4003284848066,1.3207101189224,3.4733765429076,-3.6967257855688,232.422795189,232.422795189,232.422795189,232.422795189,232.422795189,232.422795189,232.422795189,232.422795189,232.422795189,232.422795189,232.422795189,232.422795189,232.422795189,232.422795189,232.422795189,232.422795189,232.422795189,232.422795189,232.422795189,232.422795189,232.422795189,232.422795189,232.422795189,232.422795189,232.422795189,232.422795189,232.422795189,232.422795189,232.422795189,232.422795189,232.422795189,232.422795189,232.422795189,232.422795189,232.422795189,232.422795189,232.422795189,232.422795189,232.422795189,232.422795189,232.422795189,232.422795189,232.422795189,232.422795189,232.422795189,232.422795189,232.422795189,232.422795189,229.18484312307,459.31049114358,-0.68522540992358,405.8307277656,-0.69534441518236,0
0.0002934375,987459878.71545,2.5709345047205e-05,8.6939865278286e-05,3.6896951553552e-05,1.027321370931,0,0,0,0,0,0,0,0,0,0,0,0,0,0,0,0,0,0,0,0,0,0,0,0,0,0,0,0,0,0,0,0,0,0,0,0,0,0,0,0,0,0,0,0,0,0,0,0,-0.97713275579748,-0.14036435963145,-0.3506890764982,5.2375400363594,3.0087878484152,1.1276282735404,-3.2714102275497,1.5912061880857,2.7539219378847,-0.48842537136871,1.837134063728,-5.4116982686011,1.4744117336381,-1.4577884698408,1.7264926230672,-4.3140752696408,2.0336912032832,4.6360202655684,-1.0147301477851,-4.5622148923198,1.815249429101,1.7853423103457,0.033025770052386,-4.0407000786983,3.1324938552942,-2.2472537709641,1.1806759120706,1.0826828281362,-1.7445746005536,1.1686874114017,1.399600092683,-0.32734189418774,0.81138317912017,-4.1533006812725,-1.788618306378,-3.4017971452461,5.3498293942871,-2.7466434031908,3.1465978742828,-0.42964262763069,-1.3137630083002,-6.9129689376297,0.98895465750849,-2.0368948555905,-3.4001635195445,1.3214393132953,3.472396883937,-3.6953043807301,232.65941578945,232.65941578945,232.65941578945,232.65941578945,232.65941578945,232.65941578945,232.65941578945,232.65941578945,232.65941578945,232.65941578945,232.65941578945,232.65941578945,232.65941578945,232.65941578945,232.65941578945,232.65941578945,232.65941578945,232.65941578945,232.65941578945,232.65941578945,232.65941578945,232.65941578945,232.65941578945,232.65941578945,232.65941578945,232.65941578945,232.65941578945,232.65941578945,232.65941578945,232.65941578945,232.65941578945,232.65941578945,232.65941578945,232.65941578945,232.65941578945,232.65941578945,232.65941578945,232.65941578945,232.65941578945,232.65941578945,232.65941578945,232.65941578945,232.65941578945,232.65941578945,232.65941578945,232.65941578945,232.65941578945,232.65941578945,229.17362618027,459.79981116063,-0.68765896366807,406.25124662665,-0.69778812628979,0
0.0002940625,990729419.46058,2.5761561714449e-05,8.7125104478515e-05,3.6975859875898e-05,1.0273813952045,0,0,0,0,0,0,0,0,0,0,0,0,0,0,0,0,0,0,0,0,0,0,0,0,0,0,0,0,0,0,0,0,0,0,0,0,0,0,0,0,0,0,0,0,0,0,0,0,-0.97716502898105,-0.13951719876559,-0.34968478944454,5.2372813827747,3.0085118834064,1.1272603337209,-3.2707117596719,1.5909965367159,2.7538251472079,-0.48833982126326,1.8375092220578,-5.4117434477064,1.4747078312696,-1.4570840302113,1.7271200285262,-4.3134387048462,2.0330545597624,4.6351654219433,-1.0147903267324,-4.5617343999261,1.8157537736781,1.7859962317923,0.032927964740729,-4.0410108468167,3.133045849135,-2.2484984860342,1.1809415026537,1.0824308775921,-1.7440457769476,1.1682606199928,1.3992297433879,-0.32717797274805,0.81138349420779,-4.1524514866124,-1.787737373561,-3.4013478349054,5.3501603438952,-2.7460336675785,3.1466418020925,-0.42948875724535,-1.3134604760456,-6.9124089087507,0.98930893283077,-2.0366806767112,-3.39999717594,1.3221678769914,3.4714202091737,-3.6938840662089,232.89601450167,232.89601450167,232.89601450167,232.89601450167,232.89601450167,232.89601450167,232.89601450167,232.89601450167,232.89601450167,232.89601450167,232.89601450167,232.89601450167,232.89601450167,232.89601450167,232.89601450167,232.89601450167,232.89601450167,232.89601450167,232.89601450167,232.89601450167,232.89601450167,232.89601450167,232.89601450167,232.89601450167,232.89601450167,232.89601450167,232.89601450167,232.89601450167,232.89601450167,232.89601450167,232.89601450167,232.89601450167,232.89601450167,232.89601450167,232.89601450167,232.89601450167,232.89601450167,232.89601450167,232.89601450167,232.89601450167,232.89601450167,232.89601450167,232.89601450167,232.89601450167,232.89601450167,232.89601450167,232.89601450167,232.89601450167,229.16240034302,460.28906489247,-0.69009625091134,406.67171014569,-0.70023555681088,0
0.0002946875,994003483.68408,2.5813765953749e-05,8.7310343755466e-05,3.7054769263789e-05,1.0274414185586,0,0,0,0,0,0,0,0,0,0,0,0,0,0,0,0,0,0,0,0,0,0,0,0,0,0,0,0,0,0,0,0,0,0,0,0,0,0,0,0,0,0,0,0,0,0,0,0,-0.97719732978954,-0.13866997735342,-0.34868712165355,5.2370239043409,3.0082347535111,1.1268939349246,-3.2700127119704,1.5907877489109,2.7537282154992,-0.4882535167534,1.8378819099996,-5.4117891052556,1.4750038674991,-1.4563795268744,1.7277457163105,-4.3127992168464,2.0324185742175,4.6343105692847,-1.0148498072861,-4.5612556593876,1.8162562646757,1.7866503038276,0.03283154384571,-4.0413252640203,3.1335950665045,-2.2497431982914,1.1812053227054,1.0821801680327,-1.743515382291,1.1678354572962,1.3988593158937,-0.32701242262059,0.81138340419548,-4.1516033626174,-1.7868578135943,-3.4008986169604,5.3504897153748,-2.745421796879,3.146686177906,-0.42933456098346,-1.313158784563,-6.9118476843249,0.98966278136362,-2.0364684159667,-3.3998294976033,1.3228958082384,3.4704465054005,-3.692464834698,233.13259131605,233.13259131605,233.13259131605,233.13259131605,233.13259131605,233.13259131605,233.13259131605,233.13259131605,233.13259131605,233.13259131605,233.13259131605,233.13259131605,233.13259131605,233.13259131605,233.13259131605,233.13259131605,233.13259131605,233.13259131605,233.13259131605,233.13259131605,233.13259131605,233.13259131605,233.13259131605,233.13259131605,233.13259131605,233.13259131605,233.13259131605,233.13259131605,233.13259131605,233.13259131605,233.13259131605,233.13259131605,233.13259131605,233.13259131605,233.13259131605,233.13259131605,233.13259131605,233.13259131605,233.13259131605,233.13259131605,233.13259131605,233.13259131605,233.13259131605,233.13259131605,233.13259131605,233.13259131605,233.13259131605,233.13259131605,229.15116571777,460.77825237723,-0.69253726998142,407.092118315,-0.70268670465664,0
0.0002953125,997282067.90424,2.5865957785249e-05,8.7495583108597e-05,3.7133679710011e-05,1.0275014409935,0,0,0,0,0,0,0,0,0,0,0,0,0,0,0,0,0,0,0,0,0,0,0,0,0,0,0,0,0,0,0,0,0,0,0,0,0,0,0,0,0,0,0,0,0,0,0,0,-0.97722966379368,-0.13782270180808,-0.34769599760639,5.2367675779564,3.0079564574933,1.1265290821235,-3.2693130764806,1.590579809383,2.7536311430253,-0.48816646797737,1.8382521085759,-5.4118352505796,1.4752998436079,-1.4556749460894,1.7283696995782,-4.3121568403655,2.0317832238559,4.6334557018032,-1.0149085818991,-4.5607786423101,1.8167569254253,1.7873045237618,0.032736495628124,-4.041643312455,3.134141477033,-2.2509879175728,1.18146737621,1.0819307057347,-1.7429834140598,1.167411865857,1.3984888087454,-0.32684526344248,0.81138289617589,-4.1507563123098,-1.7859796259002,-3.4004494587114,5.3508175243858,-2.7448078080228,3.1467309864681,-0.42918003766868,-1.3128579286728,-6.911285304474,0.99001618527594,-2.0362580190091,-3.3996605375673,1.3236231049951,3.4694757601604,-3.6910466799331,233.36914622307,233.36914622307,233.36914622307,233.36914622307,233.36914622307,233.36914622307,233.36914622307,233.36914622307,233.36914622307,233.36914622307,233.36914622307,233.36914622307,233.36914622307,233.36914622307,233.36914622307,233.36914622307,233.36914622307,233.36914622307,233.36914622307,233.36914622307,233.36914622307,233.36914622307,233.36914622307,233.36914622307,233.36914622307,233.36914622307,233.36914622307,233.36914622307,233.36914622307,233.36914622307,233.36914622307,233.36914622307,233.36914622307,233.36914622307,233.36914622307,233.36914622307,233.36914622307,233.36914622307,233.36914622307,233.36914622307,233.36914622307,233.36914622307,233.36914622307,233.36914622307,233.36914622307,233.36914622307,233.36914622307,233.36914622307,229.13992239848,461.26737365438,-0.69498201916536,407.5124711268,-0.70514156769561,0
0.0002959375,1000565168.624,2.5918137229313e-05,8.7680822537373e-05,3.7212591207382e-05,1.0275614625095,0,0,0,0,0,0,0,0,0,0,0,0,0,0,0,0,0,0,0,0,0,0,0,0,0,0,0,0,0,0,0,0,0,0,0,0,0,0,0,0,0,0,0,0,0,0,0,0,-0.97726203488165,-0.13697538071404,-0.34671134367267,5.2365123823377,3.0076769968928,1.1261657804636,-3.2686128468283,1.5903726994847,2.7535339296848,-0.48807868524836,1.8386198008198,-5.4118818878095,1.4755957608428,-1.4549702751276,1.7289919912823,-4.3115116096512,2.0311484816969,4.6326008176202,-1.0149666430851,-4.560303322078,1.8172557765835,1.7879588881135,0.032642807882607,-4.0419649745527,3.1346850530974,-2.2522326493154,1.1817276683816,1.0816824968153,-1.7424498704093,1.1669897822668,1.3981182205346,-0.32667651493073,0.811381958273,-4.1499103345619,-1.7851028091344,-3.4000003278319,5.3511437874124,-2.7441917170995,3.1467762102145,-0.42902518649268,-1.3125579028919,-6.9107218091632,0.99036912102583,-2.0360494298237,-3.3994903579202,1.3243497649388,3.4685079617455,-3.689629596704,233.60567921333,233.60567921333,233.60567921333,233.60567921333,233.60567921333,233.60567921333,233.60567921333,233.60567921333,233.60567921333,233.60567921333,233.60567921333,233.60567921333,233.60567921333,233.60567921333,233.60567921333,233.60567921333,233.60567921333,233.60567921333,233.60567921333,233.60567921333,233.60567921333,233.60567921333,233.60567921333,233.60567921333,233.60567921333,233.60567921333,233.60567921333,233.60567921333,233.60567921333,233.60567921333,233.60567921333,233.60567921333,233.60567921333,233.60567921333,233.60567921333,233.60567921333,233.60567921333,233.60567921333,233.60567921333,233.60567921333,233.60567921333,233.60567921333,233.60567921333,233.60567921333,233.60567921333,233.60567921333,233.60567921333,233.60567921333,229.12867046684,461.75642876473,-0.69743049677051,407.93276857339,-0.70760014380335,0
0.0002965625,1003852782.3315,2.5970304306544e-05,8.786606204126e-05,3.7291503748818e-05,1.027621483107,0,0,0,0,0,0,0,0,0,0,0,0,0,0,0,0,0,0,0,0,0,0,0,0,0,0,0,0,0,0,0,0,0,0,0,0,0,0,0,0,0,0,0,0,0,0,0,0,-0.97729444523266,-0.1361280247926,-0.34573308824459,5.2362582980572,3.0073963760861,1.1258040351349,-3.2679120182613,1.5901663974094,2.7534365749954,-0.48799017903209,1.8389849718363,-5.4119290157788,1.475891620425,-1.454265502325,1.7296126041239,-4.3108635583798,2.0305143165917,4.6317459188573,-1.0150239835182,-4.5598296739024,1.8177528361335,1.788613392609,0.032550467924129,-4.0422902329763,3.1352257699147,-2.2534773944602,1.1819862056758,1.0814355471608,-1.7419147501943,1.1665691377068,1.3977475498939,-0.32650619683344,0.81138057968742,-4.1490654240337,-1.7842273611651,-3.3995511924119,5.3514685216897,-2.7435735393036,3.146821829225,-0.42887000705074,-1.312258701458,-6.9101572380355,0.99072155944471,-2.0358425907432,-3.3993190293261,1.3250757854395,3.4675430991471,-3.6882135808346,233.84219027751,233.84219027751,233.84219027751,233.84219027751,233.84219027751,233.84219027751,233.84219027751,233.84219027751,233.84219027751,233.84219027751,233.84219027751,233.84219027751,233.84219027751,233.84219027751,233.84219027751,233.84219027751,233.84219027751,233.84219027751,233.84219027751,233.84219027751,233.84219027751,233.84219027751,233.84219027751,233.84219027751,233.84219027751,233.84219027751,233.84219027751,233.84219027751,233.84219027751,233.84219027751,233.84219027751,233.84219027751,233.84219027751,233.84219027751,233.84219027751,233.84219027751,233.84219027751,233.84219027751,233.84219027751,233.84219027751,233.84219027751,233.84219027751,233.84219027751,233.84219027751,233.84219027751,233.84219027751,233.84219027751,233.84219027751,229.11740999291,462.24541775048,-0.69988270108216,408.35301064735,-0.71006243082624,0
0.0002971875,1007144905.5005,2.6022459037795e-05,8.8051301619731e-05,3.7370417327288e-05,1.0276815027863,0,0,0,0,0,0,0,0,0,0,0,0,0,0,0,0,0,0,0,0,0,0,0,0,0,0,0,0,0,0,0,0,0,0,0,0,0,0,0,0,0,0,0,0,0,0,0,0,-0.97732689530664,-0.13528064684141,-0.34476116184266,5.2360053075925,3.0071146023284,1.1254438512367,-3.2672105876939,1.5899608784275,2.75333907809,-0.48790095992492,1.8393476088504,-5.4119766279962,1.47618742356,-1.4535606171577,1.730231550531,-4.310212719588,2.0298806933196,4.6308910117043,-1.0150805961465,-4.5593576748878,1.818248119421,1.7892680321967,0.032459462577007,-4.0426190705559,3.135763605625,-2.2547221494058,1.1822429957928,1.0811898623534,-1.7413780529863,1.1661498585593,1.3973767954919,-0.32633432888806,0.81137875073346,-4.1482215711646,-1.7833532790529,-3.3991020210505,5.351791745157,-2.7429532889042,3.1468678212334,-0.42871449938206,-1.3119603183444,-6.9095916302693,0.99107346589819,-2.0356374424908,-3.3991466304626,1.3258011635515,3.466581162,-3.6867986291806,234.07867940633,234.07867940633,234.07867940633,234.07867940633,234.07867940633,234.07867940633,234.07867940633,234.07867940633,234.07867940633,234.07867940633,234.07867940633,234.07867940633,234.07867940633,234.07867940633,234.07867940633,234.07867940633,234.07867940633,234.07867940633,234.07867940633,234.07867940633,234.07867940633,234.07867940633,234.07867940633,234.07867940633,234.07867940633,234.07867940633,234.07867940633,234.07867940633,234.07867940633,234.07867940633,234.07867940633,234.07867940633,234.07867940633,234.07867940633,234.07867940633,234.07867940633,234.07867940633,234.07867940633,234.07867940633,234.07867940633,234.07867940633,234.07867940633,234.07867940633,234.07867940633,234.07867940633,234.07867940633,234.07867940633,234.07867940633,229.10614103538,462.73434065515,-0.70233863039455,408.77319734167,-0.71252842661279,0
0.0002978125,1010441534.591,2.6074601444193e-05,8.8236541272263e-05,3.7449331935979e-05,1.0277415215477,0,0,0,0,0,0,0,0,0,0,0,0,0,0,0,0,0,0,0,0,0,0,0,0,0,0,0,0,0,0,0,0,0,0,0,0,0,0,0,0,0,0,0,0,0,0,0,0,-0.97735938385149,-0.13443326166378,-0.34379549719056,5.2357533952983,3.0068316857676,1.1250852336453,-3.2665085536911,1.5897561151559,2.7532414376977,-0.48781103863289,1.8397077012293,-5.4120247126721,1.4764831714529,-1.4528556102776,1.7308488426108,-4.309559125599,2.0292475727019,4.6300361064418,-1.0151364742739,-4.5588873040275,1.8187416392194,1.789922801054,0.032369778163778,-4.0429514702404,3.1362985413263,-2.2559669060274,1.182498047669,1.0809454475942,-1.7408397790604,1.1657318670721,1.3970059560129,-0.32616093077661,0.81137646287008,-4.1473787622073,-1.7824805590294,-3.3986527828972,5.352113476368,-2.7423309792045,3.1469141616481,-0.42855866399529,-1.3116627472938,-6.9090250244413,0.99142480048314,-2.0354339242038,-3.3989732473624,1.3265258960097,3.4656221405099,-3.6853847395766,234.3151465906,234.3151465906,234.3151465906,234.3151465906,234.3151465906,234.3151465906,234.3151465906,234.3151465906,234.3151465906,234.3151465906,234.3151465906,234.3151465906,234.3151465906,234.3151465906,234.3151465906,234.3151465906,234.3151465906,234.3151465906,234.3151465906,234.3151465906,234.3151465906,234.3151465906,234.3151465906,234.3151465906,234.3151465906,234.3151465906,234.3151465906,234.3151465906,234.3151465906,234.3151465906,234.3151465906,234.3151465906,234.3151465906,234.3151465906,234.3151465906,234.3151465906,234.3151465906,234.3151465906,234.3151465906,234.3151465906,234.3151465906,234.3151465906,234.3151465906,234.3151465906,234.3151465906,234.3151465906,234.3151465906,234.3151465906,229.09486364244,463.22319752362,-0.70479828298215,409.19332864994,-0.71499812899224,0
0.0002984375,1013742666.05,2.6126731547131e-05,8.8421780998336e-05,3.7528247568135e-05,1.0278015393916,0,0,0,0,0,0,0,0,0,0,0,0,0,0,0,0,0,0,0,0,0,0,0,0,0,0,0,0,0,0,0,0,0,0,0,0,0,0,0,0,0,0,0,0,0,0,0,0,-0.97739190792243,-0.13358588595087,-0.34283602928183,5.235502547434,3.0065476394173,1.1247281868624,-3.2658059164881,1.5895520778575,2.753143652153,-0.48772042594882,1.84006524049,-5.4120732527574,1.4767788653249,-1.4521504735651,1.7314644921253,-4.3089028079497,2.0286149117896,4.6291812173949,-1.0151916116818,-4.5584185422406,1.819233405828,1.7905776926117,0.032281400495765,-4.043287415039,3.1368305611065,-2.2572116516839,1.1827513714545,1.0807023076224,-1.7402999293986,1.1653150820705,1.396635030168,-0.3259860220814,0.81137370872203,-4.1465369792777,-1.7816091964845,-3.3982034477241,5.3524337344083,-2.7417066225152,3.146960823607,-0.42840250190252,-1.31136598184,-6.908457458377,0.99177551831398,-2.0352319734838,-3.3987989726709,1.3272499792247,3.4646660253481,-3.6839719108178,234.55159182116,234.55159182116,234.55159182116,234.55159182116,234.55159182116,234.55159182116,234.55159182116,234.55159182116,234.55159182116,234.55159182116,234.55159182116,234.55159182116,234.55159182116,234.55159182116,234.55159182116,234.55159182116,234.55159182116,234.55159182116,234.55159182116,234.55159182116,234.55159182116,234.55159182116,234.55159182116,234.55159182116,234.55159182116,234.55159182116,234.55159182116,234.55159182116,234.55159182116,234.55159182116,234.55159182116,234.55159182116,234.55159182116,234.55159182116,234.55159182116,234.55159182116,234.55159182116,234.55159182116,234.55159182116,234.55159182116,234.55159182116,234.55159182116,234.55159182116,234.55159182116,234.55159182116,234.55159182116,234.55159182116,234.55159182116,229.08357785237,463.71198840205,-0.70726165711994,409.61340456645,-0.71747153579397,0
0.0002990625,1017048296.312,2.6178849368302e-05,8.8607020797436e-05,3.7607164217415e-05,1.0278615563182,0,0,0,0,0,0,0,0,0,0,0,0,0,0,0,0,0,0,0,0,0,0,0,0,0,0,0,0,0,0,0,0,0,0,0,0,0,0,0,0,0,0,0,0,0,0,0,0,-0.97742446292194,-0.13273853816958,-0.3418826953838,5.2352527521115,3.0062624791268,1.1243727148686,-3.2651026779643,1.5893487347661,2.7530457193783,-0.48762913273123,1.8404202202907,-5.4121222260885,1.4770745064339,-1.4514452001777,1.7320785104574,-4.3082437973295,2.0279826640699,4.6283263628884,-1.0152460027273,-4.5579513723584,1.8197234272058,1.7912326995693,0.032194314866032,-4.043626887972,3.1373596520291,-2.2584563693343,1.1830029784897,1.0804604466335,-1.7397585056657,1.1648994197034,1.3962640166732,-0.32580962224279,0.81137048209907,-4.1456962004804,-1.7807391859459,-3.3977539860046,5.3527525388068,-2.7410802301265,3.1470077780508,-0.42824601464637,-1.311070015342,-6.9078889690247,0.99212556983309,-2.0350315264522,-3.3986239048498,1.3279734092861,3.4637128075602,-3.6825601426072,234.78801508889,234.78801508889,234.78801508889,234.78801508889,234.78801508889,234.78801508889,234.78801508889,234.78801508889,234.78801508889,234.78801508889,234.78801508889,234.78801508889,234.78801508889,234.78801508889,234.78801508889,234.78801508889,234.78801508889,234.78801508889,234.78801508889,234.78801508889,234.78801508889,234.78801508889,234.78801508889,234.78801508889,234.78801508889,234.78801508889,234.78801508889,234.78801508889,234.78801508889,234.78801508889,234.78801508889,234.78801508889,234.78801508889,234.78801508889,234.78801508889,234.78801508889,234.78801508889,234.78801508889,234.78801508889,234.78801508889,234.78801508889,234.78801508889,234.78801508889,234.78801508889,234.78801508889,234.78801508889,234.78801508889,234.78801508889,229.0722836943,464.2007133378,-0.70972875108806,410.03342508627,-0.71994864485361,0
0.0002996875,1020358421.7994,2.6230954929677e-05,8.8792260669051e-05,3.7686081877582e-05,1.0279215723278,0,0,0,0,0,0,0,0,0,0,0,0,0,0,0,0,0,0,0,0,0,0,0,0,0,0,0,0,0,0,0,0,0,0,0,0,0,0,0,0,0,0,0,0,0,0,0,0,-0.9774570426506,-0.13189123840879,-0.34093543504123,5.235003999276,3.0059762234821,1.1240188209639,-3.2643988416299,1.5891460524271,2.752947636898,-0.48753716988415,1.8407726364015,-5.4121716055293,1.4773700960998,-1.4507397845782,1.7326909085924,-4.3075821235205,2.0273507797298,4.6274715650968,-1.0152996424561,-4.5574857791284,1.8202117091264,1.7918878139319,0.032108506040472,-4.0439698720161,3.1378858041039,-2.2597010376458,1.1832528812518,1.080219868191,-1.7392155101897,1.1644847941988,1.3958929142584,-0.32563175051994,0.81136677800467,-4.1448564000356,-1.779870521076,-3.397304368975,5.353069909467,-2.7404518122917,3.1470549938243,-0.42808920432003,-1.3107748410171,-6.907319592326,0.99247490119593,-2.0348325178089,-3.3984481473554,1.3286961819688,3.4627624784226,-3.6811494355022,235.02441638469,235.02441638469,235.02441638469,235.02441638469,235.02441638469,235.02441638469,235.02441638469,235.02441638469,235.02441638469,235.02441638469,235.02441638469,235.02441638469,235.02441638469,235.02441638469,235.02441638469,235.02441638469,235.02441638469,235.02441638469,235.02441638469,235.02441638469,235.02441638469,235.02441638469,235.02441638469,235.02441638469,235.02441638469,235.02441638469,235.02441638469,235.02441638469,235.02441638469,235.02441638469,235.02441638469,235.02441638469,235.02441638469,235.02441638469,235.02441638469,235.02441638469,235.02441638469,235.02441638469,235.02441638469,235.02441638469,235.02441638469,235.02441638469,235.02441638469,235.02441638469,235.02441638469,235.02441638469,235.02441638469,235.02441638469,229.06098118919,464.68937237942,-0.71219956316007,410.45339020544,-0.72242945399724,0
0.0003003125,1023673038.9234,2.6283048253501e-05,8.8977500612676e-05,3.7765000542407e-05,1.0279815874207,0,0,0,0,0,0,0,0,0,0,0,0,0,0,0,0,0,0,0,0,0,0,0,0,0,0,0,0,0,0,0,0,0,0,0,0,0,0,0,0,0,0,0,0,0,0,0,0,-0.97748963937567,-0.13104400821825,-0.3399941900453,5.2347562806189,3.0056888937173,1.1236665076219,-3.263694412582,1.5889439960558,2.7528494018217,-0.48744454833294,1.8411224866744,-5.4122213591783,1.4776656357244,-1.450034222579,1.7333016970967,-4.3069178153377,2.0267192059534,4.6266168499038,-1.0153525266977,-4.5570217491696,1.8206982553656,1.7925430270282,0.03202395825932,-4.0443163500501,3.1384090102495,-2.2609456311616,1.1835010933095,1.0799805751475,-1.738670945927,1.1640711186393,1.395521721652,-0.32545242594936,0.8113625926432,-4.1440175484607,-1.7790031946599,-3.3968545687165,5.3533858665548,-2.7398213782109,3.1471024378124,-0.42793207359566,-1.3104804519666,-6.9067493630842,0.99282345468863,-2.034634880904,-3.3982718077289,1.3294182927494,3.4618150293218,-3.6797397908541,235.26079569951,235.26079569951,235.26079569951,235.26079569951,235.26079569951,235.26079569951,235.26079569951,235.26079569951,235.26079569951,235.26079569951,235.26079569951,235.26079569951,235.26079569951,235.26079569951,235.26079569951,235.26079569951,235.26079569951,235.26079569951,235.26079569951,235.26079569951,235.26079569951,235.26079569951,235.26079569951,235.26079569951,235.26079569951,235.26079569951,235.26079569951,235.26079569951,235.26079569951,235.26079569951,235.26079569951,235.26079569951,235.26079569951,235.26079569951,235.26079569951,235.26079569951,235.26079569951,235.26079569951,235.26079569951,235.26079569951,235.26079569951,235.26079569951,235.26079569951,235.26079569951,235.26079569951,235.26079569951,235.26079569951,235.26079569951,229.04967035063,465.17796557648,-0.71467409158914,410.87329992092,-0.72491396105239,0
0.0003009375,1026992144.0846,2.6335129362312e-05,8.9162740627807e-05,3.7843920206064e-05,1.0280416015973,0,0,0,0,0,0,0,0,0,0,0,0,0,0,0,0,0,0,0,0,0,0,0,0,0,0,0,0,0,0,0,0,0,0,0,0,0,0,0,0,0,0,0,0,0,0,0,0,-0.97752224391127,-0.13019687043848,-0.33905890436765,5.2345095895365,3.0054005135894,1.1233157763303,-3.2629893974606,1.5887425299017,2.7527510108648,-0.48735127900732,1.841469770983,-5.4122714506295,1.4779611268279,-1.4493285113443,1.733910886096,-4.3062509005912,2.0260878872353,4.6257622467106,-1.01540465218,-4.5565592709528,1.8211830679118,1.7931983295671,0.031940655230251,-4.0446663048083,3.138929266206,-2.2621901205085,1.1837476292635,1.0797425695591,-1.7381248164191,1.1636583057162,1.3951504375789,-0.32527166731015,0.8113579234184,-4.1431796127858,-1.7781371986025,-3.3964045581977,5.3537004304261,-2.7391889360316,3.1471500750697,-0.42777462573214,-1.3101868412252,-6.9061783148566,0.99317116917863,-2.0344385478013,-3.3980949967327,1.3301397368173,3.4608704516083,-3.6783312107452,235.49715302429,235.49715302429,235.49715302429,235.49715302429,235.49715302429,235.49715302429,235.49715302429,235.49715302429,235.49715302429,235.49715302429,235.49715302429,235.49715302429,235.49715302429,235.49715302429,235.49715302429,235.49715302429,235.49715302429,235.49715302429,235.49715302429,235.49715302429,235.49715302429,235.49715302429,235.49715302429,235.49715302429,235.49715302429,235.49715302429,235.49715302429,235.49715302429,235.49715302429,235.49715302429,235.49715302429,235.49715302429,235.49715302429,235.49715302429,235.49715302429,235.49715302429,235.49715302429,235.49715302429,235.49715302429,235.49715302429,235.49715302429,235.49715302429,235.49715302429,235.49715302429,235.49715302429,235.49715302429,235.49715302429,235.49715302429,229.03835118569,465.66649297951,-0.71715233465877,411.29315423076,-0.72740216386471,0
0.0003015625,1030315733.6734,2.6387198278919e-05,8.9347980713947e-05,3.7922840863061e-05,1.0281016148577,0,0,0,0,0,0,0,0,0,0,0,0,0,0,0,0,0,0,0,0,0,0,0,0,0,0,0,0,0,0,0,0,0,0,0,0,0,0,0,0,0,0,0,0,0,0,0,0,-0.97755484570896,-0.12934984900483,-0.33812952409761,5.2342639210156,3.0051111092046,1.1229666274426,-3.2622838043679,1.5885416176115,2.7526524603687,-0.48725737281681,1.8418144911721,-5.4123218392536,1.4782565710717,-1.4486226494066,1.7345184852655,-4.3055814060371,2.0254567657378,4.6249077881758,-1.0154560166187,-4.5560983347175,1.8216661471909,1.7938537116805,0.03185858013424,-4.0450197188367,3.1394465704735,-2.263434472635,1.1839925046634,1.0795058526037,-1.737577125735,1.1632462684724,1.394779060781,-0.32508949308594,0.81135276893015,-4.1423425567879,-1.7772725239352,-3.3959543113431,5.354013621531,-2.738554492843,3.1471978689906,-0.42761686458516,-1.3098940017886,-6.9056064798476,0.99351798060779,-2.0342434493612,-3.3979178274362,1.3308605090969,3.4599287364365,-3.6769236979008,235.73348834997,235.73348834997,235.73348834997,235.73348834997,235.73348834997,235.73348834997,235.73348834997,235.73348834997,235.73348834997,235.73348834997,235.73348834997,235.73348834997,235.73348834997,235.73348834997,235.73348834997,235.73348834997,235.73348834997,235.73348834997,235.73348834997,235.73348834997,235.73348834997,235.73348834997,235.73348834997,235.73348834997,235.73348834997,235.73348834997,235.73348834997,235.73348834997,235.73348834997,235.73348834997,235.73348834997,235.73348834997,235.73348834997,235.73348834997,235.73348834997,235.73348834997,235.73348834997,235.73348834997,235.73348834997,235.73348834997,235.73348834997,235.73348834997,235.73348834997,235.73348834997,235.73348834997,235.73348834997,235.73348834997,235.73348834997,229.02702369613,466.15495463986,-0.71963429062707,411.71295313406,-0.72989406027283,0
0.0003021875,1033643804.0708,2.6439255026389e-05,8.95332208706e-05,3.800176250811e-05,1.0281616272023,0,0,0,0,0,0,0,0,0,0,0,0,0,0,0,0,0,0,0,0,0,0,0,0,0,0,0,0,0,0,0,0,0,0,0,0,0,0,0,0,0,0,0,0,0,0,0,0,-0.97758743296258,-0.12850296875232,-0.33720599733711,5.2340192715536,3.0048207088656,1.1226190600318,-3.2615776428318,1.5883412225914,2.7525537462778,-0.48716284063199,1.8421566509876,-5.4123724805196,1.47855197029,-1.4479166366958,1.7351245038229,-4.3049093573491,2.0248257816562,4.6240535099727,-1.0155066188195,-4.5556389324467,1.8221474923101,1.7945091629536,0.031777715628459,-4.0453765744355,3.1399609242032,-2.2646786510751,1.1842357359388,1.0792704245044,-1.7370278784359,1.1628349210074,1.3944075899806,-0.32490592143213,0.81134712896748,-4.1415063412572,-1.7764091608231,-3.3955038031207,5.3543254603455,-2.737918054695,3.1472457814906,-0.42745879462735,-1.3096019266515,-6.9050338887986,0.99386382249736,-2.0340495153356,-3.397740414358,1.3315806042756,3.4589898746162,-3.675517255628,235.96980166752,235.96980166752,235.96980166752,235.96980166752,235.96980166752,235.96980166752,235.96980166752,235.96980166752,235.96980166752,235.96980166752,235.96980166752,235.96980166752,235.96980166752,235.96980166752,235.96980166752,235.96980166752,235.96980166752,235.96980166752,235.96980166752,235.96980166752,235.96980166752,235.96980166752,235.96980166752,235.96980166752,235.96980166752,235.96980166752,235.96980166752,235.96980166752,235.96980166752,235.96980166752,235.96980166752,235.96980166752,235.96980166752,235.96980166752,235.96980166752,235.96980166752,235.96980166752,235.96980166752,235.96980166752,235.96980166752,235.96980166752,235.96980166752,235.96980166752,235.96980166752,235.96980166752,235.96980166752,235.96980166752,235.96980166752,229.01568787898,466.64335060956,-0.72211995776517,412.13269663102,-0.73238964814185,0
0.0003028125,1036976351.6488,2.6491299628037e-05,8.9718461097277e-05,3.808068513597e-05,1.0282216386312,0,0,0,0,0,0,0,0,0,0,0,0,0,0,0,0,0,0,0,0,0,0,0,0,0,0,0,0,0,0,0,0,0,0,0,0,0,0,0,0,0,0,0,0,0,0,0,0,-0.9776199927207,-0.12765625520932,-0.33628827409119,5.2337756390422,3.0045293428598,1.122273071751,-3.2608709237209,1.5881413083645,2.7524548641713,-0.48706769326153,1.8424962560104,-5.4124233263185,1.4788473265213,-1.4472104745384,1.7357289505367,-4.304234779081,2.0241948736073,4.623199450473,-1.0155564587699,-4.555181057785,1.8226271013187,1.7951646724753,0.03169804385384,-4.0457368536092,3.1404723311055,-2.2659226162222,1.1844773403047,1.0790362844575,-1.7364770795106,1.162424179151,1.3940360239072,-0.32472097014347,0.81134100449782,-4.140670924268,-1.7755470985778,-3.3950530095951,5.3546359673119,-2.7372796266065,3.1472937731961,-0.42730042095577,-1.3093106088416,-6.9044605708842,0.99420862647524,-2.0338566744572,-3.3975628726087,1.3323000168257,3.4580538564405,-3.6741118877337,236.20609296788,236.20609296788,236.20609296788,236.20609296788,236.20609296788,236.20609296788,236.20609296788,236.20609296788,236.20609296788,236.20609296788,236.20609296788,236.20609296788,236.20609296788,236.20609296788,236.20609296788,236.20609296788,236.20609296788,236.20609296788,236.20609296788,236.20609296788,236.20609296788,236.20609296788,236.20609296788,236.20609296788,236.20609296788,236.20609296788,236.20609296788,236.20609296788,236.20609296788,236.20609296788,236.20609296788,236.20609296788,236.20609296788,236.20609296788,236.20609296788,236.20609296788,236.20609296788,236.20609296788,236.20609296788,236.20609296788,236.20609296788,236.20609296788,236.20609296788,236.20609296788,236.20609296788,236.20609296788,236.20609296788,236.20609296788,229.00434372785,467.1316809412,-0.72460933433042,412.552384723,-0.73488892532906,0
0.0003034375,1040313372.7709,2.6543332107432e-05,8.990370139349e-05,3.815960874217e-05,1.0282816491449,0,0,0,0,0,0,0,0,0,0,0,0,0,0,0,0,0,0,0,0,0,0,0,0,0,0,0,0,0,0,0,0,0,0,0,0,0,0,0,0,0,0,0,0,0,0,0,0,-0.9776525110033,-0.1268097344016,-0.33537630613713,5.2335330226585,3.0042370432596,1.1219286587153,-3.2601636591278,1.5879418389021,2.7523558092869,-0.48697194143178,1.8428333135646,-5.4124743253843,1.4791426420438,-1.4465041656075,1.7363318337037,-4.3035576946692,2.0235639789904,4.6223456504405,-1.0156055377052,-4.5547247059358,1.8231049714657,1.7958202289212,0.031619546448364,-4.0461005380582,3.1409807973129,-2.2671663256803,1.1847173356747,1.0788034305706,-1.7359247342888,1.1620139610694,1.3936643612838,-0.32453465662099,0.81133439764786,-4.1398362615068,-1.774686325669,-3.3946019079319,5.3549451627352,-2.7366392125948,3.147341803619,-0.42714174926793,-1.3090200414676,-6.9038865536734,0.99455232278973,-2.0336648545127,-3.3973853170711,1.3330187410324,3.4571206715363,-3.6727075984187,236.44236224202,236.44236224202,236.44236224202,236.44236224202,236.44236224202,236.44236224202,236.44236224202,236.44236224202,236.44236224202,236.44236224202,236.44236224202,236.44236224202,236.44236224202,236.44236224202,236.44236224202,236.44236224202,236.44236224202,236.44236224202,236.44236224202,236.44236224202,236.44236224202,236.44236224202,236.44236224202,236.44236224202,236.44236224202,236.44236224202,236.44236224202,236.44236224202,236.44236224202,236.44236224202,236.44236224202,236.44236224202,236.44236224202,236.44236224202,236.44236224202,236.44236224202,236.44236224202,236.44236224202,236.44236224202,236.44236224202,236.44236224202,236.44236224202,236.44236224202,236.44236224202,236.44236224202,236.44236224202,236.44236224202,236.44236224202,228.9929912335,467.61994568772,-0.72710241859846,412.97201741241,-0.73739188971593,0
0.0003040625,1043654863.7929,2.6595352488331e-05,9.0088941758757e-05,3.8238533322246e-05,1.0283416587434,0,0,0,0,0,0,0,0,0,0,0,0,0,0,0,0,0,0,0,0,0,0,0,0,0,0,0,0,0,0,0,0,0,0,0,0,0,0,0,0,0,0,0,0,0,0,0,0,-0.97768497292635,-0.12596343263777,-0.33447004691067,5.2332914227427,3.0039438436945,1.1215858153732,-3.2594558623014,1.5877427789487,2.7522565764737,-0.48687559576512,1.8431678326503,-5.4125254236376,1.4794379194014,-1.4457977139508,1.7369331611691,-4.3028781264177,2.0229330343876,4.6214921526888,-1.0156538582034,-4.5542698735888,1.8235810994691,1.7964758205441,0.031542204559949,-4.0464676091202,3.1414863312874,-2.268409734553,1.1849557405566,1.0785718598005,-1.735370848387,1.1616041878258,1.3932926007896,-0.32434699784483,0.81132731168935,-4.1390023065627,-1.7738268297636,-3.3941504764956,5.3552530667526,-2.7359968157132,3.1473898313621,-0.42698278588224,-1.3087302177462,-6.9033118630384,0.9948948408505,-2.0334739824549,-3.3972078616581,1.333736771018,3.4561903087029,-3.6713043922264,236.67860948087,236.67860948087,236.67860948087,236.67860948087,236.67860948087,236.67860948087,236.67860948087,236.67860948087,236.67860948087,236.67860948087,236.67860948087,236.67860948087,236.67860948087,236.67860948087,236.67860948087,236.67860948087,236.67860948087,236.67860948087,236.67860948087,236.67860948087,236.67860948087,236.67860948087,236.67860948087,236.67860948087,236.67860948087,236.67860948087,236.67860948087,236.67860948087,236.67860948087,236.67860948087,236.67860948087,236.67860948087,236.67860948087,236.67860948087,236.67860948087,236.67860948087,236.67860948087,236.67860948087,236.67860948087,236.67860948087,236.67860948087,236.67860948087,236.67860948087,236.67860948087,236.67860948087,236.67860948087,236.67860948087,236.67860948087,228.98163038495,468.1081449023,-0.72959920884292,413.39159470278,-0.73989853920192,0
0.0003046875,1047000821.0631,2.664736079471e-05,9.0274182192599e-05,3.8317458872197e-05,1.028401667427,0,0,0,0,0,0,0,0,0,0,0,0,0,0,0,0,0,0,0,0,0,0,0,0,0,0,0,0,0,0,0,0,0,0,0,0,0,0,0,0,0,0,0,0,0,0,0,0,-0.97771736283032,-0.12511737629955,-0.33356945132619,5.2330508406769,3.0036497791174,1.1212445344067,-3.2587475475617,1.5875440943176,2.7521571603558,-0.4867786667601,1.843499823854,-5.4125765645726,1.4797331614359,-1.4450911249624,1.7375329403519,-4.3021960954498,2.0223019759737,4.6206390017183,-1.0157014242478,-4.5538165588436,1.8240554817857,1.797131435324,0.031465998863761,-4.046838047692,3.1419889436726,-2.2696527957793,1.1851925739582,1.078341567904,-1.7348154276527,1.1611947838715,1.3929207411915,-0.32415801034972,0.81131975101661,-4.1381690112372,-1.7729685977427,-3.3936986948943,5.3555596993097,-2.7353524380748,3.1474378143708,-0.42682353772479,-1.3084411310337,-6.9027365230088,0.99523610974368,-2.0332839845192,-3.3970306186287,1.3344541008017,3.4552627557454,-3.6699022739398,236.91483467538,236.91483467538,236.91483467538,236.91483467538,236.91483467538,236.91483467538,236.91483467538,236.91483467538,236.91483467538,236.91483467538,236.91483467538,236.91483467538,236.91483467538,236.91483467538,236.91483467538,236.91483467538,236.91483467538,236.91483467538,236.91483467538,236.91483467538,236.91483467538,236.91483467538,236.91483467538,236.91483467538,236.91483467538,236.91483467538,236.91483467538,236.91483467538,236.91483467538,236.91483467538,236.91483467538,236.91483467538,236.91483467538,236.91483467538,236.91483467538,236.91483467538,236.91483467538,236.91483467538,236.91483467538,236.91483467538,236.91483467538,236.91483467538,236.91483467538,236.91483467538,236.91483467538,236.91483467538,236.91483467538,236.91483467538,228.9702611701,468.5962786382,-0.73209970332185,413.81111659872,-0.74240887168882,0
0.0003053125,1050351240.9231,2.6699357050707e-05,9.0459422694542e-05,3.8396385388161e-05,1.028461675196,0,0,0,0,0,0,0,0,0,0,0,0,0,0,0,0,0,0,0,0,0,0,0,0,0,0,0,0,0,0,0,0,0,0,0,0,0,0,0,0,0,0,0,0,0,0,0,0,-0.97774966440647,-0.12427159166104,-0.33267447568276,5.2328112787711,3.0033548855598,1.1209048066483,-3.2580387301702,1.5873457521606,2.752057555326,-0.48668116476872,1.8438292992734,-5.4126276897014,1.4800283713143,-1.4443844052923,1.738131178235,-4.30151162173,2.0216707398589,4.619786243351,-1.0157482412738,-4.5533647611016,1.8245281148613,1.7977870610342,0.031390909583384,-4.0472118342,3.1424886472001,-2.270895460503,1.1854278552763,1.0781125494017,-1.734258478058,1.1607856774713,1.3925487812932,-0.32396771019995,0.81131172112289,-4.1373363258925,-1.7721116157491,-3.3932465439297,5.3558650800726,-2.73470608091,3.1474857100832,-0.42666401229155,-1.3081527748645,-6.9021605557383,0.99557605872871,-2.0330947862764,-3.3968536979239,1.3351707243028,3.4543379993253,-3.6685012484862,237.15103781647,237.15103781647,237.15103781647,237.15103781647,237.15103781647,237.15103781647,237.15103781647,237.15103781647,237.15103781647,237.15103781647,237.15103781647,237.15103781647,237.15103781647,237.15103781647,237.15103781647,237.15103781647,237.15103781647,237.15103781647,237.15103781647,237.15103781647,237.15103781647,237.15103781647,237.15103781647,237.15103781647,237.15103781647,237.15103781647,237.15103781647,237.15103781647,237.15103781647,237.15103781647,237.15103781647,237.15103781647,237.15103781647,237.15103781647,237.15103781647,237.15103781647,237.15103781647,237.15103781647,237.15103781647,237.15103781647,237.15103781647,237.15103781647,237.15103781647,237.15103781647,237.15103781647,237.15103781647,237.15103781647,237.15103781647,228.95888357675,469.08434694853,-0.73460390031799,414.23058310581,-0.74492288511281,0
0.0003059375,1053706119.708,2.6751341280613e-05,9.0644663264117e-05,3.8475312866756e-05,1.0285216820506,0,0,0,0,0,0,0,0,0,0,0,0,0,0,0,0,0,0,0,0,0,0,0,0,0,0,0,0,0,0,0,0,0,0,0,0,0,0,0,0,0,0,0,0,0,0,0,0,-0.97778186082979,-0.12342610470659,-0.33178507745229,5.232572740121,3.0030591998973,1.1205666210125,-3.2573294262355,1.58714772122,2.7519577553358,-0.48658309997389,1.8441562724141,-5.4126787389219,1.4803235525591,-1.443677562919,1.738727881389,-4.3008247241392,2.0210392624215,4.6189339243869,-1.0157943162139,-4.552914480941,1.8249989954038,1.7984426851242,0.031316916518784,-4.0475889486717,3.1429854565112,-2.27213767839,1.1856616041983,1.0778847975512,-1.7337000056483,1.1603768010568,1.3921767197687,-0.32377611295755,0.81130322857096,-4.1365041997502,-1.7712558692132,-3.3927940057649,5.3561692284346,-2.7340577446232,3.1475334756245,-0.42650421768672,-1.3078651429902,-6.9015839816102,0.99591461769934,-2.0329063127914,-3.3966772066497,1.3358866353869,3.4534160248491,-3.6671013208812,237.38721889509,237.38721889509,237.38721889509,237.38721889509,237.38721889509,237.38721889509,237.38721889509,237.38721889509,237.38721889509,237.38721889509,237.38721889509,237.38721889509,237.38721889509,237.38721889509,237.38721889509,237.38721889509,237.38721889509,237.38721889509,237.38721889509,237.38721889509,237.38721889509,237.38721889509,237.38721889509,237.38721889509,237.38721889509,237.38721889509,237.38721889509,237.38721889509,237.38721889509,237.38721889509,237.38721889509,237.38721889509,237.38721889509,237.38721889509,237.38721889509,237.38721889509,237.38721889509,237.38721889509,237.38721889509,237.38721889509,237.38721889509,237.38721889509,237.38721889509,237.38721889509,237.38721889509,237.38721889509,237.38721889509,237.38721889509,228.94749759315,469.57234988614,-0.73711179809042,414.64999423063,-0.74744057740208,0
0.0003065625,1057065453.747,2.6803313508831e-05,9.0829903900855e-05,3.8554241304757e-05,1.0285816879909,0,0,0,0,0,0,0,0,0,0,0,0,0,0,0,0,0,0,0,0,0,0,0,0,0,0,0,0,0,0,0,0,0,0,0,0,0,0,0,0,0,0,0,0,0,0,0,0,-0.97781393488342,-0.1225809409518,-0.3309012151845,5.2323352285044,3.0027627595934,1.1202299644382,-3.2566196525727,1.5869499720364,2.7518577541731,-0.48648448237227,1.8444807581167,-5.4127296509611,1.4806187090732,-1.4429706069811,1.7393230559801,-4.3001354204193,2.0204074806522,4.618082092207,-1.015839657535,-4.552465720021,1.8254681206099,1.7990982949713,0.031243999066686,-4.0479693706098,3.1434793880681,-2.2733793980057,1.1858938405918,1.0776583043275,-1.733140016425,1.15996809151,1.3918045553464,-0.32358323367087,0.81129428096312,-4.1356725812319,-1.7704013429073,-3.3923410637957,5.356472163461,-2.7334074288381,3.147581067982,-0.42634416254341,-1.3075782294127,-6.9010068190451,0.99625171764275,-2.0327184886651,-3.3965012485635,1.3366018278777,3.4524968162997,-3.6657024961222,237.62337790214,237.62337790214,237.62337790214,237.62337790214,237.62337790214,237.62337790214,237.62337790214,237.62337790214,237.62337790214,237.62337790214,237.62337790214,237.62337790214,237.62337790214,237.62337790214,237.62337790214,237.62337790214,237.62337790214,237.62337790214,237.62337790214,237.62337790214,237.62337790214,237.62337790214,237.62337790214,237.62337790214,237.62337790214,237.62337790214,237.62337790214,237.62337790214,237.62337790214,237.62337790214,237.62337790214,237.62337790214,237.62337790214,237.62337790214,237.62337790214,237.62337790214,237.62337790214,237.62337790214,237.62337790214,237.62337790214,237.62337790214,237.62337790214,237.62337790214,237.62337790214,237.62337790214,237.62337790214,237.62337790214,237.62337790214,228.93610320847,470.06028750342,-0.73962339494144,415.06934998064,-0.74996194654222,0
0.0003071875,1060429239.3642,2.6855273759824e-05,9.1015144604294e-05,3.8633170699041e-05,1.0286416930173,0,0,0,0,0,0,0,0,0,0,0,0,0,0,0,0,0,0,0,0,0,0,0,0,0,0,0,0,0,0,0,0,0,0,0,0,0,0,0,0,0,0,0,0,0,0,0,0,-0.97784586908194,-0.12173612526696,-0.33002284833212,5.2320987482536,3.0024656024684,1.1198948218619,-3.2559094266428,1.5867524771375,2.7517575454222,-0.48638532175009,1.8448027724717,-5.4127803636908,1.4809138451578,-1.442263547807,1.7399167078139,-4.2994437272023,2.0197753324905,4.6172307944343,-1.0158842752579,-4.5520184810013,1.8259354884028,1.7997538778738,0.031172136257345,-4.0483530789699,3.1439704600114,-2.2746205670914,1.186124584411,1.077433060422,-1.7325785163154,1.159559490378,1.3914322867862,-0.3233890868517,0.81128488691068,-4.1348414182216,-1.7695480209893,-3.3918877027628,5.3567739039137,-2.7327551324636,3.1476284442346,-0.42618385603859,-1.3072920283987,-6.9004290844803,0.99658729106229,-2.0325312381774,-3.3963259236975,1.337316295619,3.4515803561496,-3.6643047791278,237.85951482855,237.85951482855,237.85951482855,237.85951482855,237.85951482855,237.85951482855,237.85951482855,237.85951482855,237.85951482855,237.85951482855,237.85951482855,237.85951482855,237.85951482855,237.85951482855,237.85951482855,237.85951482855,237.85951482855,237.85951482855,237.85951482855,237.85951482855,237.85951482855,237.85951482855,237.85951482855,237.85951482855,237.85951482855,237.85951482855,237.85951482855,237.85951482855,237.85951482855,237.85951482855,237.85951482855,237.85951482855,237.85951482855,237.85951482855,237.85951482855,237.85951482855,237.85951482855,237.85951482855,237.85951482855,237.85951482855,237.85951482855,237.85951482855,237.85951482855,237.85951482855,237.85951482855,237.85951482855,237.85951482855,237.85951482855,228.92470041358,470.54815985214,-0.74213868915435,415.48865036414,-0.75248699049707,0
0.0003078125,1063797472.8783,2.6907222058164e-05,9.1200385373977e-05,3.8712101047006e-05,1.0287016971297,0,0,0,0,0,0,0,0,0,0,0,0,0,0,0,0,0,0,0,0,0,0,0,0,0,0,0,0,0,0,0,0,0,0,0,0,0,0,0,0,0,0,0,0,0,0,0,0,-0.97787764579137,-0.12089168175651,-0.3291499371191,5.2318633041585,3.0021677664382,1.119561176201,-3.2551987664136,1.5865552111911,2.7516571224579,-0.4862856276626,1.845122332733,-5.4128308145545,1.4812089655295,-1.4415563968358,1.7405088423476,-4.2987496600466,2.0191427570842,4.6163800785426,-1.0159281809707,-4.5515727674187,1.8264010976436,1.8004094211017,0.031101306780307,-4.0487400521537,3.1444586920376,-2.2758611329213,1.1863538555803,1.0772090552492,-1.7320155110752,1.1591509440179,1.3910599128372,-0.32319368645637,0.81127505599341,-4.1340106583913,-1.7686958870627,-3.3914339087326,5.3570744682351,-2.7321008537612,3.1476755616892,-0.42602330785635,-1.3070065345147,-6.8998507923724,0.99692127233822,-2.0323444853794,-3.396151328024,1.3380300324864,3.450666625216,-3.6629081746647,238.09562966522,238.09562966522,238.09562966522,238.09562966522,238.09562966522,238.09562966522,238.09562966522,238.09562966522,238.09562966522,238.09562966522,238.09562966522,238.09562966522,238.09562966522,238.09562966522,238.09562966522,238.09562966522,238.09562966522,238.09562966522,238.09562966522,238.09562966522,238.09562966522,238.09562966522,238.09562966522,238.09562966522,238.09562966522,238.09562966522,238.09562966522,238.09562966522,238.09562966522,238.09562966522,238.09562966522,238.09562966522,238.09562966522,238.09562966522,238.09562966522,238.09562966522,238.09562966522,238.09562966522,238.09562966522,238.09562966522,238.09562966522,238.09562966522,238.09562966522,238.09562966522,238.09562966522,238.09562966522,238.09562966522,238.09562966522,228.91328920154,471.03596698331,-0.74465767899778,415.90789539021,-0.75501570726723,0
0.0003084375,1067170150.6043,2.6959158428439e-05,9.1385626209449e-05,3.8791032346226e-05,1.0287617003286,0,0,0,0,0,0,0,0,0,0,0,0,0,0,0,0,0,0,0,0,0,0,0,0,0,0,0,0,0,0,0,0,0,0,0,0,0,0,0,0,0,0,0,0,0,0,0,0,-0.97790924734215,-0.12004763360231,-0.32828244241663,5.231628901355,3.0018692892992,1.1192290083656,-3.2544876902482,1.5863581511262,2.7515564786014,-0.48618540941822,1.8454394572429,-5.4128809408995,1.4815040753385,-1.4408491665276,1.7410994647145,-4.298053233442,2.0185096950606,4.6155299915325,-1.0159713878169,-4.5511285835911,1.8268649483213,1.8010649120325,0.031031489019959,-4.0491302679555,3.144944105289,-2.2771010425967,1.1865816739105,1.0769862769684,-1.7314510062067,1.1587424036822,1.3906874323529,-0.32299704587622,0.81126479872388,-4.133180249461,-1.7678449242222,-3.3909796690682,5.3573738745391,-2.7314445904072,3.1477223780588,-0.42586252814486,-1.3067217426512,-6.8992719551249,0.99725359807658,-2.0321581541773,-3.3959775531879,1.3387430324294,3.4497556025872,-3.6615126872684,238.33172240309,238.33172240309,238.33172240309,238.33172240309,238.33172240309,238.33172240309,238.33172240309,238.33172240309,238.33172240309,238.33172240309,238.33172240309,238.33172240309,238.33172240309,238.33172240309,238.33172240309,238.33172240309,238.33172240309,238.33172240309,238.33172240309,238.33172240309,238.33172240309,238.33172240309,238.33172240309,238.33172240309,238.33172240309,238.33172240309,238.33172240309,238.33172240309,238.33172240309,238.33172240309,238.33172240309,238.33172240309,238.33172240309,238.33172240309,238.33172240309,238.33172240309,238.33172240309,238.33172240309,238.33172240309,238.33172240309,238.33172240309,238.33172240309,238.33172240309,238.33172240309,238.33172240309,238.33172240309,238.33172240309,238.33172240309,228.90186956787,471.52370894704,-0.7471803627893,416.32708506857,-0.75754809488986,0
0.0003090625,1070547268.8531,2.7011082895221e-05,9.1570867110258e-05,3.8869964594358e-05,1.0288217026139,0,0,0,0,0,0,0,0,0,0,0,0,0,0,0,0,0,0,0,0,0,0,0,0,0,0,0,0,0,0,0,0,0,0,0,0,0,0,0,0,0,0,0,0,0,0,0,0,-0.97794065613899,-0.11920400299738,-0.3274203255784,5.2313955452207,3.0015702085041,1.1188982972814,-3.2537762168087,1.5861612762354,2.7514556067281,-0.48608467605289,1.8457541653322,-5.4129306803382,1.4817991801786,-1.440141870384,1.7416885797358,-4.2973544609691,2.0178760886768,4.6146805796225,-1.0160139104835,-4.5506859345015,1.8273270417429,1.8017203379551,0.030962661096475,-4.0495237036979,3.1454267221941,-2.2783402433557,1.186808058996,1.0767647125182,-1.730885006901,1.158333825544,1.3903148439271,-0.32279917791117,0.81125412649962,-4.1323501394726,-1.7669951151172,-3.3905249725006,5.3576721406253,-2.7307863395861,3.1477688515167,-0.42570152753666,-1.3064376480575,-6.8986925833433,0.99758420737579,-2.0319721684387,-3.3958046863416,1.3394552894619,3.4488472655661,-3.6601183212006,238.56779303307,238.56779303307,238.56779303307,238.56779303307,238.56779303307,238.56779303307,238.56779303307,238.56779303307,238.56779303307,238.56779303307,238.56779303307,238.56779303307,238.56779303307,238.56779303307,238.56779303307,238.56779303307,238.56779303307,238.56779303307,238.56779303307,238.56779303307,238.56779303307,238.56779303307,238.56779303307,238.56779303307,238.56779303307,238.56779303307,238.56779303307,238.56779303307,238.56779303307,238.56779303307,238.56779303307,238.56779303307,238.56779303307,238.56779303307,238.56779303307,238.56779303307,238.56779303307,238.56779303307,238.56779303307,238.56779303307,238.56779303307,238.56779303307,238.56779303307,238.56779303307,238.56779303307,238.56779303307,238.56779303307,238.56779303307,228.89044151118,472.01138579233,-0.74970673881025,416.74621940955,-0.76008415138533,0
0.0003096875,1073928823.9324,2.7062995483059e-05,9.175610807596e-05,3.8948897789324e-05,1.028881703986,0,0,0,0,0,0,0,0,0,0,0,0,0,0,0,0,0,0,0,0,0,0,0,0,0,0,0,0,0,0,0,0,0,0,0,0,0,0,0,0,0,0,0,0,0,0,0,0,-0.97797185475257,-0.11836081098888,-0.32656354835792,5.2311632413,3.0012705609358,1.118569019947,-3.2530643649365,1.5859645682311,2.7513544999298,-0.48598343631662,1.8460664772639,-5.4129799710097,1.4820942860905,-1.4394345227613,1.7422761919757,-4.2966533551386,2.017241882123,4.6138318878865,-1.0160557651682,-4.5502448257221,1.8277873806736,1.8023756865051,0.03089480089407,-4.0499203359684,3.1459065663975,-2.2795786828015,1.1870330301303,1.0765443476642,-1.7303175179535,1.1579251706634,1.3899421464496,-0.32260009477481,0.81124305156227,-4.1315202770031,-1.7661464420096,-3.3900698090211,5.3579692840097,-2.7301260980293,3.1478149409582,-0.42554031703938,-1.3061542463378,-6.8981126854154,0.99791304211761,-2.0317864520868,-3.3956328100207,1.3401667977377,3.4479415895479,-3.658725080366,238.80384154609,238.80384154609,238.80384154609,238.80384154609,238.80384154609,238.80384154609,238.80384154609,238.80384154609,238.80384154609,238.80384154609,238.80384154609,238.80384154609,238.80384154609,238.80384154609,238.80384154609,238.80384154609,238.80384154609,238.80384154609,238.80384154609,238.80384154609,238.80384154609,238.80384154609,238.80384154609,238.80384154609,238.80384154609,238.80384154609,238.80384154609,238.80384154609,238.80384154609,238.80384154609,238.80384154609,238.80384154609,238.80384154609,238.80384154609,238.80384154609,238.80384154609,238.80384154609,238.80384154609,238.80384154609,238.80384154609,238.80384154609,238.80384154609,238.80384154609,238.80384154609,238.80384154609,238.80384154609,238.80384154609,238.80384154609,228.87900503294,472.49899756703,-0.75223680537154,417.16529842399,-0.76262387482571,0
0.0003103125,1077314812.1476,2.7114896216437e-05,9.1941349106113e-05,3.9027831929178e-05,1.0289417044449,0,0,0,0,0,0,0,0,0,0,0,0,0,0,0,0,0,0,0,0,0,0,0,0,0,0,0,0,0,0,0,0,0,0,0,0,0,0,0,0,0,0,0,0,0,0,0,0,-0.97800282601632,-0.11751807745612,-0.32571207278471,5.2309319952274,3.000970382716,1.1182411514949,-3.2523521535539,1.5857680112879,2.751253151038,-0.48588169865298,1.8463764141399,-5.4130287519206,1.4823893995629,-1.4387271388808,1.7428623057331,-4.2959499275992,2.0166070215937,4.6129839599977,-1.0160969695418,-4.5498052633054,1.8282459694745,1.8030309454183,0.030827886105335,-4.0503201408139,3.1463836626193,-2.2808163091902,1.1872566062187,1.0763251670571,-1.7297485436995,1.1575164049132,1.3895693386607,-0.32239980807348,0.81123158694433,-4.1306906114114,-1.7652988868349,-3.3896141699237,5.358265321905,-2.729463862116,3.1478606060138,-0.42537890805646,-1.305871533489,-6.8975322678664,0.99824004713959,-2.03160092918,-3.3954620020682,1.3408775515381,3.4470385480116,-3.6573329682807,239.03986793309,239.03986793309,239.03986793309,239.03986793309,239.03986793309,239.03986793309,239.03986793309,239.03986793309,239.03986793309,239.03986793309,239.03986793309,239.03986793309,239.03986793309,239.03986793309,239.03986793309,239.03986793309,239.03986793309,239.03986793309,239.03986793309,239.03986793309,239.03986793309,239.03986793309,239.03986793309,239.03986793309,239.03986793309,239.03986793309,239.03986793309,239.03986793309,239.03986793309,239.03986793309,239.03986793309,239.03986793309,239.03986793309,239.03986793309,239.03986793309,239.03986793309,239.03986793309,239.03986793309,239.03986793309,239.03986793309,239.03986793309,239.03986793309,239.03986793309,239.03986793309,239.03986793309,239.03986793309,239.03986793309,239.03986793309,228.86756013843,472.98654431768,-0.75477056077847,417.58432212312,-0.76516726327889,0
0.0003109375,1080705229.8023,2.7166785119794e-05,9.212659020028e-05,3.910676701236e-05,1.0290017039909,0,0,0,0,0,0,0,0,0,0,0,0,0,0,0,0,0,0,0,0,0,0,0,0,0,0,0,0,0,0,0,0,0,0,0,0,0,0,0,0,0,0,0,0,0,0,0,0,-0.97803355310556,-0.11667582102379,-0.32486586105664,5.2307018126411,3.0006697090152,1.1179146652772,-3.2516396015781,1.5855715920595,2.7511515528745,-0.48577947118437,1.8466839978334,-5.4130769631697,1.4826845275303,-1.4380197347479,1.7434469250952,-4.2952441891139,2.0159714554418,4.6121368379439,-1.0161375426951,-4.5493672537069,1.8287028142224,1.8036861027071,0.030761894266547,-4.0507230936385,3.146858036558,-2.2820530716404,1.1874788057031,1.0761071543007,-1.7291780879656,1.1571074988588,1.389196419354,-0.32219832880517,0.81121974641908,-4.1298610930149,-1.7644524312657,-3.3891580477968,5.3585602712819,-2.7287996279409,3.1479058071717,-0.42521731233769,-1.3055895059013,-6.8969513352213,0.99856517041045,-2.0314155240247,-3.3952923356496,1.3415875452999,3.4461381124636,-3.6559419880195,239.27587218503,239.27587218503,239.27587218503,239.27587218503,239.27587218503,239.27587218503,239.27587218503,239.27587218503,239.27587218503,239.27587218503,239.27587218503,239.27587218503,239.27587218503,239.27587218503,239.27587218503,239.27587218503,239.27587218503,239.27587218503,239.27587218503,239.27587218503,239.27587218503,239.27587218503,239.27587218503,239.27587218503,239.27587218503,239.27587218503,239.27587218503,239.27587218503,239.27587218503,239.27587218503,239.27587218503,239.27587218503,239.27587218503,239.27587218503,239.27587218503,239.27587218503,239.27587218503,239.27587218503,239.27587218503,239.27587218503,239.27587218503,239.27587218503,239.27587218503,239.27587218503,239.27587218503,239.27587218503,239.27587218503,239.27587218503,228.85610683634,473.47402608941,-0.75730800336147,418.0032905185,-0.76771431485938,0
0.0003115625,1084100073.1989,2.7218662217386e-05,9.2311831358028e-05,3.9185703037104e-05,1.029061702624,0,0,0,0,0,0,0,0,0,0,0,0,0,0,0,0,0,0,0,0,0,0,0,0,0,0,0,0,0,0,0,0,0,0,0,0,0,0,0,0,0,0,0,0,0,0,0,0,-0.97806401961306,-0.11583405902829,-0.32402487545562,5.2304726991415,3.0003685738832,1.117589532964,-3.250926727804,1.5853752996631,2.7510496982001,-0.48567676169367,1.8469892509062,-5.4131245461968,1.4829796773705,-1.4373123270564,1.7440300539364,-4.2945361496244,2.0153351342869,4.6112905617935,-1.0161775050815,-4.5489308036868,1.8291579227908,1.8043411466659,0.030696802799045,-4.0511291692363,3.1473297147745,-2.2832889203379,1.1876996464873,1.0758902920304,-1.7286061539886,1.1566984275968,1.3888233873036,-0.3219956673503,0.81120754444326,-4.1290316732749,-1.7636070567713,-3.3887014364563,5.3588541488615,-2.7281333913826,3.1479505058808,-0.42505554193822,-1.3053081603893,-6.89636989008,0.99888836315917,-2.0312301612324,-3.395123879286,1.342296773642,3.4452402524276,-3.6545521421757,239.51185429288,239.51185429288,239.51185429288,239.51185429288,239.51185429288,239.51185429288,239.51185429288,239.51185429288,239.51185429288,239.51185429288,239.51185429288,239.51185429288,239.51185429288,239.51185429288,239.51185429288,239.51185429288,239.51185429288,239.51185429288,239.51185429288,239.51185429288,239.51185429288,239.51185429288,239.51185429288,239.51185429288,239.51185429288,239.51185429288,239.51185429288,239.51185429288,239.51185429288,239.51185429288,239.51185429288,239.51185429288,239.51185429288,239.51185429288,239.51185429288,239.51185429288,239.51185429288,239.51185429288,239.51185429288,239.51185429288,239.51185429288,239.51185429288,239.51185429288,239.51185429288,239.51185429288,239.51185429288,239.51185429288,239.51185429288,228.84464513936,473.96144292585,-0.75984913141661,418.42220362194,-0.77026502766711,0
0.0003121875,1087499338.6398,2.727052753335e-05,9.2497072578929e-05,3.9264640001875e-05,1.0291217003444,0,0,0,0,0,0,0,0,0,0,0,0,0,0,0,0,0,0,0,0,0,0,0,0,0,0,0,0,0,0,0,0,0,0,0,0,0,0,0,0,0,0,0,0,0,0,0,0,-0.9780942096095,-0.11499280749778,-0.32318907825664,5.2302446602228,3.0000670100922,1.1172657246711,-3.2502135508342,1.5851791256592,2.7509475797398,-0.48557357761148,1.8472921965411,-5.4131714439813,1.4832748568839,-1.4366049331423,1.7446116959566,-4.2938258183162,2.0146980110595,4.6104451694747,-1.0162168784331,-4.5484959202415,1.829611304931,1.8049960659139,0.030632589048707,-4.0515383417939,3.1477987245945,-2.2845238067215,1.1879191458738,1.0756745620097,-1.7280327443777,1.1562891705783,1.3884502412626,-0.32179183347098,0.81119499609975,-4.1282023049403,-1.76276274468,-3.3882443309628,5.3591469711469,-2.7274651481846,3.1479946645832,-0.42489360918774,-1.3050274941819,-6.8957879331632,0.99920957994295,-2.0310447658231,-3.3949566969272,1.3430052313639,3.4443449354415,-3.65316343282,239.74781424765,239.74781424765,239.74781424765,239.74781424765,239.74781424765,239.74781424765,239.74781424765,239.74781424765,239.74781424765,239.74781424765,239.74781424765,239.74781424765,239.74781424765,239.74781424765,239.74781424765,239.74781424765,239.74781424765,239.74781424765,239.74781424765,239.74781424765,239.74781424765,239.74781424765,239.74781424765,239.74781424765,239.74781424765,239.74781424765,239.74781424765,239.74781424765,239.74781424765,239.74781424765,239.74781424765,239.74781424765,239.74781424765,239.74781424765,239.74781424765,239.74781424765,239.74781424765,239.74781424765,239.74781424765,239.74781424765,239.74781424765,239.74781424765,239.74781424765,239.74781424765,239.74781424765,239.74781424765,239.74781424765,239.74781424765,228.83317506389,474.44879486907,-0.76239394329341,418.84106144532,-0.77281939985669,0
0.0003128125,1090903022.4283,2.732238109167e-05,9.2682313862559e-05,3.9343577905308e-05,1.0291816971523,0,0,0,0,0,0,0,0,0,0,0,0,0,0,0,0,0,0,0,0,0,0,0,0,0,0,0,0,0,0,0,0,0,0,0,0,0,0,0,0,0,0,0,0,0,0,0,0,-0.97812410770299,-0.11415208113508,-0.32235843165937,5.2300177012405,2.9997650489976,1.1169432090794,-3.2495000889838,1.5849830639942,2.7508451902167,-0.48546992600321,1.8475928584635,-5.413217601234,1.4835700742858,-1.4358975709021,1.7451918546867,-4.293113203656,2.0140600410421,4.6096006965734,-1.0162556856924,-4.5480626105254,1.8300629723132,1.8056508494406,0.030569230320999,-4.0519505848783,3.148265094004,-2.285757683642,1.1881373205058,1.0754599452199,-1.7274578610531,1.1558797113872,1.3880769799665,-0.32158683631082,0.81118211703412,-4.1273729421908,-1.7619194762397,-3.3877867275728,5.3594387544416,-2.7267948940229,3.1480382467705,-0.42473152665412,-1.3047475049517,-6.8952054633255,0.99952877870052,-2.0308592632997,-3.3947908480808,1.343712913462,3.4434521270441,-3.6517758614845,239.98375204035,239.98375204035,239.98375204035,239.98375204035,239.98375204035,239.98375204035,239.98375204035,239.98375204035,239.98375204035,239.98375204035,239.98375204035,239.98375204035,239.98375204035,239.98375204035,239.98375204035,239.98375204035,239.98375204035,239.98375204035,239.98375204035,239.98375204035,239.98375204035,239.98375204035,239.98375204035,239.98375204035,239.98375204035,239.98375204035,239.98375204035,239.98375204035,239.98375204035,239.98375204035,239.98375204035,239.98375204035,239.98375204035,239.98375204035,239.98375204035,239.98375204035,239.98375204035,239.98375204035,239.98375204035,239.98375204035,239.98375204035,239.98375204035,239.98375204035,239.98375204035,239.98375204035,239.98375204035,239.98375204035,239.98375204035,228.82169663043,474.93608195949,-0.76494243731192,419.25986400063,-0.77537742957287,0
0.0003134375,1094311120.869,2.7374222916149e-05,9.28675552085e-05,3.94225167462e-05,1.0292416930477,0,0,0,0,0,0,0,0,0,0,0,0,0,0,0,0,0,0,0,0,0,0,0,0,0,0,0,0,0,0,0,0,0,0,0,0,0,0,0,0,0,0,0,0,0,0,0,0,-0.97815369908187,-0.11331189333354,-0.32153289772337,5.2297918273704,2.9994627204231,1.1166219535851,-3.2487863602,1.5847871109441,2.7507425223539,-0.48536581355573,1.8478912608741,-5.4132629645358,1.4838653381802,-1.4351902587305,1.7457705335182,-4.2923983134625,2.013421181896,4.6087571761951,-1.0162939509143,-4.547630881776,1.8305129385656,1.8063054866204,0.030506703924724,-4.0523658714768,3.1487288515559,-2.2869905054953,1.1883541863147,1.075246421969,-1.7268815052057,1.1554700375183,1.3877036021222,-0.3213806843935,0.81116892339267,-4.1265435407339,-1.7610772326786,-3.387328623727,5.3597295148719,-2.7261226245759,3.1480812170507,-0.42456930710241,-1.3044681908053,-6.8946224776442,0.99984592075194,-2.0306735797301,-3.3946263879449,1.3444198151497,3.4425617908304,-3.6503894291285,240.21966766205,240.21966766205,240.21966766205,240.21966766205,240.21966766205,240.21966766205,240.21966766205,240.21966766205,240.21966766205,240.21966766205,240.21966766205,240.21966766205,240.21966766205,240.21966766205,240.21966766205,240.21966766205,240.21966766205,240.21966766205,240.21966766205,240.21966766205,240.21966766205,240.21966766205,240.21966766205,240.21966766205,240.21966766205,240.21966766205,240.21966766205,240.21966766205,240.21966766205,240.21966766205,240.21966766205,240.21966766205,240.21966766205,240.21966766205,240.21966766205,240.21966766205,240.21966766205,240.21966766205,240.21966766205,240.21966766205,240.21966766205,240.21966766205,240.21966766205,240.21966766205,240.21966766205,240.21966766205,240.21966766205,240.21966766205,228.81020986342,475.42330423586,-0.76749461181313,419.67861129974,-0.77793911498764,0
0.0003140625,1097723630.2697,2.7426053030373e-05,9.3052796616339e-05,3.9501456523388e-05,1.0293016880309,0,0,0,0,0,0,0,0,0,0,0,0,0,0,0,0,0,0,0,0,0,0,0,0,0,0,0,0,0,0,0,0,0,0,0,0,0,0,0,0,0,0,0,0,0,0,0,0,-0.97818296955466,-0.11247225618858,-0.32071243830375,5.2295670435789,2.9991600525539,1.1163019244423,-3.2480723819927,1.584591265036,2.7506395688978,-0.48526124656743,1.8481874283701,-5.4133074824698,1.4841606575408,-1.4344830154545,1.746347735712,-4.2916811549597,2.0127813936384,4.607914638815,-1.0163316991811,-4.5472007412551,1.830961219286,1.8069599672539,0.030444987208178,-4.0527841740014,3.149190026264,-2.2882222283381,1.1885697584789,1.075033971998,-1.7263036772534,1.1550601401337,1.3873301063975,-0.32117338562673,0.81115543175222,-4.1257140578983,-1.7602359952625,-3.3868700180154,5.3600192684049,-2.7254483355932,3.1481235411491,-0.42440696346705,-1.3041895502976,-6.8940389714657,1.0001609707806,-2.0304876418229,-3.3944633675819,1.3451259318533,3.4416738884733,-3.6490041361238,240.45556110383,240.45556110383,240.45556110383,240.45556110383,240.45556110383,240.45556110383,240.45556110383,240.45556110383,240.45556110383,240.45556110383,240.45556110383,240.45556110383,240.45556110383,240.45556110383,240.45556110383,240.45556110383,240.45556110383,240.45556110383,240.45556110383,240.45556110383,240.45556110383,240.45556110383,240.45556110383,240.45556110383,240.45556110383,240.45556110383,240.45556110383,240.45556110383,240.45556110383,240.45556110383,240.45556110383,240.45556110383,240.45556110383,240.45556110383,240.45556110383,240.45556110383,240.45556110383,240.45556110383,240.45556110383,240.45556110383,240.45556110383,240.45556110383,240.45556110383,240.45556110383,240.45556110383,240.45556110383,240.45556110383,240.45556110383,228.79871479144,475.91046173522,-0.77005046514058,420.09730335446,-0.78050445429492,0
0.0003146875,1101140546.9419,2.7477871457683e-05,9.3238038085666e-05,3.9580397235773e-05,1.0293616821019,0,0,0,0,0,0,0,0,0,0,0,0,0,0,0,0,0,0,0,0,0,0,0,0,0,0,0,0,0,0,0,0,0,0,0,0,0,0,0,0,0,0,0,0,0,0,0,0,-0.97821190557673,-0.11163318053356,-0.31989701502445,5.2293433546163,2.9988570718515,1.1159830869294,-3.247358171354,1.5843955269545,2.7505363226414,-0.48515623094234,1.8484813858828,-5.4133511057287,1.4844560416801,-1.4337758602531,1.7469234644095,-4.2909617348185,2.0121406386142,4.6070731121793,-1.0163689564961,-4.5467721961841,1.8314078320316,1.8076142816003,0.030384057593589,-4.0532054642882,3.1496486475244,-2.2894528099832,1.1887840513831,1.0748225745978,-1.7257243767997,1.1546500138074,1.3869564914189,-0.32096494731139,0.81114165905448,-4.1248844527038,-1.7593957453493,-3.386410910131,5.3603080308526,-2.7247720229539,3.1481651859297,-0.42424450880345,-1.3039115824331,-6.8934549384377,1.0004738967796,-2.0303013769957,-3.3943018340854,1.3458312592191,3.4407883797766,-3.6476199822367,240.69143235684,240.69143235684,240.69143235684,240.69143235684,240.69143235684,240.69143235684,240.69143235684,240.69143235684,240.69143235684,240.69143235684,240.69143235684,240.69143235684,240.69143235684,240.69143235684,240.69143235684,240.69143235684,240.69143235684,240.69143235684,240.69143235684,240.69143235684,240.69143235684,240.69143235684,240.69143235684,240.69143235684,240.69143235684,240.69143235684,240.69143235684,240.69143235684,240.69143235684,240.69143235684,240.69143235684,240.69143235684,240.69143235684,240.69143235684,240.69143235684,240.69143235684,240.69143235684,240.69143235684,240.69143235684,240.69143235684,240.69143235684,240.69143235684,240.69143235684,240.69143235684,240.69143235684,240.69143235684,240.69143235684,240.69143235684,228.78721144715,476.39755449286,-0.77260999564047,420.5159401763,-0.78307344569668,0
0.0003153125,1104561867.2022,2.7529678221158e-05,9.3423279616078e-05,3.9659338881865e-05,1.0294216752609,0,0,0,0,0,0,0,0,0,0,0,0,0,0,0,0,0,0,0,0,0,0,0,0,0,0,0,0,0,0,0,0,0,0,0,0,0,0,0,0,0,0,0,0,0,0,0,0,-0.97824049427752,-0.11079467598078,-0.31908658922327,5.2291207649789,2.9985538029919,1.1156654055061,-3.2466437447193,1.5841998994526,2.750432776431,-0.48505077217841,1.8487731586084,-5.4133937871801,1.4847515002214,-1.4330688126296,1.7474977226513,-4.2902400592271,2.011498881456,4.6062326212331,-1.0164057496834,-4.5463452537013,1.8318527963107,1.8082684203825,0.030323892615532,-4.0536297136382,3.1501047450251,-2.2906822100671,1.1889970785906,1.0746122087223,-1.7251436026239,1.1542396562749,1.3865827557681,-0.32075537614355,0.81112762253496,-4.1240546859094,-1.7585564644486,-3.3859513008853,5.3605958179009,-2.7240936827348,3.1482061194176,-0.42408195627245,-1.3036342866633,-6.8928703706074,1.0007846699721,-2.0301147134731,-3.3941418307901,1.3465357931227,3.4399052227401,-3.6462369666201,240.92728141225,240.92728141225,240.92728141225,240.92728141225,240.92728141225,240.92728141225,240.92728141225,240.92728141225,240.92728141225,240.92728141225,240.92728141225,240.92728141225,240.92728141225,240.92728141225,240.92728141225,240.92728141225,240.92728141225,240.92728141225,240.92728141225,240.92728141225,240.92728141225,240.92728141225,240.92728141225,240.92728141225,240.92728141225,240.92728141225,240.92728141225,240.92728141225,240.92728141225,240.92728141225,240.92728141225,240.92728141225,240.92728141225,240.92728141225,240.92728141225,240.92728141225,240.92728141225,240.92728141225,240.92728141225,240.92728141225,240.92728141225,240.92728141225,240.92728141225,240.92728141225,240.92728141225,240.92728141225,240.92728141225,240.92728141225,228.77569986721,476.88458254232,-0.77517320167029,420.93452177653,-0.78564608741536,0
0.0003159375,1107987587.3739,2.7581473343646e-05,9.3608521207177e-05,3.9738281460993e-05,1.0294816675079,0,0,0,0,0,0,0,0,0,0,0,0,0,0,0,0,0,0,0,0,0,0,0,0,0,0,0,0,0,0,0,0,0,0,0,0,0,0,0,0,0,0,0,0,0,0,0,0,-0.97826872346891,-0.10995675098258,-0.31828112192389,5.2288992789169,2.9982502688216,1.115348843984,-3.2459291178789,1.5840043872406,2.7503289231432,-0.48494487536473,1.849062771927,-5.4134354819446,1.4850470430629,-1.432361892325,1.748070513378,-4.2895161339558,2.0108560889999,4.6053931880871,-1.0164421062799,-4.545919920791,1.8322961335443,1.8089223747952,0.030264469957812,-4.0540568928589,3.150558348641,-2.2919103901188,1.1892088528232,1.0744028531092,-1.7245613526255,1.153829068171,1.3862088979291,-0.32054467822624,0.81111333964614,-4.1232247200526,-1.75771813427,-3.3854911921393,5.3608826451026,-2.7234133112651,3.1482463107741,-0.42391931909261,-1.3033576628892,-6.8922852585179,1.0010932647005,-2.0299275803302,-3.3939833974597,1.3472395296598,3.4390243736566,-3.6448550878067,241.16310826129,241.16310826129,241.16310826129,241.16310826129,241.16310826129,241.16310826129,241.16310826129,241.16310826129,241.16310826129,241.16310826129,241.16310826129,241.16310826129,241.16310826129,241.16310826129,241.16310826129,241.16310826129,241.16310826129,241.16310826129,241.16310826129,241.16310826129,241.16310826129,241.16310826129,241.16310826129,241.16310826129,241.16310826129,241.16310826129,241.16310826129,241.16310826129,241.16310826129,241.16310826129,241.16310826129,241.16310826129,241.16310826129,241.16310826129,241.16310826129,241.16310826129,241.16310826129,241.16310826129,241.16310826129,241.16310826129,241.16310826129,241.16310826129,241.16310826129,241.16310826129,241.16310826129,241.16310826129,241.16310826129,241.16310826129,228.76418009238,477.37154591544,-0.77774008157235,421.35304816603,-0.78822237767788,0
0.0003165625,1111417703.7877,2.7633256847628e-05,9.3793762858569e-05,3.9817224971742e-05,1.0295416588432,0,0,0,0,0,0,0,0,0,0,0,0,0,0,0,0,0,0,0,0,0,0,0,0,0,0,0,0,0,0,0,0,0,0,0,0,0,0,0,0,0,0,0,0,0,0,0,0,-0.97829658165925,-0.10911941287574,-0.31748057381338,5.2286789004251,2.9979464903212,1.115033365688,-3.2452143059433,1.5838089968786,2.7502247557476,-0.48483854517869,1.8493502513426,-5.4134761474226,1.4853426803474,-1.4316551192782,1.7486418394364,-4.2887899643861,2.0102122302209,4.6045548319889,-1.0164780544328,-4.5454962042552,1.8327378670182,1.8095761365469,0.030205767480797,-4.0544869722609,3.1510094883572,-2.2931373135911,1.1894193859416,1.0741944863935,-1.7239776238213,1.1534182527806,1.3858349163316,-0.32033285908236,0.81109882798862,-4.1223945194673,-1.7568807367686,-3.3850305868006,5.3611685278802,-2.7227309051729,3.1482857302989,-0.42375661051605,-1.3030817114599,-6.891699591236,1.0013996583215,-2.029739907586,-3.393826570486,1.34794246515,3.438145787179,-3.6434743437055,241.39891289524,241.39891289524,241.39891289524,241.39891289524,241.39891289524,241.39891289524,241.39891289524,241.39891289524,241.39891289524,241.39891289524,241.39891289524,241.39891289524,241.39891289524,241.39891289524,241.39891289524,241.39891289524,241.39891289524,241.39891289524,241.39891289524,241.39891289524,241.39891289524,241.39891289524,241.39891289524,241.39891289524,241.39891289524,241.39891289524,241.39891289524,241.39891289524,241.39891289524,241.39891289524,241.39891289524,241.39891289524,241.39891289524,241.39891289524,241.39891289524,241.39891289524,241.39891289524,241.39891289524,241.39891289524,241.39891289524,241.39891289524,241.39891289524,241.39891289524,241.39891289524,241.39891289524,241.39891289524,241.39891289524,241.39891289524,228.75265216745,477.85844464227,-0.78031063371351,421.77151935521,-0.79080231473983,0
0.0003171875,1114852212.7839,2.7685028755355e-05,9.3979004569867e-05,3.9896169413201e-05,1.0296016492667,0,0,0,0,0,0,0,0,0,0,0,0,0,0,0,0,0,0,0,0,0,0,0,0,0,0,0,0,0,0,0,0,0,0,0,0,0,0,0,0,0,0,0,0,0,0,0,0,-0.97832405805007,-0.10828266796207,-0.31668490522353,5.2284596332419,2.9976424866054,1.1147189336268,-3.2444993232909,1.5836137366635,2.7501202672772,-0.4847317858818,1.8496356224106,-5.4135157433113,1.4856384224175,-1.4309485135882,1.7492117035867,-4.288061555586,2.0095672761441,4.6037175693543,-1.0165136227881,-4.5450741106601,1.8331780218328,1.8102296978365,0.030147763259674,-4.0549199217251,3.1514581941833,-2.2943629458806,1.1896286889409,1.073987087226,-1.7233924123284,1.1530072157874,1.3854608093127,-0.32011992366401,0.81108410523319,-4.1215640502832,-1.7560442542001,-3.38456948882,5.3614534815327,-2.7220464614433,3.1483243494266,-0.42359384380044,-1.3028064331654,-6.89111335648,1.0017038310552,-2.0295516262872,-3.3936713830962,1.3486445961425,3.4372694164493,-3.642094731607,241.63469530543,241.63469530543,241.63469530543,241.63469530543,241.63469530543,241.63469530543,241.63469530543,241.63469530543,241.63469530543,241.63469530543,241.63469530543,241.63469530543,241.63469530543,241.63469530543,241.63469530543,241.63469530543,241.63469530543,241.63469530543,241.63469530543,241.63469530543,241.63469530543,241.63469530543,241.63469530543,241.63469530543,241.63469530543,241.63469530543,241.63469530543,241.63469530543,241.63469530543,241.63469530543,241.63469530543,241.63469530543,241.63469530543,241.63469530543,241.63469530543,241.63469530543,241.63469530543,241.63469530543,241.63469530543,241.63469530543,241.63469530543,241.63469530543,241.63469530543,241.63469530543,241.63469530543,241.63469530543,241.63469530543,241.63469530543,228.74111614111,478.34527875122,-0.78288485646488,422.189935354,-0.79338589686223,0
0.0003178125,1118291110.7129,2.7736789088727e-05,9.4164246340688e-05,3.997511478442e-05,1.0296616387787,0,0,0,0,0,0,0,0,0,0,0,0,0,0,0,0,0,0,0,0,0,0,0,0,0,0,0,0,0,0,0,0,0,0,0,0,0,0,0,0,0,0,0,0,0,0,0,0,-0.97835114253701,-0.1074465215772,-0.31589407612444,5.2282414808516,2.9973382749177,1.1144055106496,-3.243784183526,1.5834186165096,2.750015450825,-0.48462460131993,1.8499189106689,-5.4135542316123,1.485934279784,-1.4302420954407,1.7497801085022,-4.2873309123517,2.0089211997327,4.602881413795,-1.0165488403842,-4.5446536463063,1.8336166248276,1.8108830513755,0.030090435611346,-4.0553557107124,3.1519044960674,-2.2955872543422,1.189836771942,1.073780634383,-1.7228057133453,1.1525959650314,1.3850865750832,-0.31990587637088,0.8110691890469,-4.1207332804226,-1.7552086691603,-3.3841079031224,5.3617375212311,-2.7213599774597,3.148362140673,-0.42343103217502,-1.3025318292362,-6.8905265406822,1.0020057658433,-2.0293626685531,-3.3935178655516,1.3493459193926,3.436395213194,-3.6407162481728,241.87045548326,241.87045548326,241.87045548326,241.87045548326,241.87045548326,241.87045548326,241.87045548326,241.87045548326,241.87045548326,241.87045548326,241.87045548326,241.87045548326,241.87045548326,241.87045548326,241.87045548326,241.87045548326,241.87045548326,241.87045548326,241.87045548326,241.87045548326,241.87045548326,241.87045548326,241.87045548326,241.87045548326,241.87045548326,241.87045548326,241.87045548326,241.87045548326,241.87045548326,241.87045548326,241.87045548326,241.87045548326,241.87045548326,241.87045548326,241.87045548326,241.87045548326,241.87045548326,241.87045548326,241.87045548326,241.87045548326,241.87045548326,241.87045548326,241.87045548326,241.87045548326,241.87045548326,241.87045548326,241.87045548326,241.87045548326,228.72957206618,478.83204826897,-0.7854627481821,422.60829617176,-0.79597312231584,0
0.0003184375,1121734393.9378,2.778853786931e-05,9.4349488170655e-05,4.0054061083928e-05,1.0297216273793,0,0,0,0,0,0,0,0,0,0,0,0,0,0,0,0,0,0,0,0,0,0,0,0,0,0,0,0,0,0,0,0,0,0,0,0,0,0,0,0,0,0,0,0,0,0,0,0,-0.97837782569833,-0.10661097816114,-0.31510804612028,5.2280244464768,2.9970338706617,1.114093059612,-3.2430688994463,1.583223647834,2.7499102996022,-0.48451699492544,1.8502001415738,-5.4135915766217,1.48623026308,-1.429535885086,1.7503470567733,-4.2865980392405,2.0082739758067,4.6020463761982,-1.0165837365419,-4.544234817189,1.83405370451,1.8115361904077,0.030033763125904,-4.0557943082974,3.1523484238233,-2.296810208291,1.1900436442,1.0735751068784,-1.7222175211589,1.1521845102772,1.3847122117742,-0.31969072106705,0.81105409701729,-4.1199021795813,-1.7543739646277,-3.3836458356258,5.3620206620169,-2.7206714510408,3.1483990776515,-0.42326818881722,-1.3022579013319,-6.8899391290504,1.002305448191,-2.0291729676794,-3.3933660453468,1.3500464318794,3.4355231278653,-3.639338889449,242.10619342021,242.10619342021,242.10619342021,242.10619342021,242.10619342021,242.10619342021,242.10619342021,242.10619342021,242.10619342021,242.10619342021,242.10619342021,242.10619342021,242.10619342021,242.10619342021,242.10619342021,242.10619342021,242.10619342021,242.10619342021,242.10619342021,242.10619342021,242.10619342021,242.10619342021,242.10619342021,242.10619342021,242.10619342021,242.10619342021,242.10619342021,242.10619342021,242.10619342021,242.10619342021,242.10619342021,242.10619342021,242.10619342021,242.10619342021,242.10619342021,242.10619342021,242.10619342021,242.10619342021,242.10619342021,242.10619342021,242.10619342021,242.10619342021,242.10619342021,242.10619342021,242.10619342021,242.10619342021,242.10619342021,242.10619342021,228.71801999911,479.31875322059,-0.78804430722551,423.02660181724,-0.79856398937554,0
0.0003190625,1125182058.835,2.7840275118341e-05,9.4534730059397e-05,4.0133008310474e-05,1.0297816150684,0,0,0,0,0,0,0,0,0,0,0,0,0,0,0,0,0,0,0,0,0,0,0,0,0,0,0,0,0,0,0,0,0,0,0,0,0,0,0,0,0,0,0,0,0,0,0,0,-0.97840409878561,-0.10577604134226,-0.31432677444064,5.2278085331104,2.9967292874338,1.1137815435125,-3.2423534830115,1.5830288434406,2.7498048068838,-0.4844089697191,1.8504793404242,-5.4136277449019,1.4865263830247,-1.4288299028142,1.7509125508979,-4.2858629406379,2.0076255809194,4.6012124648081,-1.0166183407801,-4.5438176289741,1.8344892909711,1.8121891086736,0.029977724690786,-4.0562356832331,3.1527900070321,-2.2980317789721,1.1902493141111,1.0733704840613,-1.7216278291405,1.1517728629949,1.3843377173761,-0.31947446109641,0.81103884657605,-4.1190707192024,-1.7535401239997,-3.3831832932336,5.3623029187758,-2.7199808804774,3.1484351350176,-0.42310532683755,-1.3019846515389,-6.889351105704,1.002602865999,-2.0289824582128,-3.3932159473825,1.3507461307841,3.4346531097567,-3.6379626508862,242.34190910779,242.34190910779,242.34190910779,242.34190910779,242.34190910779,242.34190910779,242.34190910779,242.34190910779,242.34190910779,242.34190910779,242.34190910779,242.34190910779,242.34190910779,242.34190910779,242.34190910779,242.34190910779,242.34190910779,242.34190910779,242.34190910779,242.34190910779,242.34190910779,242.34190910779,242.34190910779,242.34190910779,242.34190910779,242.34190910779,242.34190910779,242.34190910779,242.34190910779,242.34190910779,242.34190910779,242.34190910779,242.34190910779,242.34190910779,242.34190910779,242.34190910779,242.34190910779,242.34190910779,242.34190910779,242.34190910779,242.34190910779,242.34190910779,242.34190910779,242.34190910779,242.34190910779,242.34190910779,242.34190910779,242.34190910779,228.70646000034,479.80539362955,-0.79062953197794,423.44485229852,-0.80115849634552,0
0.0003196875,1128634101.7963,2.78920008567e-05,9.4719972006549e-05,4.0211956462689e-05,1.0298416018463,0,0,0,0,0,0,0,0,0,0,0,0,0,0,0,0,0,0,0,0,0,0,0,0,0,0,0,0,0,0,0,0,0,0,0,0,0,0,0,0,0,0,0,0,0,0,0,0,-0.97842995370341,-0.10494171401711,-0.31355021995904,5.2275937434915,2.9964245370858,1.1134709256492,-3.2416379453088,1.5828342174013,2.7496989660346,-0.48430052831524,1.8507565322988,-5.4136627052478,1.4868226503764,-1.4281241688824,1.7514765932808,-4.2851256207871,2.0069759932567,4.6003796853626,-1.0166526826901,-4.5434020869561,1.8349234157933,1.8128418004358,0.029922299521355,-4.0566798039733,3.1532292749789,-2.2992519395535,1.1904537892317,1.0731667457175,-1.7210366297462,1.1513610361467,1.3839630897403,-0.31925709930524,0.81102345492419,-4.1182388724344,-1.752707131133,-3.3827202837792,5.3625843062276,-2.7192882645677,3.1484702884565,-0.42294245923611,-1.301712082357,-6.8887624537305,1.0028980093957,-2.02879107602,-3.3930675941443,1.3514450134914,3.4337851071751,-3.636587527318,242.57760253761,242.57760253761,242.57760253761,242.57760253761,242.57760253761,242.57760253761,242.57760253761,242.57760253761,242.57760253761,242.57760253761,242.57760253761,242.57760253761,242.57760253761,242.57760253761,242.57760253761,242.57760253761,242.57760253761,242.57760253761,242.57760253761,242.57760253761,242.57760253761,242.57760253761,242.57760253761,242.57760253761,242.57760253761,242.57760253761,242.57760253761,242.57760253761,242.57760253761,242.57760253761,242.57760253761,242.57760253761,242.57760253761,242.57760253761,242.57760253761,242.57760253761,242.57760253761,242.57760253761,242.57760253761,242.57760253761,242.57760253761,242.57760253761,242.57760253761,242.57760253761,242.57760253761,242.57760253761,242.57760253761,242.57760253761,228.69489213402,480.29196951774,-0.79321842079165,423.86304762301,-0.80375664151893,0
0.0003203125,1132090519.2302,2.7943715104911e-05,9.4905214011751e-05,4.02909055391e-05,1.0299015877131,0,0,0,0,0,0,0,0,0,0,0,0,0,0,0,0,0,0,0,0,0,0,0,0,0,0,0,0,0,0,0,0,0,0,0,0,0,0,0,0,0,0,0,0,0,0,0,0,-0.97845538299364,-0.10410799842951,-0.31277834120002,5.2273800801357,2.9961196297796,1.113161169752,-3.2409222965372,1.5826397849444,2.749592770509,-0.48419167292778,1.8510317419896,-5.4136964286488,1.4871190758976,-1.4274187035229,1.7520391862288,-4.2843860838353,2.0063251925223,4.5995480412063,-1.0166867918574,-4.5429881960442,1.835356111955,1.813494260461,0.029867467180878,-4.0571266387261,3.1536662565714,-2.3004706650893,1.1906570762919,1.0729638721618,-1.7204439145325,1.1509490439918,1.383588326573,-0.31903863806325,0.81100793895972,-4.1174066140969,-1.7518749703752,-3.382256816062,5.3628648389164,-2.7185936026446,3.148504514644,-0.42277959890065,-1.3014401966945,-6.8881731552927,1.0031908705643,-2.0285987583889,-3.3929210058813,1.352143077581,3.4329190675592,-3.6352135130012,242.81327370137,242.81327370137,242.81327370137,242.81327370137,242.81327370137,242.81327370137,242.81327370137,242.81327370137,242.81327370137,242.81327370137,242.81327370137,242.81327370137,242.81327370137,242.81327370137,242.81327370137,242.81327370137,242.81327370137,242.81327370137,242.81327370137,242.81327370137,242.81327370137,242.81327370137,242.81327370137,242.81327370137,242.81327370137,242.81327370137,242.81327370137,242.81327370137,242.81327370137,242.81327370137,242.81327370137,242.81327370137,242.81327370137,242.81327370137,242.81327370137,242.81327370137,242.81327370137,242.81327370137,242.81327370137,242.81327370137,242.81327370137,242.81327370137,242.81327370137,242.81327370137,242.81327370137,242.81327370137,242.81327370137,242.81327370137,228.68331646782,480.7784809056,-0.79581097204773,424.28118779738,-0.80635842321295,0
0.0003209375,1135551307.5636,2.7995417883137e-05,9.5090456074649e-05,4.0369855538152e-05,1.0299615726688,0,0,0,0,0,0,0,0,0,0,0,0,0,0,0,0,0,0,0,0,0,0,0,0,0,0,0,0,0,0,0,0,0,0,0,0,0,0,0,0,0,0,0,0,0,0,0,0,-0.97848037981178,-0.10327489625168,-0.31201109635095,5.2271675453242,2.9958145740724,1.1128522401063,-3.2402065459882,1.5824455623425,2.7494862138548,-0.48408240537802,1.8513049939302,-5.4137288882239,1.4874156703085,-1.4267135268946,1.7526003319495,-4.2836443338578,2.0056731598308,4.5987175334548,-1.0167206977591,-4.5425759607291,1.8357874137302,1.8141464840219,0.029813207605097,-4.0575761554863,3.1541009802582,-2.3016879324743,1.1908591812255,1.0727618443182,-1.7198496741712,1.150536901901,1.3832134254267,-0.31881907928634,0.81099231520149,-4.116573920625,-1.7510436265927,-3.3817928998104,5.3631445311903,-2.717896894593,3.1485377912203,-0.42261675857705,-1.3011689978502,-6.8875831916969,1.0034814435708,-2.0284054441039,-3.3927762007609,1.3528403208184,3.4320549376491,-3.6338406016068,243.04892259081,243.04892259081,243.04892259081,243.04892259081,243.04892259081,243.04892259081,243.04892259081,243.04892259081,243.04892259081,243.04892259081,243.04892259081,243.04892259081,243.04892259081,243.04892259081,243.04892259081,243.04892259081,243.04892259081,243.04892259081,243.04892259081,243.04892259081,243.04892259081,243.04892259081,243.04892259081,243.04892259081,243.04892259081,243.04892259081,243.04892259081,243.04892259081,243.04892259081,243.04892259081,243.04892259081,243.04892259081,243.04892259081,243.04892259081,243.04892259081,243.04892259081,243.04892259081,243.04892259081,243.04892259081,243.04892259081,243.04892259081,243.04892259081,243.04892259081,243.04892259081,243.04892259081,243.04892259081,243.04892259081,243.04892259081,228.67173307308,481.26492781207,-0.7984071841032,424.69927282759,-0.8089638397369,0
0.0003215625,1139016463.2433,2.8047109211172e-05,9.5275698194895e-05,4.0448806458147e-05,1.0300215567136,0,0,0,0,0,0,0,0,0,0,0,0,0,0,0,0,0,0,0,0,0,0,0,0,0,0,0,0,0,0,0,0,0,0,0,0,0,0,0,0,0,0,0,0,0,0,0,0,-0.97850493790352,-0.1024424086601,-0.31124844328733,5.2269561411218,2.9955093770062,1.1125441016618,-3.2394907020358,1.5822515668043,2.7493792896962,-0.48397272710381,1.8515763121324,-5.4137600591673,1.4877124442498,-1.4260086590801,1.7531600325326,-4.2829003748946,2.005019877614,4.5978881611731,-1.0167544296928,-4.5421653850693,1.8362173565839,1.814798466877,0.029759501123732,-4.0580283220856,3.1545334739594,-2.3029037204019,1.191060109195,1.0725606437932,-1.7192538984717,1.1501246261844,1.3828383836759,-0.31859842446055,0.81097659971991,-4.115740770018,-1.7502130852009,-3.3813285457063,5.363423397165,-2.7171981408703,3.1485700967662,-0.42245395085885,-1.3008984895095,-6.8869925434912,1.0037697242098,-2.0282110735487,-3.3926331950058,1.3535367411506,3.431192663651,-3.6324687862482,243.2845491978,243.2845491978,243.2845491978,243.2845491978,243.2845491978,243.2845491978,243.2845491978,243.2845491978,243.2845491978,243.2845491978,243.2845491978,243.2845491978,243.2845491978,243.2845491978,243.2845491978,243.2845491978,243.2845491978,243.2845491978,243.2845491978,243.2845491978,243.2845491978,243.2845491978,243.2845491978,243.2845491978,243.2845491978,243.2845491978,243.2845491978,243.2845491978,243.2845491978,243.2845491978,243.2845491978,243.2845491978,243.2845491978,243.2845491978,243.2845491978,243.2845491978,243.2845491978,243.2845491978,243.2845491978,243.2845491978,243.2845491978,243.2845491978,243.2845491978,243.2845491978,243.2845491978,243.2845491978,243.2845491978,243.2845491978,228.66014202439,481.75131025471,-0.80100705533457,425.11730271882,-0.81157288941973,0
0.0003221875,1142485982.7373,2.8098789108437e-05,9.5460940372147e-05,4.0527758297251e-05,1.0300815398475,0,0,0,0,0,0,0,0,0,0,0,0,0,0,0,0,0,0,0,0,0,0,0,0,0,0,0,0,0,0,0,0,0,0,0,0,0,0,0,0,0,0,0,0,0,0,0,0,-0.97852905157809,-0.10161053641477,-0.31049033959625,5.2267458693747,2.995204044203,1.1122367201497,-3.2387747721285,1.5820578163686,2.7492719917533,-0.4838626391698,1.8518457201208,-5.4137899186867,1.4880094082425,-1.4253041200436,1.7537182899567,-4.2821542109849,2.0043653295056,4.5970599215444,-1.0167880166749,-4.5417564726683,1.8366459770637,1.815450205269,0.029706328479673,-4.0584831062423,3.1549637649962,-2.304118009317,1.1912598646281,1.0723602529473,-1.7186565764113,1.1497122339319,1.3824631985264,-0.3183766746676,0.81096080806498,-4.1149071417858,-1.7493833321898,-3.3808637653509,5.363701450727,-2.7164973425274,3.1486014107706,-0.42229118816489,-1.3006286757276,-6.8864011905573,1.0040557098213,-2.0280155887944,-3.3924920030504,1.3542323366999,3.430332191389,-3.6310980594894,243.52015351426,243.52015351426,243.52015351426,243.52015351426,243.52015351426,243.52015351426,243.52015351426,243.52015351426,243.52015351426,243.52015351426,243.52015351426,243.52015351426,243.52015351426,243.52015351426,243.52015351426,243.52015351426,243.52015351426,243.52015351426,243.52015351426,243.52015351426,243.52015351426,243.52015351426,243.52015351426,243.52015351426,243.52015351426,243.52015351426,243.52015351426,243.52015351426,243.52015351426,243.52015351426,243.52015351426,243.52015351426,243.52015351426,243.52015351426,243.52015351426,243.52015351426,243.52015351426,243.52015351426,243.52015351426,243.52015351426,243.52015351426,243.52015351426,243.52015351426,243.52015351426,243.52015351426,243.52015351426,243.52015351426,243.52015351426,228.64854339958,482.23762824976,-0.80361058410358,425.53527747552,-0.81418557059164,0
0.0003228125,1145959862.5366,2.8150457593978e-05,9.5646182606069e-05,4.0606711053439e-05,1.0301415220707,0,0,0,0,0,0,0,0,0,0,0,0,0,0,0,0,0,0,0,0,0,0,0,0,0,0,0,0,0,0,0,0,0,0,0,0,0,0,0,0,0,0,0,0,0,0,0,0,-0.97855271568264,-0.10077927993062,-0.30973674260949,5.2265367317227,2.9948985799761,1.1119300621641,-3.2380587627844,1.5818643298041,2.7491643138236,-0.48375214227967,1.8521132408681,-5.4138184459232,1.488306572645,-1.4245999296293,1.7542751060681,-4.2814058461763,2.0037095002622,4.5962328100818,-1.016821487385,-4.5413492266582,1.8370733126887,1.8161016959087,0.029653670846915,-4.0589404755917,3.1553918800199,-2.3053307813489,1.1914584512489,1.0721606549503,-1.7180576961632,1.149299742868,1.3820878669896,-0.31815383061254,0.81094495519987,-4.114073016886,-1.7485543541474,-3.3803985712933,5.3639787054839,-2.7157945012105,3.14863171361,-0.42212848272468,-1.3003595609147,-6.885809112174,1.0043393991539,-2.0278189337055,-3.3923526376571,1.3549271057533,3.4294734664784,-3.6297284133657,243.75573553223,243.75573553223,243.75573553223,243.75573553223,243.75573553223,243.75573553223,243.75573553223,243.75573553223,243.75573553223,243.75573553223,243.75573553223,243.75573553223,243.75573553223,243.75573553223,243.75573553223,243.75573553223,243.75573553223,243.75573553223,243.75573553223,243.75573553223,243.75573553223,243.75573553223,243.75573553223,243.75573553223,243.75573553223,243.75573553223,243.75573553223,243.75573553223,243.75573553223,243.75573553223,243.75573553223,243.75573553223,243.75573553223,243.75573553223,243.75573553223,243.75573553223,243.75573553223,243.75573553223,243.75573553223,243.75573553223,243.75573553223,243.75573553223,243.75573553223,243.75573553223,243.75573553223,243.75573553223,243.75573553223,243.75573553223,228.63693727962,482.72388181212,-0.8062177687673,425.95319710138,-0.81680188157405,0
0.0003234375,1149438099.1563,2.8202114686471e-05,9.5831424896331e-05,4.0685664724642e-05,1.0302015033832,0,0,0,0,0,0,0,0,0,0,0,0,0,0,0,0,0,0,0,0,0,0,0,0,0,0,0,0,0,0,0,0,0,0,0,0,0,0,0,0,0,0,0,0,0,0,0,0,-0.97857592557356,-0.099948639344427,-0.30898760943238,5.226328729587,2.9945929874385,1.111624095251,-3.2373426795897,1.5816711265119,2.7490562497906,-0.48364123678881,1.8523788967325,-5.4138456218935,1.4886039476229,-1.423896107541,1.7548304825854,-4.2806552845591,2.0030523756676,4.5954068208154,-1.0168548700776,-4.5409436496778,1.8374994018398,1.8167529359648,0.029601509847522,-4.0594003977448,3.1558178449463,-2.3065420202702,1.19165587212,1.0719618338315,-1.7174572451374,1.1488871712158,1.381712385887,-0.31792989264881,0.81092905543509,-4.1132383776707,-1.7477261382784,-3.3799329770177,5.364255174753,-2.7150896191734,3.1486609865226,-0.42196584656887,-1.3000911498198,-6.8852162871196,1.004620792206,-2.0276210540435,-3.3922151100327,1.3556210467593,3.4286164344836,-3.6283598393894,243.99129524382,243.99129524382,243.99129524382,243.99129524382,243.99129524382,243.99129524382,243.99129524382,243.99129524382,243.99129524382,243.99129524382,243.99129524382,243.99129524382,243.99129524382,243.99129524382,243.99129524382,243.99129524382,243.99129524382,243.99129524382,243.99129524382,243.99129524382,243.99129524382,243.99129524382,243.99129524382,243.99129524382,243.99129524382,243.99129524382,243.99129524382,243.99129524382,243.99129524382,243.99129524382,243.99129524382,243.99129524382,243.99129524382,243.99129524382,243.99129524382,243.99129524382,243.99129524382,243.99129524382,243.99129524382,243.99129524382,243.99129524382,243.99129524382,243.99129524382,243.99129524382,243.99129524382,243.99129524382,243.99129524382,243.99129524382,228.6253237482,483.2100709555,-0.80882860768113,426.37106159936,-0.81942182070956,0
0.0003240625,1152920689.1371,2.8253760404221e-05,9.6016667242608e-05,4.0764619308581e-05,1.0302614837852,0,0,0,0,0,0,0,0,0,0,0,0,0,0,0,0,0,0,0,0,0,0,0,0,0,0,0,0,0,0,0,0,0,0,0,0,0,0,0,0,0,0,0,0,0,0,0,0,-0.97859867709009,-0.099118614586602,-0.30824289698819,5.2261218641833,2.9942872686206,1.1113187879786,-3.2366265272084,1.5814782264317,2.7489477936189,-0.48352992271832,1.8526427093962,-5.413871429399,1.4889015431073,-1.423192673333,1.7553844210739,-4.2799025302706,2.002393942446,4.5945819465056,-1.0168881925279,-4.5405397438676,1.837924283642,1.8174039230476,0.029549827567344,-4.0598628403145,3.1562416848917,-2.3077517114196,1.1918521296821,1.0717637745222,-1.716855210023,1.1484745375789,1.3813367518379,-0.31770486080928,0.81091312236522,-4.1124032078186,-1.7468986724211,-3.3794669969558,5.3645308715281,-2.7143826992785,3.1486892115837,-0.42180329151513,-1.2998234475255,-6.884622693727,1.0048998900794,-2.0274218975739,-3.3920794299426,1.3563141583187,3.4277610410852,-3.6269923285828,244.22683264125,244.22683264125,244.22683264125,244.22683264125,244.22683264125,244.22683264125,244.22683264125,244.22683264125,244.22683264125,244.22683264125,244.22683264125,244.22683264125,244.22683264125,244.22683264125,244.22683264125,244.22683264125,244.22683264125,244.22683264125,244.22683264125,244.22683264125,244.22683264125,244.22683264125,244.22683264125,244.22683264125,244.22683264125,244.22683264125,244.22683264125,244.22683264125,244.22683264125,244.22683264125,244.22683264125,244.22683264125,244.22683264125,244.22683264125,244.22683264125,244.22683264125,244.22683264125,244.22683264125,244.22683264125,244.22683264125,244.22683264125,244.22683264125,244.22683264125,244.22683264125,244.22683264125,244.22683264125,244.22683264125,244.22683264125,228.61370289166,483.69619569239,-0.81144309921204,426.78887097168,-0.82204538634292,0
0.0003246875,1156407629.0465,2.8305394765148e-05,9.6201909644583e-05,4.0843574802731e-05,1.0303214632768,0,0,0,0,0,0,0,0,0,0,0,0,0,0,0,0,0,0,0,0,0,0,0,0,0,0,0,0,0,0,0,0,0,0,0,0,0,0,0,0,0,0,0,0,0,0,0,0,-0.97862096652463,-0.098289205437199,-0.30750256205245,5.2259161365191,2.9939814245982,1.1110141100037,-3.2359103093865,1.581285649951,2.7488389393504,-0.48341819977113,1.8529046998071,-5.4138958529612,1.4891993687629,-1.4224896464026,1.7559369229577,-4.2791475875146,2.0017341881919,4.5937581788595,-1.0169214819646,-4.5401375108483,1.8383479978532,1.8180546551968,0.029498606568007,-4.0603277709695,3.1566634241128,-2.3089598416493,1.1920472257997,1.0715664628923,-1.7162515768381,1.1480618608226,1.3809609612535,-0.31747873483313,0.81089716880941,-4.1115674922793,-1.7460719450682,-3.3790006464959,5.3648058084673,-2.7136737450017,3.1487163716883,-0.42164082915879,-1.2995564594178,-6.8840283099684,1.0051766948531,-2.0272214141843,-3.3919456058138,1.3570064391822,3.426907232239,-3.6256258714841,244.46234771684,244.46234771684,244.46234771684,244.46234771684,244.46234771684,244.46234771684,244.46234771684,244.46234771684,244.46234771684,244.46234771684,244.46234771684,244.46234771684,244.46234771684,244.46234771684,244.46234771684,244.46234771684,244.46234771684,244.46234771684,244.46234771684,244.46234771684,244.46234771684,244.46234771684,244.46234771684,244.46234771684,244.46234771684,244.46234771684,244.46234771684,244.46234771684,244.46234771684,244.46234771684,244.46234771684,244.46234771684,244.46234771684,244.46234771684,244.46234771684,244.46234771684,244.46234771684,244.46234771684,244.46234771684,244.46234771684,244.46234771684,244.46234771684,244.46234771684,244.46234771684,244.46234771684,244.46234771684,244.46234771684,244.46234771684,228.60207479861,484.18225603418,-0.81406124170025,427.2066252199,-0.82467257680622,0
0.0003253125,1159898915.4796,2.8357017786795e-05,9.6387152101944e-05,4.0922531204284e-05,1.030381441858,0,0,0,0,0,0,0,0,0,0,0,0,0,0,0,0,0,0,0,0,0,0,0,0,0,0,0,0,0,0,0,0,0,0,0,0,0,0,0,0,0,0,0,0,0,0,0,0,-0.97864279059482,-0.097460411582817,-0.3067665613095,5.2257115473864,2.9936754556024,1.1107100321044,-3.2351940289665,1.5810934178222,2.7487296811005,-0.48330606734751,1.8531648881188,-5.4139188787389,1.4894974339519,-1.4217870459777,1.7564879895006,-4.2783904605697,2.0010731013112,4.5929355087307,-1.0169547650319,-4.5397369517138,1.838770584746,1.8187051308541,0.029447829902491,-4.0607951574685,3.1570830859485,-2.3101663992575,1.1922411617991,1.0713698857619,-1.7156463309849,1.1476491599799,1.3805850103339,-0.31725151419809,0.81088120675383,-4.1107312172109,-1.745245945374,-3.3785339419843,5.3650799978583,-2.7129627604212,3.1487424505452,-0.4214784708623,-1.2992901911736,-6.8834331135298,1.0054512094645,-2.0270195560015,-3.3918136448239,1.3576978882474,3.426054954341,-3.6242604581875,244.697840463,244.697840463,244.697840463,244.697840463,244.697840463,244.697840463,244.697840463,244.697840463,244.697840463,244.697840463,244.697840463,244.697840463,244.697840463,244.697840463,244.697840463,244.697840463,244.697840463,244.697840463,244.697840463,244.697840463,244.697840463,244.697840463,244.697840463,244.697840463,244.697840463,244.697840463,244.697840463,244.697840463,244.697840463,244.697840463,244.697840463,244.697840463,244.697840463,244.697840463,244.697840463,244.697840463,244.697840463,244.697840463,244.697840463,244.697840463,244.697840463,244.697840463,244.697840463,244.697840463,244.697840463,244.697840463,244.697840463,244.697840463,228.59043955974,484.66825199117,-0.816683033497,427.6243243449,-0.82730339044396,0
0.0003259375,1163394545.0607,2.8408629486339e-05,9.6572394614384e-05,4.1001488510267e-05,1.030441419529,0,0,0,0,0,0,0,0,0,0,0,0,0,0,0,0,0,0,0,0,0,0,0,0,0,0,0,0,0,0,0,0,0,0,0,0,0,0,0,0,0,0,0,0,0,0,0,0,-0.97866414641777,-0.096632232670893,-0.30603485139029,5.2255080973635,2.9933693611565,1.1104065262428,-3.2344776879057,1.5809015510787,2.7486200130661,-0.48319352456279,1.8534232936389,-5.4139404944557,1.4897957477088,-1.4210848911157,1.7570376217974,-4.2776311537974,2.0004106709506,4.5921139263368,-1.0169880677188,-4.5393380670226,1.8391920849946,1.8193553488689,0.029397481122789,-4.0612649677051,3.1575006927679,-2.3113713739248,1.1924339385223,1.0711740309338,-1.7150394573073,1.1472364541592,1.3802088950656,-0.31702319814807,0.81086524729966,-4.1098943699259,-1.7444206631733,-3.3780669007473,5.3653534515927,-2.7122497502237,3.1487674326547,-0.42131622774477,-1.2990246487488,-6.8828370818737,1.0057234375849,-2.0268162775159,-3.391683552979,1.3583885045507,3.4252041543718,-3.6228960783386,244.93331087225,244.93331087225,244.93331087225,244.93331087225,244.93331087225,244.93331087225,244.93331087225,244.93331087225,244.93331087225,244.93331087225,244.93331087225,244.93331087225,244.93331087225,244.93331087225,244.93331087225,244.93331087225,244.93331087225,244.93331087225,244.93331087225,244.93331087225,244.93331087225,244.93331087225,244.93331087225,244.93331087225,244.93331087225,244.93331087225,244.93331087225,244.93331087225,244.93331087225,244.93331087225,244.93331087225,244.93331087225,244.93331087225,244.93331087225,244.93331087225,244.93331087225,244.93331087225,244.93331087225,244.93331087225,244.93331087225,244.93331087225,244.93331087225,244.93331087225,244.93331087225,244.93331087225,244.93331087225,244.93331087225,244.93331087225,228.57879726733,485.15418357265,-0.81930847293731,428.04196834692,-0.82993782560136,0
0.0003265625,1166894514.4439,2.8460229880605e-05,9.6757637181603e-05,4.1080446717614e-05,1.0305013962898,0,0,0,0,0,0,0,0,0,0,0,0,0,0,0,0,0,0,0,0,0,0,0,0,0,0,0,0,0,0,0,0,0,0,0,0,0,0,0,0,0,0,0,0,0,0,0,0,-0.97868503148119,-0.095804668355963,-0.30530738894307,5.2253057868093,2.9930631401817,1.1101035655862,-3.2337612872891,1.5807100709575,2.7485099295105,-0.48308057026301,1.8536799347798,-5.4139606893184,1.4900943187061,-1.4203832006986,1.7575858207701,-4.2768696716401,1.9997468869454,4.5912934214468,-1.0170214153351,-4.5389408567808,1.839612539554,1.8200053084568,0.02934754429375,-4.061737169734,3.1579162659261,-2.3125747566462,1.1926255563649,1.0709788871969,-1.7144309401572,1.1468237624608,1.3798326112149,-0.31679378572402,0.81084930061565,-4.1090569388273,-1.7435960889839,-3.3775995410952,5.3656261811468,-2.7115347196867,3.148791303293,-0.42115411067906,-1.2987598383521,-6.8822401922944,1.0059933835215,-2.0266115357074,-3.3915553352031,1.3590782872652,3.4243547800476,-3.6215327211869,245.16875893722,245.16875893722,245.16875893722,245.16875893722,245.16875893722,245.16875893722,245.16875893722,245.16875893722,245.16875893722,245.16875893722,245.16875893722,245.16875893722,245.16875893722,245.16875893722,245.16875893722,245.16875893722,245.16875893722,245.16875893722,245.16875893722,245.16875893722,245.16875893722,245.16875893722,245.16875893722,245.16875893722,245.16875893722,245.16875893722,245.16875893722,245.16875893722,245.16875893722,245.16875893722,245.16875893722,245.16875893722,245.16875893722,245.16875893722,245.16875893722,245.16875893722,245.16875893722,245.16875893722,245.16875893722,245.16875893722,245.16875893722,245.16875893722,245.16875893722,245.16875893722,245.16875893722,245.16875893722,245.16875893722,245.16875893722,228.56714801514,485.64005078691,-0.82193755837062,428.45955722563,-0.83257588062696,0
0.0003271875,1170398820.3137,2.851181898605e-05,9.6942879803307e-05,4.1159405822965e-05,1.0305613721406,0,0,0,0,0,0,0,0,0,0,0,0,0,0,0,0,0,0,0,0,0,0,0,0,0,0,0,0,0,0,0,0,0,0,0,0,0,0,0,0,0,0,0,0,0,0,0,0,-0.97870544361629,-0.094977718338227,-0.30458413067361,5.2251046158522,2.9927567911273,1.1098011245218,-3.2330448273571,1.5805189988229,2.7483994247679,-0.48296720304593,1.8539348290028,-5.4139794539497,1.4903931552302,-1.4196819934281,1.7581325871698,-4.2761060186241,1.9990817397901,4.5904739835899,-1.0170548324678,-4.5385453204436,1.8400319895478,1.8206550091995,0.029298003999893,-4.0622117318223,3.1583298257076,-2.3137765396762,1.1928160153264,1.0707844443206,-1.7138207634602,1.1464111039044,1.3794561543273,-0.31656327579601,0.81083337588854,-4.1082189133588,-1.74277221402,-3.3771318823347,5.3658981975694,-2.7108176746712,3.1488140485248,-0.42099213027967,-1.2984957664263,-6.8816424219916,1.00626105213,-2.026405290172,-3.3914289954049,1.3597672357034,3.4235067799648,-3.6201703755847,245.40418465064,245.40418465064,245.40418465064,245.40418465064,245.40418465064,245.40418465064,245.40418465064,245.40418465064,245.40418465064,245.40418465064,245.40418465064,245.40418465064,245.40418465064,245.40418465064,245.40418465064,245.40418465064,245.40418465064,245.40418465064,245.40418465064,245.40418465064,245.40418465064,245.40418465064,245.40418465064,245.40418465064,245.40418465064,245.40418465064,245.40418465064,245.40418465064,245.40418465064,245.40418465064,245.40418465064,245.40418465064,245.40418465064,245.40418465064,245.40418465064,245.40418465064,245.40418465064,245.40418465064,245.40418465064,245.40418465064,245.40418465064,245.40418465064,245.40418465064,245.40418465064,245.40418465064,245.40418465064,245.40418465064,245.40418465064,228.5554918977,486.12585364135,-0.82457028810614,428.87709098017,-0.83521755385021,0
0.0003278125,1173907459.3861,2.8563396818767e-05,9.7128122479207e-05,4.1238365822623e-05,1.0306213470815,0,0,0,0,0,0,0,0,0,0,0,0,0,0,0,0,0,0,0,0,0,0,0,0,0,0,0,0,0,0,0,0,0,0,0,0,0,0,0,0,0,0,0,0,0,0,0,0,-0.97872538097684,-0.094151382404712,-0.30386503341558,5.2249045843979,2.9924503120828,1.109499178688,-3.232328307528,1.5803283561012,2.7482884932424,-0.48285342127854,1.8541879927818,-5.4139967803087,1.4906922651538,-1.4189812878235,1.7586779215529,-4.2753401993582,1.9984152205758,4.5896556022335,-1.0170883429481,-4.5381514569019,1.8404504761534,1.8213044510195,0.029248845353768,-4.0626886224666,3.1587413912966,-2.3149767164487,1.193005315058,1.0705906930657,-1.7132089107928,1.1459984973701,1.3790795197287,-0.31633166709317,0.81081748128817,-4.1073802839524,-1.7419490301917,-3.3766639447821,5.3661695114369,-2.7100986216111,3.1488356551704,-0.42083029689997,-1.2982324396331,-6.8810437481121,1.0065264487159,-2.0261975032607,-3.3913045365324,1.3604553493096,3.4226601037291,-3.6188090300363,245.63958800533,245.63958800533,245.63958800533,245.63958800533,245.63958800533,245.63958800533,245.63958800533,245.63958800533,245.63958800533,245.63958800533,245.63958800533,245.63958800533,245.63958800533,245.63958800533,245.63958800533,245.63958800533,245.63958800533,245.63958800533,245.63958800533,245.63958800533,245.63958800533,245.63958800533,245.63958800533,245.63958800533,245.63958800533,245.63958800533,245.63958800533,245.63958800533,245.63958800533,245.63958800533,245.63958800533,245.63958800533,245.63958800533,245.63958800533,245.63958800533,245.63958800533,245.63958800533,245.63958800533,245.63958800533,245.63958800533,245.63958800533,245.63958800533,245.63958800533,245.63958800533,245.63958800533,245.63958800533,245.63958800533,245.63958800533,228.54382901007,486.61159214251,-0.82720666048976,429.29456960917,-0.83786284362853,0
0.0003284375,1177420428.4087,2.8614963394518e-05,9.7313365209022e-05,4.1317326712826e-05,1.0306813211125,0,0,0,0,0,0,0,0,0,0,0,0,0,0,0,0,0,0,0,0,0,0,0,0,0,0,0,0,0,0,0,0,0,0,0,0,0,0,0,0,0,0,0,0,0,0,0,0,-0.97874484201055,-0.093325660455727,-0.30315005419662,5.2247056921019,2.9921437008845,1.1091977049648,-3.2316117264349,1.5801381642038,2.7481771294148,-0.48273922311613,1.8544394415647,-5.4140126616195,1.4909916559171,-1.4182811022252,1.7592218243019,-4.2745722185259,1.9977473209883,4.58883826696,-1.0171219698275,-4.5377592644873,1.8408680404816,1.8219536341692,0.029200054002377,-4.0631678104261,3.1591509807459,-2.3161752815285,1.1931934549013,1.0703976251591,-1.7125953654609,1.1455859615298,1.3787027025338,-0.31609895823465,0.81080162393158,-4.1065410419721,-1.7411265301185,-3.3761957497774,5.3664401328707,-2.7093775674995,3.1488561108263,-0.42066862062764,-1.2979698648249,-6.880444147801,1.0067895789811,-2.0259881402066,-3.3911819606578,1.3611426276636,3.4218147020812,-3.617448672709,245.87496899425,245.87496899425,245.87496899425,245.87496899425,245.87496899425,245.87496899425,245.87496899425,245.87496899425,245.87496899425,245.87496899425,245.87496899425,245.87496899425,245.87496899425,245.87496899425,245.87496899425,245.87496899425,245.87496899425,245.87496899425,245.87496899425,245.87496899425,245.87496899425,245.87496899425,245.87496899425,245.87496899425,245.87496899425,245.87496899425,245.87496899425,245.87496899425,245.87496899425,245.87496899425,245.87496899425,245.87496899425,245.87496899425,245.87496899425,245.87496899425,245.87496899425,245.87496899425,245.87496899425,245.87496899425,245.87496899425,245.87496899425,245.87496899425,245.87496899425,245.87496899425,245.87496899425,245.87496899425,245.87496899425,245.87496899425,228.53215944741,487.09726629613,-0.82984667383441,429.71199311086,-0.84051174830256,0
0.0003290625,1180937724.1617,2.8666518728712e-05,9.7498607992474e-05,4.1396288489467e-05,1.0307412942337,0,0,0,0,0,0,0,0,0,0,0,0,0,0,0,0,0,0,0,0,0,0,0,0,0,0,0,0,0,0,0,0,0,0,0,0,0,0,0,0,0,0,0,0,0,0,0,0,-0.97876382543817,-0.092500552539261,-0.30243915030142,5.2245079383836,2.9918369552191,1.1088966814827,-3.2308950819438,1.5799484444709,2.7480653278279,-0.48262460652268,1.8546891897309,-5.4140270923087,1.4912913345044,-1.417581454794,1.7597642955999,-4.2738020808844,1.9970780332606,4.5880219676183,-1.017155735356,-4.5373687409572,1.8412847234672,1.8226025592046,0.02915161613315,-4.0636492647721,3.1595586109342,-2.3173722305416,1.193380433939,1.0702052332856,-1.7119801105775,1.1451735148079,1.3783256976357,-0.31586514775878,0.81078580985196,-4.1057011796728,-1.7403047071216,-3.3757273196987,5.3667100714891,-2.7086545198705,3.1488754038518,-0.42050711127964,-1.2977080490315,-6.8798435982666,1.0070504489384,-2.0257771692662,-3.3910612690064,1.3618290704853,3.4209705270091,-3.6160892914756,246.11032761042,246.11032761042,246.11032761042,246.11032761042,246.11032761042,246.11032761042,246.11032761042,246.11032761042,246.11032761042,246.11032761042,246.11032761042,246.11032761042,246.11032761042,246.11032761042,246.11032761042,246.11032761042,246.11032761042,246.11032761042,246.11032761042,246.11032761042,246.11032761042,246.11032761042,246.11032761042,246.11032761042,246.11032761042,246.11032761042,246.11032761042,246.11032761042,246.11032761042,246.11032761042,246.11032761042,246.11032761042,246.11032761042,246.11032761042,246.11032761042,246.11032761042,246.11032761042,246.11032761042,246.11032761042,246.11032761042,246.11032761042,246.11032761042,246.11032761042,246.11032761042,246.11032761042,246.11032761042,246.11032761042,246.11032761042,228.52048330438,487.58287610721,-0.83249032644858,430.12936148308,-0.84316426620834,0
0.0003296875,1184459343.4573,2.8718062836425e-05,9.7683850829293e-05,4.147525114818e-05,1.0308012664453,0,0,0,0,0,0,0,0,0,0,0,0,0,0,0,0,0,0,0,0,0,0,0,0,0,0,0,0,0,0,0,0,0,0,0,0,0,0,0,0,0,0,0,0,0,0,0,0,-0.97878233023149,-0.091676058868043,-0.30173227934032,5.2243113224043,2.9915300727333,1.1085960876112,-3.2301783711964,1.5797592181041,2.7479530830945,-0.4825095692894,1.8549372505704,-5.4140400679335,1.4915913074262,-1.4168823634972,1.760305335441,-4.2730297912527,1.9964073501684,4.5872066944973,-1.0171896609636,-4.5369798834999,1.8417005657531,1.8232512269759,0.029103518481093,-4.0641329548913,3.1599642975531,-2.3185675601168,1.193566251037,1.0700135110629,-1.7113631291502,1.1447611753291,1.3779484997144,-0.31563023415463,0.81077004397792,-4.1048606901541,-1.7394835552323,-3.3752586779526,5.3669793364077,-2.7079294867848,3.1488935233687,-0.42034577839277,-1.2974469994309,-6.8792420768057,1.0073090648722,-2.0255645618436,-3.3909424620244,1.3625146776285,3.420127531871,-3.6147308739342,246.34566384702,246.34566384702,246.34566384702,246.34566384702,246.34566384702,246.34566384702,246.34566384702,246.34566384702,246.34566384702,246.34566384702,246.34566384702,246.34566384702,246.34566384702,246.34566384702,246.34566384702,246.34566384702,246.34566384702,246.34566384702,246.34566384702,246.34566384702,246.34566384702,246.34566384702,246.34566384702,246.34566384702,246.34566384702,246.34566384702,246.34566384702,246.34566384702,246.34566384702,246.34566384702,246.34566384702,246.34566384702,246.34566384702,246.34566384702,246.34566384702,246.34566384702,246.34566384702,246.34566384702,246.34566384702,246.34566384702,246.34566384702,246.34566384702,246.34566384702,246.34566384702,246.34566384702,246.34566384702,246.34566384702,246.34566384702,228.50880067474,488.06842158008,-0.83513761665008,430.54667472335,-0.84582039569309,0
0.0003303125,1187985283.1409,2.8769595732407e-05,9.7869093719213e-05,4.1554214684329e-05,1.0308612377473,0,0,0,0,0,0,0,0,0,0,0,0,0,0,0,0,0,0,0,0,0,0,0,0,0,0,0,0,0,0,0,0,0,0,0,0,0,0,0,0,0,0,0,0,0,0,0,0,-0.97880035559281,-0.090852179841238,-0.30102939932603,5.2241158430713,2.9912230511041,1.1082959039553,-3.229461590645,1.579570506111,2.7478403898989,-0.48239410905504,1.8551836362572,-5.4140515851197,1.4918915807051,-1.4161838461298,1.7608449436241,-4.2722553545045,1.995735265015,4.5863924384249,-1.0172237672418,-4.5365926887366,1.8421156075793,1.8238996386082,0.029055748329639,-4.0646188505305,3.1603680550872,-2.319761267824,1.1937509048827,1.0698224530202,-1.7107444041702,1.144348960883,1.3775711032427,-0.3153942158893,0.81075433011537,-4.1040195673162,-1.7386630691848,-3.3747898490132,5.3672479362279,-2.7072024768113,3.1489104592721,-0.4201846312286,-1.297186723334,-6.8786395608571,1.0075654332815,-2.0253502926388,-3.3908255394245,1.3631994490917,3.4192856714685,-3.6133734074455,246.58097769727,246.58097769727,246.58097769727,246.58097769727,246.58097769727,246.58097769727,246.58097769727,246.58097769727,246.58097769727,246.58097769727,246.58097769727,246.58097769727,246.58097769727,246.58097769727,246.58097769727,246.58097769727,246.58097769727,246.58097769727,246.58097769727,246.58097769727,246.58097769727,246.58097769727,246.58097769727,246.58097769727,246.58097769727,246.58097769727,246.58097769727,246.58097769727,246.58097769727,246.58097769727,246.58097769727,246.58097769727,246.58097769727,246.58097769727,246.58097769727,246.58097769727,246.58097769727,246.58097769727,246.58097769727,246.58097769727,246.58097769727,246.58097769727,246.58097769727,246.58097769727,246.58097769727,246.58097769727,246.58097769727,246.58097769727,228.49711165077,488.55390271847,-0.83778854273963,430.96393282893,-0.84848013508906,0
0.0003309375,1191515540.09,2.8821117431081e-05,9.8054336661973e-05,4.1633179092949e-05,1.0309212081399,0,0,0,0,0,0,0,0,0,0,0,0,0,0,0,0,0,0,0,0,0,0,0,0,0,0,0,0,0,0,0,0,0,0,0,0,0,0,0,0,0,0,0,0,0,0,0,0,-0.9788179009359,-0.090028916054958,-0.30033046874847,5.2239214990233,2.9909158881393,1.1079961123242,-3.2287447360854,1.5793823292461,2.7477272429897,-0.48227822332646,1.8554283578332,-5.4140616415051,1.4921921598619,-1.4154859203054,1.7613831197531,-4.2714787755538,1.9950617716206,4.5855791909177,-1.0172580739499,-4.5362071527139,1.8425298886701,1.8245477954775,0.029008293515011,-4.0651069218058,3.1607698968004,-2.3209533521226,1.1939343940283,1.0696320545601,-1.7101239187001,1.1439368888885,1.3771935024876,-0.31515709144009,0.81073867093925,-4.1031778058256,-1.7378432444233,-3.3743208584128,5.3675158790155,-2.7064734990091,3.1489262022232,-0.42002367876679,-1.2969272281588,-6.8780360280277,1.0078195608468,-2.0251343397673,-3.3907105002181,1.3638833850185,3.4184449021567,-3.6120168791712,246.81626915455,246.81626915455,246.81626915455,246.81626915455,246.81626915455,246.81626915455,246.81626915455,246.81626915455,246.81626915455,246.81626915455,246.81626915455,246.81626915455,246.81626915455,246.81626915455,246.81626915455,246.81626915455,246.81626915455,246.81626915455,246.81626915455,246.81626915455,246.81626915455,246.81626915455,246.81626915455,246.81626915455,246.81626915455,246.81626915455,246.81626915455,246.81626915455,246.81626915455,246.81626915455,246.81626915455,246.81626915455,246.81626915455,246.81626915455,246.81626915455,246.81626915455,246.81626915455,246.81626915455,246.81626915455,246.81626915455,246.81626915455,246.81626915455,246.81626915455,246.81626915455,246.81626915455,246.81626915455,246.81626915455,246.81626915455,228.48541632281,489.03931952559,-0.84044310301897,431.38113579692,-0.85114348274381,0
0.0003315625,1195050111.2151,2.8872627946578e-05,9.823957965732e-05,4.1712144368903e-05,1.030981177623,0,0,0,0,0,0,0,0,0,0,0,0,0,0,0,0,0,0,0,0,0,0,0,0,0,0,0,0,0,0,0,0,0,0,0,0,0,0,0,0,0,0,0,0,0,0,0,0,-0.97883496586624,-0.089206268316391,-0.29963544664277,5.223728288625,2.9906085818414,1.107696695722,-3.2280278027098,1.5791947079562,2.747613637203,-0.48216190949565,1.8556714251999,-5.4140702356652,1.4924930499027,-1.4147886034575,1.7619198632422,-4.2707000593431,1.9943868643271,4.5847669442646,-1.0172925999933,-4.5358232709215,1.8429434481257,1.8251956992126,0.028961142430824,-4.065597139231,3.1611698347338,-2.3221438122953,1.1941167169285,1.0694423119306,-1.7095016559749,1.143524976364,1.376815691532,-0.31491885931744,0.81072306798925,-4.102335401066,-1.7370240770882,-3.3738517327477,5.3677831723067,-2.7057425629078,3.1489407436568,-0.41986292970335,-1.2966685214046,-6.8774314561241,1.0080714543977,-2.0249166848917,-3.3905973427705,1.3645664857005,3.4176051819106,-3.6106612760951,247.05153821229,247.05153821229,247.05153821229,247.05153821229,247.05153821229,247.05153821229,247.05153821229,247.05153821229,247.05153821229,247.05153821229,247.05153821229,247.05153821229,247.05153821229,247.05153821229,247.05153821229,247.05153821229,247.05153821229,247.05153821229,247.05153821229,247.05153821229,247.05153821229,247.05153821229,247.05153821229,247.05153821229,247.05153821229,247.05153821229,247.05153821229,247.05153821229,247.05153821229,247.05153821229,247.05153821229,247.05153821229,247.05153821229,247.05153821229,247.05153821229,247.05153821229,247.05153821229,247.05153821229,247.05153821229,247.05153821229,247.05153821229,247.05153821229,247.05153821229,247.05153821229,247.05153821229,247.05153821229,247.05153821229,247.05153821229,228.47371477873,489.52467200417,-0.84310129577512,431.79828362426,-0.85381043698356,0
0.0003321875,1198588993.4588,2.8924127292728e-05,9.8424822705004e-05,4.1791110506745e-05,1.0310411461969,0,0,0,0,0,0,0,0,0,0,0,0,0,0,0,0,0,0,0,0,0,0,0,0,0,0,0,0,0,0,0,0,0,0,0,0,0,0,0,0,0,0,0,0,0,0,0,0,-0.97885155016791,-0.088384237650572,-0.29894429267847,5.2235362099742,2.9903011304811,1.1073976383203,-3.2273107851281,1.579007662331,2.7474995674352,-0.48204516486108,1.8559128471149,-5.41407736708,1.4927942553154,-1.4140919128317,1.7624551733074,-4.2699192108392,1.9937105379877,4.583955691626,-1.0173273634329,-4.53544103828,1.8433563243137,1.8258433516579,0.028914284026701,-4.0660894737431,3.161567879706,-2.3233326484038,1.1942978719776,1.0692532221883,-1.7088775994844,1.1431132399031,1.3764376642581,-0.31467951809588,0.81070752167566,-4.1014923491227,-1.7362055640194,-3.3733824996736,5.3680498230908,-2.7050096784897,3.1489540757872,-0.41970239244457,-1.2964106106391,-6.8768258232017,1.00832112088,-2.0246973133422,-3.3904860648358,1.3652487515889,3.4167664703971,-3.6093065850748,247.28678486404,247.28678486404,247.28678486404,247.28678486404,247.28678486404,247.28678486404,247.28678486404,247.28678486404,247.28678486404,247.28678486404,247.28678486404,247.28678486404,247.28678486404,247.28678486404,247.28678486404,247.28678486404,247.28678486404,247.28678486404,247.28678486404,247.28678486404,247.28678486404,247.28678486404,247.28678486404,247.28678486404,247.28678486404,247.28678486404,247.28678486404,247.28678486404,247.28678486404,247.28678486404,247.28678486404,247.28678486404,247.28678486404,247.28678486404,247.28678486404,247.28678486404,247.28678486404,247.28678486404,247.28678486404,247.28678486404,247.28678486404,247.28678486404,247.28678486404,247.28678486404,247.28678486404,247.28678486404,247.28678486404,247.28678486404,228.46200710323,490.00996015661,-0.84576311930184,432.21537630782,-0.85648099615238,0
0.0003328125,1202132183.7956,2.8975615483063e-05,9.8610065804782e-05,4.1870077500671e-05,1.0311011138616,0,0,0,0,0,0,0,0,0,0,0,0,0,0,0,0,0,0,0,0,0,0,0,0,0,0,0,0,0,0,0,0,0,0,0,0,0,0,0,0,0,0,0,0,0,0,0,0,-0.97886765378604,-0.087562825299275,-0.29825696722032,5.2233452608835,2.9899935326517,1.1070989254264,-3.226593677426,1.578821212051,2.7473850286603,-0.48192798664519,1.8561526311955,-5.4140830360693,1.4930957800611,-1.4133958655031,1.7629890489823,-4.2691362350137,1.9930327879818,4.5831454271048,-1.0173623814807,-4.5350604491611,1.8437685547657,1.8264907548677,0.02886770781295,-4.0665838967211,3.1619640413152,-2.3245198612336,1.194477857543,1.0690647831547,-1.7082517330747,1.1427016956516,1.3760594143704,-0.31443906643654,0.81069203129135,-4.1006486467408,-1.7353877027449,-3.3729131879178,5.368315837812,-2.7042748561665,3.1489661916049,-0.41954207511508,-1.2961535034655,-6.8762191075824,1.0085685673517,-2.0244762142321,-3.3903766635832,1.3659301832938,3.415928729041,-3.6079527928635,247.52200910344,247.52200910344,247.52200910344,247.52200910344,247.52200910344,247.52200910344,247.52200910344,247.52200910344,247.52200910344,247.52200910344,247.52200910344,247.52200910344,247.52200910344,247.52200910344,247.52200910344,247.52200910344,247.52200910344,247.52200910344,247.52200910344,247.52200910344,247.52200910344,247.52200910344,247.52200910344,247.52200910344,247.52200910344,247.52200910344,247.52200910344,247.52200910344,247.52200910344,247.52200910344,247.52200910344,247.52200910344,247.52200910344,247.52200910344,247.52200910344,247.52200910344,247.52200910344,247.52200910344,247.52200910344,247.52200910344,247.52200910344,247.52200910344,247.52200910344,247.52200910344,247.52200910344,247.52200910344,247.52200910344,247.52200910344,228.45029337763,490.49518398501,-0.84842857188235,432.63241384449,-0.85915515857929,0
0.0003334375,1205679679.2318,2.9027092530859e-05,9.8795308956413e-05,4.1949045344821e-05,1.0311610806172,0,0,0,0,0,0,0,0,0,0,0,0,0,0,0,0,0,0,0,0,0,0,0,0,0,0,0,0,0,0,0,0,0,0,0,0,0,0,0,0,0,0,0,0,0,0,0,0,-0.97888327681242,-0.086742032728878,-0.29757343142846,5.2231554388934,2.9896857873155,1.1068005434578,-3.225876473206,1.5786353763382,2.7472700159413,-0.48181037201276,1.856390783935,-5.4140872437408,1.4933976275711,-1.4127004783567,1.7635214891093,-4.2683511368351,1.9923536102194,4.5823361457913,-1.0173976705081,-4.5346814973966,1.8441801760671,1.8271379110913,0.028821403856615,-4.0670803799982,3.1623583279639,-2.3257054522401,1.1946566719976,1.0688769933789,-1.7076240410427,1.1422903592867,1.3756809354125,-0.31419750311191,0.81067659503308,-4.099804291296,-1.7345704914758,-3.3724438272571,5.3685812223666,-2.7035381067656,3.148977084895,-0.41938198554434,-1.2958972075075,-6.875611287877,1.0088138009549,-2.0242533805609,-3.3902691356484,1.3666107816001,3.4150919210574,-3.6065998861596,247.7572109242,247.7572109242,247.7572109242,247.7572109242,247.7572109242,247.7572109242,247.7572109242,247.7572109242,247.7572109242,247.7572109242,247.7572109242,247.7572109242,247.7572109242,247.7572109242,247.7572109242,247.7572109242,247.7572109242,247.7572109242,247.7572109242,247.7572109242,247.7572109242,247.7572109242,247.7572109242,247.7572109242,247.7572109242,247.7572109242,247.7572109242,247.7572109242,247.7572109242,247.7572109242,247.7572109242,247.7572109242,247.7572109242,247.7572109242,247.7572109242,247.7572109242,247.7572109242,247.7572109242,247.7572109242,247.7572109242,247.7572109242,247.7572109242,247.7572109242,247.7572109242,247.7572109242,247.7572109242,247.7572109242,247.7572109242,228.4385736791,490.9803434913,-0.85109765180212,433.04939623118,-0.861832922604,0
0.0003340625,1209231476.8044,2.9078558449093e-05,9.8980552159663e-05,4.2028014032754e-05,1.0312210464638,0,0,0,0,0,0,0,0,0,0,0,0,0,0,0,0,0,0,0,0,0,0,0,0,0,0,0,0,0,0,0,0,0,0,0,0,0,0,0,0,0,0,0,0,0,0,0,0,-0.97889841947503,-0.085921861622956,-0.29689364731137,5.2229667412575,2.989377893857,1.1065024799074,-3.2251591656211,1.5784501739172,2.7471545244029,-0.48169231808917,1.8566273107233,-5.4140899919526,1.4936998007501,-1.412005768102,1.7640524923439,-4.2675639212593,1.9916730011402,4.5815278438336,-1.0174332460469,-4.5343041762733,1.8445912237671,1.8277848227494,0.028775362785694,-4.067578895887,3.1627507468716,-2.3268894235086,1.1948343137506,1.0686898520909,-1.7069945082275,1.1418792460093,1.3753022207487,-0.31395482702997,0.81066121003049,-4.0989592807754,-1.733753929099,-3.371974448526,5.3688459820856,-2.7027994415056,3.1489867502179,-0.41922213127669,-1.2956417303861,-6.8750023430253,1.0090568289139,-2.0240288093255,-3.3901634771385,1.3672905474648,3.4142560115206,-3.6052478516264,247.99239032014,247.99239032014,247.99239032014,247.99239032014,247.99239032014,247.99239032014,247.99239032014,247.99239032014,247.99239032014,247.99239032014,247.99239032014,247.99239032014,247.99239032014,247.99239032014,247.99239032014,247.99239032014,247.99239032014,247.99239032014,247.99239032014,247.99239032014,247.99239032014,247.99239032014,247.99239032014,247.99239032014,247.99239032014,247.99239032014,247.99239032014,247.99239032014,247.99239032014,247.99239032014,247.99239032014,247.99239032014,247.99239032014,247.99239032014,247.99239032014,247.99239032014,247.99239032014,247.99239032014,247.99239032014,247.99239032014,247.99239032014,247.99239032014,247.99239032014,247.99239032014,247.99239032014,247.99239032014,247.99239032014,247.99239032014,228.4268480803,491.46543867732,-0.85377035733704,433.46632346493,-0.86451428655177,0
0.0003346875,1212787573.5808,2.9130013250497e-05,9.9165795414303e-05,4.2106983557652e-05,1.0312810114014,0,0,0,0,0,0,0,0,0,0,0,0,0,0,0,0,0,0,0,0,0,0,0,0,0,0,0,0,0,0,0,0,0,0,0,0,0,0,0,0,0,0,0,0,0,0,0,0,-0.97891308212395,-0.085102313876853,-0.29621757782113,5.222779164955,2.9890698521022,1.1062047233092,-3.2244417474412,1.5782656229614,2.7470385492667,-0.48157382197543,1.8568622158731,-5.4140912832544,1.4940023019751,-1.4113117512641,1.7645820571708,-4.2667745932099,1.9909909577452,4.5807205184359,-1.0174691228085,-4.5339284785706,1.8450017322686,1.8284314924274,0.028729575784597,-4.0680794171859,3.1631413041023,-2.3280717776961,1.1950107812753,1.0685033591588,-1.7063631201143,1.1414683705185,1.3749232636071,-0.31371103725225,0.81064587238226,-4.0981136137433,-1.7329380151648,-3.3715050835846,5.3691101217675,-2.7020588719796,3.1489951829335,-0.41906251956675,-1.2953870796945,-6.8743922522945,1.0092976585389,-2.0238025015912,-3.3900596836933,1.3679694820316,3.4134209673678,-3.6038966759498,248.22754728512,248.22754728512,248.22754728512,248.22754728512,248.22754728512,248.22754728512,248.22754728512,248.22754728512,248.22754728512,248.22754728512,248.22754728512,248.22754728512,248.22754728512,248.22754728512,248.22754728512,248.22754728512,248.22754728512,248.22754728512,248.22754728512,248.22754728512,248.22754728512,248.22754728512,248.22754728512,248.22754728512,248.22754728512,248.22754728512,248.22754728512,248.22754728512,248.22754728512,248.22754728512,248.22754728512,248.22754728512,248.22754728512,248.22754728512,248.22754728512,248.22754728512,248.22754728512,248.22754728512,248.22754728512,248.22754728512,248.22754728512,248.22754728512,248.22754728512,248.22754728512,248.22754728512,248.22754728512,248.22754728512,248.22754728512,228.41511664885,491.95046954491,-0.85644668676916,433.88319554291,-0.86719924877034,0
0.0003353125,1216347966.658,2.9181456947566e-05,9.9351038720108e-05,4.2185953912599e-05,1.0313409754302,0,0,0,0,0,0,0,0,0,0,0,0,0,0,0,0,0,0,0,0,0,0,0,0,0,0,0,0,0,0,0,0,0,0,0,0,0,0,0,0,0,0,0,0,0,0,0,0,-0.97892726522212,-0.084283391596558,-0.29554518690806,5.2225927066847,2.9887616623533,1.1059072632031,-3.2237242110704,1.5780817410581,2.7469220858408,-0.48145488076624,1.8570955026572,-5.4140911208635,1.4943051331024,-1.4106184441832,1.7651101818932,-4.2659831575726,1.9903074775974,4.5799141678989,-1.0175053146848,-4.5335543965517,1.8454117347438,1.829077922862,0.028684034595358,-4.0685819172073,3.1635300045952,-2.3292525180046,1.1951860731326,1.0683175150408,-1.7057298629056,1.1410577470114,1.3745440570731,-0.31346613301481,0.81063057719994,-4.0972672893303,-1.732122749876,-3.3710357653155,5.3693736456475,-2.7013164101323,3.1490023791966,-0.41890315737821,-1.2951332629826,-6.873780995319,1.0095362972187,-2.0235744625786,-3.3899577504845,1.3686475866404,3.4125867574503,-3.6025463458525,248.46268181309,248.46268181309,248.46268181309,248.46268181309,248.46268181309,248.46268181309,248.46268181309,248.46268181309,248.46268181309,248.46268181309,248.46268181309,248.46268181309,248.46268181309,248.46268181309,248.46268181309,248.46268181309,248.46268181309,248.46268181309,248.46268181309,248.46268181309,248.46268181309,248.46268181309,248.46268181309,248.46268181309,248.46268181309,248.46268181309,248.46268181309,248.46268181309,248.46268181309,248.46268181309,248.46268181309,248.46268181309,248.46268181309,248.46268181309,248.46268181309,248.46268181309,248.46268181309,248.46268181309,248.46268181309,248.46268181309,248.46268181309,248.46268181309,248.46268181309,248.46268181309,248.46268181309,248.46268181309,248.46268181309,248.46268181309,228.4033794469,492.43543609605,-0.8591266383727,434.30001246254,-0.86988780758569,0
0.0003359375,1219912653.1617,2.923288955255e-05,9.9536282076856e-05,4.2264925090236e-05,1.0314009385502,0,0,0,0,0,0,0,0,0,0,0,0,0,0,0,0,0,0,0,0,0,0,0,0,0,0,0,0,0,0,0,0,0,0,0,0,0,0,0,0,0,0,0,0,0,0,0,0,-0.97894096933811,-0.083465097085152,-0.29487643960962,5.2224073628801,2.9884533254091,1.1056100901027,-3.223006548624,1.5778985451654,2.746805129524,-0.48133549156395,1.8573271733571,-5.4140895086167,1.4946082954747,-1.4099258630051,1.7656368646547,-4.2651896191896,1.9896225588258,4.5791087916175,-1.0175418347678,-4.5331819220055,1.8458212630361,1.8297241169195,0.028638731513162,-4.0690863697773,3.1639168522107,-2.330431648127,1.1953601879989,1.0681323207428,-1.7050947236338,1.1406473891679,1.3741645941083,-0.31322011374563,0.81061531866211,-4.0964203072112,-1.731308134084,-3.3705665275767,5.3696365574293,-2.7005720682512,3.1490083359465,-0.41874405138434,-1.2948802877283,-6.8731685521095,1.0097727524167,-2.0233447017143,-3.3898576722633,1.3693248628308,3.4117533525373,-3.6011968481512,248.69779389808,248.69779389808,248.69779389808,248.69779389808,248.69779389808,248.69779389808,248.69779389808,248.69779389808,248.69779389808,248.69779389808,248.69779389808,248.69779389808,248.69779389808,248.69779389808,248.69779389808,248.69779389808,248.69779389808,248.69779389808,248.69779389808,248.69779389808,248.69779389808,248.69779389808,248.69779389808,248.69779389808,248.69779389808,248.69779389808,248.69779389808,248.69779389808,248.69779389808,248.69779389808,248.69779389808,248.69779389808,248.69779389808,248.69779389808,248.69779389808,248.69779389808,248.69779389808,248.69779389808,248.69779389808,248.69779389808,248.69779389808,248.69779389808,248.69779389808,248.69779389808,248.69779389808,248.69779389808,248.69779389808,248.69779389808,228.39163653078,492.92033833297,-0.86181021041176,434.7167742215,-0.87257996132917,0
0.0003365625,1223481630.2456,2.9284311077486e-05,9.9721525484332e-05,4.23438970829e-05,1.0314609007615,0,0,0,0,0,0,0,0,0,0,0,0,0,0,0,0,0,0,0,0,0,0,0,0,0,0,0,0,0,0,0,0,0,0,0,0,0,0,0,0,0,0,0,0,0,0,0,0,-0.97895419513515,-0.082647432834069,-0.29421130210789,5.2222231297077,2.9881448425696,1.1053131954577,-3.222288751948,1.5777160515742,2.7466876758021,-0.48121565149202,1.8575572293146,-5.4140864509238,1.4949117899344,-1.4092340236913,1.7661621034273,-4.2643939828437,1.9889362001576,4.5783043900709,-1.0175786953553,-4.5328110462436,1.8462303475763,1.8303700775831,0.028593659386312,-4.069592749257,3.1643018497727,-2.3316091722039,1.1955331246819,1.0679477777687,-1.704457690229,1.1402373101466,1.3737848675532,-0.31297297907796,0.81060009007413,-4.0955726675775,-1.7304941692642,-3.3700974051936,5.3698988602668,-2.6998258589373,3.1490130509195,-0.41858520797499,-1.2946281613307,-6.8725549030711,1.0100070316965,-2.0231132326856,-3.3897594433718,1.3700013123547,3.4109207253344,-3.5998481697706,248.93288353415,248.93288353415,248.93288353415,248.93288353415,248.93288353415,248.93288353415,248.93288353415,248.93288353415,248.93288353415,248.93288353415,248.93288353415,248.93288353415,248.93288353415,248.93288353415,248.93288353415,248.93288353415,248.93288353415,248.93288353415,248.93288353415,248.93288353415,248.93288353415,248.93288353415,248.93288353415,248.93288353415,248.93288353415,248.93288353415,248.93288353415,248.93288353415,248.93288353415,248.93288353415,248.93288353415,248.93288353415,248.93288353415,248.93288353415,248.93288353415,248.93288353415,248.93288353415,248.93288353415,248.93288353415,248.93288353415,248.93288353415,248.93288353415,248.93288353415,248.93288353415,248.93288353415,248.93288353415,248.93288353415,248.93288353415,228.37988795071,493.40517625824,-0.86449740116371,435.13348081778,-0.87527570834219,0
0.0003371875,1227054895.0903,2.9335721534209e-05,9.9906768942323e-05,4.2422869882576e-05,1.0315208620642,0,0,0,0,0,0,0,0,0,0,0,0,0,0,0,0,0,0,0,0,0,0,0,0,0,0,0,0,0,0,0,0,0,0,0,0,0,0,0,0,0,0,0,0,0,0,0,0,-0.97896694336512,-0.081830401514406,-0.29354974179927,5.2220400030782,2.9878362156474,1.1050165716136,-3.2215708126808,1.5775342758721,2.7465697202569,-0.4810953577098,1.8577856709871,-5.4140819527544,1.4952156168308,-1.4085429420012,1.7666858960264,-4.2635962532604,1.9882484009179,4.5775009648121,-1.0176159079813,-4.5324417601391,1.8466390172984,1.831015807937,0.028548811609627,-4.0701010305654,3.1646849991104,-2.3327850948041,1.1957048821435,1.0677638880752,-1.7038187516101,1.1398275225775,1.3734048701457,-0.312724728865,0.8105848839342,-4.0947243711339,-1.7296808575105,-3.3696284339128,5.3701605567798,-2.6990777950957,3.1490165226406,-0.41842663324901,-1.2943768910797,-6.871940029036,1.0102391427112,-2.022880073471,-3.3896630577731,1.3706769371844,3.4100888504849,-3.5985002978015,249.16795071542,249.16795071542,249.16795071542,249.16795071542,249.16795071542,249.16795071542,249.16795071542,249.16795071542,249.16795071542,249.16795071542,249.16795071542,249.16795071542,249.16795071542,249.16795071542,249.16795071542,249.16795071542,249.16795071542,249.16795071542,249.16795071542,249.16795071542,249.16795071542,249.16795071542,249.16795071542,249.16795071542,249.16795071542,249.16795071542,249.16795071542,249.16795071542,249.16795071542,249.16795071542,249.16795071542,249.16795071542,249.16795071542,249.16795071542,249.16795071542,249.16795071542,249.16795071542,249.16795071542,249.16795071542,249.16795071542,249.16795071542,249.16795071542,249.16795071542,249.16795071542,249.16795071542,249.16795071542,249.16795071542,249.16795071542,228.36813375029,493.88994987488,-0.86718820890665,435.55013224971,-0.87797504696442,0
0.0003378125,1230632444.9021,2.9387120934362e-05,0.00010009201245062,4.2501843481276e-05,1.0315808224584,0,0,0,0,0,0,0,0,0,0,0,0,0,0,0,0,0,0,0,0,0,0,0,0,0,0,0,0,0,0,0,0,0,0,0,0,0,0,0,0,0,0,0,0,0,0,0,0,-0.97897921486366,-0.081014005959648,-0.29289172735164,5.2218579786578,2.9875274469681,1.1047202117803,-3.2208527222807,1.5773532329073,2.7464512585743,-0.48097460742515,1.8580124980144,-5.4140760195904,1.495519776041,-1.4078526334791,1.7672082401252,-4.2627964350983,1.9875591610465,4.5766985184413,-1.0176534834175,-4.5320740541316,1.847047299558,1.8316613111635,0.028504182120887,-4.0706111891811,3.1650663011156,-2.3339594208702,1.1958754595176,1.0675806540243,-1.7031778977501,1.1394180385588,1.3730245945349,-0.31247536319151,0.81056969200536,-4.0938754190784,-1.7288682015195,-3.3691596503392,5.3704216490766,-2.6983278899182,3.1490187504133,-0.41826833301582,-1.2941264841423,-6.8713239112659,1.0104690932286,-2.0226452463381,-3.3895685090784,1.3713517395171,3.4092577045709,-3.5971532195101,249.40299543605,249.40299543605,249.40299543605,249.40299543605,249.40299543605,249.40299543605,249.40299543605,249.40299543605,249.40299543605,249.40299543605,249.40299543605,249.40299543605,249.40299543605,249.40299543605,249.40299543605,249.40299543605,249.40299543605,249.40299543605,249.40299543605,249.40299543605,249.40299543605,249.40299543605,249.40299543605,249.40299543605,249.40299543605,249.40299543605,249.40299543605,249.40299543605,249.40299543605,249.40299543605,249.40299543605,249.40299543605,249.40299543605,249.40299543605,249.40299543605,249.40299543605,249.40299543605,249.40299543605,249.40299543605,249.40299543605,249.40299543605,249.40299543605,249.40299543605,249.40299543605,249.40299543605,249.40299543605,249.40299543605,249.40299543605,228.35637396644,494.37465918652,-0.86988263190624,435.96672851603,-0.8806779755285,0
0.0003384375,1234214276.9124,2.9438509289402e-05,0.00010027725600902,4.2580817870487e-05,1.0316407819441,0,0,0,0,0,0,0,0,0,0,0,0,0,0,0,0,0,0,0,0,0,0,0,0,0,0,0,0,0,0,0,0,0,0,0,0,0,0,0,0,0,0,0,0,0,0,0,0,-0.97899101054228,-0.080198249152521,-0.29223722876257,5.2216770518716,2.9872185393565,1.1044241099983,-3.2201344720961,1.5771729367567,2.7463322865331,-0.4808533979029,1.8582377092974,-5.4140686573915,1.495824266982,-1.4071631134803,1.7677291332467,-4.2619945329349,1.9868684811178,4.5758970545687,-1.0176914316966,-4.5317079182771,1.847455220064,1.8323065905112,0.028459765397819,-4.0711232011471,3.1654457558097,-2.3351321556962,1.1960448561181,1.0673980783423,-1.7025351197704,1.1390088696519,1.3726440332904,-0.31222488238178,0.81055450539775,-4.0930258130782,-1.7280562045748,-3.3686910919387,5.370682138741,-2.6975761568642,3.1490197343306,-0.41811031281058,-1.2938769475461,-6.8707065314538,1.0106968911387,-2.0224087778702,-3.3894757905624,1.3720257217932,3.4084272661061,-3.5958069223879,249.63801769025,249.63801769025,249.63801769025,249.63801769025,249.63801769025,249.63801769025,249.63801769025,249.63801769025,249.63801769025,249.63801769025,249.63801769025,249.63801769025,249.63801769025,249.63801769025,249.63801769025,249.63801769025,249.63801769025,249.63801769025,249.63801769025,249.63801769025,249.63801769025,249.63801769025,249.63801769025,249.63801769025,249.63801769025,249.63801769025,249.63801769025,249.63801769025,249.63801769025,249.63801769025,249.63801769025,249.63801769025,249.63801769025,249.63801769025,249.63801769025,249.63801769025,249.63801769025,249.63801769025,249.63801769025,249.63801769025,249.63801769025,249.63801769025,249.63801769025,249.63801769025,249.63801769025,249.63801769025,249.63801769025,249.63801769025,228.3446086291,494.85930419748,-0.87258066845118,436.38326961592,-0.88338449239266,0
0.0003390625,1237800388.3765,2.9489886610611e-05,0.00010046249961731,4.2659793041369e-05,1.0317007405215,0,0,0,0,0,0,0,0,0,0,0,0,0,0,0,0,0,0,0,0,0,0,0,0,0,0,0,0,0,0,0,0,0,0,0,0,0,0,0,0,0,0,0,0,0,0,0,0,-0.9790023313893,-0.079383134214297,-0.29158621741229,5.221497217927,2.9869094961333,1.1041282610992,-3.2194160533885,1.5769934006958,2.7462128000154,-0.48073172647683,1.8584613030691,-5.4140598725816,1.4961290886346,-1.4064743971288,1.7682485727808,-4.2611905512722,1.9861763623366,4.5750965777804,-1.0177297621264,-4.5313433422602,1.8478628028055,1.832951649294,0.028415556450475,-4.0716370430921,3.1658233623986,-2.336303304892,1.1962130714585,1.0672161640704,-1.7018904099851,1.1386000268832,1.3722631789142,-0.31197328700615,0.81053931464912,-4.092175555276,-1.7272448705297,-3.3682227969272,5.3709420268569,-2.6968226096476,3.1490194752443,-0.41795257788422,-1.2936282881628,-6.8700878717515,1.0109225444608,-2.0221706989064,-3.3893848951874,1.3726988866902,3.407597515529,-3.5944613941619,249.87301747225,249.87301747225,249.87301747225,249.87301747225,249.87301747225,249.87301747225,249.87301747225,249.87301747225,249.87301747225,249.87301747225,249.87301747225,249.87301747225,249.87301747225,249.87301747225,249.87301747225,249.87301747225,249.87301747225,249.87301747225,249.87301747225,249.87301747225,249.87301747225,249.87301747225,249.87301747225,249.87301747225,249.87301747225,249.87301747225,249.87301747225,249.87301747225,249.87301747225,249.87301747225,249.87301747225,249.87301747225,249.87301747225,249.87301747225,249.87301747225,249.87301747225,249.87301747225,249.87301747225,249.87301747225,249.87301747225,249.87301747225,249.87301747225,249.87301747225,249.87301747225,249.87301747225,249.87301747225,249.87301747225,249.87301747225,228.3328377611,495.3438849129,-0.87528231680923,436.79975554899,-0.88609459589237,0
0.0003396875,1241390776.5722,2.9541252909125e-05,0.00010064774327531,4.2738768984796e-05,1.0317606981905,0,0,0,0,0,0,0,0,0,0,0,0,0,0,0,0,0,0,0,0,0,0,0,0,0,0,0,0,0,0,0,0,0,0,0,0,0,0,0,0,0,0,0,0,0,0,0,0,-0.9790131784587,-0.078568664383317,-0.29093866609715,5.2213184718168,2.9866003211026,1.1038326606706,-3.2186974573865,1.5768146371688,2.7460927950101,-0.48060959055954,1.8586832769734,-5.4140496720016,1.4964342395578,-1.4057864993254,1.7687665559865,-4.2603844945405,1.9854828065698,4.574297093593,-1.017768483313,-4.5309803154293,1.8482700699908,1.8335964908763,0.028371550814014,-4.0721526922479,3.1661991193295,-2.3374728743543,1.196380105263,1.0670349145209,-1.701243761978,1.1381915207403,1.3718820238567,-0.3117205778875,0.81052410981189,-4.091324648254,-1.7264342037927,-3.3677548042438,5.3712013140128,-2.6960672622262,3.1490179747769,-0.41779513320919,-1.2933805126917,-6.8694679147942,1.0111460613752,-2.0219310445286,-3.3892958156245,1.3733712371439,3.4067684351813,-3.5931166228405,250.1079947763,250.1079947763,250.1079947763,250.1079947763,250.1079947763,250.1079947763,250.1079947763,250.1079947763,250.1079947763,250.1079947763,250.1079947763,250.1079947763,250.1079947763,250.1079947763,250.1079947763,250.1079947763,250.1079947763,250.1079947763,250.1079947763,250.1079947763,250.1079947763,250.1079947763,250.1079947763,250.1079947763,250.1079947763,250.1079947763,250.1079947763,250.1079947763,250.1079947763,250.1079947763,250.1079947763,250.1079947763,250.1079947763,250.1079947763,250.1079947763,250.1079947763,250.1079947763,250.1079947763,250.1079947763,250.1079947763,250.1079947763,250.1079947763,250.1079947763,250.1079947763,250.1079947763,250.1079947763,250.1079947763,250.1079947763,228.32106137795,495.82840133885,-0.87798757525894,437.21618631538,-0.88880828438542,0
0.0003403125,1244985438.7988,2.959260819593e-05,0.00010083298698281,4.2817745691316e-05,1.0318206549514,0,0,0,0,0,0,0,0,0,0,0,0,0,0,0,0,0,0,0,0,0,0,0,0,0,0,0,0,0,0,0,0,0,0,0,0,0,0,0,0,0,0,0,0,0,0,0,0,-0.97902355287465,-0.077754843005045,-0.29029454907697,5.2211408083479,2.9862910185228,1.1035373050304,-3.2179786753264,1.5766366577617,2.7459722676096,-0.48048698764878,1.8589036281574,-5.4140380629001,1.4967397179167,-1.4050994347326,1.7692830800045,-4.2595763670853,1.9847878163413,4.5734986084004,-1.0178076031738,-4.5306188268341,1.8486770419901,1.8342411186551,0.028327744544507,-4.0726701264475,3.1665730243737,-2.3386408702376,1.1965459574687,1.066854333241,-1.7005951706462,1.1377833611719,1.3715005605259,-0.31146675610255,0.8105088805456,-4.0904730950438,-1.7256242093091,-3.3672871534757,5.3714600003288,-2.6953101287815,3.1490152353011,-0.41763798348174,-1.2931336276479,-6.8688466436918,1.0113674502222,-2.0216898539844,-3.3892085442832,1.3740427763477,3.4059400093014,-3.591772596732,250.34294959665,250.34294959665,250.34294959665,250.34294959665,250.34294959665,250.34294959665,250.34294959665,250.34294959665,250.34294959665,250.34294959665,250.34294959665,250.34294959665,250.34294959665,250.34294959665,250.34294959665,250.34294959665,250.34294959665,250.34294959665,250.34294959665,250.34294959665,250.34294959665,250.34294959665,250.34294959665,250.34294959665,250.34294959665,250.34294959665,250.34294959665,250.34294959665,250.34294959665,250.34294959665,250.34294959665,250.34294959665,250.34294959665,250.34294959665,250.34294959665,250.34294959665,250.34294959665,250.34294959665,250.34294959665,250.34294959665,250.34294959665,250.34294959665,250.34294959665,250.34294959665,250.34294959665,250.34294959665,250.34294959665,250.34294959665,228.30927948799,496.31285348246,-0.88069644208863,437.63256191573,-0.89152555622577,0
0.0003409375,1248584372.3762,2.9643952481893e-05,0.00010101823073962,4.2896723151226e-05,1.031880610804,0,0,0,0,0,0,0,0,0,0,0,0,0,0,0,0,0,0,0,0,0,0,0,0,0,0,0,0,0,0,0,0,0,0,0,0,0,0,0,0,0,0,0,0,0,0,0,0,-0.97903345582411,-0.076941673515179,-0.28965384211248,5.2209642221444,2.9859815930881,1.1032421911879,-3.2172596984861,1.5764594731803,2.7458512140128,-0.48036391533646,1.8591223533532,-5.4140250529055,1.4970455215014,-1.4044132177718,1.7697981418589,-4.2587661731768,1.9840913948299,4.572701129407,-1.0178471289529,-4.5302588652465,1.8490837372829,1.8348855360475,0.028284134205211,-4.0731893241429,3.166945074689,-2.3398072989364,1.1967106282393,1.0666744239657,-1.6999446322518,1.1373755575924,1.3711187813026,-0.31121182298398,0.81049361620683,-4.0896208991037,-1.7248148925426,-3.3668198847851,5.3717180854464,-2.6945512237142,3.149011259913,-0.41748113313111,-1.2928876393447,-6.8682240420519,1.0115867195157,-2.0214471706107,-3.3891230733095,1.3747135077586,3.4051122239752,-3.5904293044639,250.57788192758,250.57788192758,250.57788192758,250.57788192758,250.57788192758,250.57788192758,250.57788192758,250.57788192758,250.57788192758,250.57788192758,250.57788192758,250.57788192758,250.57788192758,250.57788192758,250.57788192758,250.57788192758,250.57788192758,250.57788192758,250.57788192758,250.57788192758,250.57788192758,250.57788192758,250.57788192758,250.57788192758,250.57788192758,250.57788192758,250.57788192758,250.57788192758,250.57788192758,250.57788192758,250.57788192758,250.57788192758,250.57788192758,250.57788192758,250.57788192758,250.57788192758,250.57788192758,250.57788192758,250.57788192758,250.57788192758,250.57788192758,250.57788192758,250.57788192758,250.57788192758,250.57788192758,250.57788192758,250.57788192758,250.57788192758,228.29749209236,496.797241352,-0.88340891558008,438.04888235122,-0.89424640977161,0
0.0003415625,1252187574.6434,2.9695285777757e-05,0.00010120347454555,4.2975701354484e-05,1.0319405657486,0,0,0,0,0,0,0,0,0,0,0,0,0,0,0,0,0,0,0,0,0,0,0,0,0,0,0,0,0,0,0,0,0,0,0,0,0,0,0,0,0,0,0,0,0,0,0,0,-0.97904288855803,-0.076129159418373,-0.2890165224753,5.2207887076652,2.9856720499086,1.1029473168109,-3.2165405182394,1.5762830932256,2.7457296305255,-0.48024037131282,1.859339448964,-5.4140106499887,1.4973516477542,-1.4037278625997,1.7703117384671,-4.2579539170067,1.9833935459017,4.5719046645925,-1.0178870672466,-4.5299004192106,1.8494901724145,1.8355297464808,0.028240716862589,-4.0737102644129,3.1673152668821,-2.3409721670482,1.1968741179685,1.0664951905794,-1.6992921444662,1.1369681188789,1.3707366785484,-0.31095578011723,0.8104783059413,-4.0887680643048,-1.7240062594569,-3.3663530388255,5.3719755685676,-2.6937905616246,3.1490060524373,-0.41732458631637,-1.2926425538906,-6.8676000939854,1.0118038779785,-2.0212030417299,-3.3890393946297,1.3753834351049,3.4042850671377,-3.5890867350079,250.81279176336,250.81279176336,250.81279176336,250.81279176336,250.81279176336,250.81279176336,250.81279176336,250.81279176336,250.81279176336,250.81279176336,250.81279176336,250.81279176336,250.81279176336,250.81279176336,250.81279176336,250.81279176336,250.81279176336,250.81279176336,250.81279176336,250.81279176336,250.81279176336,250.81279176336,250.81279176336,250.81279176336,250.81279176336,250.81279176336,250.81279176336,250.81279176336,250.81279176336,250.81279176336,250.81279176336,250.81279176336,250.81279176336,250.81279176336,250.81279176336,250.81279176336,250.81279176336,250.81279176336,250.81279176336,250.81279176336,250.81279176336,250.81279176336,250.81279176336,250.81279176336,250.81279176336,250.81279176336,250.81279176336,250.81279176336,228.28569918488,497.28156495703,-0.88612499403037,438.46514762357,-0.89697084339378,0
0.0003421875,1255795042.9576,2.974660809416e-05,0.00010138871840041,4.3054680290755e-05,1.0320005197852,0,0,0,0,0,0,0,0,0,0,0,0,0,0,0,0,0,0,0,0,0,0,0,0,0,0,0,0,0,0,0,0,0,0,0,0,0,0,0,0,0,0,0,0,0,0,0,0,-0.97905185239015,-0.075317304280461,-0.28838256897636,5.220614259234,2.9853623944724,1.1026526802071,-3.2158211260832,1.5761075267745,2.7456075135617,-0.48011635337452,1.8595549111598,-5.413994862461,1.4976580937899,-1.403043383104,1.7708238666563,-4.2571396026962,1.9826942740936,4.5711092226341,-1.017927424008,-4.5295434770712,1.8498963619576,1.836173753381,0.028197490073607,-4.0742329269646,3.1676835970948,-2.3421354813612,1.1970364272813,1.0663166370842,-1.6986377063967,1.1365610533757,1.3703542446205,-0.3106986293423,0.8104629387776,-4.087914594932,-1.7231983164948,-3.3658866566677,5.3722324484664,-2.6930281573061,3.1489996174006,-0.41716834693342,-1.2923983771638,-6.8669747841184,1.0120189345353,-2.0209575185321,-3.3889574999621,1.3760525623915,3.4034585285319,-3.5877448776955,251.04767909824,251.04767909824,251.04767909824,251.04767909824,251.04767909824,251.04767909824,251.04767909824,251.04767909824,251.04767909824,251.04767909824,251.04767909824,251.04767909824,251.04767909824,251.04767909824,251.04767909824,251.04767909824,251.04767909824,251.04767909824,251.04767909824,251.04767909824,251.04767909824,251.04767909824,251.04767909824,251.04767909824,251.04767909824,251.04767909824,251.04767909824,251.04767909824,251.04767909824,251.04767909824,251.04767909824,251.04767909824,251.04767909824,251.04767909824,251.04767909824,251.04767909824,251.04767909824,251.04767909824,251.04767909824,251.04767909824,251.04767909824,251.04767909824,251.04767909824,251.04767909824,251.04767909824,251.04767909824,251.04767909824,251.04767909824,228.27390075232,497.76582430844,-0.88884467573905,438.88135773511,-0.89969885546848,0
0.0003428125,1259406774.6928,2.9797919441663e-05,0.00010157396230402,4.3133659949463e-05,1.0320604729138,0,0,0,0,0,0,0,0,0,0,0,0,0,0,0,0,0,0,0,0,0,0,0,0,0,0,0,0,0,0,0,0,0,0,0,0,0,0,0,0,0,0,0,0,0,0,0,0,-0.97906034869395,-0.074506111701362,-0.28775196197727,5.2204408710413,2.9850526326231,1.1023582802826,-3.2151015136825,1.5759327817642,2.7454848596402,-0.47999185942634,1.8597687359586,-5.4139776989351,1.4979648564265,-1.4023597928936,1.7713345231531,-4.2563232343054,1.9819935846231,4.5703148128496,-1.0179682045722,-4.5291880270158,1.8503023184797,1.8368175601472,0.02815445187493,-4.0747572921654,3.1680500610626,-2.3432972488289,1.1971975570395,1.0661387675563,-1.6979813186192,1.1361543688987,1.369971471885,-0.31044037274318,0.81044750371702,-4.0870604956587,-1.7223910705642,-3.3654207797118,5.3724887234866,-2.6922640257367,3.1489919600123,-0.41701241862245,-1.2921551148182,-6.8663480976195,1.0122318983426,-2.0207106559381,-3.3888773808233,1.3767208939032,3.4026325996734,-3.5864037222361,251.28254392645,251.28254392645,251.28254392645,251.28254392645,251.28254392645,251.28254392645,251.28254392645,251.28254392645,251.28254392645,251.28254392645,251.28254392645,251.28254392645,251.28254392645,251.28254392645,251.28254392645,251.28254392645,251.28254392645,251.28254392645,251.28254392645,251.28254392645,251.28254392645,251.28254392645,251.28254392645,251.28254392645,251.28254392645,251.28254392645,251.28254392645,251.28254392645,251.28254392645,251.28254392645,251.28254392645,251.28254392645,251.28254392645,251.28254392645,251.28254392645,251.28254392645,251.28254392645,251.28254392645,251.28254392645,251.28254392645,251.28254392645,251.28254392645,251.28254392645,251.28254392645,251.28254392645,251.28254392645,251.28254392645,251.28254392645,228.2620967746,498.25001941861,-0.89156795900784,439.2975126887,-0.9024304443786,0
0.0003434375,1263022767.2388,2.9849219830739e-05,0.0001017592062562,4.3212640319702e-05,1.0321204251345,0,0,0,0,0,0,0,0,0,0,0,0,0,0,0,0,0,0,0,0,0,0,0,0,0,0,0,0,0,0,0,0,0,0,0,0,0,0,0,0,0,0,0,0,0,0,0,0,-0.97906837890451,-0.073695585311029,-0.28712468338941,5.2202685371714,2.9847427705212,1.1020641165208,-3.2143816729067,1.5757588651752,2.7453616653854,-0.47986688748848,1.8599809193134,-5.4139591683087,1.4982719322049,-1.4016771052775,1.771843704616,-4.2555048158229,1.9812914833831,4.5695214451303,-1.0180094136715,-4.5288340571156,1.8507080525191,1.837461170155,0.028111600771008,-4.0752833410167,3.1684146541889,-2.3444574765487,1.1973575083401,1.0659615861168,-1.6973229831926,1.1357480727352,1.3695883527203,-0.31018101264859,0.81043198981949,-4.0862057715437,-1.7215845290103,-3.3649554495908,5.372744391594,-2.6914981820631,3.1489830861401,-0.41685680476758,-1.29191277226,-6.8657200201704,1.0124427787922,-2.0204625124325,-3.3887990285736,1.3773884342058,3.4018072738222,-3.5850632587304,251.51738624223,251.51738624223,251.51738624223,251.51738624223,251.51738624223,251.51738624223,251.51738624223,251.51738624223,251.51738624223,251.51738624223,251.51738624223,251.51738624223,251.51738624223,251.51738624223,251.51738624223,251.51738624223,251.51738624223,251.51738624223,251.51738624223,251.51738624223,251.51738624223,251.51738624223,251.51738624223,251.51738624223,251.51738624223,251.51738624223,251.51738624223,251.51738624223,251.51738624223,251.51738624223,251.51738624223,251.51738624223,251.51738624223,251.51738624223,251.51738624223,251.51738624223,251.51738624223,251.51738624223,251.51738624223,251.51738624223,251.51738624223,251.51738624223,251.51738624223,251.51738624223,251.51738624223,251.51738624223,251.51738624223,251.51738624223,228.25028722487,498.73415030143,-0.89429484213967,439.71361248784,-0.90516560849993,0
0.0003440625,1266643018,2.9900509271814e-05,0.00010194445025675,4.3291621390361e-05,1.0321803764474,0,0,0,0,0,0,0,0,0,0,0,0,0,0,0,0,0,0,0,0,0,0,0,0,0,0,0,0,0,0,0,0,0,0,0,0,0,0,0,0,0,0,0,0,0,0,0,0,-0.97907594451752,-0.072885728745515,-0.28650071667031,5.2200972516232,2.9844328146155,1.1017701889536,-3.213661595859,1.575585783022,2.7452379275328,-0.4797414356966,1.8601914571939,-5.4139392797561,1.4985793174164,-1.4009953332547,1.772351407625,-4.2546843511924,1.9805879769503,4.5687291298796,-1.0180510554461,-4.5284815553597,1.851113572568,1.8381045867366,0.028068935721082,-4.0758110551952,3.1687773716093,-2.3456161717536,1.1975162825168,1.0657850968973,-1.6966627036707,1.1353421716542,1.3692048795406,-0.30992055161866,0.81041638628858,-4.0853504280227,-1.7207786995987,-3.3644907080782,5.3729994503689,-2.690730641596,3.1489730022972,-0.41670150850631,-1.2916713546486,-6.8650905380177,1.0126515855344,-2.0202131499035,-3.3887224344156,1.3780551881502,3.4009825459392,-3.5837234776771,251.75220603974,251.75220603974,251.75220603974,251.75220603974,251.75220603974,251.75220603974,251.75220603974,251.75220603974,251.75220603974,251.75220603974,251.75220603974,251.75220603974,251.75220603974,251.75220603974,251.75220603974,251.75220603974,251.75220603974,251.75220603974,251.75220603974,251.75220603974,251.75220603974,251.75220603974,251.75220603974,251.75220603974,251.75220603974,251.75220603974,251.75220603974,251.75220603974,251.75220603974,251.75220603974,251.75220603974,251.75220603974,251.75220603974,251.75220603974,251.75220603974,251.75220603974,251.75220603974,251.75220603974,251.75220603974,251.75220603974,251.75220603974,251.75220603974,251.75220603974,251.75220603974,251.75220603974,251.75220603974,251.75220603974,251.75220603974,228.23847206981,499.21821697244,-0.89702532346162,440.12965713659,-0.90790434624144,0
0.0003446875,1270267524.3944,2.9951787775261e-05,0.00010212969430551,4.3370603150031e-05,1.0322403268526,0,0,0,0,0,0,0,0,0,0,0,0,0,0,0,0,0,0,0,0,0,0,0,0,0,0,0,0,0,0,0,0,0,0,0,0,0,0,0,0,0,0,0,0,0,0,0,0,-0.97908304708905,-0.072076545631736,-0.28588004682215,5.2199270083151,2.9841227716037,1.1014764981375,-3.2129412749209,1.5754135403411,2.7451136429166,-0.47961550230706,1.8604003456719,-5.4139180426915,1.4988870081279,-1.4003144894996,1.7728576287003,-4.253861844307,1.9798830725732,4.5679378779447,-1.0180931334615,-4.5281305097047,1.8515188850604,1.8387478131688,0.028026456124764,-4.0763404170281,3.1691382082707,-2.3467733417848,1.1976738811339,1.0656093040112,-1.6960004851081,1.1349366719055,1.3688210447936,-0.30965899244209,0.81040068255351,-4.0844944708903,-1.7199735904963,-3.3640265969907,5.3732538970364,-2.6899614198006,3.1489617156108,-0.41654653273131,-1.2914308668858,-6.8644596379461,1.0128583284857,-2.019962633438,-3.3886475894185,1.378721160873,3.4001584126488,-3.5823843699825,251.98700331314,251.98700331314,251.98700331314,251.98700331314,251.98700331314,251.98700331314,251.98700331314,251.98700331314,251.98700331314,251.98700331314,251.98700331314,251.98700331314,251.98700331314,251.98700331314,251.98700331314,251.98700331314,251.98700331314,251.98700331314,251.98700331314,251.98700331314,251.98700331314,251.98700331314,251.98700331314,251.98700331314,251.98700331314,251.98700331314,251.98700331314,251.98700331314,251.98700331314,251.98700331314,251.98700331314,251.98700331314,251.98700331314,251.98700331314,251.98700331314,251.98700331314,251.98700331314,251.98700331314,251.98700331314,251.98700331314,251.98700331314,251.98700331314,251.98700331314,251.98700331314,251.98700331314,251.98700331314,251.98700331314,251.98700331314,228.22665126999,499.70221944887,-0.89975940130622,440.54564663959,-0.91064665601793,0
0.0003453125,1273896283.8522,3.0003055351412e-05,0.00010231493840228,4.3449585587052e-05,1.0323002763501,0,0,0,0,0,0,0,0,0,0,0,0,0,0,0,0,0,0,0,0,0,0,0,0,0,0,0,0,0,0,0,0,0,0,0,0,0,0,0,0,0,0,0,0,0,0,0,0,-0.97908968823587,-0.071268039574654,-0.28526266036043,5.2197578011191,2.9838126484011,1.1011830451267,-3.2122207027845,1.575242141185,2.7449888084717,-0.47948908569945,1.8606075809846,-5.4138954667571,1.4991950002019,-1.3996345863511,1.7733623643113,-4.2530372990234,1.9791767781697,4.5671477005568,-1.0181356507239,-4.5277809081169,1.8519239943674,1.8393908526574,0.027984161807378,-4.0768714095206,3.1694971589734,-2.3479289940789,1.1978303059879,1.0654342115243,-1.6953363340625,1.134531579227,1.368436840977,-0.30939633812424,0.81038486833865,-4.0836379062892,-1.7191692102458,-3.3635631580876,5.3735077284957,-2.6891905322868,3.1489492337947,-0.41639188010256,-1.2911913136079,-6.8638273073059,1.0130630178439,-2.0197110311253,-3.3885744845517,1.3793863577922,3.3993348722033,-3.5810459269694,252.22177805652,252.22177805652,252.22177805652,252.22177805652,252.22177805652,252.22177805652,252.22177805652,252.22177805652,252.22177805652,252.22177805652,252.22177805652,252.22177805652,252.22177805652,252.22177805652,252.22177805652,252.22177805652,252.22177805652,252.22177805652,252.22177805652,252.22177805652,252.22177805652,252.22177805652,252.22177805652,252.22177805652,252.22177805652,252.22177805652,252.22177805652,252.22177805652,252.22177805652,252.22177805652,252.22177805652,252.22177805652,252.22177805652,252.22177805652,252.22177805652,252.22177805652,252.22177805652,252.22177805652,252.22177805652,252.22177805652,252.22177805652,252.22177805652,252.22177805652,252.22177805652,252.22177805652,252.22177805652,252.22177805652,252.22177805652,228.21482478005,500.18615774969,-0.90249707399333,440.96158100213,-0.91339253622012,0
0.0003459375,1277529293.8149,3.0054312010578e-05,0.0001025001825469,4.3528568689514e-05,1.03236022494,0,0,0,0,0,0,0,0,0,0,0,0,0,0,0,0,0,0,0,0,0,0,0,0,0,0,0,0,0,0,0,0,0,0,0,0,0,0,0,0,0,0,0,0,0,0,0,0,-0.97909586963603,-0.070460214139805,-0.28464854530637,5.2195896238666,2.983502452097,1.1008898314531,-3.2114998724735,1.5750715886201,2.7448634212379,-0.47936218437628,1.8608131596165,-5.4138715618046,1.4995032893225,-1.3989556357923,1.773865610886,-4.2522107191704,1.9784691023237,4.5663586092613,-1.018178609691,-4.5274327385997,1.8523289028036,1.8400337083359,0.027942053005557,-4.0774040163442,3.1698542184588,-2.3490831361563,1.1979855590958,1.0652598234299,-1.6946702585757,1.1341268988539,1.3680522606496,-0.3091325918774,0.81036893373605,-4.0827807407006,-1.7183655677513,-3.3631004329709,5.3737609413287,-2.688417994805,3.1489355651397,-0.41623755304503,-1.2909526991794,-6.8631935340074,1.0132656640949,-2.0194584138341,-3.3885031106831,1.3800507846175,3.3985119244345,-3.5797081403723,252.45653026395,252.45653026395,252.45653026395,252.45653026395,252.45653026395,252.45653026395,252.45653026395,252.45653026395,252.45653026395,252.45653026395,252.45653026395,252.45653026395,252.45653026395,252.45653026395,252.45653026395,252.45653026395,252.45653026395,252.45653026395,252.45653026395,252.45653026395,252.45653026395,252.45653026395,252.45653026395,252.45653026395,252.45653026395,252.45653026395,252.45653026395,252.45653026395,252.45653026395,252.45653026395,252.45653026395,252.45653026395,252.45653026395,252.45653026395,252.45653026395,252.45653026395,252.45653026395,252.45653026395,252.45653026395,252.45653026395,252.45653026395,252.45653026395,252.45653026395,252.45653026395,252.45653026395,252.45653026395,252.45653026395,252.45653026395,228.20299254912,500.67003189571,-0.90523833987518,441.37746023002,-0.91614198529856,0
0.0003465625,1281166551.7345,3.0105557763054e-05,0.00010268542673918,4.3607552445233e-05,1.0324201726223,0,0,0,0,0,0,0,0,0,0,0,0,0,0,0,0,0,0,0,0,0,0,0,0,0,0,0,0,0,0,0,0,0,0,0,0,0,0,0,0,0,0,0,0,0,0,0,0,-0.97910159302781,-0.069653072843143,-0.2840376911403,5.2194224703657,2.9831921899282,1.1005968591045,-3.2107787773828,1.5749018847232,2.7447374783388,-0.47923479696778,1.8610170783515,-5.4138463378823,1.4998118710172,-1.3982776494385,1.7743673648213,-4.2513821085614,1.977760054266,4.5655706158602,-1.0182220122806,-4.5270859892499,1.8527336106349,1.8406763832346,0.027900130346965,-4.0779382218546,3.1702093814437,-2.3502357756133,1.1981396426988,1.0650861436242,-1.694002268161,1.1337226355215,1.3676672964296,-0.30886775711117,0.81035286926321,-4.0819229809315,-1.7175626722457,-3.3626384629767,5.37401353184,-2.6876438232321,3.1489207184625,-0.41608355376169,-1.2907150276916,-6.8625583065413,1.0134662780254,-2.0192048549776,-3.3884334586205,1.3807144473351,3.3976895707056,-3.5783710023442,252.69125992941,252.69125992941,252.69125992941,252.69125992941,252.69125992941,252.69125992941,252.69125992941,252.69125992941,252.69125992941,252.69125992941,252.69125992941,252.69125992941,252.69125992941,252.69125992941,252.69125992941,252.69125992941,252.69125992941,252.69125992941,252.69125992941,252.69125992941,252.69125992941,252.69125992941,252.69125992941,252.69125992941,252.69125992941,252.69125992941,252.69125992941,252.69125992941,252.69125992941,252.69125992941,252.69125992941,252.69125992941,252.69125992941,252.69125992941,252.69125992941,252.69125992941,252.69125992941,252.69125992941,252.69125992941,252.69125992941,252.69125992941,252.69125992941,252.69125992941,252.69125992941,252.69125992941,252.69125992941,252.69125992941,252.69125992941,228.19115452122,501.15384190959,-0.90798319730604,441.79328432972,-0.91889500167151,0
0.0003471875,1284808055.0718,3.0156792619147e-05,0.00010287067097895,4.3686536841879e-05,1.0324801193972,0,0,0,0,0,0,0,0,0,0,0,0,0,0,0,0,0,0,0,0,0,0,0,0,0,0,0,0,0,0,0,0,0,0,0,0,0,0,0,0,0,0,0,0,0,0,0,0,-0.97910686021187,-0.068846619129993,-0.2834300887763,5.2192563344265,2.9828818692379,1.1003041304984,-3.2100574113089,1.5747330305845,2.744610977017,-0.4791069222318,1.8612193343377,-5.4138198052015,1.5001207406754,-1.3976006385204,1.7748676224948,-4.2505514709956,1.9770496438799,4.5647837323535,-1.0182658598926,-4.5267406482955,1.8531381160974,1.8413188803002,0.027858394836256,-4.0784740110734,3.1705626426913,-2.3513869200938,1.198292559249,1.0649131758828,-1.6933323737867,1.1333187934743,1.3672819410311,-0.30860183742101,0.81033666591918,-4.0810646340966,-1.7167605332823,-3.362177289073,5.3742654960678,-2.6868680335712,3.1489047031021,-0.41592988423533,-1.2904783029519,-6.8619216139548,1.0136648707344,-2.0189504302745,-3.3883655191166,1.3813773522154,3.3968678138751,-3.5770345054525,252.92596704685,252.92596704685,252.92596704685,252.92596704685,252.92596704685,252.92596704685,252.92596704685,252.92596704685,252.92596704685,252.92596704685,252.92596704685,252.92596704685,252.92596704685,252.92596704685,252.92596704685,252.92596704685,252.92596704685,252.92596704685,252.92596704685,252.92596704685,252.92596704685,252.92596704685,252.92596704685,252.92596704685,252.92596704685,252.92596704685,252.92596704685,252.92596704685,252.92596704685,252.92596704685,252.92596704685,252.92596704685,252.92596704685,252.92596704685,252.92596704685,252.92596704685,252.92596704685,252.92596704685,252.92596704685,252.92596704685,252.92596704685,252.92596704685,252.92596704685,252.92596704685,252.92596704685,252.92596704685,252.92596704685,252.92596704685,228.17931063558,501.63758781589,-0.91073164463335,442.20905330822,-0.92165158378488,0
0.0003478125,1288453801.2962,3.0208016589164e-05,0.00010305591526603,4.3765521866807e-05,1.0325400652646,0,0,0,0,0,0,0,0,0,0,0,0,0,0,0,0,0,0,0,0,0,0,0,0,0,0,0,0,0,0,0,0,0,0,0,0,0,0,0,0,0,0,0,0,0,0,0,0,-0.97911167304863,-0.068040856366738,-0.28282573051178,5.2190912098644,2.9825714974356,1.1000116484657,-3.2093357684664,1.5745650263132,2.7444839145755,-0.4789785590563,1.8614199251321,-5.4137919741418,1.5004298935687,-1.3969246138723,1.775366380279,-4.2497188102879,1.9763378816706,4.5639979708704,-1.0183101534122,-4.5263967041259,1.8535424154206,1.8419612023458,0.027816847834989,-4.0790113697095,3.1709139970492,-2.3525365772995,1.1984443114022,1.0647409238418,-1.6926605878349,1.1329153764747,1.3668961872289,-0.30833483657799,0.81032031523074,-4.0802057076141,-1.7159591607009,-3.3617169517625,5.3745168298203,-2.6860906419405,3.1488875288691,-0.41577654623587,-1.2902425284804,-6.8612834458968,1.0138614536347,-2.0186952174934,-3.3882992828981,1.3820395057992,3.3960466582414,-3.5756986426764,253.16065161014,253.16065161014,253.16065161014,253.16065161014,253.16065161014,253.16065161014,253.16065161014,253.16065161014,253.16065161014,253.16065161014,253.16065161014,253.16065161014,253.16065161014,253.16065161014,253.16065161014,253.16065161014,253.16065161014,253.16065161014,253.16065161014,253.16065161014,253.16065161014,253.16065161014,253.16065161014,253.16065161014,253.16065161014,253.16065161014,253.16065161014,253.16065161014,253.16065161014,253.16065161014,253.16065161014,253.16065161014,253.16065161014,253.16065161014,253.16065161014,253.16065161014,253.16065161014,253.16065161014,253.16065161014,253.16065161014,253.16065161014,253.16065161014,253.16065161014,253.16065161014,253.16065161014,253.16065161014,253.16065161014,253.16065161014,228.16746082715,502.1212696411,-0.9134836802447,442.6247671731,-0.92441173010583,0
0.0003484375,1292103787.8842,3.0259229683455e-05,0.00010324115960025,4.3844507507289e-05,1.0326000102246,0,0,0,0,0,0,0,0,0,0,0,0,0,0,0,0,0,0,0,0,0,0,0,0,0,0,0,0,0,0,0,0,0,0,0,0,0,0,0,0,0,0,0,0,0,0,0,0,-0.9791160334601,-0.067235787824221,-0.2822246099894,5.2189270905148,2.9822610819691,1.0997194162317,-3.2086138435233,1.5743978710404,2.7443562884376,-0.47884970646026,1.8616188487513,-5.413762855214,1.5007393248689,-1.3962495859248,1.7758636345434,-4.2488841302505,1.9756247787717,4.5632133436214,-1.0183548932183,-4.5260541453402,1.8539465028572,1.8426033520842,0.027775491042858,-4.0795502841304,3.1712634395124,-2.3536847549652,1.1985949020122,1.0645693909778,-1.6919869240812,1.1325123878076,1.3665100279181,-0.30806675851742,0.81030380929229,-4.0793462091835,-1.7151585646156,-3.3612574909862,5.37476752869,-2.6853116645643,3.1488692060381,-0.41562354133157,-1.2900077075116,-6.860643792565,1.0140560384699,-2.0184392962074,-3.3882347406813,1.3827009149046,3.3952261094958,-3.5743634073886,253.39531361307,253.39531361307,253.39531361307,253.39531361307,253.39531361307,253.39531361307,253.39531361307,253.39531361307,253.39531361307,253.39531361307,253.39531361307,253.39531361307,253.39531361307,253.39531361307,253.39531361307,253.39531361307,253.39531361307,253.39531361307,253.39531361307,253.39531361307,253.39531361307,253.39531361307,253.39531361307,253.39531361307,253.39531361307,253.39531361307,253.39531361307,253.39531361307,253.39531361307,253.39531361307,253.39531361307,253.39531361307,253.39531361307,253.39531361307,253.39531361307,253.39531361307,253.39531361307,253.39531361307,253.39531361307,253.39531361307,253.39531361307,253.39531361307,253.39531361307,253.39531361307,253.39531361307,253.39531361307,253.39531361307,253.39531361307,228.15560502684,502.60488741364,-0.91623930252113,443.04042593246,-0.92717543910086,0
0.0003490625,1295758012.3186,3.0310431912395e-05,0.00010342640398142,4.3923493750331e-05,1.0326599542774,0,0,0,0,0,0,0,0,0,0,0,0,0,0,0,0,0,0,0,0,0,0,0,0,0,0,0,0,0,0,0,0,0,0,0,0,0,0,0,0,0,0,0,0,0,0,0,0,-0.9791199434283,-0.066431416669075,-0.28162672213742,5.2187639702576,2.9819506302811,1.0994274373949,-3.2078916316212,1.5742315629316,2.7442280960821,-0.47872036359514,1.8618161037014,-5.4137324590572,1.5010490296663,-1.3955755646717,1.7763593816842,-4.2480474347346,1.9749103469096,4.5624298628367,-1.0184000792043,-4.5257129607807,1.8543503707185,1.8432453320745,0.027734326478463,-4.080090741388,3.1716109652511,-2.3548314608569,1.1987443341177,1.0643985805933,-1.6913113976492,1.1321098302918,1.3661234560704,-0.30779760732684,0.81028714079698,-4.0784861467758,-1.7143587553884,-3.3607989459996,5.3750175881029,-2.6845311177724,3.1488497452985,-0.41547087088664,-1.2897738429833,-6.8600026447627,1.0142486373076,-2.0181827475111,-3.3881718832023,1.3833615866107,3.3944061746758,-3.5730287933711,253.62995304939,253.62995304939,253.62995304939,253.62995304939,253.62995304939,253.62995304939,253.62995304939,253.62995304939,253.62995304939,253.62995304939,253.62995304939,253.62995304939,253.62995304939,253.62995304939,253.62995304939,253.62995304939,253.62995304939,253.62995304939,253.62995304939,253.62995304939,253.62995304939,253.62995304939,253.62995304939,253.62995304939,253.62995304939,253.62995304939,253.62995304939,253.62995304939,253.62995304939,253.62995304939,253.62995304939,253.62995304939,253.62995304939,253.62995304939,253.62995304939,253.62995304939,253.62995304939,253.62995304939,253.62995304939,253.62995304939,253.62995304939,253.62995304939,253.62995304939,253.62995304939,253.62995304939,253.62995304939,253.62995304939,253.62995304939,228.14374316211,503.08844116391,-0.91899850983863,443.456029595,-0.92994270923212,0
0.0003496875,1299416472.0876,3.0361623286406e-05,0.00010361164840938,4.4002480582775e-05,1.0327198974229,0,0,0,0,0,0,0,0,0,0,0,0,0,0,0,0,0,0,0,0,0,0,0,0,0,0,0,0,0,0,0,0,0,0,0,0,0,0,0,0,0,0,0,0,0,0,0,0,-0.97912340499587,-0.065627745945971,-0.28103206311284,5.2186018430129,2.9816401497876,1.0991357159065,-3.2071691283952,1.5740660992036,2.7440993350782,-0.47859052974862,1.8620116890075,-5.4137007964192,1.5013590029807,-1.3949025596789,1.77685361812,-4.2472087276217,1.9741945984103,4.561647540723,-1.0184457107779,-4.5253731395655,1.8547540094229,1.8438871447398,0.027693356456818,-4.0806327291954,3.1719565696527,-2.3559767027655,1.1988926109391,1.0642284957962,-1.6906340249661,1.1317077062931,1.3657364647751,-0.30752738723792,0.81027030305917,-4.0776255286193,-1.713559743609,-3.360341355304,5.3752670033234,-2.6837490179864,3.148829157749,-0.4153185360774,-1.2895409375387,-6.8593599938653,1.0144392625572,-2.017925653769,-3.3881107012266,1.3840215282602,3.3935868621114,-3.5716947947823,253.86456991274,253.86456991274,253.86456991274,253.86456991274,253.86456991274,253.86456991274,253.86456991274,253.86456991274,253.86456991274,253.86456991274,253.86456991274,253.86456991274,253.86456991274,253.86456991274,253.86456991274,253.86456991274,253.86456991274,253.86456991274,253.86456991274,253.86456991274,253.86456991274,253.86456991274,253.86456991274,253.86456991274,253.86456991274,253.86456991274,253.86456991274,253.86456991274,253.86456991274,253.86456991274,253.86456991274,253.86456991274,253.86456991274,253.86456991274,253.86456991274,253.86456991274,253.86456991274,253.86456991274,253.86456991274,253.86456991274,253.86456991274,253.86456991274,253.86456991274,253.86456991274,253.86456991274,253.86456991274,253.86456991274,253.86456991274,228.13187515731,503.57193092425,-0.92176130060884,443.8715781699,-0.93271353900507,0
0.0003503125,1303079164.6841,3.041280381598e-05,0.00010379689288395,4.4081467991355e-05,1.0327798396613,0,0,0,0,0,0,0,0,0,0,0,0,0,0,0,0,0,0,0,0,0,0,0,0,0,0,0,0,0,0,0,0,0,0,0,0,0,0,0,0,0,0,0,0,0,0,0,0,-0.97912642026235,-0.064824778568436,-0.28044063024633,5.2184407027653,2.9813296478331,1.0988442560589,-3.2064463299972,1.5739014761297,2.7439700030879,-0.47846020434355,1.862205604244,-5.41366787813,1.5016692397791,-1.3942305800571,1.7773463403197,-4.2463680128378,1.9734775461596,4.5608663894003,-1.0184917868722,-4.5250346711274,1.8551574075357,1.8445287923634,0.027652583570854,-4.0811762359238,3.1723002483654,-2.3571204884868,1.1990397358627,1.0640591394917,-1.6899548237175,1.1313060177248,1.3653490472485,-0.30725610261322,0.81025329003546,-4.0767643631769,-1.7127615400716,-3.3598847565318,5.3755157695032,-2.6829653817148,3.1488074548434,-0.41516653789133,-1.2893089935189,-6.8587158318226,1.0146279269618,-2.017668098337,-3.388051185582,1.3846807474462,3.3927681813698,-3.5703614061523,254.0991641967,254.0991641967,254.0991641967,254.0991641967,254.0991641967,254.0991641967,254.0991641967,254.0991641967,254.0991641967,254.0991641967,254.0991641967,254.0991641967,254.0991641967,254.0991641967,254.0991641967,254.0991641967,254.0991641967,254.0991641967,254.0991641967,254.0991641967,254.0991641967,254.0991641967,254.0991641967,254.0991641967,254.0991641967,254.0991641967,254.0991641967,254.0991641967,254.0991641967,254.0991641967,254.0991641967,254.0991641967,254.0991641967,254.0991641967,254.0991641967,254.0991641967,254.0991641967,254.0991641967,254.0991641967,254.0991641967,254.0991641967,254.0991641967,254.0991641967,254.0991641967,254.0991641967,254.0991641967,254.0991641967,254.0991641967,228.12000093421,504.05535672896,-0.92452767325145,444.28707166688,-0.93548792691904,0
0.0003509375,1306746087.6048,3.046397351165e-05,0.00010398213740495,4.4160455962503e-05,1.0328397809926,0,0,0,0,0,0,0,0,0,0,0,0,0,0,0,0,0,0,0,0,0,0,0,0,0,0,0,0,0,0,0,0,0,0,0,0,0,0,0,0,0,0,0,0,0,0,0,0,-0.97912899138443,-0.0640225173135,-0.27985242197407,5.2182805435561,2.9810191316624,1.098553062464,-3.2057232331011,1.5737376890663,2.7438400977949,-0.47832938694207,1.8623978495384,-5.4136337151072,1.501979734984,-1.3935596344606,1.7778375448052,-4.2455252943733,1.9727592035954,4.560086420865,-1.0185383059558,-4.5246975452254,1.8555605518294,1.8451702770326,0.027612010669817,-4.0817212506027,3.1726419973142,-2.3582628258371,1.1991857124288,1.0638905143674,-1.6892738127888,1.1309047660669,1.3649611967861,-0.3069837579384,0.81023609632744,-4.0759026591432,-1.711964155758,-3.3594291863702,5.3757638816927,-2.6821802255478,3.148784648376,-0.41501487713883,-1.2890780129639,-6.8580701511765,1.014814643605,-2.0174101652996,-3.3879933271674,1.3853392520077,3.3919501432144,-3.5690286223769,254.33373589476,254.33373589476,254.33373589476,254.33373589476,254.33373589476,254.33373589476,254.33373589476,254.33373589476,254.33373589476,254.33373589476,254.33373589476,254.33373589476,254.33373589476,254.33373589476,254.33373589476,254.33373589476,254.33373589476,254.33373589476,254.33373589476,254.33373589476,254.33373589476,254.33373589476,254.33373589476,254.33373589476,254.33373589476,254.33373589476,254.33373589476,254.33373589476,254.33373589476,254.33373589476,254.33373589476,254.33373589476,254.33373589476,254.33373589476,254.33373589476,254.33373589476,254.33373589476,254.33373589476,254.33373589476,254.33373589476,254.33373589476,254.33373589476,254.33373589476,254.33373589476,254.33373589476,254.33373589476,254.33373589476,254.33373589476,228.10812041229,504.53871861429,-0.92729762619042,444.70251009612,-0.9382658714918,0
0.0003515625,1310417238.3495,3.0515132384039e-05,0.00010416738197221,4.423944448258e-05,1.0328997214168,0,0,0,0,0,0,0,0,0,0,0,0,0,0,0,0,0,0,0,0,0,0,0,0,0,0,0,0,0,0,0,0,0,0,0,0,0,0,0,0,0,0,0,0,0,0,0,0,-0.97913112057602,-0.063220964800395,-0.27926743777609,5.2181213595027,2.9807086083948,1.0982621400341,-3.2049998349377,1.5735747324653,2.7437096170001,-0.47819807724654,1.8625884255936,-5.413598318324,1.5022904834871,-1.3928897310678,1.7783272281704,-4.2446805762775,1.972039584697,4.5593076469395,-1.0185852660436,-4.5243617519979,1.8559634273382,1.8458116007004,0.02757164083624,-4.0822677628941,3.1729818127441,-2.3594037226282,1.1993305443266,1.0637226228797,-1.688591012221,1.1305039523692,1.3645729068501,-0.30671035781215,0.81021871719167,-4.0750404254204,-1.7111676018119,-3.3589746804632,5.3760113348881,-2.6813935661473,3.1487607504579,-0.41486355445777,-1.2888479976117,-6.8574229450246,1.0149994259175,-2.0171519392029,-3.3879371169902,1.3859970500227,3.3911327595362,-3.5676964386938,254.56828500034,254.56828500034,254.56828500034,254.56828500034,254.56828500034,254.56828500034,254.56828500034,254.56828500034,254.56828500034,254.56828500034,254.56828500034,254.56828500034,254.56828500034,254.56828500034,254.56828500034,254.56828500034,254.56828500034,254.56828500034,254.56828500034,254.56828500034,254.56828500034,254.56828500034,254.56828500034,254.56828500034,254.56828500034,254.56828500034,254.56828500034,254.56828500034,254.56828500034,254.56828500034,254.56828500034,254.56828500034,254.56828500034,254.56828500034,254.56828500034,254.56828500034,254.56828500034,254.56828500034,254.56828500034,254.56828500034,254.56828500034,254.56828500034,254.56828500034,254.56828500034,254.56828500034,254.56828500034,254.56828500034,254.56828500034,228.0962335091,505.02201661839,-0.93007115785733,445.11789346833,-0.94104737124556,0
0.0003528125,1317767990.4908,3.0619673883725e-05,0.00010453786829888,4.4415238423573e-05,1.0330206362479,0,0,0,0,0,0,0,0,0,0,0,0,0,0,0,0,0,0,0,0,0,0,0,0,0,0,0,0,0,0,0,0,0,0,0,0,0,0,0,0,0,0,0,0,0,0,0,0,-0.98995432103285,-0.068306858671181,-0.28057201958346,5.260765095257,3.0048847553936,1.1104290808265,-3.2324498238653,1.5888042434246,2.770520552692,-0.48358472494599,1.8815911484143,-5.4592315835498,1.5176831774333,-1.3973752624691,1.7899918856108,-4.2784912594359,1.9866091584405,4.5933958774248,-1.0217749805363,-4.5629661158211,1.8746113570824,1.8680973374363,0.026165860723165,-4.1128263245046,3.2044502270224,-2.3805326843673,1.2100970592517,1.0748976408003,-1.7018922710086,1.1416560121921,1.3752558420219,-0.31109982096017,0.81847793471862,-4.10979275101,-1.7259972018678,-3.3781833355292,5.4159638443872,-2.7046298988397,3.1737759850993,-0.41624474984357,-1.3026470729947,-6.9103711612449,1.022213182668,-2.0283248862234,-3.4123536207166,1.3964349968668,3.4146461077914,-3.5880997392311,255.03700272232,255.03700272232,255.03700272232,255.03700272232,255.03700272232,255.03700272232,255.03700272232,255.03700272232,255.03700272232,255.03700272232,255.03700272232,255.03700272232,255.03700272232,255.03700272232,255.03700272232,255.03700272232,255.03700272232,255.03700272232,255.03700272232,255.03700272232,255.03700272232,255.03700272232,255.03700272232,255.03700272232,255.03700272232,255.03700272232,255.03700272232,255.03700272232,255.03700272232,255.03700272232,255.03700272232,255.03700272232,255.03700272232,255.03700272232,255.03700272232,255.03700272232,255.03700272232,255.03700272232,255.03700272232,255.03700272232,255.03700272232,255.03700272232,255.03700272232,255.03700272232,255.03700272232,255.03700272232,255.03700272232,255.03700272232,228.08434014091,505.78157889761,-0.93560113388027,445.73668637111,-0.94658580765551,0
0.0003534375,1321484706.3373,3.0670674814328e-05,0.00010472311320585,4.4493866205943e-05,1.033080200957,0,0,0,0,0,0,0,0,0,0,0,0,0,0,0,0,0,0,0,0,0,0,0,0,0,0,0,0,0,0,0,0,0,0,0,0,0,0,0,0,0,0,0,0,0,0,0,0,-0.97369063771295,-0.062372337967407,-0.27308548307297,5.185793514482,2.9614486476967,1.0903901319641,-3.1823435519679,1.5637593560572,2.7255706230759,-0.4754834065228,1.8515985088044,-5.3766078067536,1.4945784171959,-1.3820296611943,1.7682248883823,-4.2139348696029,1.9594374725889,4.5277341688723,-1.012189217522,-4.4947255729566,1.8468166023117,1.8353595650391,0.026709946462555,-4.0549100772991,3.1532778319859,-2.3446768436211,1.1928965289206,1.0567788057978,-1.6750909601276,1.1223942177812,1.3540800861483,-0.30506963388319,0.80545357029401,-4.0458066103096,-1.6980993081972,-3.3356539264332,5.3429137956689,-2.6621422342615,3.1303256826834,-0.41218241363602,-1.2807491288076,-6.8088447410336,1.0099585059763,-2.0016023902283,-3.3668625400042,1.3787478958433,3.3663881555673,-3.5413722711746,255.27365842749,255.27365842749,255.27365842749,255.27365842749,255.27365842749,255.27365842749,255.27365842749,255.27365842749,255.27365842749,255.27365842749,255.27365842749,255.27365842749,255.27365842749,255.27365842749,255.27365842749,255.27365842749,255.27365842749,255.27365842749,255.27365842749,255.27365842749,255.27365842749,255.27365842749,255.27365842749,255.27365842749,255.27365842749,255.27365842749,255.27365842749,255.27365842749,255.27365842749,255.27365842749,255.27365842749,255.27365842749,255.27365842749,255.27365842749,255.27365842749,255.27365842749,255.27365842749,255.27365842749,255.27365842749,255.27365842749,255.27365842749,255.27365842749,255.27365842749,255.27365842749,255.27365842749,255.27365842749,255.27365842749,255.27365842749,230.11404898017,506.33655751556,-0.93838639598377,446.22796759101,-0.94937995434894,0
0.0003540625,1325143687.8593,3.0721714257781e-05,0.00010490835812924,4.4572629602736e-05,1.0331398940033,0,0,0,0,0,0,0,0,0,0,0,0,0,0,0,0,0,0,0,0,0,0,0,0,0,0,0,0,0,0,0,0,0,0,0,0,0,0,0,0,0,0,0,0,0,0,0,0,-0.975250175584,-0.060605330854527,-0.27390535580567,5.1966369910141,2.9676589746759,1.0918896157861,-3.1884476522514,1.5665599711052,2.7315520072423,-0.47594235471553,1.8555034451842,-5.3908714857178,1.497351597297,-1.3847619318265,1.7739066883967,-4.2232231139562,1.9618809913821,4.5375209617053,-1.0153290257166,-4.504166646601,1.8507207176709,1.8400736150322,0.027131683369753,-4.0663226921777,3.160499901467,-2.3535127581058,1.1954780061261,1.0584038692825,-1.6782274831677,1.1239737999417,1.3571486333955,-0.30476632281447,0.80683339320531,-4.0548329390421,-1.7007139629638,-3.3431672523288,5.3565020257827,-2.6670282427942,3.1363470762858,-0.41285991101694,-1.2821532563128,-6.8253011732989,1.0117954925333,-2.0067372123862,-3.3751612107526,1.3828051141193,3.3737324440438,-3.548518595518,255.50664926339,255.50664926339,255.50664926339,255.50664926339,255.50664926339,255.50664926339,255.50664926339,255.50664926339,255.50664926339,255.50664926339,255.50664926339,255.50664926339,255.50664926339,255.50664926339,255.50664926339,255.50664926339,255.50664926339,255.50664926339,255.50664926339,255.50664926339,255.50664926339,255.50664926339,255.50664926339,255.50664926339,255.50664926339,255.50664926339,255.50664926339,255.50664926339,255.50664926339,255.50664926339,255.50664926339,255.50664926339,255.50664926339,255.50664926339,255.50664926339,255.50664926339,255.50664926339,255.50664926339,255.50664926339,255.50664926339,255.50664926339,255.50664926339,255.50664926339,255.50664926339,255.50664926339,255.50664926339,255.50664926339,255.50664926339,226.66249351062,506.86683080148,-0.94117535987389,446.69274552783,-0.95217801680371,0
0.0003553125,1332491022.2176,3.0826114477073e-05,0.00010527884500036,4.4748288078756e-05,1.0332605765178,0,0,0,0,0,0,0,0,0,0,0,0,0,0,0,0,0,0,0,0,0,0,0,0,0,0,0,0,0,0,0,0,0,0,0,0,0,0,0,0,0,0,0,0,0,0,0,0,-0.98784511735218,-0.064732976621822,-0.27695653653138,5.2504931726839,2.9982705194181,1.1063616965806,-3.2229853145845,1.5849692580619,2.7646442402648,-0.48204088959556,1.8785278670674,-5.4495615474749,1.5156832836056,-1.3926114504784,1.7898926479545,-4.2670986865335,1.9800143558531,4.5819897376945,-1.0210012593462,-4.5527714899002,1.8729369128081,1.8667452036367,0.026082974274327,-4.107494190939,3.1993361387049,-2.3811723978015,1.2086275561436,1.0717091778887,-1.6955198650124,1.1374163987409,1.3712433658944,-0.30928627741804,0.81667729682981,-4.0988836512077,-1.7192147591984,-3.3704812413764,5.4086604031658,-2.6961403461899,3.1678040000389,-0.4151053828737,-1.2983643232527,-6.8950601445493,1.021039815984,-2.0234338292179,-3.4071197383995,1.3966738152707,3.4052443921902,-3.5768653316128,255.97324944171,255.97324944171,255.97324944171,255.97324944171,255.97324944171,255.97324944171,255.97324944171,255.97324944171,255.97324944171,255.97324944171,255.97324944171,255.97324944171,255.97324944171,255.97324944171,255.97324944171,255.97324944171,255.97324944171,255.97324944171,255.97324944171,255.97324944171,255.97324944171,255.97324944171,255.97324944171,255.97324944171,255.97324944171,255.97324944171,255.97324944171,255.97324944171,255.97324944171,255.97324944171,255.97324944171,255.97324944171,255.97324944171,255.97324944171,255.97324944171,255.97324944171,255.97324944171,255.97324944171,255.97324944171,255.97324944171,255.97324944171,255.97324944171,255.97324944171,255.97324944171,255.97324944171,255.97324944171,255.97324944171,255.97324944171,227.11993815791,507.67014662738,-0.94673669249451,447.35688039001,-0.95774918391144,0
0.0003559375,1336216437.1018,3.0877057608989e-05,0.00010546409011855,4.4826866345874e-05,1.0333200746927,0,0,0,0,0,0,0,0,0,0,0,0,0,0,0,0,0,0,0,0,0,0,0,0,0,0,0,0,0,0,0,0,0,0,0,0,0,0,0,0,0,0,0,0,0,0,0,0,-0.97234851191128,-0.05868057315681,-0.27022418396751,5.1797537857082,2.9572333522593,1.0873935186003,-3.1756833334458,1.5612272450358,2.7221135560866,-0.47428088351697,1.8501490767161,-5.3715274556903,1.4938022290924,-1.3784545972599,1.7693938123641,-4.2063199771578,1.9543356727403,4.5201381207859,-1.0121002694905,-4.4883677106881,1.846510000818,1.8357117180247,0.026698014974667,-4.0532975889335,3.151059326426,-2.347371037717,1.1923070689078,1.054529452264,-1.6703137067477,1.1191731687382,1.3513258160673,-0.30341817413329,0.80432386123605,-4.0383478529729,-1.6928539711341,-3.330888853298,5.3397333657824,-2.6559995041072,3.1268520720491,-0.41134861543064,-1.2776362369401,-6.7996642306187,1.009563698514,-1.9987110892129,-3.3641528864255,1.3801686975148,3.3598874239898,-3.5329832973304,256.20935483205,256.20935483205,256.20935483205,256.20935483205,256.20935483205,256.20935483205,256.20935483205,256.20935483205,256.20935483205,256.20935483205,256.20935483205,256.20935483205,256.20935483205,256.20935483205,256.20935483205,256.20935483205,256.20935483205,256.20935483205,256.20935483205,256.20935483205,256.20935483205,256.20935483205,256.20935483205,256.20935483205,256.20935483205,256.20935483205,256.20935483205,256.20935483205,256.20935483205,256.20935483205,256.20935483205,256.20935483205,256.20935483205,256.20935483205,256.20935483205,256.20935483205,256.20935483205,256.20935483205,256.20935483205,256.20935483205,256.20935483205,256.20935483205,256.20935483205,256.20935483205,256.20935483205,256.20935483205,256.20935483205,256.20935483205,229.63204639308,508.23736943727,-0.94953748673528,447.86070296498,-0.9605593459599,0
0.0003571875,1343558934.9506,3.09813420375e-05,0.00010583457743036,4.5002393483904e-05,1.0334405547434,0,0,0,0,0,0,0,0,0,0,0,0,0,0,0,0,0,0,0,0,0,0,0,0,0,0,0,0,0,0,0,0,0,0,0,0,0,0,0,0,0,0,0,0,0,0,0,0,-0.98608105643422,-0.062013530647032,-0.27428585326114,5.2416270417463,2.9925508779562,1.1031895006341,-3.2151553266899,1.581780296738,2.7595405004949,-0.48080631315965,1.8758442134291,-5.440442692733,1.5139822467125,-1.3888092199744,1.7890834338649,-4.2574648132303,1.9748170262996,4.5722566539923,-1.0200147498586,-4.5440661494661,1.8712483093141,1.8652573329316,0.025980205035087,-4.1023589450768,3.1948321962794,-2.3805318113456,1.2072078405346,1.0691584340508,-1.6903621105172,1.1340567186277,1.3678674707212,-0.30790895402466,0.81518720126215,-4.0894499654091,-1.713804543053,-3.364083529855,5.4014910031098,-2.689172297145,3.1627631309735,-0.41420948076158,-1.2951079676612,-6.8817452414651,1.0200981498455,-2.0193806975952,-3.402112128177,1.3965416837258,3.3973083559118,-3.5675035437462,256.67430389584,256.67430389584,256.67430389584,256.67430389584,256.67430389584,256.67430389584,256.67430389584,256.67430389584,256.67430389584,256.67430389584,256.67430389584,256.67430389584,256.67430389584,256.67430389584,256.67430389584,256.67430389584,256.67430389584,256.67430389584,256.67430389584,256.67430389584,256.67430389584,256.67430389584,256.67430389584,256.67430389584,256.67430389584,256.67430389584,256.67430389584,256.67430389584,256.67430389584,256.67430389584,256.67430389584,256.67430389584,256.67430389584,256.67430389584,256.67430389584,256.67430389584,256.67430389584,256.67430389584,256.67430389584,256.67430389584,256.67430389584,256.67430389584,256.67430389584,256.67430389584,256.67430389584,256.67430389584,256.67430389584,256.67430389584,226.36686922578,509.07895412312,-0.95512216545312,448.56468817791,-0.96615494534878,0
0.0003584375,1351020325.268,3.1085488484359e-05,0.00010620506505072,4.5177680873921e-05,1.0335607219619,0,0,0,0,0,0,0,0,0,0,0,0,0,0,0,0,0,0,0,0,0,0,0,0,0,0,0,0,0,0,0,0,0,0,0,0,0,0,0,0,0,0,0,0,0,0,0,0,-0.98369709354396,-0.060727347645759,-0.27154182739619,5.2281045417629,2.9843144724615,1.0995893906945,-3.2051257125628,1.5775121895977,2.7519697202715,-0.47948781743475,1.871390597574,-5.4252340612876,1.510916239159,-1.3840390854876,1.7854637045519,-4.2442532834592,1.9689479007381,4.5586628588226,-1.0175466934664,-4.5314681675834,1.8676764967422,1.8614257184344,0.025678145773818,-4.0917872625795,3.1870145662788,-2.3754365393028,1.2045994164021,1.0660469105961,-1.684233073393,1.1302881466206,1.3633593687057,-0.30688295812287,0.8131331604457,-4.076698521368,-1.7077509434306,-3.3544349416379,5.3881979592848,-2.6805717110574,3.15506008658,-0.41304688717144,-1.2914116560441,-6.8615239972915,1.0181726868734,-2.0130699367036,-3.3934876985607,1.3941783124137,3.3865670394477,-3.55569910654,257.14524536151,257.14524536151,257.14524536151,257.14524536151,257.14524536151,257.14524536151,257.14524536151,257.14524536151,257.14524536151,257.14524536151,257.14524536151,257.14524536151,257.14524536151,257.14524536151,257.14524536151,257.14524536151,257.14524536151,257.14524536151,257.14524536151,257.14524536151,257.14524536151,257.14524536151,257.14524536151,257.14524536151,257.14524536151,257.14524536151,257.14524536151,257.14524536151,257.14524536151,257.14524536151,257.14524536151,257.14524536151,257.14524536151,257.14524536151,257.14524536151,257.14524536151,257.14524536151,257.14524536151,257.14524536151,257.14524536151,257.14524536151,257.14524536151,257.14524536151,257.14524536151,257.14524536151,257.14524536151,257.14524536151,257.14524536151,229.2187375994,509.98014543635,-0.96072268873965,449.33152121572,-0.9717672021455,0
0.0003596875,1358474722.3917,3.1189551643365e-05,0.00010657555309501,4.535284837126e-05,1.0336807146679,0,0,0,0,0,0,0,0,0,0,0,0,0,0,0,0,0,0,0,0,0,0,0,0,0,0,0,0,0,0,0,0,0,0,0,0,0,0,0,0,0,0,0,0,0,0,0,0,-0.98210365331922,-0.058744357685313,-0.26958450899338,5.2205547331273,2.9795706841755,1.0969458791948,-3.1987674408476,1.5748056639561,2.7474949074854,-0.47846047691136,1.8688763001784,-5.4174458415827,1.5091920300906,-1.3813223044499,1.7845851025183,-4.2364936817571,1.9648788558812,4.5508117200691,-1.0168109885247,-4.5241343228802,1.8659232127416,1.8595683310731,0.025652873257273,-4.0871701197795,3.1828020215941,-2.374282069586,1.2032666198877,1.063890782089,-1.6801914051505,1.1275720518534,1.3606485943624,-0.30579817941761,0.81181907028836,-4.0690584646341,-1.7035217815557,-3.3494087922676,5.3820105026221,-2.6749911775245,3.1507306349793,-0.41240705035184,-1.2886348611657,-6.8505660790176,1.0172446234351,-2.0098706638708,-3.3893088897036,1.3937187498737,3.3803042025138,-3.5486260038719,257.61487269384,257.61487269384,257.61487269384,257.61487269384,257.61487269384,257.61487269384,257.61487269384,257.61487269384,257.61487269384,257.61487269384,257.61487269384,257.61487269384,257.61487269384,257.61487269384,257.61487269384,257.61487269384,257.61487269384,257.61487269384,257.61487269384,257.61487269384,257.61487269384,257.61487269384,257.61487269384,257.61487269384,257.61487269384,257.61487269384,257.61487269384,257.61487269384,257.61487269384,257.61487269384,257.61487269384,257.61487269384,257.61487269384,257.61487269384,257.61487269384,257.61487269384,257.61487269384,257.61487269384,257.61487269384,257.61487269384,257.61487269384,257.61487269384,257.61487269384,257.61487269384,257.61487269384,257.61487269384,257.61487269384,257.61487269384,228.61587428391,510.91469710449,-0.96633966894152,450.13297400719,-0.97739696659885,0
0.0003609375,1365933435.0064,3.1293561057673e-05,0.00010694604148941,4.5527973448626e-05,1.0338006288397,0,0,0,0,0,0,0,0,0,0,0,0,0,0,0,0,0,0,0,0,0,0,0,0,0,0,0,0,0,0,0,0,0,0,0,0,0,0,0,0,0,0,0,0,0,0,0,0,-0.98123428847338,-0.056578216797067,-0.26825407000814,5.2170863541792,2.9771591606,1.09526906859,-3.1950667946865,1.5733292541943,2.7453216056411,-0.47774319315811,1.8678832934757,-5.4142671090436,1.5086284427118,-1.379722268917,1.7850726884691,-4.2323556355666,1.9621611611767,4.5466780173909,-1.0168263304062,-4.5204922007809,1.8655107444744,1.8593504378745,0.025709657773013,-4.0862467766104,3.1813156059979,-2.3753458106764,1.202800703246,1.0626055022747,-1.677640064703,1.125786828988,1.3591276483322,-0.30483410697698,0.81113126509911,-4.0647844182368,-1.700700268997,-3.3471949010547,5.3799958775652,-2.671607331396,3.1487678873146,-0.41204962160993,-1.2868991300855,-6.8455670129589,1.0170477278307,-2.0085793851329,-3.3876924402118,1.3944360554761,3.376871345851,-3.544325190236,258.08371378567,258.08371378567,258.08371378567,258.08371378567,258.08371378567,258.08371378567,258.08371378567,258.08371378567,258.08371378567,258.08371378567,258.08371378567,258.08371378567,258.08371378567,258.08371378567,258.08371378567,258.08371378567,258.08371378567,258.08371378567,258.08371378567,258.08371378567,258.08371378567,258.08371378567,258.08371378567,258.08371378567,258.08371378567,258.08371378567,258.08371378567,258.08371378567,258.08371378567,258.08371378567,258.08371378567,258.08371378567,258.08371378567,258.08371378567,258.08371378567,258.08371378567,258.08371378567,258.08371378567,258.08371378567,258.08371378567,258.08371378567,258.08371378567,258.08371378567,258.08371378567,258.08371378567,258.08371378567,258.08371378567,258.08371378567,228.2625916482,511.86408736532,-0.97197289779908,450.94949033284,-0.98304360822245,0
0.0003621875,1373403998.5323,3.1397528367344e-05,0.00010731653019664,4.5703088455297e-05,1.0339205069403,0,0,0,0,0,0,0,0,0,0,0,0,0,0,0,0,0,0,0,0,0,0,0,0,0,0,0,0,0,0,0,0,0,0,0,0,0,0,0,0,0,0,0,0,0,0,0,0,-0.98073085535636,-0.054389578987866,-0.26722320847626,5.2154325424654,2.9757586731658,1.094105231454,-3.1925766767989,1.5724345719073,2.7441662019253,-0.47719022300923,1.8675926909963,-5.412945125238,1.5086513332999,-1.3785664843631,1.7860061637099,-4.2297603010882,1.9600985452392,4.5441374180116,-1.0170714135093,-4.5185064367483,1.8656992198903,1.8598789142239,0.025775037302155,-4.0868483946305,3.1810586622857,-2.3772188744972,1.2027083337037,1.0617670743177,-1.6757632656328,1.1244715033737,1.3581003259273,-0.30396239060377,0.8107507265352,-4.0619256709005,-1.6985397176125,-3.346176215656,5.3796174329423,-2.6692110505534,3.147891568251,-0.41180461458669,-1.2857521885845,-6.8430653656177,1.0172077694582,-2.0080977866784,-3.3870676764482,1.3956454434582,3.3746333117876,-3.5411682959699,258.55214726088,258.55214726088,258.55214726088,258.55214726088,258.55214726088,258.55214726088,258.55214726088,258.55214726088,258.55214726088,258.55214726088,258.55214726088,258.55214726088,258.55214726088,258.55214726088,258.55214726088,258.55214726088,258.55214726088,258.55214726088,258.55214726088,258.55214726088,258.55214726088,258.55214726088,258.55214726088,258.55214726088,258.55214726088,258.55214726088,258.55214726088,258.55214726088,258.55214726088,258.55214726088,258.55214726088,258.55214726088,258.55214726088,258.55214726088,258.55214726088,258.55214726088,258.55214726088,258.55214726088,258.55214726088,258.55214726088,258.55214726088,258.55214726088,258.55214726088,258.55214726088,258.55214726088,258.55214726088,258.55214726088,258.55214726088,228.08832101651,512.82005054322,-0.97762200987692,451.77244165825,-0.98870650117932,0
0.0003634375,1380889615.5029,3.1501457723068e-05,0.00010768701919877,4.5878206054735e-05,1.0340403672694,0,0,0,0,0,0,0,0,0,0,0,0,0,0,0,0,0,0,0,0,0,0,0,0,0,0,0,0,0,0,0,0,0,0,0,0,0,0,0,0,0,0,0,0,0,0,0,0,-0.98041447556531,-0.052250367242813,-0.26631639423595,5.214565835,2.9747876572992,1.0932081311496,-3.1906299967235,1.5718141537375,2.7434441575554,-0.47672598601858,1.8676148488535,-5.412352760778,1.508964155378,-1.3775570316236,1.787051955824,-4.2277883717023,1.9583431395089,4.5422595415048,-1.0173641641381,-4.5172525879929,1.8661551068077,1.8607346175443,0.025825716965517,-4.0880342541905,3.1813259844444,-2.379370047697,1.202774199098,1.0611579074687,-1.67418089986,1.1233921485145,1.3572591799349,-0.30315606755862,0.81051941624268,-4.0596569504769,-1.6966845046423,-3.3456179632906,5.3798448303076,-2.667245850636,3.1474960999092,-0.41159345466184,-1.2849242629917,-6.8415473646284,1.0175237850957,-2.0079224366909,-3.3868085473,1.3970397441058,3.3728766265399,-3.5384672792865,259.02034368705,259.02034368705,259.02034368705,259.02034368705,259.02034368705,259.02034368705,259.02034368705,259.02034368705,259.02034368705,259.02034368705,259.02034368705,259.02034368705,259.02034368705,259.02034368705,259.02034368705,259.02034368705,259.02034368705,259.02034368705,259.02034368705,259.02034368705,259.02034368705,259.02034368705,259.02034368705,259.02034368705,259.02034368705,259.02034368705,259.02034368705,259.02034368705,259.02034368705,259.02034368705,259.02034368705,259.02034368705,259.02034368705,259.02034368705,259.02034368705,259.02034368705,259.02034368705,259.02034368705,259.02034368705,259.02034368705,259.02034368705,259.02034368705,259.02034368705,259.02034368705,259.02034368705,259.02034368705,259.02034368705,259.02034368705,227.99469416457,513.77896797484,-0.9832866773986,452.59811369305,-0.99438515919292,0
0.0003646875,1388391593.7201,3.1605350354584e-05,0.00010805750848491,4.6053331107973e-05,1.0341602177494,0,0,0,0,0,0,0,0,0,0,0,0,0,0,0,0,0,0,0,0,0,0,0,0,0,0,0,0,0,0,0,0,0,0,0,0,0,0,0,0,0,0,0,0,0,0,0,0,-0.98019909920291,-0.050186993689602,-0.26545099081081,5.2140422265562,2.9740023205372,1.0924531548656,-3.1889334667468,1.5713289105079,2.7429067119537,-0.47631264767475,1.8677754881845,-5.4120502401176,1.5094223509047,-1.3765711776538,1.7881025093028,-4.2260556757495,1.9567299380653,4.5406571599501,-1.0176485710026,-4.5163302096364,1.866734869493,1.8617361253345,0.025857203328766,-4.0894210818926,3.1818073827572,-2.3816121099214,1.2029087100435,1.0606717209911,-1.6727248410684,1.1224360594214,1.3564786258228,-0.30239582486087,0.81036301859696,-4.0576435553649,-1.6949741801187,-3.3452055813661,5.380284475144,-2.6654689516528,3.1473093803138,-0.41138317936782,-1.2842700212815,-6.8403886553136,1.0178963193409,-2.0078371923498,-3.3866815885699,1.3984899247293,3.3713070900933,-3.5359422789298,259.48837861375,259.48837861375,259.48837861375,259.48837861375,259.48837861375,259.48837861375,259.48837861375,259.48837861375,259.48837861375,259.48837861375,259.48837861375,259.48837861375,259.48837861375,259.48837861375,259.48837861375,259.48837861375,259.48837861375,259.48837861375,259.48837861375,259.48837861375,259.48837861375,259.48837861375,259.48837861375,259.48837861375,259.48837861375,259.48837861375,259.48837861375,259.48837861375,259.48837861375,259.48837861375,259.48837861375,259.48837861375,259.48837861375,259.48837861375,259.48837861375,259.48837861375,259.48837861375,259.48837861375,259.48837861375,259.48837861375,259.48837861375,259.48837861375,259.48837861375,259.48837861375,259.48837861375,259.48837861375,259.48837861375,259.48837861375,227.93678747527,514.73922757396,-0.9889666377107,453.42489492056,-1.0000792208931,0
0.0003659375,1395910449.3352,3.1709206428107e-05,0.00010842799804653,4.6228465585619e-05,1.0342800618372,0,0,0,0,0,0,0,0,0,0,0,0,0,0,0,0,0,0,0,0,0,0,0,0,0,0,0,0,0,0,0,0,0,0,0,0,0,0,0,0,0,0,0,0,0,0,0,0,-0.98004165316361,-0.048202833632984,-0.26459158305708,5.2136696414121,2.9733000773819,1.0917766451718,-3.1873565119845,1.5709146455249,2.7424490460793,-0.47593032329692,1.8679967096242,-5.4118642396109,1.5099551454835,-1.375563446865,1.7891287234283,-4.2244033363207,1.9551814849599,4.5391698525731,-1.0179116938636,-4.5155643112973,1.8673754923677,1.8628057827411,0.025871302856416,-4.0908577533923,3.1823685258459,-2.3838799221477,1.2030741959113,1.0602552972393,-1.6713206496697,1.1215477990972,1.3557098672684,-0.30166814864314,0.81024601500937,-4.0557467496861,-1.6933358850506,-3.3448107747402,5.3807898642553,-2.6637740360824,3.147210291781,-0.41116214978704,-1.2837125312034,-6.8393365035423,1.0182790162372,-2.007754212784,-3.3866026646113,1.39994436945,3.3698056293726,-3.5334797982996,259.9562862158,259.9562862158,259.9562862158,259.9562862158,259.9562862158,259.9562862158,259.9562862158,259.9562862158,259.9562862158,259.9562862158,259.9562862158,259.9562862158,259.9562862158,259.9562862158,259.9562862158,259.9562862158,259.9562862158,259.9562862158,259.9562862158,259.9562862158,259.9562862158,259.9562862158,259.9562862158,259.9562862158,259.9562862158,259.9562862158,259.9562862158,259.9562862158,259.9562862158,259.9562862158,259.9562862158,259.9562862158,259.9562862158,259.9562862158,259.9562862158,259.9562862158,259.9562862158,259.9562862158,259.9562862158,259.9562862158,259.9562862158,259.9562862158,259.9562862158,259.9562862158,259.9562862158,259.9562862158,259.9562862158,259.9562862158,227.89503957316,515.70009043871,-0.99466168637878,454.25207674533,-1.0057884195877,0
0.0003671875,1403446363.3925,3.1813025699741e-05,0.00010879848787578,4.6403609885856e-05,1.0343999010544,0,0,0,0,0,0,0,0,0,0,0,0,0,0,0,0,0,0,0,0,0,0,0,0,0,0,0,0,0,0,0,0,0,0,0,0,0,0,0,0,0,0,0,0,0,0,0,0,-0.97991943152508,-0.046291185830286,-0.26372530734337,5.2133645175084,2.9726371626776,1.0911453632463,-3.1858395516787,1.5705406487562,2.7420272646294,-0.47556792825637,1.8682434522031,-5.4117250516706,1.5105273989551,-1.3745211273808,1.7901266782565,-4.2227667041696,1.9536616806202,4.5377312650157,-1.0181539346233,-4.51487694906,1.8680481864706,1.8639104059293,0.02587136499725,-4.0922883989436,3.1829523308411,-2.3861510221762,1.2032543771155,1.0598809576439,-1.6699352384405,1.1206991381495,1.3549357018618,-0.30096359792261,0.81015090917993,-4.0539068609764,-1.6917360022045,-3.3443861314889,5.381308580459,-2.6621140389339,3.1471453930665,-0.41092802908664,-1.2832110749065,-6.8382919785055,1.0186520167649,-2.0076417074281,-3.3865429508998,1.4013843574778,3.3683253958086,-3.5310341633483,260.42408248091,260.42408248091,260.42408248091,260.42408248091,260.42408248091,260.42408248091,260.42408248091,260.42408248091,260.42408248091,260.42408248091,260.42408248091,260.42408248091,260.42408248091,260.42408248091,260.42408248091,260.42408248091,260.42408248091,260.42408248091,260.42408248091,260.42408248091,260.42408248091,260.42408248091,260.42408248091,260.42408248091,260.42408248091,260.42408248091,260.42408248091,260.42408248091,260.42408248091,260.42408248091,260.42408248091,260.42408248091,260.42408248091,260.42408248091,260.42408248091,260.42408248091,260.42408248091,260.42408248091,260.42408248091,260.42408248091,260.42408248091,260.42408248091,260.42408248091,260.42408248091,260.42408248091,260.42408248091,260.42408248091,260.42408248091,227.8608519317,516.66120392541,-1.0003716649808,455.07934196016,-1.0115125558315,0
0.0003684375,1410999373.2021,3.1916807848846e-05,0.00010916897796507,4.657876403618e-05,1.0345197360782,0,0,0,0,0,0,0,0,0,0,0,0,0,0,0,0,0,0,0,0,0,0,0,0,0,0,0,0,0,0,0,0,0,0,0,0,0,0,0,0,0,0,0,0,0,0,0,0,-0.97981977836445,-0.044442011211342,-0.26284945290895,5.2130902596044,2.9719944388499,1.0905414506642,-3.1843544291969,1.5701914802258,2.7416230589558,-0.47521890595766,1.8684997645257,-5.4116039390947,1.5111213043593,-1.3734444998492,1.7910993313974,-4.2211204630407,1.9521538163203,4.5363140169353,-1.0183789048012,-4.5142324014508,1.8687389623177,1.8650356737443,0.025860629248006,-4.0936955060453,3.183535397095,-2.3884178187184,1.2034418633844,1.0595336396758,-1.668553904163,1.1198750628796,1.3541514506311,-0.30027553883546,0.81006872302547,-4.0520969646621,-1.6901586655595,-3.3439183509332,5.3818232957307,-2.6604678307379,3.1470914015015,-0.41068210727392,-1.2827438495299,-6.8372192851805,1.0190081296978,-2.0074916215563,-3.3864934267286,1.4028047134077,3.3668489800778,-3.528587465454,260.89177524817,260.89177524817,260.89177524817,260.89177524817,260.89177524817,260.89177524817,260.89177524817,260.89177524817,260.89177524817,260.89177524817,260.89177524817,260.89177524817,260.89177524817,260.89177524817,260.89177524817,260.89177524817,260.89177524817,260.89177524817,260.89177524817,260.89177524817,260.89177524817,260.89177524817,260.89177524817,260.89177524817,260.89177524817,260.89177524817,260.89177524817,260.89177524817,260.89177524817,260.89177524817,260.89177524817,260.89177524817,260.89177524817,260.89177524817,260.89177524817,260.89177524817,260.89177524817,260.89177524817,260.89177524817,260.89177524817,260.89177524817,260.89177524817,260.89177524817,260.89177524817,260.89177524817,260.89177524817,260.89177524817,260.89177524817,227.83037205813,517.62239018356,-1.0060964474729,455.90654502771,-1.0172514784099,0
0.0003696875,1418569454.5982,3.2020552551583e-05,0.00010953946830699,4.6753927787914e-05,1.0346395672132,0,0,0,0,0,0,0,0,0,0,0,0,0,0,0,0,0,0,0,0,0,0,0,0,0,0,0,0,0,0,0,0,0,0,0,0,0,0,0,0,0,0,0,0,0,0,0,0,-0.97973523044663,-0.042645071261835,-0.26196546542315,5.2128307254269,2.9713631824557,1.0899549838975,-3.1828871967922,1.5698588657526,2.7412288055031,-0.47487915649818,1.8687582641848,-5.4114886588764,1.5117275951271,-1.3723382726495,1.792050680524,-4.2194556106037,1.9506502257021,4.5349068577037,-1.0185902785793,-4.5136136156795,1.8694404181289,1.8661752155878,0.025841769055389,-4.0950764070442,3.1841088092699,-2.3906778516038,1.2036330305579,1.0592047234449,-1.6671701859464,1.1190671691348,1.3533570854748,-0.29959926276645,0.80999460758776,-4.0503041448149,-1.6885961455856,-3.3434077037122,5.3823293367629,-2.6588257588501,3.1470383911612,-0.41042675360864,-1.282298920872,-6.8361080766508,1.019345909751,-2.0073053480744,-3.3864517834238,1.4042055190122,3.3653707296605,-3.5261331833028,261.35936860591,261.35936860591,261.35936860591,261.35936860591,261.35936860591,261.35936860591,261.35936860591,261.35936860591,261.35936860591,261.35936860591,261.35936860591,261.35936860591,261.35936860591,261.35936860591,261.35936860591,261.35936860591,261.35936860591,261.35936860591,261.35936860591,261.35936860591,261.35936860591,261.35936860591,261.35936860591,261.35936860591,261.35936860591,261.35936860591,261.35936860591,261.35936860591,261.35936860591,261.35936860591,261.35936860591,261.35936860591,261.35936860591,261.35936860591,261.35936860591,261.35936860591,261.35936860591,261.35936860591,261.35936860591,261.35936860591,261.35936860591,261.35936860591,261.35936860591,261.35936860591,261.35936860591,261.35936860591,261.35936860591,261.35936860591,227.80182665749,518.58355303661,-1.0118359304601,456.7336168947,-1.0230050650071,0
0.0003709375,1426156558.2271,3.2124259548286e-05,0.00010990995889431,4.6929101032409e-05,1.034759394599,0,0,0,0,0,0,0,0,0,0,0,0,0,0,0,0,0,0,0,0,0,0,0,0,0,0,0,0,0,0,0,0,0,0,0,0,0,0,0,0,0,0,0,0,0,0,0,0,-0.9796611453683,-0.040891195000312,-0.2610762229328,5.2125787584147,2.9707391395766,1.0893802425774,-3.1814305383047,1.5695380182674,2.740841227224,-0.47454598598384,1.869015466237,-5.4113738033418,1.5123412901529,-1.3712080659136,1.7929841559489,-4.2177697911071,1.949147432771,4.5335051905469,-1.018791023009,-4.5130119908301,1.8701482042078,1.8673259513008,0.025816861480295,-4.0964336834132,3.1846697813436,-2.3929304217318,1.2038258966186,1.0588890130649,-1.6657813607823,1.1182704800811,1.3525540000104,-0.29893138031937,0.80992579094978,-4.0485217623596,-1.6870445203896,-3.3428592259616,5.3828262479622,-2.6571833299698,3.1469823041427,-0.41016436855055,-1.2818695426445,-6.8349578321036,1.0196662991792,-2.0070875535648,-3.3864177177549,1.4055886538178,3.3638895063152,-3.5236694338962,261.82686485035,261.82686485035,261.82686485035,261.82686485035,261.82686485035,261.82686485035,261.82686485035,261.82686485035,261.82686485035,261.82686485035,261.82686485035,261.82686485035,261.82686485035,261.82686485035,261.82686485035,261.82686485035,261.82686485035,261.82686485035,261.82686485035,261.82686485035,261.82686485035,261.82686485035,261.82686485035,261.82686485035,261.82686485035,261.82686485035,261.82686485035,261.82686485035,261.82686485035,261.82686485035,261.82686485035,261.82686485035,261.82686485035,261.82686485035,261.82686485035,261.82686485035,261.82686485035,261.82686485035,261.82686485035,261.82686485035,261.82686485035,261.82686485035,261.82686485035,261.82686485035,261.82686485035,261.82686485035,261.82686485035,261.82686485035,227.77436844395,519.54463614871,-1.0175900286073,457.5605232604,-1.0287732202783,0
0.0003721875,1433760625.8301,3.2227928596759e-05,0.00011028044972008,4.7104283432368e-05,1.0348792183004,0,0,0,0,0,0,0,0,0,0,0,0,0,0,0,0,0,0,0,0,0,0,0,0,0,0,0,0,0,0,0,0,0,0,0,0,0,0,0,0,0,0,0,0,0,0,0,0,-0.97959449645693,-0.039172651058403,-0.26018482057698,5.2123311525528,2.970120030351,1.0888138068009,-3.1799803614938,1.56922594011,2.7404587980434,-0.47421755101341,1.869269675001,-5.4112569226885,1.5129596003937,-1.3700590784034,1.793902409619,-4.2160632609367,1.9476438960212,4.5321071505334,-1.0189833556226,-4.5124228836228,1.8708594828895,1.8684861596322,0.025787481030217,-4.0977713576372,3.1852179929283,-2.3951754714264,1.2040192398093,1.0585832149857,-1.6643864054799,1.1174818804099,1.3517438107974,-0.29826941819992,0.8098605905502,-4.0467461665365,-1.6855016954509,-3.3422790402353,5.3833148119986,-2.6555384149116,3.1469216246376,-0.40989701329117,-1.2814517252823,-6.8337714890462,1.0199710619552,-2.0068435794676,-3.3863913921291,1.4069563951569,3.3624057648557,-3.5211961784613,262.29426537682,262.29426537682,262.29426537682,262.29426537682,262.29426537682,262.29426537682,262.29426537682,262.29426537682,262.29426537682,262.29426537682,262.29426537682,262.29426537682,262.29426537682,262.29426537682,262.29426537682,262.29426537682,262.29426537682,262.29426537682,262.29426537682,262.29426537682,262.29426537682,262.29426537682,262.29426537682,262.29426537682,262.29426537682,262.29426537682,262.29426537682,262.29426537682,262.29426537682,262.29426537682,262.29426537682,262.29426537682,262.29426537682,262.29426537682,262.29426537682,262.29426537682,262.29426537682,262.29426537682,262.29426537682,262.29426537682,262.29426537682,262.29426537682,262.29426537682,262.29426537682,262.29426537682,262.29426537682,262.29426537682,262.29426537682,227.74757147196,520.50560379099,-1.0233586752679,458.3872460913,-1.0345558675403,0
0.0003734375,1441381597.6767,3.2331559535505e-05,0.0001106509407776,4.7279474969305e-05,1.0349990383485,0,0,0,0,0,0,0,0,0,0,0,0,0,0,0,0,0,0,0,0,0,0,0,0,0,0,0,0,0,0,0,0,0,0,0,0,0,0,0,0,0,0,0,0,0,0,0,0,-0.9795332257061,-0.037483117041937,-0.25929409708555,5.2120864710323,2.9695044923595,1.0882535562129,-3.1785342252536,1.5689206077021,2.7400806385006,-0.47389254683239,1.8695200398004,-5.4111368673117,1.5135809066513,-1.3688957068875,1.7948074274514,-4.2143371959921,1.9461389689002,4.530711992209,-1.0191689030227,-4.5118435828359,1.8715722311765,1.8696546643945,0.025754814053623,-4.0990934428411,3.1857540345552,-2.397413143451,1.2042122241802,1.0582851428748,-1.6629850795508,1.1166993120236,1.3509279128439,-0.29761154518264,0.80979792981454,-4.0449752000627,-1.6839664847812,-3.3416729571138,5.3837960116115,-2.6538899992432,3.1468559185881,-0.40962633737937,-1.2810429981944,-6.8325528568188,1.0202620993199,-2.0065784423591,-3.3863729635365,1.408310899819,3.3609204174372,-3.5187140736386,262.76157109811,262.76157109811,262.76157109811,262.76157109811,262.76157109811,262.76157109811,262.76157109811,262.76157109811,262.76157109811,262.76157109811,262.76157109811,262.76157109811,262.76157109811,262.76157109811,262.76157109811,262.76157109811,262.76157109811,262.76157109811,262.76157109811,262.76157109811,262.76157109811,262.76157109811,262.76157109811,262.76157109811,262.76157109811,262.76157109811,262.76157109811,262.76157109811,262.76157109811,262.76157109811,262.76157109811,262.76157109811,262.76157109811,262.76157109811,262.76157109811,262.76157109811,262.76157109811,262.76157109811,262.76157109811,262.76157109811,262.76157109811,262.76157109811,262.76157109811,262.76157109811,262.76157109811,262.76157109811,262.76157109811,262.76157109811,227.721207574,521.46643162225,-1.0291418099107,459.21377523586,-1.0403529419086,0
0.0003746875,1449019415.8329,3.2435152183685e-05,0.00011102143206044,4.7454675199258e-05,1.0351188547587,0,0,0,0,0,0,0,0,0,0,0,0,0,0,0,0,0,0,0,0,0,0,0,0,0,0,0,0,0,0,0,0,0,0,0,0,0,0,0,0,0,0,0,0,0,0,0,0,-0.979475883701,-0.035817492850733,-0.25840648511374,5.2118440642452,2.9688916247976,1.0876981381181,-3.1770905932236,1.5686205673558,2.7397061394728,-0.47357002473507,1.8697661145216,-5.4110130681688,1.5142042258901,-1.367721503071,1.7957006969011,-4.2125930038516,1.9446324059929,4.5293194309984,-1.0193488450427,-4.5112723880795,1.8722849106783,1.8708305480685,0.025719756322622,-4.10040347788,3.1862787515079,-2.3996436325964,1.20440423456,1.0579932842764,-1.6615774965795,1.1159213535989,1.3501074224841,-0.29695638533213,0.80973708471801,-4.0432074929294,-1.6824381723742,-3.3410460070631,5.384270712635,-2.6522376048691,3.1467851949404,-0.40935360207849,-1.280641745439,-6.8313056542888,1.0205411647481,-2.0062965118918,-3.3863624809263,1.4096540532969,3.3594344168792,-3.5162239790674,263.22878264845,263.22878264845,263.22878264845,263.22878264845,263.22878264845,263.22878264845,263.22878264845,263.22878264845,263.22878264845,263.22878264845,263.22878264845,263.22878264845,263.22878264845,263.22878264845,263.22878264845,263.22878264845,263.22878264845,263.22878264845,263.22878264845,263.22878264845,263.22878264845,263.22878264845,263.22878264845,263.22878264845,263.22878264845,263.22878264845,263.22878264845,263.22878264845,263.22878264845,263.22878264845,263.22878264845,263.22878264845,263.22878264845,263.22878264845,263.22878264845,263.22878264845,263.22878264845,263.22878264845,263.22878264845,263.22878264845,263.22878264845,263.22878264845,263.22878264845,263.22878264845,263.22878264845,263.22878264845,263.22878264845,263.22878264845,227.69514501622,522.42710209567,-1.0349393823347,460.04010455363,-1.0461643883603,0
0.0003759375,1456674025.5247,3.2538706403694e-05,0.00011139192356249,4.7629883789383e-05,1.0352386675389,0,0,0,0,0,0,0,0,0,0,0,0,0,0,0,0,0,0,0,0,0,0,0,0,0,0,0,0,0,0,0,0,0,0,0,0,0,0,0,0,0,0,0,0,0,0,0,0,-0.97942142117286,-0.034171707135426,-0.25752401184475,5.2116036436873,2.9682807840168,1.0871466647678,-3.1756484618226,1.5683247234932,2.7393347711882,-0.47324927986456,1.8700076740173,-5.4108852951206,1.5148289365001,-1.3665392851629,1.7965833632724,-4.2108320699416,1.943124145479,4.5279293720058,-1.0195240538509,-4.5107081653598,1.8729963014212,1.8720130070633,0.025682989375026,-4.1017044369804,3.1867930143563,-2.4018671797934,1.2045947988189,1.0577065568919,-1.6601639290424,1.1151469832815,1.34928316598,-0.29630289125108,0.80967755574223,-4.0414421673165,-1.6809163035674,-3.3404023763931,5.3847396378825,-2.6505810362394,3.146709628391,-0.40907975156822,-1.2802468502879,-6.830033203102,1.0208097710178,-2.0060014622969,-3.386359920076,1.4109874426515,3.3579486210033,-3.5137267819522,263.6959004883,263.6959004883,263.6959004883,263.6959004883,263.6959004883,263.6959004883,263.6959004883,263.6959004883,263.6959004883,263.6959004883,263.6959004883,263.6959004883,263.6959004883,263.6959004883,263.6959004883,263.6959004883,263.6959004883,263.6959004883,263.6959004883,263.6959004883,263.6959004883,263.6959004883,263.6959004883,263.6959004883,263.6959004883,263.6959004883,263.6959004883,263.6959004883,263.6959004883,263.6959004883,263.6959004883,263.6959004883,263.6959004883,263.6959004883,263.6959004883,263.6959004883,263.6959004883,263.6959004883,263.6959004883,263.6959004883,263.6959004883,263.6959004883,263.6959004883,263.6959004883,263.6959004883,263.6959004883,263.6959004883,263.6959004883,227.66930161147,523.38760204974,-1.0407513484395,460.86623010514,-1.0519901604745,0
0.0003771875,1464345375.5682,3.2642222071898e-05,0.0001117624152779,4.7805100326641e-05,1.0353584766934,0,0,0,0,0,0,0,0,0,0,0,0,0,0,0,0,0,0,0,0,0,0,0,0,0,0,0,0,0,0,0,0,0,0,0,0,0,0,0,0,0,0,0,0,0,0,0,0,-0.97936905712179,-0.032542501974352,-0.25664833086872,5.2113650749142,2.96767148557,1.0865985416636,-3.1742071473554,1.568032217768,2.7389660511087,-0.47292978031495,1.8702446017526,-5.4107534444771,1.5154546328736,-1.3653512655093,1.7974563139423,-4.2090556434876,1.9416142209819,4.5265417996064,-1.0196951747261,-4.5101501053567,1.873705408491,1.8732013115723,0.02564503608205,-4.1029987417497,3.1872976070585,-2.4040840087538,1.2047835462474,1.0574241592289,-1.6587447084832,1.1143754410923,1.3484557499366,-0.29565025851567,0.80961898573404,-4.0396786108535,-1.6794005721903,-3.3397454901002,5.3852033468095,-2.6489202378919,3.1466294589315,-0.40880547805244,-1.2798575079765,-6.8287383255505,1.0210692023712,-2.0056963423905,-3.3863651915525,1.4123123971043,3.3564637639694,-3.511223317655,264.16292496246,264.16292496246,264.16292496246,264.16292496246,264.16292496246,264.16292496246,264.16292496246,264.16292496246,264.16292496246,264.16292496246,264.16292496246,264.16292496246,264.16292496246,264.16292496246,264.16292496246,264.16292496246,264.16292496246,264.16292496246,264.16292496246,264.16292496246,264.16292496246,264.16292496246,264.16292496246,264.16292496246,264.16292496246,264.16292496246,264.16292496246,264.16292496246,264.16292496246,264.16292496246,264.16292496246,264.16292496246,264.16292496246,264.16292496246,264.16292496246,264.16292496246,264.16292496246,264.16292496246,264.16292496246,264.16292496246,264.16292496246,264.16292496246,264.16292496246,264.16292496246,264.16292496246,264.16292496246,264.16292496246,264.16292496246,227.64362263177,524.34792128205,-1.0465776700262,461.69214918291,-1.0578302170038,0
0.0003784375,1472033418.3616,3.2745699187467e-05,0.00011213290720113,4.7980325221611e-05,1.0354782822247,0,0,0,0,0,0,0,0,0,0,0,0,0,0,0,0,0,0,0,0,0,0,0,0,0,0,0,0,0,0,0,0,0,0,0,0,0,0,0,0,0,0,0,0,0,0,0,0,-0.97931819908301,-0.030927274803511,-0.25578077776357,5.2111282978569,2.9670633587586,1.0860533635217,-3.1727661993331,1.5677423607543,2.7385995179878,-0.47261111945375,1.8704768439778,-5.4106175147286,1.5160810417263,-1.3641591765198,1.7983202557007,-4.2072648454697,1.9401027003583,4.5251567387651,-1.0198626950092,-4.5095976323844,1.8744114086639,1.8743948027122,0.025606301620181,-4.1042883900474,3.187793208785,-2.4062943558149,1.2049701852509,1.0571454820319,-1.6573201964647,1.1136061474984,1.3476255990174,-0.29499786025792,0.80956111483685,-4.0379164042071,-1.6778907639787,-3.3390781176827,5.3856622802055,-2.6472552383884,3.1465449347009,-0.40853128468643,-1.2794731134055,-6.8274234399141,1.021320519363,-2.0053836583453,-3.3863781747915,1.413630025286,3.3549804670842,-3.5087143376082,264.62985633334,264.62985633334,264.62985633334,264.62985633334,264.62985633334,264.62985633334,264.62985633334,264.62985633334,264.62985633334,264.62985633334,264.62985633334,264.62985633334,264.62985633334,264.62985633334,264.62985633334,264.62985633334,264.62985633334,264.62985633334,264.62985633334,264.62985633334,264.62985633334,264.62985633334,264.62985633334,264.62985633334,264.62985633334,264.62985633334,264.62985633334,264.62985633334,264.62985633334,264.62985633334,264.62985633334,264.62985633334,264.62985633334,264.62985633334,264.62985633334,264.62985633334,264.62985633334,264.62985633334,264.62985633334,264.62985633334,264.62985633334,264.62985633334,264.62985633334,264.62985633334,264.62985633334,264.62985633334,264.62985633334,264.62985633334,227.61806909023,525.3080517508,-1.0524183126367,462.51785988189,-1.0636845224237,0
0.0003796875,1479738109.6799,3.2849137638045e-05,0.00011250339932687,4.8155557843908e-05,1.0355980841346,0,0,0,0,0,0,0,0,0,0,0,0,0,0,0,0,0,0,0,0,0,0,0,0,0,0,0,0,0,0,0,0,0,0,0,0,0,0,0,0,0,0,0,0,0,0,0,0,-0.97926838957424,-0.029323939522972,-0.25492242904698,5.2108932816487,2.9664561184681,1.0855108513556,-3.1713252988143,1.5674545863423,2.7382347475466,-0.47229298271973,1.8707043890592,-5.4104775491759,1.5167079728242,-1.3629643674606,1.7991757736439,-4.2054606444154,1.9385896699277,4.5237742360703,-1.0200269846296,-4.5090503051822,1.8751136124405,1.8755928875324,0.02556710471334,-4.1055749769467,3.1882804069821,-2.4084984457698,1.2051544888512,1.056870049843,-1.6558907357175,1.1128386497241,1.3467930075707,-0.29434520779906,0.80950375192185,-4.036155250924,-1.6763867222381,-3.3384024845615,5.3861168117714,-2.6455861095272,3.1464562957463,-0.40825753139045,-1.2790931926694,-6.8260905479824,1.0215646022732,-2.005065459129,-3.3863987498127,1.4149412556419,3.3534992567564,-3.50620051478,265.09669480275,265.09669480275,265.09669480275,265.09669480275,265.09669480275,265.09669480275,265.09669480275,265.09669480275,265.09669480275,265.09669480275,265.09669480275,265.09669480275,265.09669480275,265.09669480275,265.09669480275,265.09669480275,265.09669480275,265.09669480275,265.09669480275,265.09669480275,265.09669480275,265.09669480275,265.09669480275,265.09669480275,265.09669480275,265.09669480275,265.09669480275,265.09669480275,265.09669480275,265.09669480275,265.09669480275,265.09669480275,265.09669480275,265.09669480275,265.09669480275,265.09669480275,265.09669480275,265.09669480275,265.09669480275,265.09669480275,265.09669480275,265.09669480275,265.09669480275,265.09669480275,265.09669480275,265.09669480275,265.09669480275,265.09669480275,227.59261229558,526.2679870063,-1.0582732460691,463.34336080398,-1.0695530454025,0
0.0003809375,1487459408.3682,3.2952537344837e-05,0.00011287389165013,4.8330797713336e-05,1.0357178824241,0,0,0,0,0,0,0,0,0,0,0,0,0,0,0,0,0,0,0,0,0,0,0,0,0,0,0,0,0,0,0,0,0,0,0,0,0,0,0,0,0,0,0,0,0,0,0,0,-0.97921926803189,-0.027730809452056,-0.25407414309247,5.2106600019095,2.9658495430108,1.0849708092639,-3.1698842474257,1.5671684218789,2.7378713469296,-0.47197512520177,1.8709272478224,-5.4103336131957,1.5173352906656,-1.3617678951058,1.8000233490151,-4.2036438951627,1.9370752295521,4.5223943496624,-1.0201883311754,-4.5085077927217,1.8758114389159,1.8767950122083,0.025527696811177,-4.1068598275234,3.1887596993755,-2.4106964957574,1.2053362797581,1.056597481882,-1.6544566749962,1.1120725859207,1.3459581883774,-0.29369191255493,0.80944675425705,-4.0343949339782,-1.6748883285095,-3.3377203909352,5.3865672434363,-2.6439129498477,3.1463637735396,-0.40798446995717,-1.278717367205,-6.8247413602287,1.0218021861695,-2.0047434342579,-3.3864267986144,1.4162468716282,3.3520205812823,-3.5036824599332,265.56344052609,265.56344052609,265.56344052609,265.56344052609,265.56344052609,265.56344052609,265.56344052609,265.56344052609,265.56344052609,265.56344052609,265.56344052609,265.56344052609,265.56344052609,265.56344052609,265.56344052609,265.56344052609,265.56344052609,265.56344052609,265.56344052609,265.56344052609,265.56344052609,265.56344052609,265.56344052609,265.56344052609,265.56344052609,265.56344052609,265.56344052609,265.56344052609,265.56344052609,265.56344052609,265.56344052609,265.56344052609,265.56344052609,265.56344052609,265.56344052609,265.56344052609,265.56344052609,265.56344052609,265.56344052609,265.56344052609,265.56344052609,265.56344052609,265.56344052609,265.56344052609,265.56344052609,265.56344052609,265.56344052609,265.56344052609,227.56723026236,527.22772183204,-1.064142443629,464.16865091756,-1.0754357577523,0
0.0003821875,1495197276.0266,3.3055898325568e-05,0.00011324438416611,4.8506045018006e-05,1.0358376770942,0,0,0,0,0,0,0,0,0,0,0,0,0,0,0,0,0,0,0,0,0,0,0,0,0,0,0,0,0,0,0,0,0,0,0,0,0,0,0,0,0,0,0,0,0,0,0,0,-0.97917054749829,-0.026146519915578,-0.25323661438614,5.2104284344533,2.9652434620431,1.084433102289,-3.1684429088141,1.5668834669789,2.7375089494558,-0.47165735563889,1.8711454494158,-5.4101857875662,1.517962895658,-1.3605705867193,1.8008633806346,-4.201815338774,1.9355594775823,4.5210171436242,-1.0203469540456,-4.5079698269598,1.8765043935127,1.8780006781799,0.025488278923306,-4.1081439921157,3.1892315209536,-2.4128887126484,1.2055154216408,1.0563274685892,-1.6530183357125,1.1113076630434,1.3451212766504,-0.29303767033694,0.80939001402223,-4.0326352981685,-1.6733954937466,-3.3370332851525,5.3870138115079,-2.6422358739242,3.1462675828679,-0.40771227417266,-1.2783453270004,-6.8233772958499,1.0220338784047,-2.0044189646321,-3.3864621957863,1.4175475367604,3.3505448225935,-3.5011607088457,266.03009362267,266.03009362267,266.03009362267,266.03009362267,266.03009362267,266.03009362267,266.03009362267,266.03009362267,266.03009362267,266.03009362267,266.03009362267,266.03009362267,266.03009362267,266.03009362267,266.03009362267,266.03009362267,266.03009362267,266.03009362267,266.03009362267,266.03009362267,266.03009362267,266.03009362267,266.03009362267,266.03009362267,266.03009362267,266.03009362267,266.03009362267,266.03009362267,266.03009362267,266.03009362267,266.03009362267,266.03009362267,266.03009362267,266.03009362267,266.03009362267,266.03009362267,266.03009362267,266.03009362267,266.03009362267,266.03009362267,266.03009362267,266.03009362267,266.03009362267,266.03009362267,266.03009362267,266.03009362267,266.03009362267,266.03009362267,227.54190588569,528.18725195515,-1.0700258787992,464.99372943466,-1.0813326325449,0
0.0003834375,1502951676.7146,3.3159220513949e-05,0.00011361487687027,4.8681299180295e-05,1.0359574681455,0,0,0,0,0,0,0,0,0,0,0,0,0,0,0,0,0,0,0,0,0,0,0,0,0,0,0,0,0,0,0,0,0,0,0,0,0,0,0,0,0,0,0,0,0,0,0,0,-0.97912199594797,-0.024569957569305,-0.25241037558397,5.2101985607024,2.9646377479589,1.0838976278089,-3.1670012157569,1.5665993773254,2.7371472391277,-0.47133952344988,1.8713590244063,-5.410034158506,1.5185907127536,-1.3593730850543,1.8016962130749,-4.19997563281,1.9340425177384,4.5196426872625,-1.0205030340997,-4.5074362157335,1.8771920553474,1.8792094513774,0.025449012733472,-4.1094283551404,3.1896962241958,-2.4150752920619,1.2056918146282,1.0560597479132,-1.6515760267098,1.1105436372601,1.3442823688443,-0.2923822359716,0.80933344787854,-4.0308762297893,-1.6719081367279,-3.3363423292849,5.3874567264883,-2.640555000291,3.146167930085,-0.40744105834057,-1.2779768112863,-6.8219995799482,1.0222601917706,-2.0040931888638,-3.3865048370044,1.4188438207635,3.3490723087236,-3.4986357439343,266.49665418273,266.49665418273,266.49665418273,266.49665418273,266.49665418273,266.49665418273,266.49665418273,266.49665418273,266.49665418273,266.49665418273,266.49665418273,266.49665418273,266.49665418273,266.49665418273,266.49665418273,266.49665418273,266.49665418273,266.49665418273,266.49665418273,266.49665418273,266.49665418273,266.49665418273,266.49665418273,266.49665418273,266.49665418273,266.49665418273,266.49665418273,266.49665418273,266.49665418273,266.49665418273,266.49665418273,266.49665418273,266.49665418273,266.49665418273,266.49665418273,266.49665418273,266.49665418273,266.49665418273,266.49665418273,266.49665418273,266.49665418273,266.49665418273,266.49665418273,266.49665418273,266.49665418273,266.49665418273,266.49665418273,266.49665418273,227.51662539125,529.14657387334,-1.0759235308994,465.81859576882,-1.0872436489881,0
0.0003846875,1510722576.6495,3.3262503935914e-05,0.00011398536975827,4.8856560282681e-05,1.0360772555786,0,0,0,0,0,0,0,0,0,0,0,0,0,0,0,0,0,0,0,0,0,0,0,0,0,0,0,0,0,0,0,0,0,0,0,0,0,0,0,0,0,0,0,0,0,0,0,0,-0.97907342280851,-0.023000203774825,-0.25159587005644,5.2099703513573,2.9640323068556,1.0833643200736,-3.1655591286103,1.5663158539774,2.7367859281753,-0.4710215101491,1.871568020896,-5.4098788195793,1.5192186837195,-1.3581758943143,1.8025221391151,-4.1981253420418,1.9325244550649,4.5182710533497,-1.0206567061804,-4.5069067939056,1.877874063283,1.8804209296447,0.025410030148488,-4.1107136323188,3.190154142776,-2.4172564313776,1.205865385102,1.0557941021362,-1.6501300340383,1.1097803035712,1.3434415296778,-0.29172541546341,0.80927699258589,-4.0291176437842,-1.6704262009688,-3.335648463573,5.3878961626458,-2.6388704500229,3.1460650043008,-0.40717089333553,-1.2776116004905,-6.8206092361771,1.0224815685432,-2.0037670435589,-3.3865546219897,1.4201362109708,3.347603325503,-3.4961079991036,266.96312227343,266.96312227343,266.96312227343,266.96312227343,266.96312227343,266.96312227343,266.96312227343,266.96312227343,266.96312227343,266.96312227343,266.96312227343,266.96312227343,266.96312227343,266.96312227343,266.96312227343,266.96312227343,266.96312227343,266.96312227343,266.96312227343,266.96312227343,266.96312227343,266.96312227343,266.96312227343,266.96312227343,266.96312227343,266.96312227343,266.96312227343,266.96312227343,266.96312227343,266.96312227343,266.96312227343,266.96312227343,266.96312227343,266.96312227343,266.96312227343,266.96312227343,266.96312227343,266.96312227343,266.96312227343,266.96312227343,266.96312227343,266.96312227343,266.96312227343,266.96312227343,266.96312227343,266.96312227343,266.96312227343,266.96312227343,227.49137781285,530.1056846959,-1.0818353788658,466.64324948319,-1.0931687849008,0
0.0003859375,1518509943.9419,3.3365748567952e-05,0.00011435586282598,4.9031827938045e-05,1.0361970393941,0,0,0,0,0,0,0,0,0,0,0,0,0,0,0,0,0,0,0,0,0,0,0,0,0,0,0,0,0,0,0,0,0,0,0,0,0,0,0,0,0,0,0,0,0,0,0,0,-0.97902467174008,-0.021436498246945,-0.250793429563,5.2097437762176,2.9634270701757,1.0828331248266,-3.1641166458066,1.56603263593,2.7364247345985,-0.47070322250488,1.871772483666,-5.4097198486026,1.5198467601429,-1.3569794183263,1.803341414208,-4.1962649772786,1.9310053917973,4.5169023120158,-1.020808083061,-4.5063814356207,1.878550108582,1.8816347369342,0.025371438446136,-4.1120004122719,3.1906055498546,-2.4194322983616,1.2060360822215,1.0555303391012,-1.6486806302261,1.1090174867849,1.342598784962,-0.29106705430434,0.80922059775975,-4.0273594744961,-1.6689496299365,-3.3349524483747,5.388332265639,-2.637182345102,3.1459589874269,-0.40690182957358,-1.277249499534,-6.8192071511656,1.0226983815275,-2.0034412992532,-3.3866114610165,1.4214251310616,3.3461381170193,-3.4935778625505,267.42949794312,267.42949794312,267.42949794312,267.42949794312,267.42949794312,267.42949794312,267.42949794312,267.42949794312,267.42949794312,267.42949794312,267.42949794312,267.42949794312,267.42949794312,267.42949794312,267.42949794312,267.42949794312,267.42949794312,267.42949794312,267.42949794312,267.42949794312,267.42949794312,267.42949794312,267.42949794312,267.42949794312,267.42949794312,267.42949794312,267.42949794312,267.42949794312,267.42949794312,267.42949794312,267.42949794312,267.42949794312,267.42949794312,267.42949794312,267.42949794312,267.42949794312,267.42949794312,267.42949794312,267.42949794312,267.42949794312,267.42949794312,267.42949794312,267.42949794312,267.42949794312,267.42949794312,267.42949794312,267.42949794312,267.42949794312,227.46615423169,531.06458200318,-1.0877614018212,467.46769022888,-1.0991080196477,0
0.0003871875,1526313748.4031,3.3468954442692e-05,0.00011472635606947,4.9207102144346e-05,1.0363168195926,0,0,0,0,0,0,0,0,0,0,0,0,0,0,0,0,0,0,0,0,0,0,0,0,0,0,0,0,0,0,0,0,0,0,0,0,0,0,0,0,0,0,0,0,0,0,0,0,-0.97897561261791,-0.019878209978747,-0.25000331591277,5.2095188023203,2.9628219955479,1.0823040076173,-3.1626737880483,1.5657494944287,2.7360634375572,-0.47038458699944,1.8719724633423,-5.4095573513602,1.5204749033224,-1.3557839646104,1.8041542605252,-4.1943949914713,1.9294854229382,4.5155365385191,-1.0209572527667,-4.5058600462216,1.8792199276931,1.8828505535927,0.025333326622338,-4.1132891866219,3.1910506954325,-2.4216030808398,1.2062038763694,1.0552682951734,-1.6472280680443,1.1082550379644,1.3417541634505,-0.290407028653,0.80916422385382,-4.0256016877936,-1.6674783773193,-3.3342548946541,5.3887651634167,-2.6354908061918,3.1458500440842,-0.40663388455641,-1.2768903420221,-6.8177940910996,1.0229109495965,-2.0031165912031,-3.386675269982,1.4227109471232,3.3446768999943,-3.491045690609,267.89578122432,267.89578122432,267.89578122432,267.89578122432,267.89578122432,267.89578122432,267.89578122432,267.89578122432,267.89578122432,267.89578122432,267.89578122432,267.89578122432,267.89578122432,267.89578122432,267.89578122432,267.89578122432,267.89578122432,267.89578122432,267.89578122432,267.89578122432,267.89578122432,267.89578122432,267.89578122432,267.89578122432,267.89578122432,267.89578122432,267.89578122432,267.89578122432,267.89578122432,267.89578122432,267.89578122432,267.89578122432,267.89578122432,267.89578122432,267.89578122432,267.89578122432,267.89578122432,267.89578122432,267.89578122432,267.89578122432,267.89578122432,267.89578122432,267.89578122432,267.89578122432,267.89578122432,267.89578122432,267.89578122432,267.89578122432,227.44094710678,532.02326381854,-1.0937015835864,468.2919177847,-1.1050613358263,0
0.0003884375,1534133961.3014,3.3572121528285e-05,0.00011509684948499,4.9382382328283e-05,1.0364365961744,0,0,0,0,0,0,0,0,0,0,0,0,0,0,0,0,0,0,0,0,0,0,0,0,0,0,0,0,0,0,0,0,0,0,0,0,0,0,0,0,0,0,0,0,0,0,0,0,-0.9789261355805,-0.018324806713077,-0.24922572210243,5.2092953931587,2.9622170550011,1.0817769388276,-3.1612305827996,1.5654662242163,2.7357018408764,-0.47006554651741,1.8721680033298,-5.409391420817,1.5211030783444,-1.3545897726226,1.8049608697893,-4.1925157804822,1.927964647893,4.5141738002874,-1.0211042895989,-4.505342540632,1.8798832924494,1.8840680946733,0.025295767973721,-4.1145803487764,3.1914897866262,-2.4237689483534,1.2063687521763,1.0550078231332,-1.6457725806458,1.1074928253647,1.3409076826646,-0.28974524285376,0.80910783653361,-4.023844256306,-1.6660123988709,-3.3335562889659,5.3891949567122,-2.633795947584,3.1457383329504,-0.40636706298031,-1.2765339798142,-6.8163707026682,1.0231195565725,-2.0027934395028,-3.3867459665979,1.4239939796057,3.3432198575492,-3.4885118044251,268.36197213723,268.36197213723,268.36197213723,268.36197213723,268.36197213723,268.36197213723,268.36197213723,268.36197213723,268.36197213723,268.36197213723,268.36197213723,268.36197213723,268.36197213723,268.36197213723,268.36197213723,268.36197213723,268.36197213723,268.36197213723,268.36197213723,268.36197213723,268.36197213723,268.36197213723,268.36197213723,268.36197213723,268.36197213723,268.36197213723,268.36197213723,268.36197213723,268.36197213723,268.36197213723,268.36197213723,268.36197213723,268.36197213723,268.36197213723,268.36197213723,268.36197213723,268.36197213723,268.36197213723,268.36197213723,268.36197213723,268.36197213723,268.36197213723,268.36197213723,268.36197213723,268.36197213723,268.36197213723,268.36197213723,268.36197213723,227.41575058236,532.98172846945,-1.0996559067418,469.11593197102,-1.111028716117,0
0.0003896875,1541970555.2116,3.367524985812e-05,0.00011546734306895,4.9557668385411e-05,1.0365563691401,0,0,0,0,0,0,0,0,0,0,0,0,0,0,0,0,0,0,0,0,0,0,0,0,0,0,0,0,0,0,0,0,0,0,0,0,0,0,0,0,0,0,0,0,0,0,0,0,-0.97887614738186,-0.016775836028422,-0.24846079604185,5.2090735125141,2.961612236202,1.0812518988434,-3.1597870800933,1.5651826427314,2.7353397693828,-0.46974605616579,1.8723591556307,-5.4092221315529,1.5217312543354,-1.3533970270911,1.8057614153359,-4.1906277064263,1.9264431584599,4.5128141644977,-1.0212492507572,-4.5048288611902,1.8805400077921,1.8852870991796,0.025258823827196,-4.1158742384382,3.1919230227422,-2.4259300519029,1.2065307070949,1.0547487940089,-1.6443143909833,1.1067307330503,1.3400593542032,-0.28908161938892,0.80905140932017,-4.0220871520835,-1.6645516538339,-3.3328570197323,5.3896217354371,-2.6320978811607,3.1456240000713,-0.40610135948876,-1.2761802778028,-6.8149375627584,1.0233244493929,-2.0024722716299,-3.3868234764735,1.4252745090453,3.3417671499922,-3.4859764949947,268.82807069136,268.82807069136,268.82807069136,268.82807069136,268.82807069136,268.82807069136,268.82807069136,268.82807069136,268.82807069136,268.82807069136,268.82807069136,268.82807069136,268.82807069136,268.82807069136,268.82807069136,268.82807069136,268.82807069136,268.82807069136,268.82807069136,268.82807069136,268.82807069136,268.82807069136,268.82807069136,268.82807069136,268.82807069136,268.82807069136,268.82807069136,268.82807069136,268.82807069136,268.82807069136,268.82807069136,268.82807069136,268.82807069136,268.82807069136,268.82807069136,268.82807069136,268.82807069136,268.82807069136,268.82807069136,268.82807069136,268.82807069136,268.82807069136,268.82807069136,268.82807069136,268.82807069136,268.82807069136,268.82807069136,268.82807069136,227.39055956776,533.93997457262,-1.1056243562094,469.93973267654,-1.1170101448003,0
0.0003909375,1549823503.8599,3.3778339514836e-05,0.0001158378368179,4.9732960567883e-05,1.0366761384901,0,0,0,0,0,0,0,0,0,0,0,0,0,0,0,0,0,0,0,0,0,0,0,0,0,0,0,0,0,0,0,0,0,0,0,0,0,0,0,0,0,0,0,0,0,0,0,0,-0.97882556954871,-0.015230913401046,-0.24770864134923,5.2088531150905,2.9610075348082,1.0807288722764,-3.1583433263117,1.5648985852526,2.7349770556336,-0.46942608162049,1.8725459669813,-5.4090495847189,1.5223594041645,-1.3522058810601,1.8065560455118,-4.1887310854341,1.92492104472,4.5114576895415,-1.0213921834193,-4.5043189501726,1.8811899051152,1.8865073180258,0.025222545222922,-4.1171711249338,3.1923505746057,-2.4280865589902,1.2066897477441,1.0544910923174,-1.642853702231,1.1059686575928,1.339209177168,-0.28841609971452,0.80899491902871,-4.020330373707,-1.6630961033007,-3.3321574064852,5.3900455652663,-2.6303967111448,3.1455071824874,-0.40583676612543,-1.2758291167357,-6.8134951579941,1.0235258480809,-2.0021534382016,-3.3869077222913,1.4265527815639,3.340318912486,-3.4834400326878,269.29407688759,269.29407688759,269.29407688759,269.29407688759,269.29407688759,269.29407688759,269.29407688759,269.29407688759,269.29407688759,269.29407688759,269.29407688759,269.29407688759,269.29407688759,269.29407688759,269.29407688759,269.29407688759,269.29407688759,269.29407688759,269.29407688759,269.29407688759,269.29407688759,269.29407688759,269.29407688759,269.29407688759,269.29407688759,269.29407688759,269.29407688759,269.29407688759,269.29407688759,269.29407688759,269.29407688759,269.29407688759,269.29407688759,269.29407688759,269.29407688759,269.29407688759,269.29407688759,269.29407688759,269.29407688759,269.29407688759,269.29407688759,269.29407688759,269.29407688759,269.29407688759,269.29407688759,269.29407688759,269.29407688759,269.29407688759,227.36536993161,534.8980009583,-1.1116069177677,470.76331981795,-1.1230056077479,0
0.0003921875,1557692782.005,3.388139052003e-05,0.00011620833072858,4.9908258594461e-05,1.0367959042248,0,0,0,0,0,0,0,0,0,0,0,0,0,0,0,0,0,0,0,0,0,0,0,0,0,0,0,0,0,0,0,0,0,0,0,0,0,0,0,0,0,0,0,0,0,0,0,0,-0.97877433293017,-0.013689706180386,-0.2469693145791,5.2086341649031,2.9604029576362,1.0802078456266,-3.1568993802028,1.5646139041204,2.7346135697748,-0.46910559652707,1.8727284810422,-5.4088738442591,1.5229875020928,-1.3510164416359,1.8073448979788,-4.1868262066059,1.9233983945099,4.5101044332824,-1.021533128587,-4.5038127729406,1.8818328440046,1.8877285456982,0.025186975505121,-4.1184712340223,3.1927725908263,-2.4302386022453,1.2068458897322,1.0542346138747,-1.6413907023198,1.1052065063705,1.3383571589273,-0.28774863871756,0.80893834482198,-4.0185739034585,-1.6616457095521,-3.3314576929179,5.3904665126947,-2.6286925376201,3.1453880082594,-0.4055732637712,-1.2754803869768,-6.8120439203266,1.0237239516083,-2.0018372198742,-3.3869986384167,1.4278290135119,3.338875262727,-3.4809026612774,269.75999071929,269.75999071929,269.75999071929,269.75999071929,269.75999071929,269.75999071929,269.75999071929,269.75999071929,269.75999071929,269.75999071929,269.75999071929,269.75999071929,269.75999071929,269.75999071929,269.75999071929,269.75999071929,269.75999071929,269.75999071929,269.75999071929,269.75999071929,269.75999071929,269.75999071929,269.75999071929,269.75999071929,269.75999071929,269.75999071929,269.75999071929,269.75999071929,269.75999071929,269.75999071929,269.75999071929,269.75999071929,269.75999071929,269.75999071929,269.75999071929,269.75999071929,269.75999071929,269.75999071929,269.75999071929,269.75999071929,269.75999071929,269.75999071929,269.75999071929,269.75999071929,269.75999071929,269.75999071929,269.75999071929,269.75999071929,227.3401781017,535.8558066565,-1.1176035751988,471.58669335999,-1.1290150882916,0
0.0003934375,1565578365.3194,3.3984402842323e-05,0.00011657882479778,5.008356171963e-05,1.0369156663448,0,0,0,0,0,0,0,0,0,0,0,0,0,0,0,0,0,0,0,0,0,0,0,0,0,0,0,0,0,0,0,0,0,0,0,0,0,0,0,0,0,0,0,0,0,0,0,0,-0.97872237918055,-0.012151926384782,-0.24624285696177,5.2084166197269,2.9597985170953,1.0796888112672,-3.155455306121,1.5643284660225,2.7342492013225,-0.46878458130306,1.8729067430495,-5.4086949942002,1.5236155229147,-1.3498287886042,1.80812808691,-4.1849133438463,1.921875285703,4.508754446953,-1.0216721152261,-4.5033103024616,1.8824687023063,1.8889505987711,0.025152151283956,-4.1197747630868,3.1931892136134,-2.4323863267795,1.2069991552058,1.0539792661796,-1.6399255719996,1.1044441980691,1.3375033069006,-0.28707920244492,0.80888166893791,-4.0168177436212,-1.6602004355695,-3.3307580696514,5.3908846033981,-2.6269854604892,3.1452665937426,-0.40531083001578,-1.2751339856752,-6.8105842495089,1.0239189336276,-2.0015238461544,-3.3870961363842,1.4291033965941,3.3374362998198,-3.4783646015151,270.22581217378,270.22581217378,270.22581217378,270.22581217378,270.22581217378,270.22581217378,270.22581217378,270.22581217378,270.22581217378,270.22581217378,270.22581217378,270.22581217378,270.22581217378,270.22581217378,270.22581217378,270.22581217378,270.22581217378,270.22581217378,270.22581217378,270.22581217378,270.22581217378,270.22581217378,270.22581217378,270.22581217378,270.22581217378,270.22581217378,270.22581217378,270.22581217378,270.22581217378,270.22581217378,270.22581217378,270.22581217378,270.22581217378,270.22581217378,270.22581217378,270.22581217378,270.22581217378,270.22581217378,270.22581217378,270.22581217378,270.22581217378,270.22581217378,270.22581217378,270.22581217378,270.22581217378,270.22581217378,270.22581217378,270.22581217378,227.31498115699,536.81339086468,-1.1236143179476,472.40985329727,-1.1350385747751,0
0.0003946875,1573480230.305,3.4088217739631e-05,0.0001169493190225,5.0258870120561e-05,1.0370354248504,0,0,0,0,0,0,0,0,0,0,0,0,0,0,0,0,0,0,0,0,0,0,0,0,0,0,0,0,0,0,0,0,0,0,0,0,0,0,0,0,0,0,0,0,0,0,0,0,-0.97866965843861,-0.010617324399074,-0.24552926955697,5.2082004352869,2.9591942287535,1.0791717588014,-3.1540111569022,1.5640421496888,2.7338838421431,-0.46846302181132,1.8730807881504,-5.408513127467,1.5242434444213,-1.3486429890259,1.8089057245474,-4.1829927199497,1.9203517985652,4.5074077740091,-1.0218091745384,-4.5028115048068,1.8830973782449,1.8901732922816,0.025118103758517,-4.1210818530298,3.1936005531565,-2.4345298801376,1.2071495704559,1.0537249647145,-1.6384584702135,1.1036816561537,1.3366476254198,-0.28640776864774,0.80882487373804,-4.015061906574,-1.6587602442174,-3.3300586879775,5.3912998865428,-2.6252755639259,3.1451430517548,-0.40504944793759,-1.2747898204636,-6.8091164579313,1.0241109550149,-2.0012134969633,-3.3872001595733,1.4303761003449,3.336002105971,-3.4758260673203,270.69154123337,270.69154123337,270.69154123337,270.69154123337,270.69154123337,270.69154123337,270.69154123337,270.69154123337,270.69154123337,270.69154123337,270.69154123337,270.69154123337,270.69154123337,270.69154123337,270.69154123337,270.69154123337,270.69154123337,270.69154123337,270.69154123337,270.69154123337,270.69154123337,270.69154123337,270.69154123337,270.69154123337,270.69154123337,270.69154123337,270.69154123337,270.69154123337,270.69154123337,270.69154123337,270.69154123337,270.69154123337,270.69154123337,270.69154123337,270.69154123337,270.69154123337,270.69154123337,270.69154123337,270.69154123337,270.69154123337,270.69154123337,270.69154123337,270.69154123337,270.69154123337,270.69154123337,270.69154123337,270.69154123337,270.69154123337,227.28977670416,537.77075289899,-1.1296391310624,473.23279963582,-1.1410760538441,0
0.0003959375,1581398354.2174,3.4198299863101e-05,0.00011731981339983,5.0434183935744e-05,1.037155179742,0,0,0,0,0,0,0,0,0,0,0,0,0,0,0,0,0,0,0,0,0,0,0,0,0,0,0,0,0,0,0,0,0,0,0,0,0,0,0,0,0,0,0,0,0,0,0,0,-0.97861612420665,-0.0090856765849865,-0.24482854423883,5.2079855774759,2.9585901134559,1.0786566821975,-3.152567003751,1.5637548459112,2.7335174162946,-0.46814090772974,1.8732506587311,-5.4083282910736,1.5248712450534,-1.3474590811993,1.8096778990873,-4.1810645679772,1.9188280075922,4.5060644545631,-1.0219443272606,-4.5023163748177,1.8837187867844,1.8913964823627,0.025084860049116,-4.122392644451,3.1940067276348,-2.4366693711069,1.2072971672063,1.0534716336821,-1.6369895523699,1.1029188160668,1.3357901268628,-0.28573432031881,0.80876794474826,-4.0133063797702,-1.6573251004357,-3.3293596544786,5.3917123612114,-2.6235629394426,3.1450174847279,-0.40478909200237,-1.2744478063733,-6.8076408695056,1.0243001646417,-2.0009063122306,-3.3873106068623,1.4316472751462,3.3345727506388,-3.4732872460817,271.15717787598,271.15717787598,271.15717787598,271.15717787598,271.15717787598,271.15717787598,271.15717787598,271.15717787598,271.15717787598,271.15717787598,271.15717787598,271.15717787598,271.15717787598,271.15717787598,271.15717787598,271.15717787598,271.15717787598,271.15717787598,271.15717787598,271.15717787598,271.15717787598,271.15717787598,271.15717787598,271.15717787598,271.15717787598,271.15717787598,271.15717787598,271.15717787598,271.15717787598,271.15717787598,271.15717787598,271.15717787598,271.15717787598,271.15717787598,271.15717787598,271.15717787598,271.15717787598,271.15717787598,271.15717787598,271.15717787598,271.15717787598,271.15717787598,271.15717787598,271.15717787598,271.15717787598,271.15717787598,271.15717787598,271.15717787598,227.26456262672,538.72789220586,-1.1356780040492,474.05553241168,-1.147127512563,0
0.0003971875,1589332715.0016,3.4308359548595e-05,0.00011769030792693,5.0609502752409e-05,1.0372749310202,0,0,0,0,0,0,0,0,0,0,0,0,0,0,0,0,0,0,0,0,0,0,0,0,0,0,0,0,0,0,0,0,0,0,0,0,0,0,0,0,0,0,0,0,0,0,0,0,-0.97856173900496,-0.007556788791273,-0.24414064854103,5.2077720012977,2.957986191369,1.0781435766214,-3.1511228972153,1.5634664554631,2.7331498401222,-0.46781823276552,1.8734163872732,-5.4081405724349,1.5254989044898,-1.3462771012169,1.8104447000277,-4.1791290802139,1.9173039810039,4.5047245195135,-1.0220775920245,-4.5018248877461,1.8843328579768,1.892620017572,0.025052442949511,-4.1237072276967,3.1944078296001,-2.4388049348461,1.2074419779526,1.0532192056249,-1.6355189526202,1.1021556150858,1.3349308156182,-0.2850588498153,0.80871086680524,-4.0115511818672,-1.6558949704783,-3.3286610578224,5.3921220504655,-2.6218476672506,3.1448899887555,-0.40452974305227,-1.2741078629743,-6.8061577340958,1.0244866931474,-2.0006024007238,-3.3874274161138,1.4329170553827,3.3331482881089,-3.4707483159627,271.62272207606,271.62272207606,271.62272207606,271.62272207606,271.62272207606,271.62272207606,271.62272207606,271.62272207606,271.62272207606,271.62272207606,271.62272207606,271.62272207606,271.62272207606,271.62272207606,271.62272207606,271.62272207606,271.62272207606,271.62272207606,271.62272207606,271.62272207606,271.62272207606,271.62272207606,271.62272207606,271.62272207606,271.62272207606,271.62272207606,271.62272207606,271.62272207606,271.62272207606,271.62272207606,271.62272207606,271.62272207606,271.62272207606,271.62272207606,271.62272207606,271.62272207606,271.62272207606,271.62272207606,271.62272207606,271.62272207606,271.62272207606,271.62272207606,271.62272207606,271.62272207606,271.62272207606,271.62272207606,271.62272207606,271.62272207606,227.23933723883,539.68480831532,-1.1417309224029,474.87805166767,-1.1531929383395,0
0.0003984375,1597283291.237,3.4418396660037e-05,0.00011806080260112,5.0784826144214e-05,1.0373946786854,0,0,0,0,0,0,0,0,0,0,0,0,0,0,0,0,0,0,0,0,0,0,0,0,0,0,0,0,0,0,0,0,0,0,0,0,0,0,0,0,0,0,0,0,0,0,0,0,-0.97850646781327,-0.006030485888674,-0.2434655350907,5.2075596698322,2.9573824848569,1.0776324364351,-3.1496788995994,1.5631768892917,2.7327810568444,-0.4674949928443,1.8735780084369,-5.4079500270007,1.5261264043313,-1.3450970658843,1.8112062008932,-4.1771864454142,1.9157797831739,4.5033879964628,-1.0222089857181,-4.5013370357407,1.8849395360551,1.8938437741805,0.025020872927928,-4.1250256900582,3.1948039475148,-2.4409366775995,1.2075840385602,1.0529676185791,-1.6340468010873,1.1013919994236,1.3340697069874,-0.28438135330034,0.80865362715339,-4.0097963136683,-1.6544698173914,-3.3279629519899,5.3925289466658,-2.6201298260816,3.1447606526949,-0.40427137918823,-1.2737699162765,-6.8046672972198,1.0246706622774,-2.0003018398149,-3.3875504986492,1.4341855611818,3.3317287643346,-3.4682094409006,272.08817380498,272.08817380498,272.08817380498,272.08817380498,272.08817380498,272.08817380498,272.08817380498,272.08817380498,272.08817380498,272.08817380498,272.08817380498,272.08817380498,272.08817380498,272.08817380498,272.08817380498,272.08817380498,272.08817380498,272.08817380498,272.08817380498,272.08817380498,272.08817380498,272.08817380498,272.08817380498,272.08817380498,272.08817380498,272.08817380498,272.08817380498,272.08817380498,272.08817380498,272.08817380498,272.08817380498,272.08817380498,272.08817380498,272.08817380498,272.08817380498,272.08817380498,272.08817380498,272.08817380498,272.08817380498,272.08817380498,272.08817380498,272.08817380498,272.08817380498,272.08817380498,272.08817380498,272.08817380498,272.08817380498,272.08817380498,227.21409906098,540.64150084935,-1.147797877665,475.70035746105,-1.1592723211581,0
0.0003996875,1605250062.0996,3.4528411208193e-05,0.00011843129741977,5.0960153963833e-05,1.037514422738,0,0,0,0,0,0,0,0,0,0,0,0,0,0,0,0,0,0,0,0,0,0,0,0,0,0,0,0,0,0,0,0,0,0,0,0,0,0,0,0,0,0,0,0,0,0,0,0,-0.97845028002438,-0.004506611659195,-0.24280314147219,5.2073485426292,2.9567790176593,1.0771232569552,-3.1482350643188,1.562886066931,2.7324110191219,-0.46717118635302,1.8737355531563,-5.40775671687,1.5267537260115,-1.343918982445,1.8119624691911,-4.1752368314941,1.9142554752671,4.5020549064716,-1.02233852193,-4.5008528073543,1.885538777971,1.8950676409944,0.024990167556206,-4.1263481007784,3.1951951589091,-2.4430647107825,1.2077233870002,1.0527168168293,-1.6325732136103,1.1006279203827,1.3332068175466,-0.28370183216181,0.80859621303223,-4.0080417817397,-1.6530496078934,-3.3272653699697,5.3929330375374,-2.6184094871333,3.1446295593845,-0.40401397853734,-1.2734338960962,-6.8031697758196,1.0248521842058,-2.0000046818167,-3.3876797660848,1.435452899658,3.3303142133821,-3.4656707708007,272.55353303171,272.55353303171,272.55353303171,272.55353303171,272.55353303171,272.55353303171,272.55353303171,272.55353303171,272.55353303171,272.55353303171,272.55353303171,272.55353303171,272.55353303171,272.55353303171,272.55353303171,272.55353303171,272.55353303171,272.55353303171,272.55353303171,272.55353303171,272.55353303171,272.55353303171,272.55353303171,272.55353303171,272.55353303171,272.55353303171,272.55353303171,272.55353303171,272.55353303171,272.55353303171,272.55353303171,272.55353303171,272.55353303171,272.55353303171,272.55353303171,272.55353303171,272.55353303171,272.55353303171,272.55353303171,272.55353303171,272.55353303171,272.55353303171,272.55353303171,272.55353303171,272.55353303171,272.55353303171,272.55353303171,272.55353303171,227.18884690313,541.59796949898,-1.153878856584,476.52244986411,-1.1653656479041,0
0.0004009375,1613233007.3277,3.4638403397552e-05,0.00011880179238036,5.1135486425805e-05,1.0376341631785,0,0,0,0,0,0,0,0,0,0,0,0,0,0,0,0,0,0,0,0,0,0,0,0,0,0,0,0,0,0,0,0,0,0,0,0,0,0,0,0,0,0,0,0,0,0,0,0,-0.97839314993556,-0.0029850247346106,-0.24215339836609,5.2071385818777,2.95617581018,1.0766160342614,-3.1467914444835,1.5625939156523,2.732039678213,-0.46684681321264,1.8738890496312,-5.4075607156377,1.527380854198,-1.3427428562747,1.8127135648757,-4.1732804010669,1.9127311123078,4.5007252626928,-1.0224662125552,-4.5003721964409,1.8861305501485,1.8962915059685,0.02496034243432,-4.1276745117225,3.1955815331688,-2.4451891457655,1.2078600599175,1.0524667507877,-1.6310982965153,1.099863334275,1.3323421618192,-0.28302029166663,0.80853861227143,-4.0062876058865,-1.651634308487,-3.326568330897,5.3933343027536,-2.6166867228625,3.1444967827583,-0.4037575245067,-1.273099738793,-6.8016653677445,1.0250313622445,-1.9997109576905,-3.3878151266579,1.4367191655449,3.3289046598113,-3.4631324462708,273.01879972317,273.01879972317,273.01879972317,273.01879972317,273.01879972317,273.01879972317,273.01879972317,273.01879972317,273.01879972317,273.01879972317,273.01879972317,273.01879972317,273.01879972317,273.01879972317,273.01879972317,273.01879972317,273.01879972317,273.01879972317,273.01879972317,273.01879972317,273.01879972317,273.01879972317,273.01879972317,273.01879972317,273.01879972317,273.01879972317,273.01879972317,273.01879972317,273.01879972317,273.01879972317,273.01879972317,273.01879972317,273.01879972317,273.01879972317,273.01879972317,273.01879972317,273.01879972317,273.01879972317,273.01879972317,273.01879972317,273.01879972317,273.01879972317,273.01879972317,273.01879972317,273.01879972317,273.01879972317,273.01879972317,273.01879972317,227.16357977645,542.55421401309,-1.1599738509616,477.34432895011,-1.1714729104906,0
0.0004021875,1621232107.1836,3.4748373272e-05,0.00011917228748042,5.1310823456688e-05,1.0377539000073,0,0,0,0,0,0,0,0,0,0,0,0,0,0,0,0,0,0,0,0,0,0,0,0,0,0,0,0,0,0,0,0,0,0,0,0,0,0,0,0,0,0,0,0,0,0,0,0,-0.9783350520438,-0.0014655976263405,-0.24151622296276,5.2069297506278,2.9555728841678,1.0761107625661,-3.1453480868572,1.5623003702063,2.7316670022571,-0.46652187466945,1.8740385227075,-5.407362058003,1.5280077734532,-1.3415686843225,1.813459540025,-4.1713173014047,1.911206748234,4.4993990744875,-1.0225920691383,-4.4998951924848,1.8867148298392,1.8975152761513,0.024931411411831,-4.1290049628892,3.195963128206,-2.4473100645794,1.2079940971441,1.0522173734019,-1.6296221460804,1.0990982021159,1.3314757602302,-0.28233674007044,0.8084808131874,-4.004533780259,-1.6502238845466,-3.3258718412095,5.3937327108368,-2.6149615995616,3.144362397042,-0.40350199818624,-1.2727673837436,-6.8001542497603,1.0252082916962,-1.9994206828818,-3.3879564829232,1.437984448873,3.327500121034,-3.460594596971,273.48397384467,273.48397384467,273.48397384467,273.48397384467,273.48397384467,273.48397384467,273.48397384467,273.48397384467,273.48397384467,273.48397384467,273.48397384467,273.48397384467,273.48397384467,273.48397384467,273.48397384467,273.48397384467,273.48397384467,273.48397384467,273.48397384467,273.48397384467,273.48397384467,273.48397384467,273.48397384467,273.48397384467,273.48397384467,273.48397384467,273.48397384467,273.48397384467,273.48397384467,273.48397384467,273.48397384467,273.48397384467,273.48397384467,273.48397384467,273.48397384467,273.48397384467,273.48397384467,273.48397384467,273.48397384467,273.48397384467,273.48397384467,273.48397384467,273.48397384467,273.48397384467,273.48397384467,273.48397384467,273.48397384467,273.48397384467,227.1382968637,543.51023418793,-1.1660828485976,478.16599479751,-1.1775940962735,0
0.0004034375,1629247342.4468,3.4858320640448e-05,0.0001195427827176,5.1486164557639e-05,1.037873633225,0,0,0,0,0,0,0,0,0,0,0,0,0,0,0,0,0,0,0,0,0,0,0,0,0,0,0,0,0,0,0,0,0,0,0,0,0,0,0,0,0,0,0,0,0,0,0,0,-0.97827596571162,5.1785391483829e-05,-0.24089152648286,5.2067220100638,2.9549702598416,1.0756074374864,-3.1439050346028,1.5620053729662,2.7312929657538,-0.46619637309494,1.8741839969811,-5.407160807371,1.5286344705714,-1.340396458275,1.8142004429874,-4.1693476712794,1.9096824303814,4.4980763463302,-1.0227161016215,-4.499421784864,1.8872916035724,1.8987388665586,0.024903386871355,-4.1303394840036,3.1963399990571,-2.449427566091,1.2081255371664,1.0519686438717,-1.6281448487493,1.0983324900617,1.3306076353426,-0.28165118848853,0.80842280500517,-4.0027803211717,-1.6488183036645,-3.3251758918185,5.3941282253916,-2.6132341809147,3.1442264675229,-0.40324738275211,-1.2724367735713,-6.7986365844058,1.0253830591209,-1.9991338530942,-3.388103734534,1.4392488271851,3.3261006078525,-3.4580573430867,273.94905536,273.94905536,273.94905536,273.94905536,273.94905536,273.94905536,273.94905536,273.94905536,273.94905536,273.94905536,273.94905536,273.94905536,273.94905536,273.94905536,273.94905536,273.94905536,273.94905536,273.94905536,273.94905536,273.94905536,273.94905536,273.94905536,273.94905536,273.94905536,273.94905536,273.94905536,273.94905536,273.94905536,273.94905536,273.94905536,273.94905536,273.94905536,273.94905536,273.94905536,273.94905536,273.94905536,273.94905536,273.94905536,273.94905536,273.94905536,273.94905536,273.94905536,273.94905536,273.94905536,273.94905536,273.94905536,273.94905536,273.94905536,227.1129974281,544.46602987398,-1.1722058400069,478.98744749793,-1.18372919597,0
0.0004046875,1637278694.3957,3.4968245663473e-05,0.00011991327808959,5.16615098789e-05,1.037993362832,0,0,0,0,0,0,0,0,0,0,0,0,0,0,0,0,0,0,0,0,0,0,0,0,0,0,0,0,0,0,0,0,0,0,0,0,0,0,0,0,0,0,0,0,0,0,0,0,-0.97821587099051,0.0015672307743598,-0.24027921329901,5.2065153216303,2.954367954799,1.0751060537381,-3.1424623267839,1.5617088722579,2.7309175469263,-0.46587031140916,1.8743254944971,-5.4069570073358,1.5292609336283,-1.339226168055,1.814936314697,-4.1673716415283,1.9081582038832,4.4967570760305,-1.02283831937,-4.4989519618816,1.887860865469,1.8999621964515,0.024876279889094,-4.1316780965812,3.1967121929035,-2.4515417326784,1.20825441823,1.0517205241926,-1.6266664824744,1.0975661683367,1.3297378109593,-0.28096364981375,0.8083645774258,-4.0010272321949,-1.647417533298,-3.3244804683643,5.3945207992659,-2.6115045281226,3.1440890567608,-0.40299366296913,-1.2721078554011,-6.7971125213366,1.0255557458859,-1.9988504546486,-3.3882567733743,1.4405123732029,3.3247061236646,-3.4555207965253,274.41404423198,274.41404423198,274.41404423198,274.41404423198,274.41404423198,274.41404423198,274.41404423198,274.41404423198,274.41404423198,274.41404423198,274.41404423198,274.41404423198,274.41404423198,274.41404423198,274.41404423198,274.41404423198,274.41404423198,274.41404423198,274.41404423198,274.41404423198,274.41404423198,274.41404423198,274.41404423198,274.41404423198,274.41404423198,274.41404423198,274.41404423198,274.41404423198,274.41404423198,274.41404423198,274.41404423198,274.41404423198,274.41404423198,274.41404423198,274.41404423198,274.41404423198,274.41404423198,274.41404423198,274.41404423198,274.41404423198,274.41404423198,274.41404423198,274.41404423198,274.41404423198,274.41404423198,274.41404423198,274.41404423198,274.41404423198,227.08768096377,545.42160095148,-1.1783428147668,479.8086871401,-1.1898781990751,0
0.0004059375,1645326144.7994,3.5073694221906e-05,0.00012028377359412,5.1828673996219e-05,1.0381130888289,0,0,0,0,0,0,0,0,0,0,0,0,0,0,0,0,0,0,0,0,0,0,0,0,0,0,0,0,0,0,0,0,0,0,0,0,0,0,0,0,0,0,0,0,0,0,0,0,-0.9781547522779,0.0030808349398093,-0.23967918069069,5.2063096446482,2.9537659858152,1.0746066056521,-3.1410199960618,1.5614108230755,2.7305407300648,-0.46554369306818,1.8744630350788,-5.406750725806,1.5298871526475,-1.3380578011045,1.8156671904768,-4.1653893320655,1.9066341078069,4.495441257558,-1.0229587311899,-4.4984857077154,1.8884226176732,1.9011851930089,0.024850100690645,-4.1330208149994,3.1970797499694,-2.4536526590219,1.2083807789558,1.0514729797752,-1.6251871155789,1.0967992116224,1.3288663129433,-0.28027413862923,0.80830612066458,-3.9992745373746,-1.646021540842,-3.3237855463789,5.3949103786726,-2.6097726967701,3.14395021974,-0.40274082570547,-1.271780580513,-6.7955821969865,1.0257264251314,-1.9985704581596,-3.3884154885219,1.441775151579,3.3233166671669,-3.4529850605331,274.87894042251,274.87894042251,274.87894042251,274.87894042251,274.87894042251,274.87894042251,274.87894042251,274.87894042251,274.87894042251,274.87894042251,274.87894042251,274.87894042251,274.87894042251,274.87894042251,274.87894042251,274.87894042251,274.87894042251,274.87894042251,274.87894042251,274.87894042251,274.87894042251,274.87894042251,274.87894042251,274.87894042251,274.87894042251,274.87894042251,274.87894042251,274.87894042251,274.87894042251,274.87894042251,274.87894042251,274.87894042251,274.87894042251,274.87894042251,274.87894042251,274.87894042251,274.87894042251,274.87894042251,274.87894042251,274.87894042251,274.87894042251,274.87894042251,274.87894042251,274.87894042251,274.87894042251,274.87894042251,274.87894042251,274.87894042251,227.06234699761,546.37694734018,-1.1844936678322,480.62971382131,-1.1960411937629,0
0.0004071875,1653389675.9074,3.5179140796484e-05,0.00012065426922908,5.1995880352123e-05,1.0382328112162,0,0,0,0,0,0,0,0,0,0,0,0,0,0,0,0,0,0,0,0,0,0,0,0,0,0,0,0,0,0,0,0,0,0,0,0,0,0,0,0,0,0,0,0,0,0,0,0,-0.97809259114403,0.0045926884741575,-0.23909132256281,5.2061049443556,2.953164368007,1.0741090868171,-3.1395780741746,1.5611111852575,2.7301625063716,-0.46521652178535,1.8745966381267,-5.4065419595291,1.5305131189164,-1.3368913418637,1.8163931032593,-4.1634008585179,1.9051101797355,4.4941288811133,-1.0230773460998,-4.4980230087246,1.8889768682459,1.9024077910453,0.024824858427387,-4.1343676460805,3.1974427074075,-2.4557603873147,1.2085046573487,1.0512259785569,-1.6237068097732,1.0960315976705,1.3279931703291,-0.27958267050714,0.80824742586817,-3.9975222111137,-1.644630294481,-3.3230910960759,5.3952969065157,-2.6080387427492,3.1438100114116,-0.40248885808112,-1.2714549019385,-6.7940457369466,1.025895166118,-1.9982938262581,-3.3885797660537,1.4430372242658,3.3219322324675,-3.4504502318804,275.34374389288,275.34374389288,275.34374389288,275.34374389288,275.34374389288,275.34374389288,275.34374389288,275.34374389288,275.34374389288,275.34374389288,275.34374389288,275.34374389288,275.34374389288,275.34374389288,275.34374389288,275.34374389288,275.34374389288,275.34374389288,275.34374389288,275.34374389288,275.34374389288,275.34374389288,275.34374389288,275.34374389288,275.34374389288,275.34374389288,275.34374389288,275.34374389288,275.34374389288,275.34374389288,275.34374389288,275.34374389288,275.34374389288,275.34374389288,275.34374389288,275.34374389288,275.34374389288,275.34374389288,275.34374389288,275.34374389288,275.34374389288,275.34374389288,275.34374389288,275.34374389288,275.34374389288,275.34374389288,275.34374389288,275.34374389288,227.03699522013,547.33206897623,-1.1906584837657,481.45052763044,-1.2022180724284,0
0.0004084375,1661469270.4495,3.528458563548e-05,0.00012102476499235,5.2163129266422e-05,1.0383525299943,0,0,0,0,0,0,0,0,0,0,0,0,0,0,0,0,0,0,0,0,0,0,0,0,0,0,0,0,0,0,0,0,0,0,0,0,0,0,0,0,0,0,0,0,0,0,0,0,-0.97802937538248,0.0061028727185084,-0.23851552779439,5.2059011812009,2.9525631140935,1.0736134898064,-3.1381365849463,1.5608099240719,2.7297828718521,-0.46488880161331,1.8747263189513,-5.406330770478,1.5311388251848,-1.3357267738481,1.8171140797256,-4.1614063305677,1.9035864529109,4.4928199315286,-1.023194173999,-4.4975638446382,1.8895236313453,1.9036299319372,0.024800561218854,-4.1357185932192,3.1978010933144,-2.4578649985435,1.2086260906403,1.0509794910092,-1.622225617717,1.0952633083114,1.3271184138985,-0.27888926214008,0.80818848396774,-3.9957702778626,-1.6432437633105,-3.3223970829226,5.3956803152653,-2.6063027184746,3.1436684817407,-0.40223774887172,-1.2711307766937,-6.7925032611562,1.0260620305891,-1.9980205125695,-3.3887494833987,1.444298647618,3.3205528081732,-3.4479164004588,275.80845460371,275.80845460371,275.80845460371,275.80845460371,275.80845460371,275.80845460371,275.80845460371,275.80845460371,275.80845460371,275.80845460371,275.80845460371,275.80845460371,275.80845460371,275.80845460371,275.80845460371,275.80845460371,275.80845460371,275.80845460371,275.80845460371,275.80845460371,275.80845460371,275.80845460371,275.80845460371,275.80845460371,275.80845460371,275.80845460371,275.80845460371,275.80845460371,275.80845460371,275.80845460371,275.80845460371,275.80845460371,275.80845460371,275.80845460371,275.80845460371,275.80845460371,275.80845460371,275.80845460371,275.80845460371,275.80845460371,275.80845460371,275.80845460371,275.80845460371,275.80845460371,275.80845460371,275.80845460371,275.80845460371,275.80845460371,227.01162526359,548.28696583233,-1.1968372546466,482.2711286699,-1.2084088274912,0
0.0004096875,1669564911.6409,3.5390028513853e-05,0.00012139526088186,5.2330420190745e-05,1.0384722451639,0,0,0,0,0,0,0,0,0,0,0,0,0,0,0,0,0,0,0,0,0,0,0,0,0,0,0,0,0,0,0,0,0,0,0,0,0,0,0,0,0,0,0,0,0,0,0,0,-0.97796509278381,0.0076114632661977,-0.23795168190655,5.2056983100401,2.9519622353795,1.0731198066791,-3.1366955486036,1.5605070100461,2.7294018239322,-0.46456053645896,1.8748520945756,-5.4061172077002,1.5317642657283,-1.3345640808645,1.8178301443747,-4.1594058515093,1.9020629563276,4.4915143910139,-1.0233092241326,-4.4971081933154,1.8900629272575,1.9048515573112,0.024777216951422,-4.1370736549872,3.1981549359392,-2.4599665710681,1.2087451156356,1.0507334896979,-1.6207435849323,1.0944943288837,1.326242075523,-0.27819393063823,0.80812928745744,-3.9940187494248,-1.641861916055,-3.3217034710135,5.3960605346109,-2.6045646736185,3.1435256763865,-0.40198748803766,-1.2708081634255,-6.7909548801985,1.0262270750248,-1.9977504634076,-3.3889245165094,1.4455594737832,3.319178380533,-3.4453836509187,276.27307251536,276.27307251536,276.27307251536,276.27307251536,276.27307251536,276.27307251536,276.27307251536,276.27307251536,276.27307251536,276.27307251536,276.27307251536,276.27307251536,276.27307251536,276.27307251536,276.27307251536,276.27307251536,276.27307251536,276.27307251536,276.27307251536,276.27307251536,276.27307251536,276.27307251536,276.27307251536,276.27307251536,276.27307251536,276.27307251536,276.27307251536,276.27307251536,276.27307251536,276.27307251536,276.27307251536,276.27307251536,276.27307251536,276.27307251536,276.27307251536,276.27307251536,276.27307251536,276.27307251536,276.27307251536,276.27307251536,276.27307251536,276.27307251536,276.27307251536,276.27307251536,276.27307251536,276.27307251536,276.27307251536,276.27307251536,226.98623697637,549.24163790179,-1.2030299705845,483.09151704459,-1.214613449108,0
0.0004109375,1677676583.193,3.5495469338019e-05,0.00012176575689562,5.2497752822169e-05,1.0385919567254,0,0,0,0,0,0,0,0,0,0,0,0,0,0,0,0,0,0,0,0,0,0,0,0,0,0,0,0,0,0,0,0,0,0,0,0,0,0,0,0,0,0,0,0,0,0,0,0,-0.97789973081911,0.0091185317276231,-0.23739966963011,5.2054962920555,2.9513617410894,1.0726280288901,-3.1352549808238,1.560202417784,2.7290193667763,-0.46423173023453,1.8749739798507,-5.4059012824019,1.5323894377736,-1.3334032440725,1.8185413163783,-4.1573995186362,1.9005397156677,4.490212237814,-1.0234225055351,-4.4966560289796,1.8905947800154,1.9060726193846,0.02475483254629,-4.1384328259942,3.1985042585708,-2.4620651438085,1.2088617683373,1.0504879490556,-1.6192607501286,1.093724647824,1.3253641897414,-0.27749669330238,0.80806982927515,-3.9922676164972,-1.640484721871,-3.3210102179266,5.3964374872009,-2.6028246549162,3.1433816376548,-0.40173806642755,-1.2704870257742,-6.7894006968175,1.0263903518582,-1.9974836172483,-3.3891047354583,1.4468197514273,3.3178089318314,-3.4428520589437,276.73759758801,276.73759758801,276.73759758801,276.73759758801,276.73759758801,276.73759758801,276.73759758801,276.73759758801,276.73759758801,276.73759758801,276.73759758801,276.73759758801,276.73759758801,276.73759758801,276.73759758801,276.73759758801,276.73759758801,276.73759758801,276.73759758801,276.73759758801,276.73759758801,276.73759758801,276.73759758801,276.73759758801,276.73759758801,276.73759758801,276.73759758801,276.73759758801,276.73759758801,276.73759758801,276.73759758801,276.73759758801,276.73759758801,276.73759758801,276.73759758801,276.73759758801,276.73759758801,276.73759758801,276.73759758801,276.73759758801,276.73759758801,276.73759758801,276.73759758801,276.73759758801,276.73759758801,276.73759758801,276.73759758801,276.73759758801,226.96083024834,550.19608518685,-1.2092366226084,483.91169284949,-1.220831928735,0
0.0004121875,1685804269.3043,3.560090813846e-05,0.00012213625303166,5.2665127087256e-05,1.0387116646794,0,0,0,0,0,0,0,0,0,0,0,0,0,0,0,0,0,0,0,0,0,0,0,0,0,0,0,0,0,0,0,0,0,0,0,0,0,0,0,0,0,0,0,0,0,0,0,0,-0.97783328028642,0.010624142213445,-0.2368593719783,5.2052950848048,2.9507616393998,1.0721381462805,-3.1338148927735,1.5598961261636,2.7286355065945,-0.46390238663613,1.8750919881427,-5.405683032459,1.5330143379076,-1.3322442467163,1.8192476121162,-4.1553874245612,1.8990167536503,4.4889134480082,-1.0235340297113,-4.4962073233256,1.8911192185865,1.9072930717902,0.024733414390804,-4.1397960984011,3.1988490799564,-2.4641607762485,1.2089760843436,1.0502428449184,-1.6177771451473,1.092954256528,1.324484792001,-0.27679756737187,0.8080101026328,-3.9905168885826,-1.6391121504513,-3.3203172827182,5.3968110908226,-2.6010827068556,3.1432364063155,-0.40148947670671,-1.2701673279338,-6.7878408082134,1.0265519071482,-1.9972199078655,-3.3892900065679,1.4480795270817,3.3164444418539,-3.4403216989756,277.20202978165,277.20202978165,277.20202978165,277.20202978165,277.20202978165,277.20202978165,277.20202978165,277.20202978165,277.20202978165,277.20202978165,277.20202978165,277.20202978165,277.20202978165,277.20202978165,277.20202978165,277.20202978165,277.20202978165,277.20202978165,277.20202978165,277.20202978165,277.20202978165,277.20202978165,277.20202978165,277.20202978165,277.20202978165,277.20202978165,277.20202978165,277.20202978165,277.20202978165,277.20202978165,277.20202978165,277.20202978165,277.20202978165,277.20202978165,277.20202978165,277.20202978165,277.20202978165,277.20202978165,277.20202978165,277.20202978165,277.20202978165,277.20202978165,277.20202978165,277.20202978165,277.20202978165,277.20202978165,277.20202978165,277.20202978165,226.93540493317,551.15030771523,-1.2154572016746,484.73165619136,-1.2270642575643,0
0.0004134375,1693947954.6868,3.5706344817197e-05,0.00012250674928808,5.28325426787e-05,1.0388313690264,0,0,0,0,0,0,0,0,0,0,0,0,0,0,0,0,0,0,0,0,0,0,0,0,0,0,0,0,0,0,0,0,0,0,0,0,0,0,0,0,0,0,0,0,0,0,0,0,-0.97776573210532,0.01212835615373,-0.23633066933167,5.2050946443681,2.950161936585,1.0716501479522,-3.1323752913555,1.5595881177763,2.728250253312,-0.46357250920682,1.8752061325323,-5.4054624810778,1.5336389663173,-1.3310870708813,1.8199490458093,-4.1533696575725,1.8974940892202,4.4876179947312,-1.0236438081654,-4.4957620442236,1.8916362754648,1.9085128725088,0.02471296832541,-4.1411634617586,3.199189416854,-2.4662535148454,1.2090880983591,1.0499981544623,-1.6162927957134,1.0921831491413,1.3236039201016,-0.27609656999711,0.80795010181527,-3.9887665656869,-1.6377441717197,-3.3196246219477,5.3971812597347,-2.5993388715826,3.1430900193232,-0.40124171181114,-1.2698490372676,-6.7862753061903,1.0267117829971,-1.9969592635817,-3.3894801922484,1.4493388442333,3.3150848878955,-3.4377926399855,277.66636905628,277.66636905628,277.66636905628,277.66636905628,277.66636905628,277.66636905628,277.66636905628,277.66636905628,277.66636905628,277.66636905628,277.66636905628,277.66636905628,277.66636905628,277.66636905628,277.66636905628,277.66636905628,277.66636905628,277.66636905628,277.66636905628,277.66636905628,277.66636905628,277.66636905628,277.66636905628,277.66636905628,277.66636905628,277.66636905628,277.66636905628,277.66636905628,277.66636905628,277.66636905628,277.66636905628,277.66636905628,277.66636905628,277.66636905628,277.66636905628,277.66636905628,277.66636905628,277.66636905628,277.66636905628,277.66636905628,277.66636905628,277.66636905628,277.66636905628,277.66636905628,277.66636905628,277.66636905628,277.66636905628,277.66636905628,226.90996102009,552.10430552391,-1.2216916987615,485.55140717318,-1.2333104270994,0
0.0004146875,1702107624.5686,3.5811779446321e-05,0.00012287724566303,5.2999999602538e-05,1.0389510697672,0,0,0,0,0,0,0,0,0,0,0,0,0,0,0,0,0,0,0,0,0,0,0,0,0,0,0,0,0,0,0,0,0,0,0,0,0,0,0,0,0,0,0,0,0,0,0,0,-0.97769707868453,0.013631230131381,-0.23581344064218,5.2048949239585,2.9495626374512,1.0711640215976,-3.1309361792565,1.5592783787579,2.7278636194337,-0.4632421011948,1.8753164253045,-5.4052396629586,1.5342633231677,-1.3299316992881,1.8206456288376,-4.1513463016016,1.8959717393362,4.4863258487422,-1.0237518537453,-4.4953201560881,1.8921459866791,1.9097319831438,0.02469349971619,-4.14253490421,3.1995252832187,-2.4683434134755,1.2091978444161,1.0497538558507,-1.61480772151,1.0914113224554,1.3227216129535,-0.27539371788886,0.80788982154779,-3.9870166552221,-1.6363807557929,-3.3189321920369,5.3975479035713,-2.5975931886419,3.1429425122349,-0.40099476562694,-1.2695321223711,-6.7847042780103,1.0268700174455,-1.9967016083308,-3.3896751508697,1.4505977444656,3.3137302450701,-3.4352649464657,278.13061537195,278.13061537195,278.13061537195,278.13061537195,278.13061537195,278.13061537195,278.13061537195,278.13061537195,278.13061537195,278.13061537195,278.13061537195,278.13061537195,278.13061537195,278.13061537195,278.13061537195,278.13061537195,278.13061537195,278.13061537195,278.13061537195,278.13061537195,278.13061537195,278.13061537195,278.13061537195,278.13061537195,278.13061537195,278.13061537195,278.13061537195,278.13061537195,278.13061537195,278.13061537195,278.13061537195,278.13061537195,278.13061537195,278.13061537195,278.13061537195,278.13061537195,278.13061537195,278.13061537195,278.13061537195,278.13061537195,278.13061537195,278.13061537195,278.13061537195,278.13061537195,278.13061537195,278.13061537195,278.13061537195,278.13061537195,226.88449849879,553.05807866566,-1.2279401048639,486.37094590318,-1.2395704287525,0
0.0004159375,1710283264.7219,3.5917212136849e-05,0.00012324774215471,5.3167497938092e-05,1.0390707669022,0,0,0,0,0,0,0,0,0,0,0,0,0,0,0,0,0,0,0,0,0,0,0,0,0,0,0,0,0,0,0,0,0,0,0,0,0,0,0,0,0,0,0,0,0,0,0,0,-0.97762731237048,0.015132817247241,-0.23530756606861,5.2046958791323,2.9489637455935,1.0706797542134,-3.1294975563035,1.5589668982152,2.7274756206992,-0.46291116551389,1.8754228782362,-5.4050145753761,1.534887411762,-1.3287781148994,1.8213373680246,-4.1493174350883,1.8944497161106,4.4850369791706,-1.0238581794239,-4.4948816208438,1.8926483903356,1.910950369648,0.024675013398787,-4.1439104108592,3.1998566911044,-2.4704304920004,1.2093053558226,1.0495099282408,-1.6133219375441,1.0906387756898,1.32183791092,-0.27468902721181,0.80782925740656,-3.9852671432997,-1.6350218727926,-3.3182399482477,5.397910927413,-2.5958456944934,3.1427939165309,-0.40074863343269,-1.2692165570888,-6.7831278038899,1.0270266434396,-1.9964468625534,-3.3898747372537,1.4518562671503,3.3123804868608,-3.4327386782613,278.59476868892,278.59476868892,278.59476868892,278.59476868892,278.59476868892,278.59476868892,278.59476868892,278.59476868892,278.59476868892,278.59476868892,278.59476868892,278.59476868892,278.59476868892,278.59476868892,278.59476868892,278.59476868892,278.59476868892,278.59476868892,278.59476868892,278.59476868892,278.59476868892,278.59476868892,278.59476868892,278.59476868892,278.59476868892,278.59476868892,278.59476868892,278.59476868892,278.59476868892,278.59476868892,278.59476868892,278.59476868892,278.59476868892,278.59476868892,278.59476868892,278.59476868892,278.59476868892,278.59476868892,278.59476868892,278.59476868892,278.59476868892,278.59476868892,278.59476868892,278.59476868892,278.59476868892,278.59476868892,278.59476868892,278.59476868892,226.85901742939,554.01162719388,-1.2342024114512,487.19027247852,-1.2458442550245,0
0.0004171875,1718474861.4555,3.6022642177591e-05,0.00012361823876129,5.3335036254706e-05,1.039190460432,0,0,0,0,0,0,0,0,0,0,0,0,0,0,0,0,0,0,0,0,0,0,0,0,0,0,0,0,0,0,0,0,0,0,0,0,0,0,0,0,0,0,0,0,0,0,0,0,-0.97755642794554,0.016633167218734,-0.23481292353481,5.2044974596969,2.9483652635829,1.0701973310404,-3.128059416116,1.5586536684024,2.727086274072,-0.46257970480505,1.8755255025725,-5.404787250389,1.5355112352714,-1.3276263016464,1.8220242705303,-4.1472831350815,1.892928030516,4.48375135349,-1.0239628006726,-4.4944463946573,1.8931435281346,1.9121679993673,0.024657513753477,-4.1452899691397,3.2001836503301,-2.4725147971893,1.2094106654549,1.0492663514451,-1.6118354518006,1.0898655102765,1.3209528552718,-0.27398251339858,0.80776840543132,-3.9835180382049,-1.6336674928923,-3.3175478475774,5.3982702338104,-2.5940964236733,3.1426442631825,-0.40050331061487,-1.2689023135546,-6.7815459653453,1.0271816906743,-1.9961949426982,-3.3900788027314,1.4531144501869,3.311035585169,-3.4302138935631,279.05882896752,279.05882896752,279.05882896752,279.05882896752,279.05882896752,279.05882896752,279.05882896752,279.05882896752,279.05882896752,279.05882896752,279.05882896752,279.05882896752,279.05882896752,279.05882896752,279.05882896752,279.05882896752,279.05882896752,279.05882896752,279.05882896752,279.05882896752,279.05882896752,279.05882896752,279.05882896752,279.05882896752,279.05882896752,279.05882896752,279.05882896752,279.05882896752,279.05882896752,279.05882896752,279.05882896752,279.05882896752,279.05882896752,279.05882896752,279.05882896752,279.05882896752,279.05882896752,279.05882896752,279.05882896752,279.05882896752,279.05882896752,279.05882896752,279.05882896752,279.05882896752,279.05882896752,279.05882896752,279.05882896752,279.05882896752,226.83351780994,554.96495118179,-1.2404786095888,488.00938701062,-1.2521318966983,0
0.0004184375,1726682401.6571,3.6128069898255e-05,0.00012398873548103,5.3502615035586e-05,1.0393101503572,0,0,0,0,0,0,0,0,0,0,0,0,0,0,0,0,0,0,0,0,0,0,0,0,0,0,0,0,0,0,0,0,0,0,0,0,0,0,0,0,0,0,0,0,0,0,0,0,-0.97748441976418,0.018132326779878,-0.23432939251116,5.204299615147,2.9477671930579,1.0697167362941,-3.1266217508187,1.5583386839084,2.7266955996003,-0.4622477212689,1.8756243094338,-5.404557697758,1.536134799463,-1.3264762436381,1.8227063397481,-4.1452434727323,1.8914066895404,4.4824689381596,-1.0240657336365,-4.4940144323412,1.8936314431172,1.9133848435648,0.024641004772951,-4.1466735632665,3.2005061695431,-2.4745963590346,1.2095138055173,1.0490231058225,-1.6103482689043,1.0890915296217,1.320066488782,-0.27327419105459,0.80770726252018,-3.9817693322944,-1.6323175861752,-3.3168558463782,5.3986257216429,-2.5923454074622,3.1424935805099,-0.40025879343293,-1.2685893682412,-6.7799588360041,1.0273351841422,-1.99594576262,-3.3902871956904,1.4543723303215,3.3096955108835,-3.4276906468415,279.52279616841,279.52279616841,279.52279616841,279.52279616841,279.52279616841,279.52279616841,279.52279616841,279.52279616841,279.52279616841,279.52279616841,279.52279616841,279.52279616841,279.52279616841,279.52279616841,279.52279616841,279.52279616841,279.52279616841,279.52279616841,279.52279616841,279.52279616841,279.52279616841,279.52279616841,279.52279616841,279.52279616841,279.52279616841,279.52279616841,279.52279616841,279.52279616841,279.52279616841,279.52279616841,279.52279616841,279.52279616841,279.52279616841,279.52279616841,279.52279616841,279.52279616841,279.52279616841,279.52279616841,279.52279616841,279.52279616841,279.52279616841,279.52279616841,279.52279616841,279.52279616841,279.52279616841,279.52279616841,279.52279616841,279.52279616841,226.80799976489,555.91805070376,-1.2467686912125,488.82828960262,-1.2584333466552,0
0.0004196875,1734905872.7979,3.6233495271626e-05,0.00012435923231227,5.3670234108477e-05,1.0394298366784,0,0,0,0,0,0,0,0,0,0,0,0,0,0,0,0,0,0,0,0,0,0,0,0,0,0,0,0,0,0,0,0,0,0,0,0,0,0,0,0,0,0,0,0,0,0,0,0,-0.97741128439778,0.019630339697579,-0.23385685222604,5.2041022925796,2.94716953466,1.0692379527124,-3.1251845499736,1.5580219419494,2.7263036189245,-0.46191521672058,1.8757193098902,-5.4043259370282,1.5367581105928,-1.3253279271896,1.8233835785686,-4.1431985158842,1.8898856990977,4.4811896982552,-1.0241669962525,-4.493585686341,1.8941121806954,1.9146008757132,0.024625490006578,-4.1480611764176,3.2008242562769,-2.4766752107534,1.2096148075998,1.0487801721739,-1.6088603894268,1.0883168391149,1.3191788552702,-0.27256407397962,0.80764582616472,-3.9800210276028,-1.630972122832,-3.3161639035901,5.3989772886289,-2.5905926747289,3.1423418960386,-0.40001507947352,-1.2682776980193,-6.7783664861955,1.0274871460927,-1.9956992342247,-3.3904997625233,1.4556299429828,3.3083602334531,-3.4251689900068,279.98667025249,279.98667025249,279.98667025249,279.98667025249,279.98667025249,279.98667025249,279.98667025249,279.98667025249,279.98667025249,279.98667025249,279.98667025249,279.98667025249,279.98667025249,279.98667025249,279.98667025249,279.98667025249,279.98667025249,279.98667025249,279.98667025249,279.98667025249,279.98667025249,279.98667025249,279.98667025249,279.98667025249,279.98667025249,279.98667025249,279.98667025249,279.98667025249,279.98667025249,279.98667025249,279.98667025249,279.98667025249,279.98667025249,279.98667025249,279.98667025249,279.98667025249,279.98667025249,279.98667025249,279.98667025249,279.98667025249,279.98667025249,279.98667025249,279.98667025249,279.98667025249,279.98667025249,279.98667025249,279.98667025249,279.98667025249,226.78246338819,556.87092584491,-1.253072646825,489.64698036405,-1.264748596576,0
0.0004209375,1743145262.9584,3.6338918347034e-05,0.00012472972925331,5.3837893442357e-05,1.0395495193962,0,0,0,0,0,0,0,0,0,0,0,0,0,0,0,0,0,0,0,0,0,0,0,0,0,0,0,0,0,0,0,0,0,0,0,0,0,0,0,0,0,0,0,0,0,0,0,0,-0.97733701861573,0.021127247221111,-0.23339518336463,5.2039054390594,2.9465722885983,1.0687609619257,-3.1237477988421,1.5577034416873,2.7259103552863,-0.46158219260642,1.8758105146694,-5.4040919725461,1.5373811768134,-1.3241813384028,1.8240559869226,-4.1411483295332,1.8883650610517,4.4799135985641,-1.0242666076124,-4.4931601047728,1.8945857873919,1.9158160718499,0.02461097260334,-4.1494527932714,3.201137916876,-2.4787513712076,1.2097137028995,1.0485375317201,-1.6073718088985,1.0875414458096,1.3182899989237,-0.27185217489322,0.8075840944537,-3.9782731170659,-1.6296310724691,-3.3154719778149,5.3993248288109,-2.5888382513209,3.1421892342371,-0.39977216648398,-1.2679672827527,-6.7767689852236,1.0276375944018,-1.9954552665633,-3.390716346436,1.4568873222006,3.3070297217907,-3.4226489724678,280.45045118107,280.45045118107,280.45045118107,280.45045118107,280.45045118107,280.45045118107,280.45045118107,280.45045118107,280.45045118107,280.45045118107,280.45045118107,280.45045118107,280.45045118107,280.45045118107,280.45045118107,280.45045118107,280.45045118107,280.45045118107,280.45045118107,280.45045118107,280.45045118107,280.45045118107,280.45045118107,280.45045118107,280.45045118107,280.45045118107,280.45045118107,280.45045118107,280.45045118107,280.45045118107,280.45045118107,280.45045118107,280.45045118107,280.45045118107,280.45045118107,280.45045118107,280.45045118107,280.45045118107,280.45045118107,280.45045118107,280.45045118107,280.45045118107,280.45045118107,280.45045118107,280.45045118107,280.45045118107,280.45045118107,280.45045118107,226.75690882609,557.82357669201,-1.2593904682761,490.46545939948,-1.2710776387986,0
0.0004221875,1751400560.8421,3.6444339130656e-05,0.00012510022630252,5.4005592927396e-05,1.0396691985113,0,0,0,0,0,0,0,0,0,0,0,0,0,0,0,0,0,0,0,0,0,0,0,0,0,0,0,0,0,0,0,0,0,0,0,0,0,0,0,0,0,0,0,0,0,0,0,0,-0.97726162016893,0.022623088753296,-0.23294426714609,5.2037089980884,2.9459754545079,1.0682857440686,-3.1223114803459,1.5573831842326,2.7255158335842,-0.46124864996142,1.8758979346738,-5.4038558149592,1.5380040071453,-1.3230364645206,1.8247235641612,-4.1390929750193,1.8868447757835,4.4786406033008,-1.0243645886635,-4.4927376332962,1.8950523111859,1.9170304099362,0.024597455340079,-4.150848397934,3.2014471571146,-2.4808248653137,1.2098105221236,1.0482951658488,-1.6058825194035,1.0867653582998,1.3173999651024,-0.27113850549812,0.80752206614112,-3.976525596672,-1.6282944044262,-3.3147800294928,5.3996682350931,-2.587082160236,3.1420356190695,-0.39953005261744,-1.2676581029141,-6.7751663988574,1.0277865441819,-1.9952137671444,-3.3909367888637,1.4581445014451,3.3057039440127,-3.4201306419175,280.91413891579,280.91413891579,280.91413891579,280.91413891579,280.91413891579,280.91413891579,280.91413891579,280.91413891579,280.91413891579,280.91413891579,280.91413891579,280.91413891579,280.91413891579,280.91413891579,280.91413891579,280.91413891579,280.91413891579,280.91413891579,280.91413891579,280.91413891579,280.91413891579,280.91413891579,280.91413891579,280.91413891579,280.91413891579,280.91413891579,280.91413891579,280.91413891579,280.91413891579,280.91413891579,280.91413891579,280.91413891579,280.91413891579,280.91413891579,280.91413891579,280.91413891579,280.91413891579,280.91413891579,280.91413891579,280.91413891579,280.91413891579,280.91413891579,280.91413891579,280.91413891579,280.91413891579,280.91413891579,280.91413891579,280.91413891579,226.73133620618,558.77600333895,-1.2657221469287,491.28372681685,-1.2774204655762,0
0.0004234375,1759671755.8027,3.6549756854992e-05,0.00012547072345828,5.4173331033223e-05,1.0397888740243,0,0,0,0,0,0,0,0,0,0,0,0,0,0,0,0,0,0,0,0,0,0,0,0,0,0,0,0,0,0,0,0,0,0,0,0,0,0,0,0,0,0,0,0,0,0,0,0,-0.97718508766349,0.024117901474479,-0.2325039862131,5.2035129120209,2.9453790317455,1.067812277991,-3.1208755749117,1.5570611723572,2.7251200800946,-0.46091458942849,1.8759815808518,-5.4036174695547,1.5386266118752,-1.321893293782,1.8253863080231,-4.1370325106281,1.8853248411445,4.4773706765955,-1.0244609618968,-4.4923182149158,1.8955118009599,1.9182438699677,0.024584940632945,-4.152247974892,3.2017519822886,-2.4828957114706,1.2099052956147,1.0480530561342,-1.6043925095548,1.0859885865828,1.3165087997427,-0.27042307642091,0.80745974056613,-3.9747784601787,-1.6269620874445,-3.3140880204428,5.4000073985605,-2.5853244214832,3.1418810728323,-0.39928873660682,-1.2673501408329,-6.7735587907123,1.0279340071184,-1.9949746419035,-3.3911609292792,1.4594015132643,3.3043828677664,-3.4176140441824,281.37773341868,281.37773341868,281.37773341868,281.37773341868,281.37773341868,281.37773341868,281.37773341868,281.37773341868,281.37773341868,281.37773341868,281.37773341868,281.37773341868,281.37773341868,281.37773341868,281.37773341868,281.37773341868,281.37773341868,281.37773341868,281.37773341868,281.37773341868,281.37773341868,281.37773341868,281.37773341868,281.37773341868,281.37773341868,281.37773341868,281.37773341868,281.37773341868,281.37773341868,281.37773341868,281.37773341868,281.37773341868,281.37773341868,281.37773341868,281.37773341868,281.37773341868,281.37773341868,281.37773341868,281.37773341868,281.37773341868,281.37773341868,281.37773341868,281.37773341868,281.37773341868,281.37773341868,281.37773341868,281.37773341868,281.37773341868,226.70574569156,559.72820588277,-1.2720676744037,492.10178272303,-1.2837770693689,0
0.0004246875,1767958837.8618,3.6655171923191e-05,0.00012584122071903,5.4341108380023e-05,1.0399085459357,0,0,0,0,0,0,0,0,0,0,0,0,0,0,0,0,0,0,0,0,0,0,0,0,0,0,0,0,0,0,0,0,0,0,0,0,0,0,0,0,0,0,0,0,0,0,0,0,-0.97710742055255,0.025611720882066,-0.23207422442763,5.2033171214288,2.9447830194904,1.067340541155,-3.1194400610851,1.556737410373,2.7247231219262,-0.46058001125373,1.8760614643691,-5.4033769398619,1.5392490022635,-1.3207518156674,1.8260442154377,-4.134966991516,1.883805253103,4.4761037826772,-1.0245557515304,-4.4919017905612,1.8959643064563,1.9194564333912,0.024573430567735,-4.1536515086175,3.2020523974601,-2.4849639255882,1.2099980533588,1.0478111842137,-1.6029017650765,1.0852111419291,1.3156165491195,-0.26970589721212,0.80739711766542,-3.9730317007055,-1.6256340896386,-3.3133959143828,5.4003422094195,-2.5835650520832,3.1417256168141,-0.39904821769032,-1.2670433799435,-6.7719462218184,1.0280799920775,-1.9947377956664,-3.3913886058082,1.4606583895841,3.3030664603544,-3.4150992235946,281.84123465221,281.84123465221,281.84123465221,281.84123465221,281.84123465221,281.84123465221,281.84123465221,281.84123465221,281.84123465221,281.84123465221,281.84123465221,281.84123465221,281.84123465221,281.84123465221,281.84123465221,281.84123465221,281.84123465221,281.84123465221,281.84123465221,281.84123465221,281.84123465221,281.84123465221,281.84123465221,281.84123465221,281.84123465221,281.84123465221,281.84123465221,281.84123465221,281.84123465221,281.84123465221,281.84123465221,281.84123465221,281.84123465221,281.84123465221,281.84123465221,281.84123465221,281.84123465221,281.84123465221,281.84123465221,281.84123465221,281.84123465221,281.84123465221,281.84123465221,281.84123465221,281.84123465221,281.84123465221,281.84123465221,281.84123465221,226.68013744843,560.68018442393,-1.2784270419391,492.91962722538,-1.2901474423546,0
0.0004259375,1776261797.7313,3.6760584275565e-05,0.00012621171808321,5.4508924737859e-05,1.0400282142462,0,0,0,0,0,0,0,0,0,0,0,0,0,0,0,0,0,0,0,0,0,0,0,0,0,0,0,0,0,0,0,0,0,0,0,0,0,0,0,0,0,0,0,0,0,0,0,0,-0.97702861925594,0.027104580545794,-0.23165486774734,5.2031215642575,2.944187416921,1.0668705101173,-3.1180049158511,1.5564119038735,2.7243249877333,-0.46024491533311,1.8761375969773,-5.4031342301729,1.5398711907224,-1.3196120203662,1.8266972817722,-4.132896471242,1.8822860048774,4.4748398860849,-1.0246489829741,-4.4914882991071,1.8964098779032,1.9206680836891,0.024562926886051,-4.1550589841393,3.2023484083294,-2.4870295242024,1.2100888250394,1.0475695319579,-1.6014102691826,1.084433036719,1.3147232602739,-0.26898697638279,0.8073341980019,-3.9712853117559,-1.6243103784112,-3.3127036762553,5.4006725564798,-2.5818040667349,3.1415692704731,-0.39880849548805,-1.2667378056165,-6.7703287523108,1.0282245044205,-1.9945031322068,-3.3916196550609,1.4619151614807,3.3017546887806,-3.4125862228205,282.30464257928,282.30464257928,282.30464257928,282.30464257928,282.30464257928,282.30464257928,282.30464257928,282.30464257928,282.30464257928,282.30464257928,282.30464257928,282.30464257928,282.30464257928,282.30464257928,282.30464257928,282.30464257928,282.30464257928,282.30464257928,282.30464257928,282.30464257928,282.30464257928,282.30464257928,282.30464257928,282.30464257928,282.30464257928,282.30464257928,282.30464257928,282.30464257928,282.30464257928,282.30464257928,282.30464257928,282.30464257928,282.30464257928,282.30464257928,282.30464257928,282.30464257928,282.30464257928,282.30464257928,282.30464257928,282.30464257928,282.30464257928,282.30464257928,282.30464257928,282.30464257928,282.30464257928,282.30464257928,282.30464257928,282.30464257928,226.65451165106,561.6319390675,-1.2848002416364,493.73726043201,-1.2965315777925,0
0.0004271875,1784580626.8303,3.6865993888481e-05,0.0001265822155493,5.4676779943383e-05,1.0401478789564,0,0,0,0,0,0,0,0,0,0,0,0,0,0,0,0,0,0,0,0,0,0,0,0,0,0,0,0,0,0,0,0,0,0,0,0,0,0,0,0,0,0,0,0,0,0,0,0,-0.97694868479891,0.028596512935649,-0.23124580235663,5.2029261784266,2.9435922231735,1.0664021591029,-3.1165701121498,1.5560846597129,2.7239257060628,-0.45990930114157,1.8762099892539,-5.4028893350177,1.5404931904338,-1.3184738996382,1.8273455025302,-4.1308209961184,1.8807670890987,4.4735789517508,-1.0247406842091,-4.4910776755956,1.8968485660166,1.9218788050846,0.024553431053065,-4.1564703874659,3.2026400179964,-2.4890925124437,1.2101776401696,1.0473280806846,-1.5999180010385,1.0836542843815,1.3138289797764,-0.26826632120027,0.80727098233755,-3.969539282733,-1.6229909194821,-3.3120112733327,5.40099832924,-2.5800414740636,3.1414120530203,-0.39856957014639,-1.2664334037339,-6.7687064373594,1.0283675480522,-1.9942705542192,-3.3918539135989,1.4631718595008,3.3004475199453,-3.4100750834568,282.76795716326,282.76795716326,282.76795716326,282.76795716326,282.76795716326,282.76795716326,282.76795716326,282.76795716326,282.76795716326,282.76795716326,282.76795716326,282.76795716326,282.76795716326,282.76795716326,282.76795716326,282.76795716326,282.76795716326,282.76795716326,282.76795716326,282.76795716326,282.76795716326,282.76795716326,282.76795716326,282.76795716326,282.76795716326,282.76795716326,282.76795716326,282.76795716326,282.76795716326,282.76795716326,282.76795716326,282.76795716326,282.76795716326,282.76795716326,282.76795716326,282.76795716326,282.76795716326,282.76795716326,282.76795716326,282.76795716326,282.76795716326,282.76795716326,282.76795716326,282.76795716326,282.76795716326,282.76795716326,282.76795716326,282.76795716326,226.62886849823,562.58346991532,-1.2911872646678,494.55468244621,-1.3029294676226,0
0.0004284375,1792915317.3076,3.6971400606473e-05,0.00012695271311581,5.4844673591182e-05,1.0402675400669,0,0,0,0,0,0,0,0,0,0,0,0,0,0,0,0,0,0,0,0,0,0,0,0,0,0,0,0,0,0,0,0,0,0,0,0,0,0,0,0,0,0,0,0,0,0,0,0,-0.97686761917006,0.030087548951098,-0.23084691753987,5.2027308982894,2.9429974377912,1.0659354622612,-3.1151356243611,1.5557556857162,2.7235253069759,-0.45957316789865,1.8762786539421,-5.4026422576374,1.5411150152754,-1.3173374457715,1.8279888722854,-4.1287406159354,1.8792484954976,4.4723209454387,-1.0248308839439,-4.4906698555892,1.8972804218727,1.9230885832389,0.0245449442036,-4.1578857045955,3.2029272330755,-2.4911529048486,1.2102645279932,1.0470868122639,-1.5984249396532,1.0828748991686,1.3129337553313,-0.26754393812647,0.80720747234373,-3.9677936069805,-1.6216756783309,-3.3113186746163,5.4013194159603,-2.5782772834926,3.1412539824101,-0.39833144166592,-1.266130161148,-6.767079334799,1.0285091230288,-1.994039964632,-3.3920912164042,1.4644285140132,3.2991449206646,-3.407565846222,283.23117836792,283.23117836792,283.23117836792,283.23117836792,283.23117836792,283.23117836792,283.23117836792,283.23117836792,283.23117836792,283.23117836792,283.23117836792,283.23117836792,283.23117836792,283.23117836792,283.23117836792,283.23117836792,283.23117836792,283.23117836792,283.23117836792,283.23117836792,283.23117836792,283.23117836792,283.23117836792,283.23117836792,283.23117836792,283.23117836792,283.23117836792,283.23117836792,283.23117836792,283.23117836792,283.23117836792,283.23117836792,283.23117836792,283.23117836792,283.23117836792,283.23117836792,283.23117836792,283.23117836792,283.23117836792,283.23117836792,283.23117836792,283.23117836792,283.23117836792,283.23117836792,283.23117836792,283.23117836792,283.23117836792,283.23117836792,226.60320814014,563.53477707849,-1.2975881027615,495.37189337773,-1.3093411047387,0
0.0004296875,1801265862.0609,3.7076804375201e-05,0.00012732321078125,5.5012605461803e-05,1.0403871975784,0,0,0,0,0,0,0,0,0,0,0,0,0,0,0,0,0,0,0,0,0,0,0,0,0,0,0,0,0,0,0,0,0,0,0,0,0,0,0,0,0,0,0,0,0,0,0,0,-0.97678542509819,0.031577718280994,-0.23045810372277,5.2025356573982,2.9424030605689,1.0654703921053,-3.1137014243304,1.5554249906791,2.7231238206351,-0.45923651448147,1.876343603331,-5.4023929950892,1.5417366799524,-1.3162026523272,1.8286273852373,-4.1266553756338,1.8777302126106,4.4710658337056,-1.0249196126989,-4.490264772007,1.8977054967055,1.9242974046799,0.024537467208544,-4.1593049224917,3.2032100590317,-2.4932107089238,1.2103495176533,1.0468457082391,-1.5969310612464,1.0820948961431,1.3120376342886,-0.26681983254709,0.80714366997712,-3.9660482752393,-1.6203646186795,-3.3106258510599,5.4016357055552,-2.5765114996574,3.1410950757752,-0.39809411055631,-1.2658280659197,-6.7654474994058,1.0286492275128,-1.99381126577,-3.3923313986399,1.4656851547628,3.2978468578109,-3.4050585506591,283.69430615753,283.69430615753,283.69430615753,283.69430615753,283.69430615753,283.69430615753,283.69430615753,283.69430615753,283.69430615753,283.69430615753,283.69430615753,283.69430615753,283.69430615753,283.69430615753,283.69430615753,283.69430615753,283.69430615753,283.69430615753,283.69430615753,283.69430615753,283.69430615753,283.69430615753,283.69430615753,283.69430615753,283.69430615753,283.69430615753,283.69430615753,283.69430615753,283.69430615753,283.69430615753,283.69430615753,283.69430615753,283.69430615753,283.69430615753,283.69430615753,283.69430615753,283.69430615753,283.69430615753,283.69430615753,283.69430615753,283.69430615753,283.69430615753,283.69430615753,283.69430615753,283.69430615753,283.69430615753,283.69430615753,283.69430615753,226.57753079403,564.48586066677,-1.3040027475802,496.18889333264,-1.3157664818793,0
0.0004309375,1809632254.7524,3.718220489913e-05,0.00012769370854419,5.5180574893074e-05,1.0405068514915,0,0,0,0,0,0,0,0,0,0,0,0,0,0,0,0,0,0,0,0,0,0,0,0,0,0,0,0,0,0,0,0,0,0,0,0,0,0,0,0,0,0,0,0,0,0,0,0,-0.97670210606698,0.033067049500364,-0.23007925309883,5.2023403877363,2.941809091746,1.065006920058,-3.1122674828418,1.5550925842262,2.7227212774662,-0.45889933949742,1.876404850104,-5.4021415434433,1.5423581997704,-1.3150695138925,1.8292610354023,-4.1245653183893,1.8762122273459,4.4698135841181,-1.0250069024156,-4.4898623563456,1.8981238418697,1.9255052566614,0.02453100066436,-4.1607280288398,3.2034885017587,-2.4952659308932,1.2104326382115,1.0466047500602,-1.5954363404103,1.081314291039,1.311140663955,-0.26609400894071,0.807079577627,-3.9643032779595,-1.6190577027573,-3.3099327756415,5.4019470874754,-2.5747441243014,3.1409353494033,-0.39785757751129,-1.2655271069031,-6.763810985135,1.0287878572994,-1.9935843599494,-3.392574295478,1.4669418111108,3.296553298365,-3.4025532353943,284.15734049685,284.15734049685,284.15734049685,284.15734049685,284.15734049685,284.15734049685,284.15734049685,284.15734049685,284.15734049685,284.15734049685,284.15734049685,284.15734049685,284.15734049685,284.15734049685,284.15734049685,284.15734049685,284.15734049685,284.15734049685,284.15734049685,284.15734049685,284.15734049685,284.15734049685,284.15734049685,284.15734049685,284.15734049685,284.15734049685,284.15734049685,284.15734049685,284.15734049685,284.15734049685,284.15734049685,284.15734049685,284.15734049685,284.15734049685,284.15734049685,284.15734049685,284.15734049685,284.15734049685,284.15734049685,284.15734049685,284.15734049685,284.15734049685,284.15734049685,284.15734049685,284.15734049685,284.15734049685,284.15734049685,284.15734049685,226.55183665061,565.43672079185,-1.3104311908241,497.00568241661,-1.3222055918287,0
0.0004321875,1818014489.8241,3.7287602265597e-05,0.0001280642064032,5.5348581925972e-05,1.0406265018067,0,0,0,0,0,0,0,0,0,0,0,0,0,0,0,0,0,0,0,0,0,0,0,0,0,0,0,0,0,0,0,0,0,0,0,0,0,0,0,0,0,0,0,0,0,0,0,0,-0.97661766629831,0.034555570112578,-0.22971025967861,5.202145019877,2.9412155320523,1.0645450165498,-3.1108337699234,1.5547584767296,2.7223177082314,-0.45856164131567,1.8764624074015,-5.4018878978985,1.5429795905519,-1.3139380259832,1.8298898167713,-4.1224704858126,1.8746945251491,4.4685641653404,-1.0250927863356,-4.4894625389931,1.8985355087843,1.9267121271512,0.024525544896737,-4.1621550118745,3.2037625677354,-2.497318575862,1.2105139186327,1.0463639190813,-1.5939407504349,1.0805331001755,1.3102428916621,-0.26536647096204,0.80701519809474,-3.9625586053697,-1.617754891186,-3.3092394232891,5.4022534520316,-2.5729751563869,3.1407748188708,-0.39762184334439,-1.2652272736607,-6.7621698451304,1.0289250059497,-1.9933591496781,-3.3928197423865,1.4681985120993,3.2952642094313,-3.4000499381632,284.62028135109,284.62028135109,284.62028135109,284.62028135109,284.62028135109,284.62028135109,284.62028135109,284.62028135109,284.62028135109,284.62028135109,284.62028135109,284.62028135109,284.62028135109,284.62028135109,284.62028135109,284.62028135109,284.62028135109,284.62028135109,284.62028135109,284.62028135109,284.62028135109,284.62028135109,284.62028135109,284.62028135109,284.62028135109,284.62028135109,284.62028135109,284.62028135109,284.62028135109,284.62028135109,284.62028135109,284.62028135109,284.62028135109,284.62028135109,284.62028135109,284.62028135109,284.62028135109,284.62028135109,284.62028135109,284.62028135109,284.62028135109,284.62028135109,284.62028135109,284.62028135109,284.62028135109,284.62028135109,284.62028135109,284.62028135109,226.52612590088,566.38735756716,-1.3168734242118,497.82226073473,-1.3286584274263,0
0.0004334375,1826412562.5109,3.7392996338156e-05,0.00012843470435688,5.5516626190688e-05,1.0407461485248,0,0,0,0,0,0,0,0,0,0,0,0,0,0,0,0,0,0,0,0,0,0,0,0,0,0,0,0,0,0,0,0,0,0,0,0,0,0,0,0,0,0,0,0,0,0,0,0,-0.97653211072701,0.036043306638405,-0.22935101920087,5.2019494831431,2.9406223828238,1.0640846511072,-3.1094002551323,1.5544226792564,2.7219131436935,-0.45822341811368,1.8765162888157,-5.4016320527659,1.5436008685408,-1.3128081852632,1.8305137235353,-4.1203709183514,1.8731770901877,4.4673175472625,-1.025177298872,-4.4890652495129,1.8989405489237,1.9279180044874,0.024521099967804,-4.1635858604543,3.2040322640308,-2.4993686478783,1.2105933879043,1.0461231965533,-1.592444263623,1.0797513403731,1.3093443645711,-0.26463722153502,0.80695053455938,-3.9608142474574,-1.6164561428058,-3.3085457711616,5.4025546908517,-2.5712045922673,3.1406134991956,-0.39738690907685,-1.2649285563469,-6.760524132124,1.0290606649615,-1.9931355379105,-3.3930675755251,1.4694552865243,3.2939795583134,-3.3975486958555,285.08312868592,285.08312868592,285.08312868592,285.08312868592,285.08312868592,285.08312868592,285.08312868592,285.08312868592,285.08312868592,285.08312868592,285.08312868592,285.08312868592,285.08312868592,285.08312868592,285.08312868592,285.08312868592,285.08312868592,285.08312868592,285.08312868592,285.08312868592,285.08312868592,285.08312868592,285.08312868592,285.08312868592,285.08312868592,285.08312868592,285.08312868592,285.08312868592,285.08312868592,285.08312868592,285.08312868592,285.08312868592,285.08312868592,285.08312868592,285.08312868592,285.08312868592,285.08312868592,285.08312868592,285.08312868592,285.08312868592,285.08312868592,285.08312868592,285.08312868592,285.08312868592,285.08312868592,285.08312868592,285.08312868592,285.08312868592,226.50039873478,567.3377711079,-1.3233294394062,498.6386283913,-1.3351249815221,0
0.0004346875,1834826468.8516,3.7498387208047e-05,0.00012880520240384,5.5684707734782e-05,1.0408657916463,0,0,0,0,0,0,0,0,0,0,0,0,0,0,0,0,0,0,0,0,0,0,0,0,0,0,0,0,0,0,0,0,0,0,0,0,0,0,0,0,0,0,0,0,0,0,0,0,-0.97644544496806,0.037530284613432,-0.22900142912834,5.2017537058013,2.9400296460498,1.0636257924969,-3.1079669075534,1.5540852035155,2.7215076143853,-0.45788466791816,1.8765665083789,-5.4013740017504,1.5442220503144,-1.3116799893039,1.831132750168,-4.118266655772,1.8716599053064,4.4660737011175,-1.0252604754025,-4.4886704166989,1.8993390138083,1.9291228771871,0.024517665673603,-4.1650205642149,3.2042975983307,-2.5014161502057,1.2106710750162,1.0458825636434,-1.5909468513741,1.0789690288819,1.3084451294655,-0.26390626294002,0.80688559053802,-3.9590701941248,-1.6151614145336,-3.3078517984371,5.4028506970479,-2.5694324258798,3.140451404731,-0.39715277578833,-1.2646309456439,-6.7588738989876,1.0291948238078,-1.992913428145,-3.3933176319118,1.4707121629116,3.2926993125608,-3.3950495444996,285.54588246747,285.54588246747,285.54588246747,285.54588246747,285.54588246747,285.54588246747,285.54588246747,285.54588246747,285.54588246747,285.54588246747,285.54588246747,285.54588246747,285.54588246747,285.54588246747,285.54588246747,285.54588246747,285.54588246747,285.54588246747,285.54588246747,285.54588246747,285.54588246747,285.54588246747,285.54588246747,285.54588246747,285.54588246747,285.54588246747,285.54588246747,285.54588246747,285.54588246747,285.54588246747,285.54588246747,285.54588246747,285.54588246747,285.54588246747,285.54588246747,285.54588246747,285.54588246747,285.54588246747,285.54588246747,285.54588246747,285.54588246747,285.54588246747,285.54588246747,285.54588246747,285.54588246747,285.54588246747,285.54588246747,285.54588246747,226.47465533936,568.28796153103,-1.3297992281408,499.4547854896,-1.3416052470059,0
0.0004359375,1843256205.6957,3.7603774829674e-05,0.00012917570054275,5.5852826355535e-05,1.0409854311719,0,0,0,0,0,0,0,0,0,0,0,0,0,0,0,0,0,0,0,0,0,0,0,0,0,0,0,0,0,0,0,0,0,0,0,0,0,0,0,0,0,0,0,0,0,0,0,0,-0.97635767528772,0.039016528652124,-0.22866138861797,5.2015576152848,2.9394373244217,1.0631684088374,-3.1065336960743,1.5537460618277,2.7211011507072,-0.45754538866026,1.8766130805821,-5.4011137381007,1.5448431526963,-1.3105534365573,1.8317468915989,-4.1161577374886,1.8701429521603,4.4648325995396,-1.0253423521061,-4.4882779688993,1.8997309550217,1.9303267339597,0.024515241536159,-4.1664591133958,3.2045585790064,-2.5034610855002,1.2107470090064,1.0456420014439,-1.5894484844625,1.0781861833128,1.3075452328458,-0.26317359693583,0.80682036985606,-3.9573264352688,-1.6138706612626,-3.3071574863036,5.4031413655631,-2.5676586490007,3.1402885492441,-0.39691944459109,-1.2643344326648,-6.7572191988207,1.0293274700702,-1.9926927245985,-3.3935697497365,1.4719691695562,3.2914234399871,-3.3925525192165,286.00854266234,286.00854266234,286.00854266234,286.00854266234,286.00854266234,286.00854266234,286.00854266234,286.00854266234,286.00854266234,286.00854266234,286.00854266234,286.00854266234,286.00854266234,286.00854266234,286.00854266234,286.00854266234,286.00854266234,286.00854266234,286.00854266234,286.00854266234,286.00854266234,286.00854266234,286.00854266234,286.00854266234,286.00854266234,286.00854266234,286.00854266234,286.00854266234,286.00854266234,286.00854266234,286.00854266234,286.00854266234,286.00854266234,286.00854266234,286.00854266234,286.00854266234,286.00854266234,286.00854266234,286.00854266234,286.00854266234,286.00854266234,286.00854266234,286.00854266234,286.00854266234,286.00854266234,286.00854266234,286.00854266234,286.00854266234,226.44889589717,569.23792895545,-1.3362827822232,500.27073213173,-1.3480992168116,0
0.0004371875,1851701770.7082,3.7709159100252e-05,0.00012954619877224,5.6020981745524e-05,1.0411050671021,0,0,0,0,0,0,0,0,0,0,0,0,0,0,0,0,0,0,0,0,0,0,0,0,0,0,0,0,0,0,0,0,0,0,0,0,0,0,0,0,0,0,0,0,0,0,0,0,-0.97626880857243,0.040502062452969,-0.22833079844027,5.2013611383628,2.9388454213547,1.0627124677953,-3.1051005895175,1.5534052671088,2.7206937825679,-0.45720557822295,1.8766560203731,-5.4008512547786,1.5454641926651,-1.3094285263999,1.8323561434072,-4.1140442031328,1.8686262113417,4.4635942166062,-1.0254229656891,-4.4878878341419,1.9001164242566,1.9315295633579,0.024513826796451,-4.1679014988948,3.2048152151226,-2.5055034560272,1.2108212189783,1.0454014910172,-1.5879491332593,1.0774028215762,1.306644720704,-0.26243922487092,0.80675487661985,-3.9555829608443,-1.6125838357608,-3.306462818053,5.4034265935545,-2.565883251577,3.1401249460183,-0.39668691664081,-1.2640390088496,-6.7555600854823,1.0294585895491,-1.9924733324261,-3.3938237686761,1.4732263345812,3.2901519086761,-3.3900576541864,286.47110923752,286.47110923752,286.47110923752,286.47110923752,286.47110923752,286.47110923752,286.47110923752,286.47110923752,286.47110923752,286.47110923752,286.47110923752,286.47110923752,286.47110923752,286.47110923752,286.47110923752,286.47110923752,286.47110923752,286.47110923752,286.47110923752,286.47110923752,286.47110923752,286.47110923752,286.47110923752,286.47110923752,286.47110923752,286.47110923752,286.47110923752,286.47110923752,286.47110923752,286.47110923752,286.47110923752,286.47110923752,286.47110923752,286.47110923752,286.47110923752,286.47110923752,286.47110923752,286.47110923752,286.47110923752,286.47110923752,286.47110923752,286.47110923752,286.47110923752,286.47110923752,286.47110923752,286.47110923752,286.47110923752,286.47110923752,226.42312058496,570.18767350214,-1.3427800934374,501.0864684184,-1.3546068838724,0
0.0004384375,1860163162.3693,3.7814539907107e-05,0.00012991669709102,5.6189173579244e-05,1.0412246994377,0,0,0,0,0,0,0,0,0,0,0,0,0,0,0,0,0,0,0,0,0,0,0,0,0,0,0,0,0,0,0,0,0,0,0,0,0,0,0,0,0,0,0,0,0,0,0,0,-0.97617885230873,0.041986908821941,-0.22800956091605,5.2011642015134,2.9382539410062,1.0622579367005,-3.1036675571166,1.5530628328722,2.7202855395291,-0.45686523449328,1.8766953431821,-5.4005865446357,1.5460851872365,-1.3083052591192,1.8329605020157,-4.11192609289,1.8671096625339,4.4623585278641,-1.0255023531876,-4.4874999407428,1.900495473385,1.9327313538482,0.024513420402771,-4.1693477120226,3.2050675165091,-2.5075432638277,1.2108937341189,1.0451610134021,-1.5864487680846,1.0766189618315,1.3057436386492,-0.26170314780604,0.80668911518793,-3.9538397609735,-1.6113008886341,-3.305767779047,5.4037062807502,-2.5641062220711,3.1399606079438,-0.39645519313928,-1.2637446658337,-6.7538966135894,1.0295881663908,-1.9922551578479,-3.3940795301949,1.4744836859753,3.2888846869849,-3.3875649825357,286.93358216044,286.93358216044,286.93358216044,286.93358216044,286.93358216044,286.93358216044,286.93358216044,286.93358216044,286.93358216044,286.93358216044,286.93358216044,286.93358216044,286.93358216044,286.93358216044,286.93358216044,286.93358216044,286.93358216044,286.93358216044,286.93358216044,286.93358216044,286.93358216044,286.93358216044,286.93358216044,286.93358216044,286.93358216044,286.93358216044,286.93358216044,286.93358216044,286.93358216044,286.93358216044,286.93358216044,286.93358216044,286.93358216044,286.93358216044,286.93358216044,286.93358216044,286.93358216044,286.93358216044,286.93358216044,286.93358216044,286.93358216044,286.93358216044,286.93358216044,286.93358216044,286.93358216044,286.93358216044,286.93358216044,286.93358216044,226.39732957201,571.13719529454,-1.3492911535679,501.90199444886,-1.3611282411561,0
0.0004396875,1868640379.9713,3.7919916896293e-05,0.00013028719549778,5.6357401088597e-05,1.0413443281792,0,0,0,0,0,0,0,0,0,0,0,0,0,0,0,0,0,0,0,0,0,0,0,0,0,0,0,0,0,0,0,0,0,0,0,0,0,0,0,0,0,0,0,0,0,0,0,0,-0.97608781454247,0.043471089664094,-0.2276975798174,5.2009667311486,2.9376628882965,1.0618047827594,-3.1022345684128,1.5527187732385,2.7198764504847,-0.45652435542512,1.8767310648876,-5.4003196006687,1.5467061533957,-1.3071836357805,1.8335599648129,-4.1098034482106,1.8655932844975,4.4611255103746,-1.0255805516696,-4.4871142172286,1.9008681545415,1.9339320935289,0.024514020993061,-4.1707977446846,3.2053154937195,-2.5095805109656,1.2109645837171,1.0449205496735,-1.5849473592453,1.0758346224419,1.3048420316678,-0.26096536664023,0.80662309013752,-3.9520968260566,-1.6100217682721,-3.3050723566136,5.4039803296913,-2.5623275478906,3.1397955474463,-0.39622427525249,-1.2634513953829,-6.7522288392793,1.0297161831469,-1.9920381082571,-3.3943368777538,1.4757412515879,3.287621743566,-3.3850745362768,287.39596139892,287.39596139892,287.39596139892,287.39596139892,287.39596139892,287.39596139892,287.39596139892,287.39596139892,287.39596139892,287.39596139892,287.39596139892,287.39596139892,287.39596139892,287.39596139892,287.39596139892,287.39596139892,287.39596139892,287.39596139892,287.39596139892,287.39596139892,287.39596139892,287.39596139892,287.39596139892,287.39596139892,287.39596139892,287.39596139892,287.39596139892,287.39596139892,287.39596139892,287.39596139892,287.39596139892,287.39596139892,287.39596139892,287.39596139892,287.39596139892,287.39596139892,287.39596139892,287.39596139892,287.39596139892,287.39596139892,287.39596139892,287.39596139892,287.39596139892,287.39596139892,287.39596139892,287.39596139892,287.39596139892,287.39596139892,226.37152301937,572.08649445879,-1.3558159544473,502.71731032065,-1.3676632816542,0
0.0004409375,1877133423.6101,3.8025290206578e-05,0.00013065769399126,5.6525664409807e-05,1.0414639533272,0,0,0,0,0,0,0,0,0,0,0,0,0,0,0,0,0,0,0,0,0,0,0,0,0,0,0,0,0,0,0,0,0,0,0,0,0,0,0,0,0,0,0,0,0,0,0,0,-0.97599570385111,0.044954625947715,-0.22739476028981,5.2007686539668,2.9370722688842,1.0613529732525,-3.1008015935588,1.5523731029599,2.7194665436075,-0.45618293909362,1.8767632018196,-5.400050416242,1.547327107997,-1.306063658217,1.8341545303194,-4.1076763122795,1.8640770551984,4.4598951426956,-1.0256575979409,-4.4867305927418,1.9012345202195,1.9351317700538,0.02451562687663,-4.1722515892224,3.2055591580573,-2.5116151997264,1.2110337971582,1.0446800809929,-1.583444877291,1.0750498219343,1.3039399440848,-0.26022588223481,0.80655680623649,-3.9503541468855,-1.6087464208596,-3.3043765400317,5.4042486460651,-2.5605472158312,3.1396297765688,-0.3959941641157,-1.2631591892922,-6.7505568204095,1.0298426208738,-1.991822092361,-3.3945956570966,1.4769990591676,3.2863630473558,-3.3825863461883,287.85824692119,287.85824692119,287.85824692119,287.85824692119,287.85824692119,287.85824692119,287.85824692119,287.85824692119,287.85824692119,287.85824692119,287.85824692119,287.85824692119,287.85824692119,287.85824692119,287.85824692119,287.85824692119,287.85824692119,287.85824692119,287.85824692119,287.85824692119,287.85824692119,287.85824692119,287.85824692119,287.85824692119,287.85824692119,287.85824692119,287.85824692119,287.85824692119,287.85824692119,287.85824692119,287.85824692119,287.85824692119,287.85824692119,287.85824692119,287.85824692119,287.85824692119,287.85824692119,287.85824692119,287.85824692119,287.85824692119,287.85824692119,287.85824692119,287.85824692119,287.85824692119,287.85824692119,287.85824692119,287.85824692119,287.85824692119,226.34570107863,573.03557112411,-1.3623544879535,503.53241612953,-1.3742119983454,0
0.0004421875,1885642294.1723,3.8130659776163e-05,0.00013102819257018,5.6693963312334e-05,1.0415835748824,0,0,0,0,0,0,0,0,0,0,0,0,0,0,0,0,0,0,0,0,0,0,0,0,0,0,0,0,0,0,0,0,0,0,0,0,0,0,0,0,0,0,0,0,0,0,0,0,-0.97590252931406,0.046437537709064,-0.22710100874257,5.2005698973155,2.9364820891565,1.0609024757396,-3.0993686034429,1.5520258374539,2.7190558463059,-0.45584098375444,1.8767917707484,-5.3997789852758,1.5479480676764,-1.3049453289165,1.8347441983428,-4.1055447305913,1.8625609518882,4.4586674048734,-1.0257335282399,-4.4863489972486,1.9015946233899,1.9363303705489,0.024518236014187,-4.1737092384188,3.2057985215697,-2.5136473327597,1.2111014039314,1.044439588661,-1.5819412931628,1.0742645789701,1.3030374195562,-0.25948469553864,0.80649026841489,-3.9486117147377,-1.607474790406,-3.3036803204133,5.4045111389867,-2.5587652125581,3.1394633069906,-0.39576486078323,-1.2628680392898,-6.748880616996,1.029967459232,-1.9916070202629,-3.3948557164724,1.4782571363839,3.2851085675685,-3.3801004417031,288.32043869578,288.32043869578,288.32043869578,288.32043869578,288.32043869578,288.32043869578,288.32043869578,288.32043869578,288.32043869578,288.32043869578,288.32043869578,288.32043869578,288.32043869578,288.32043869578,288.32043869578,288.32043869578,288.32043869578,288.32043869578,288.32043869578,288.32043869578,288.32043869578,288.32043869578,288.32043869578,288.32043869578,288.32043869578,288.32043869578,288.32043869578,288.32043869578,288.32043869578,288.32043869578,288.32043869578,288.32043869578,288.32043869578,288.32043869578,288.32043869578,288.32043869578,288.32043869578,288.32043869578,288.32043869578,288.32043869578,288.32043869578,288.32043869578,288.32043869578,288.32043869578,288.32043869578,288.32043869578,288.32043869578,288.32043869578,226.3198638908,573.98442542322,-1.3689067460244,504.34731196929,-1.3807743842452,0
0.0004434375,1894166993.3174,3.8236025595476e-05,0.00013139869123332,5.6862297660614e-05,1.0417031928454,0,0,0,0,0,0,0,0,0,0,0,0,0,0,0,0,0,0,0,0,0,0,0,0,0,0,0,0,0,0,0,0,0,0,0,0,0,0,0,0,0,0,0,0,0,0,0,0,-0.97580830049008,0.047919844049058,-0.22681623273821,5.2003703895304,2.9358923561749,1.0604532582635,-3.09793557002,1.5516769928513,2.7186443851183,-0.45549848789774,1.8768167888913,-5.3995053023887,1.5485690487459,-1.3038286511008,1.8353289701993,-4.1034087514226,1.8610449512532,4.4574422783822,-1.0258083779173,-4.485969361934,1.9019485176278,1.9375278815002,0.024521845998511,-4.1751706852914,3.2060335970615,-2.5156769132168,1.2111674336053,1.0441990541709,-1.5804365784987,1.073478912318,1.3021345010256,-0.25874180771712,0.80642348174395,-3.9468695214368,-1.6062068188472,-3.3029836907653,5.4047677214347,-2.5569815251213,3.139296150112,-0.39553636629574,-1.2625779369126,-6.7472002913803,1.0300906766124,-1.9913928036288,-3.3951169069794,1.4795155108634,3.2838582736738,-3.3776168507467,288.78253669159,288.78253669159,288.78253669159,288.78253669159,288.78253669159,288.78253669159,288.78253669159,288.78253669159,288.78253669159,288.78253669159,288.78253669159,288.78253669159,288.78253669159,288.78253669159,288.78253669159,288.78253669159,288.78253669159,288.78253669159,288.78253669159,288.78253669159,288.78253669159,288.78253669159,288.78253669159,288.78253669159,288.78253669159,288.78253669159,288.78253669159,288.78253669159,288.78253669159,288.78253669159,288.78253669159,288.78253669159,288.78253669159,288.78253669159,288.78253669159,288.78253669159,288.78253669159,288.78253669159,288.78253669159,288.78253669159,288.78253669159,288.78253669159,288.78253669159,288.78253669159,288.78253669159,288.78253669159,288.78253669159,288.78253669159,226.29401158579,574.93305749278,-1.3754727205463,505.16199793176,-1.387350432323,0
0.0004446875,1902707523.455,3.8341387523324e-05,0.00013176918997947,5.7030667078786e-05,1.0418228072169,0,0,0,0,0,0,0,0,0,0,0,0,0,0,0,0,0,0,0,0,0,0,0,0,0,0,0,0,0,0,0,0,0,0,0,0,0,0,0,0,0,0,0,0,0,0,0,0,-0.97571302739057,0.049401563120052,-0.22654034087939,5.2001700604269,2.9353030776423,1.0600052895737,-3.0965024664992,1.5513265860425,2.7182321856483,-0.45515545030267,1.8768382738941,-5.3992293631837,1.5491900671137,-1.3027136286128,1.8359088488162,-4.1012684263352,1.8595290294702,4.4562197461022,-1.0258821811176,-4.4855916195326,1.9022962572463,1.938724288689,0.02452645403694,-4.1766359230615,3.2062643980772,-2.5177039449216,1.2112319158141,1.0439584592772,-1.5789307057911,1.0726928408347,1.3012312306721,-0.25799722026385,0.80635645140759,-3.9451275595111,-1.6049424461596,-3.302286645856,5.40501831043,-2.555196141475,3.1391283170528,-0.39530868163955,-1.2622888734286,-6.7455159085365,1.0302122502198,-1.991179355759,-3.395379082715,1.4807742102051,3.282612135407,-3.3751355996268,289.24454087781,289.24454087781,289.24454087781,289.24454087781,289.24454087781,289.24454087781,289.24454087781,289.24454087781,289.24454087781,289.24454087781,289.24454087781,289.24454087781,289.24454087781,289.24454087781,289.24454087781,289.24454087781,289.24454087781,289.24454087781,289.24454087781,289.24454087781,289.24454087781,289.24454087781,289.24454087781,289.24454087781,289.24454087781,289.24454087781,289.24454087781,289.24454087781,289.24454087781,289.24454087781,289.24454087781,289.24454087781,289.24454087781,289.24454087781,289.24454087781,289.24454087781,289.24454087781,289.24454087781,289.24454087781,289.24454087781,289.24454087781,289.24454087781,289.24454087781,289.24454087781,289.24454087781,289.24454087781,289.24454087781,289.24454087781,226.26814428129,575.88146747385,-1.3820524034144,505.97647410669,-1.3939401355976,0
0.0004459375,1911263887.7164,3.844674552387e-05,0.00013213968880744,5.7199071384825e-05,1.0419424179974,0,0,0,0,0,0,0,0,0,0,0,0,0,0,0,0,0,0,0,0,0,0,0,0,0,0,0,0,0,0,0,0,0,0,0,0,0,0,0,0,0,0,0,0,0,0,0,0,-0.97561672044378,0.05088271204484,-0.22627324269834,5.1999688416536,2.9347142618422,1.0595585393541,-3.0950692672664,1.5509746347252,2.7178192724135,-0.45481187009476,1.8768562437843,-5.398951164408,1.5498111381935,-1.3016002657634,1.836483838879,-4.0991238108374,1.8580131622312,4.4549997922426,-1.0259549704307,-4.4852157043138,1.9026378974266,1.9399195770722,0.024532056923594,-4.1781049453552,3.2064909388426,-2.5197284324533,1.2112948802398,1.0437177860642,-1.5774236483896,1.0719063834414,1.3003276497623,-0.25725093510825,0.80628918266502,-3.9433858222664,-1.6036816104838,-3.3015891820408,5.4052628273276,-2.553409051014,3.1389598186154,-0.39508180767915,-1.2620008397487,-6.7438275367884,1.0303321561315,-1.990966591594,-3.3956421010093,1.482033261978,3.2813701227433,-3.3726567128864,289.70645122392,289.70645122392,289.70645122392,289.70645122392,289.70645122392,289.70645122392,289.70645122392,289.70645122392,289.70645122392,289.70645122392,289.70645122392,289.70645122392,289.70645122392,289.70645122392,289.70645122392,289.70645122392,289.70645122392,289.70645122392,289.70645122392,289.70645122392,289.70645122392,289.70645122392,289.70645122392,289.70645122392,289.70645122392,289.70645122392,289.70645122392,289.70645122392,289.70645122392,289.70645122392,289.70645122392,289.70645122392,289.70645122392,289.70645122392,289.70645122392,289.70645122392,289.70645122392,289.70645122392,289.70645122392,289.70645122392,289.70645122392,289.70645122392,289.70645122392,289.70645122392,289.70645122392,289.70645122392,289.70645122392,289.70645122392,226.24226208248,576.82965551235,-1.3886457866255,506.79074058165,-1.4005434870625,0
0.0004471875,1919836089.9216,3.8552099474133e-05,0.00013251018771604,5.7367510237152e-05,1.0420620251876,0,0,0,0,0,0,0,0,0,0,0,0,0,0,0,0,0,0,0,0,0,0,0,0,0,0,0,0,0,0,0,0,0,0,0,0,0,0,0,0,0,0,0,0,0,0,0,0,-0.97551939047752,0.052363306941705,-0.22601484855913,5.1997666671989,2.9341259175677,1.0591129784369,-3.0936359483356,1.5506211574644,2.7174056689507,-0.45446774679275,1.8768707170007,-5.3986707041385,1.5504322768148,-1.3004885672924,1.8370539469908,-4.0969749645135,1.8564973248802,4.4537824022694,-1.0260267765734,-4.4848415527219,1.9029734943523,1.941113730876,0.024538651023299,-4.1795777456386,3.2067132343089,-2.5217503812528,1.2113563565675,1.0434770170144,-1.5759153808028,1.0711195591227,1.2994237987268,-0.25650295474272,0.80622168084129,-3.9416443038865,-1.6024242483481,-3.3008912971532,5.405501198111,-2.551620245055,3.1387906653184,-0.3948557451881,-1.2617138263262,-6.7421352473386,1.030450369447,-1.990754427805,-3.3959058226358,1.4832926937187,3.2801322058886,-3.3701802131338,290.16826769964,290.16826769964,290.16826769964,290.16826769964,290.16826769964,290.16826769964,290.16826769964,290.16826769964,290.16826769964,290.16826769964,290.16826769964,290.16826769964,290.16826769964,290.16826769964,290.16826769964,290.16826769964,290.16826769964,290.16826769964,290.16826769964,290.16826769964,290.16826769964,290.16826769964,290.16826769964,290.16826769964,290.16826769964,290.16826769964,290.16826769964,290.16826769964,290.16826769964,290.16826769964,290.16826769964,290.16826769964,290.16826769964,290.16826769964,290.16826769964,290.16826769964,290.16826769964,290.16826769964,290.16826769964,290.16826769964,290.16826769964,290.16826769964,290.16826769964,290.16826769964,290.16826769964,290.16826769964,290.16826769964,290.16826769964,226.21636508174,577.7776217595,-1.3952528621573,507.6047974421,-1.4071604797077,0
0.0004484375,1928424134.5408,3.8657449273654e-05,0.00013288068670413,5.7535983336555e-05,1.0421816287882,0,0,0,0,0,0,0,0,0,0,0,0,0,0,0,0,0,0,0,0,0,0,0,0,0,0,0,0,0,0,0,0,0,0,0,0,0,0,0,0,0,0,0,0,0,0,0,0,-0.97542104868715,0.053843362893386,-0.22576506956869,5.1995634737687,2.9335380540396,1.0586685790315,-3.0922024871666,1.5502661737345,2.7169913977702,-0.45412308035878,1.8768817123266,-5.3983879819323,1.5510534971353,-1.2993785382614,1.8376191817888,-4.0948219517115,1.8549814924296,4.4525675628032,-1.0260976280534,-4.4844691031686,1.9033031053306,1.942306733487,0.024546232254712,-4.1810543178054,3.2069313000807,-2.5237697976217,1.2114163744543,1.043236135082,-1.5744058787199,1.0703323869031,1.2985197171778,-0.25575328228877,0.8061539512813,-3.9399029995228,-1.6011702948567,-3.3001929904322,5.4057333536015,-2.5498297173672,3.13862086741,-0.39463049479205,-1.2614278230634,-6.7404391152833,1.0305668643138,-1.9905427829033,-3.3961701119943,1.4845525329802,3.2788983552651,-3.3677061209424,290.6299902749,290.6299902749,290.6299902749,290.6299902749,290.6299902749,290.6299902749,290.6299902749,290.6299902749,290.6299902749,290.6299902749,290.6299902749,290.6299902749,290.6299902749,290.6299902749,290.6299902749,290.6299902749,290.6299902749,290.6299902749,290.6299902749,290.6299902749,290.6299902749,290.6299902749,290.6299902749,290.6299902749,290.6299902749,290.6299902749,290.6299902749,290.6299902749,290.6299902749,290.6299902749,290.6299902749,290.6299902749,290.6299902749,290.6299902749,290.6299902749,290.6299902749,290.6299902749,290.6299902749,290.6299902749,290.6299902749,290.6299902749,290.6299902749,290.6299902749,290.6299902749,290.6299902749,290.6299902749,290.6299902749,290.6299902749,226.19045335816,578.72536637236,-1.401873622172,508.41864477129,-1.4137911065891,0
0.0004496875,1937028026.651,3.8762794866753e-05,0.00013325118577059,5.7704490466165e-05,1.0423012287997,0,0,0,0,0,0,0,0,0,0,0,0,0,0,0,0,0,0,0,0,0,0,0,0,0,0,0,0,0,0,0,0,0,0,0,0,0,0,0,0,0,0,0,0,0,0,0,0,-0.97532170663519,0.055322893969222,-0.22552381736126,5.1993592013104,2.9329506808176,1.058225314862,-3.090768863464,1.5499097040001,2.7165764798815,-0.45377787122299,1.8768892489118,-5.398102998845,1.5516748125436,-1.298270184371,1.8381795541635,-4.0926648414556,1.853465639778,4.4513552615416,-1.0261675509223,-4.4840982970099,1.903626788954,1.9434985671634,0.024554796092086,-4.1825346553439,3.2071451523963,-2.525786688703,1.2114749634594,1.0429951237288,-1.5728951195209,1.0695448858645,1.2976154435353,-0.25500192160987,0.8060859993487,-3.938161905297,-1.5999196840106,-3.2994942627396,5.4059592298965,-2.548037464609,3.1384504349466,-0.39440605720562,-1.2611428191966,-6.738739218763,1.0306816141543,-1.9903315773669,-3.3964348374161,1.4858128073141,3.2776685415397,-3.3652344547126,291.09161891985,291.09161891985,291.09161891985,291.09161891985,291.09161891985,291.09161891985,291.09161891985,291.09161891985,291.09161891985,291.09161891985,291.09161891985,291.09161891985,291.09161891985,291.09161891985,291.09161891985,291.09161891985,291.09161891985,291.09161891985,291.09161891985,291.09161891985,291.09161891985,291.09161891985,291.09161891985,291.09161891985,291.09161891985,291.09161891985,291.09161891985,291.09161891985,291.09161891985,291.09161891985,291.09161891985,291.09161891985,291.09161891985,291.09161891985,291.09161891985,291.09161891985,291.09161891985,291.09161891985,291.09161891985,291.09161891985,291.09161891985,291.09161891985,291.09161891985,291.09161891985,291.09161891985,291.09161891985,291.09161891985,291.09161891985,226.16452697817,579.67288951405,-1.4085080585378,509.23228265048,-1.4204353605963,0
0.0004509375,1945647771.8888,3.8868136253252e-05,0.00013362168491428,5.7873031512627e-05,1.0424208252229,0,0,0,0,0,0,0,0,0,0,0,0,0,0,0,0,0,0,0,0,0,0,0,0,0,0,0,0,0,0,0,0,0,0,0,0,0,0,0,0,0,0,0,0,0,0,0,0,-0.97522137618642,0.056801913160465,-0.22529100416756,5.1991537934029,2.9323638077232,1.0577831614377,-3.0893350583752,1.549551769709,2.7161609354799,-0.45343212034529,1.8768933461887,-5.3978157577951,1.5522962355974,-1.2971635111259,1.8387350772153,-4.0905037080301,1.8519497415001,4.4501454871395,-1.0262365684228,-4.4837290778244,1.9039446051377,1.9446892135473,0.024564337527192,-4.1840187521348,3.2073548080884,-2.5278010625738,1.2115321530269,1.0427539670325,-1.5713830818025,1.0687570751123,1.296711015471,-0.25424887736662,0.80601783036617,-3.9364210185236,-1.5986723488828,-3.2987951157095,5.4061787682414,-2.5462434867244,3.1382793775553,-0.39418243278454,-1.2608588032636,-6.7370356401,1.0307945915795,-1.9901207334548,-3.3966998710833,1.4870735442243,3.2764427355709,-3.3627652305313,291.55315360479,291.55315360479,291.55315360479,291.55315360479,291.55315360479,291.55315360479,291.55315360479,291.55315360479,291.55315360479,291.55315360479,291.55315360479,291.55315360479,291.55315360479,291.55315360479,291.55315360479,291.55315360479,291.55315360479,291.55315360479,291.55315360479,291.55315360479,291.55315360479,291.55315360479,291.55315360479,291.55315360479,291.55315360479,291.55315360479,291.55315360479,291.55315360479,291.55315360479,291.55315360479,291.55315360479,291.55315360479,291.55315360479,291.55315360479,291.55315360479,291.55315360479,291.55315360479,291.55315360479,291.55315360479,291.55315360479,291.55315360479,291.55315360479,291.55315360479,291.55315360479,291.55315360479,291.55315360479,291.55315360479,291.55315360479,226.13858599415,580.62019135442,-1.4151561635857,510.04571115872,-1.4270932348123,0
0.0004521875,1954283376.398,3.8973473300224e-05,0.00013399218413415,5.8041606118593e-05,1.0425404180584,0,0,0,0,0,0,0,0,0,0,0,0,0,0,0,0,0,0,0,0,0,0,0,0,0,0,0,0,0,0,0,0,0,0,0,0,0,0,0,0,0,0,0,0,0,0,0,0,-0.97512006953428,0.058280432446045,-0.22506654261365,5.1989471977401,2.9317774447007,1.0573420961228,-3.0879010557054,1.5491923933708,2.7157447835589,-0.45308582921582,1.8768940239487,-5.3975262632966,1.5529177778999,-1.2960585245388,1.8392857665879,-4.0883386305059,1.8504337722711,4.4489382290552,-1.0263047008236,-4.4833613926961,1.9042566152628,1.9458786533744,0.024574851094721,-4.1855066013049,3.2075602846465,-2.5298129279803,1.2115879723818,1.0425126496916,-1.5698697462592,1.0679689738,1.2958064697087,-0.25349415511418,0.80594944963046,-3.9346803375752,-1.5974282220378,-3.2980955523654,5.4063919156706,-2.5444477872857,3.1381077047581,-0.39395962199017,-1.2605757629172,-6.7353284643295,1.0309057686925,-1.9899101755524,-3.3969650894794,1.4883347712486,3.2752209084146,-3.3602984620543,292.01459430016,292.01459430016,292.01459430016,292.01459430016,292.01459430016,292.01459430016,292.01459430016,292.01459430016,292.01459430016,292.01459430016,292.01459430016,292.01459430016,292.01459430016,292.01459430016,292.01459430016,292.01459430016,292.01459430016,292.01459430016,292.01459430016,292.01459430016,292.01459430016,292.01459430016,292.01459430016,292.01459430016,292.01459430016,292.01459430016,292.01459430016,292.01459430016,292.01459430016,292.01459430016,292.01459430016,292.01459430016,292.01459430016,292.01459430016,292.01459430016,292.01459430016,292.01459430016,292.01459430016,292.01459430016,292.01459430016,292.01459430016,292.01459430016,292.01459430016,292.01459430016,292.01459430016,292.01459430016,292.01459430016,292.01459430016,226.11263044712,581.56727207021,-1.4218179292602,510.85893037329,-1.4337647221524,0
0.0004534375,1962934846.7744,3.9078805783649e-05,0.00013436268342911,5.8210213761127e-05,1.0426600073067,0,0,0,0,0,0,0,0,0,0,0,0,0,0,0,0,0,0,0,0,0,0,0,0,0,0,0,0,0,0,0,0,0,0,0,0,0,0,0,0,0,0,0,0,0,0,0,0,-0.97501779913988,0.059758462755204,-0.22485034567091,5.1987393665256,2.9311916017633,1.0569020983306,-3.0864668412526,1.5488315985531,2.7153280419291,-0.45273899990015,1.8768913022174,-5.3972345217999,1.5535394500579,-1.2949552305526,1.8398316403817,-4.0861696931632,1.8489177066095,4.447733477494,-1.0263719651554,-4.4829951916429,1.9045628822155,1.9470668665416,0.024586330851268,-4.1869981960362,3.2077616000606,-2.5318222944171,1.2116424505048,1.0422711571107,-1.5683550952691,1.0671806011156,1.2949018419356,-0.25273776132592,0.80588086235373,-3.9329398620856,-1.5961872357545,-3.2973955765355,5.4065986248203,-2.5426503737749,3.1379354256481,-0.3937376250687,-1.2602936849275,-6.733617780236,1.0310151170306,-1.9896998300178,-3.3972303732528,1.4895965158485,3.2740030313528,-3.3578341604505,292.4759409765,292.4759409765,292.4759409765,292.4759409765,292.4759409765,292.4759409765,292.4759409765,292.4759409765,292.4759409765,292.4759409765,292.4759409765,292.4759409765,292.4759409765,292.4759409765,292.4759409765,292.4759409765,292.4759409765,292.4759409765,292.4759409765,292.4759409765,292.4759409765,292.4759409765,292.4759409765,292.4759409765,292.4759409765,292.4759409765,292.4759409765,292.4759409765,292.4759409765,292.4759409765,292.4759409765,292.4759409765,292.4759409765,292.4759409765,292.4759409765,292.4759409765,292.4759409765,292.4759409765,292.4759409765,292.4759409765,292.4759409765,292.4759409765,292.4759409765,292.4759409765,292.4759409765,292.4759409765,292.4759409765,292.4759409765,226.0866603653,582.51413184541,-1.4284933477472,511.67194036952,-1.4404498156101,0
0.0004546875,1971602190.008,3.9184133595973e-05,0.00013473318279814,5.8378854132372e-05,1.0427795929687,0,0,0,0,0,0,0,0,0,0,0,0,0,0,0,0,0,0,0,0,0,0,0,0,0,0,0,0,0,0,0,0,0,0,0,0,0,0,0,0,0,0,0,0,0,0,0,0,-0.97491457771903,0.061236013985777,-0.22464232661008,5.1985302568173,2.9306062888662,1.0564631496184,-3.0850324031426,1.5484694098957,2.7149107273025,-0.45239163505364,1.8768852012583,-5.3969405416066,1.5541612615914,-1.2938536350769,1.840372719307,-4.0839969851582,1.8474015190131,4.4465312232544,-1.0264383750474,-4.4826304279827,1.9048634704242,1.9482538321898,0.024598770384436,-4.1884935291778,3.2079587728412,-2.5338291719202,1.2116956160517,1.0420294754325,-1.5668391131863,1.0663919762829,1.2939971668738,-0.25197970345271,0.80581207364426,-3.9311995929335,-1.5949493223625,-3.2966951928196,5.4067988542214,-2.5408512577578,3.1377625489503,-0.3935164421245,-1.2600125550751,-6.7319036797067,1.0311226077008,-1.9894896252803,-3.3974956074246,1.4908588054151,3.2727890758857,-3.3553723343038,292.93719360446,292.93719360446,292.93719360446,292.93719360446,292.93719360446,292.93719360446,292.93719360446,292.93719360446,292.93719360446,292.93719360446,292.93719360446,292.93719360446,292.93719360446,292.93719360446,292.93719360446,292.93719360446,292.93719360446,292.93719360446,292.93719360446,292.93719360446,292.93719360446,292.93719360446,292.93719360446,292.93719360446,292.93719360446,292.93719360446,292.93719360446,292.93719360446,292.93719360446,292.93719360446,292.93719360446,292.93719360446,292.93719360446,292.93719360446,292.93719360446,292.93719360446,292.93719360446,292.93719360446,292.93719360446,292.93719360446,292.93719360446,292.93719360446,292.93719360446,292.93719360446,292.93719360446,292.93719360446,292.93719360446,292.93719360446,226.06067576618,583.46077087146,-1.4351824113253,512.48474122094,-1.4471485082066,0
0.0004559375,1980285413.4213,3.9289456682296e-05,0.00013510368224021,5.8547527022011e-05,1.0428991750449,0,0,0,0,0,0,0,0,0,0,0,0,0,0,0,0,0,0,0,0,0,0,0,0,0,0,0,0,0,0,0,0,0,0,0,0,0,0,0,0,0,0,0,0,0,0,0,0,-0.97481041821325,0.062713095047336,-0.22444239893408,5.1983198308762,2.9300215158106,1.0560252337359,-3.083597731936,1.5481058531016,2.7144928552094,-0.45204373792631,1.8768757415397,-5.3966443327907,1.5547832208652,-1.2927537440173,1.8409090267652,-4.0818206003099,1.8458851840346,4.4453314576123,-1.0265039406416,-4.4822670584481,1.9051584458763,1.9494395286245,0.024612162825199,-4.1899925932609,3.2081518219788,-2.535833570843,1.2117474972907,1.0417875915553,-1.5653217865065,1.0656031185559,1.2930924782468,-0.25121998993899,0.80574308848246,-3.9294595322218,-1.5937144145642,-3.295994406614,5.4069925684187,-2.5390504550105,3.1375890830395,-0.39329607315078,-1.259732358062,-6.730186257537,1.0312282114863,-1.9892794919628,-3.3977606814651,1.4921216672595,3.27157901375,-3.3529129896329,293.39835215475,293.39835215475,293.39835215475,293.39835215475,293.39835215475,293.39835215475,293.39835215475,293.39835215475,293.39835215475,293.39835215475,293.39835215475,293.39835215475,293.39835215475,293.39835215475,293.39835215475,293.39835215475,293.39835215475,293.39835215475,293.39835215475,293.39835215475,293.39835215475,293.39835215475,293.39835215475,293.39835215475,293.39835215475,293.39835215475,293.39835215475,293.39835215475,293.39835215475,293.39835215475,293.39835215475,293.39835215475,293.39835215475,293.39835215475,293.39835215475,293.39835215475,293.39835215475,293.39835215475,293.39835215475,293.39835215475,293.39835215475,293.39835215475,293.39835215475,293.39835215475,293.39835215475,293.39835215475,293.39835215475,293.39835215475,226.03467665702,584.40718934743,-1.4418851122803,513.29733299949,-1.4538607929323,0
0.0004571875,1988984524.6079,3.9394775110827e-05,0.00013547418175432,5.8716232446372e-05,1.043018753536,0,0,0,0,0,0,0,0,0,0,0,0,0,0,0,0,0,0,0,0,0,0,0,0,0,0,0,0,0,0,0,0,0,0,0,0,0,0,0,0,0,0,0,0,0,0,0,0,-0.97470533377052,0.064189713874514,-0.22425047633212,5.1981080564353,2.9294372921534,1.0555883366828,-3.0821628207826,1.5477409549269,2.7140744401337,-0.45169531237515,1.8768629437104,-5.3963459072218,1.5554053350294,-1.2916555631313,1.8414405888684,-4.0796406365807,1.844368676248,4.4441341722244,-1.0265686684957,-4.4819050433908,1.9054478761027,1.9506239335239,0.024626500859822,-4.1914953802179,3.2083407669121,-2.5378355017259,1.2117981220312,1.0415454931679,-1.5638031040113,1.0648140472417,1.2921878088033,-0.25045863026338,0.80567391169802,-3.9277196833315,-1.5924824457574,-3.2952932238578,5.4071797379914,-2.5372479855152,3.1374150357914,-0.39307651801073,-1.2594530774648,-6.7284656107474,1.0313318989227,-1.9890693628792,-3.3980254892716,1.4933851285238,3.2703728169484,-3.3504561297987,293.85941659811,293.85941659811,293.85941659811,293.85941659811,293.85941659811,293.85941659811,293.85941659811,293.85941659811,293.85941659811,293.85941659811,293.85941659811,293.85941659811,293.85941659811,293.85941659811,293.85941659811,293.85941659811,293.85941659811,293.85941659811,293.85941659811,293.85941659811,293.85941659811,293.85941659811,293.85941659811,293.85941659811,293.85941659811,293.85941659811,293.85941659811,293.85941659811,293.85941659811,293.85941659811,293.85941659811,293.85941659811,293.85941659811,293.85941659811,293.85941659811,293.85941659811,293.85941659811,293.85941659811,293.85941659811,293.85941659811,293.85941659811,293.85941659811,293.85941659811,293.85941659811,293.85941659811,293.85941659811,293.85941659811,293.85941659811,226.00866303595,585.35338748004,-1.4486014429273,514.10971577562,-1.460586662771,0
0.0004584375,1997699531.369,3.9500088792535e-05,0.00013584468133951,5.8884970135034e-05,1.0431383284427,0,0,0,0,0,0,0,0,0,0,0,0,0,0,0,0,0,0,0,0,0,0,0,0,0,0,0,0,0,0,0,0,0,0,0,0,0,0,0,0,0,0,0,0,0,0,0,0,-0.97459933771736,0.065665877502154,-0.22406647266942,5.1978949069499,2.928853627085,1.0551524466755,-3.0807276657004,1.5473747431303,2.7136554955644,-0.45134636285511,1.8768468285929,-5.3960452783816,1.5560276099518,-1.2905590980829,1.841967434599,-4.0774571955135,1.8428519703971,4.4429393589534,-1.0266325615925,-4.4815443470511,1.9057318301189,1.9518070239758,0.024641776746477,-4.1930018811554,3.2085256275365,-2.5398349750126,1.2118475175504,1.0413031687342,-1.5622830570493,1.0640247816712,1.2912831903914,-0.24969563494212,0.8056045479523,-3.9259800508475,-1.591253350353,-3.2945916510695,5.4073603398606,-2.5354438734034,3.1372404146712,-0.39285777648846,-1.2591746956253,-6.7267418379053,1.0314336404507,-1.9888591731768,-3.3982899294072,1.4946492161899,3.2691704577203,-3.3480017555106,294.32038690533,294.32038690533,294.32038690533,294.32038690533,294.32038690533,294.32038690533,294.32038690533,294.32038690533,294.32038690533,294.32038690533,294.32038690533,294.32038690533,294.32038690533,294.32038690533,294.32038690533,294.32038690533,294.32038690533,294.32038690533,294.32038690533,294.32038690533,294.32038690533,294.32038690533,294.32038690533,294.32038690533,294.32038690533,294.32038690533,294.32038690533,294.32038690533,294.32038690533,294.32038690533,294.32038690533,294.32038690533,294.32038690533,294.32038690533,294.32038690533,294.32038690533,294.32038690533,294.32038690533,294.32038690533,294.32038690533,294.32038690533,294.32038690533,294.32038690533,294.32038690533,294.32038690533,294.32038690533,294.32038690533,294.32038690533,225.98263489321,586.29936548372,-1.455331395513,514.92188961846,-1.4673261106946,0
0.0004596875,2006430441.6508,3.9605397613521e-05,0.00013621518099484,5.9053739772744e-05,1.0432578997656,0,0,0,0,0,0,0,0,0,0,0,0,0,0,0,0,0,0,0,0,0,0,0,0,0,0,0,0,0,0,0,0,0,0,0,0,0,0,0,0,0,0,0,0,0,0,0,0,-0.97449244351014,0.067141592057554,-0.22389030198694,5.1976803616924,2.9282705293791,1.0547175541354,-3.0792922651141,1.5470072464051,2.7132360339861,-0.45099689442666,1.8768274170866,-5.3957424613874,1.5566500501934,-1.2894643541472,1.8424895956832,-4.0752703819556,1.841335041249,4.441747009825,-1.0266956193639,-4.4811849370294,1.9060103783282,1.9529887765042,0.024657982332606,-4.1945120868626,3.2087064240863,-2.5418320008826,1.2118957105534,1.041060607506,-1.5607616393276,1.0632353412029,1.2903786538919,-0.24893101551207,0.80553500169386,-3.9242406406111,-1.5900270640014,-3.2938896950343,5.4075343570026,-2.5336381468134,3.1370652265392,-0.39263984813125,-1.2588971936568,-6.7250150393815,1.0315334063992,-1.9886488602984,-3.398553904862,1.4959139569887,3.2679719086147,-3.3455498649166,294.7812630472,294.7812630472,294.7812630472,294.7812630472,294.7812630472,294.7812630472,294.7812630472,294.7812630472,294.7812630472,294.7812630472,294.7812630472,294.7812630472,294.7812630472,294.7812630472,294.7812630472,294.7812630472,294.7812630472,294.7812630472,294.7812630472,294.7812630472,294.7812630472,294.7812630472,294.7812630472,294.7812630472,294.7812630472,294.7812630472,294.7812630472,294.7812630472,294.7812630472,294.7812630472,294.7812630472,294.7812630472,294.7812630472,294.7812630472,294.7812630472,294.7812630472,294.7812630472,294.7812630472,294.7812630472,294.7812630472,294.7812630472,294.7812630472,294.7812630472,294.7812630472,294.7812630472,294.7812630472,294.7812630472,294.7812630472,225.95659221265,587.24512358049,-1.4620749625047,515.73385459584,-1.4740791297426,0
0.0004609375,2015177263.4813,3.971070110881e-05,0.00013658568071937,5.9222540401728e-05,1.0433774675054,0,0,0,0,0,0,0,0,0,0,0,0,0,0,0,0,0,0,0,0,0,0,0,0,0,0,0,0,0,0,0,0,0,0,0,0,0,0,0,0,0,0,0,0,0,0,0,0,-0.97438466471861,0.068616862857918,-0.22372187850517,5.1974644058877,2.9276880072856,1.0542836515941,-3.0778566203983,1.5466384943207,2.7128160669779,-0.45064691273585,1.8768047301956,-5.3954374727478,1.5572726589606,-1.2883713363647,1.843007106713,-4.0730803030345,1.8398178637221,4.4405571168834,-1.026757837792,-4.480826784817,1.9062835924196,1.9541691671975,0.024675109081778,-4.1960259870829,3.2088831771838,-2.5438265889543,1.2119427270924,1.0408177994961,-1.5592388473514,1.0624457452263,1.2894742292981,-0.24816478454208,0.80546527715654,-3.9225014596234,-1.5888035239109,-3.2931873628902,5.4077017786716,-2.5318308376483,3.136889477666,-0.39242273237548,-1.2586205513574,-6.7232853158601,1.0316311671563,-1.9884383641489,-3.3988173231897,1.4971793773508,3.2667771424807,-3.3431004536069,295.24204499453,295.24204499453,295.24204499453,295.24204499453,295.24204499453,295.24204499453,295.24204499453,295.24204499453,295.24204499453,295.24204499453,295.24204499453,295.24204499453,295.24204499453,295.24204499453,295.24204499453,295.24204499453,295.24204499453,295.24204499453,295.24204499453,295.24204499453,295.24204499453,295.24204499453,295.24204499453,295.24204499453,295.24204499453,295.24204499453,295.24204499453,295.24204499453,295.24204499453,295.24204499453,295.24204499453,295.24204499453,295.24204499453,295.24204499453,295.24204499453,295.24204499453,295.24204499453,295.24204499453,295.24204499453,295.24204499453,295.24204499453,295.24204499453,295.24204499453,295.24204499453,295.24204499453,295.24204499453,295.24204499453,295.24204499453,225.93053497368,588.19066199976,-1.4688321362789,516.54561077453,-1.4808457129301,0
0.0004621875,2023940004.9104,3.9815999407308e-05,0.00013695618051223,5.939137215512e-05,1.0434970316627,0,0,0,0,0,0,0,0,0,0,0,0,0,0,0,0,0,0,0,0,0,0,0,0,0,0,0,0,0,0,0,0,0,0,0,0,0,0,0,0,0,0,0,0,0,0,0,0,-0.97427601498378,0.070091694445734,-0.22356111664649,5.1972470306989,2.9271060684778,1.0538507335759,-3.076420735685,1.5462685172203,2.7123956052287,-0.45029642400499,1.87677878897,-5.3951303302327,1.5578954380946,-1.287280049417,1.8435200050783,-4.070887067612,1.8383004128508,4.43936967213,-1.0268192095661,-4.4804698655013,1.906551545212,1.9553481717472,0.024693148097872,-4.1975435707733,3.2090559077717,-2.5458187480473,1.2119885925231,1.0405747354464,-1.5577146804135,1.0616560131484,1.2885699457013,-0.24739695560003,0.8053953783319,-3.9207625160071,-1.587582669055,-3.2924846619829,5.4078626002547,-2.5300219812927,3.1367131736491,-0.39220642848836,-1.2583447472041,-6.7215527681585,1.0317268932156,-1.9882276271399,-3.3990800963987,1.4984455033442,3.2655861325138,-3.3406535147339,295.70273271812,295.70273271812,295.70273271812,295.70273271812,295.70273271812,295.70273271812,295.70273271812,295.70273271812,295.70273271812,295.70273271812,295.70273271812,295.70273271812,295.70273271812,295.70273271812,295.70273271812,295.70273271812,295.70273271812,295.70273271812,295.70273271812,295.70273271812,295.70273271812,295.70273271812,295.70273271812,295.70273271812,295.70273271812,295.70273271812,295.70273271812,295.70273271812,295.70273271812,295.70273271812,295.70273271812,295.70273271812,295.70273271812,295.70273271812,295.70273271812,295.70273271812,295.70273271812,295.70273271812,295.70273271812,295.70273271812,295.70273271812,295.70273271812,295.70273271812,295.70273271812,295.70273271812,295.70273271812,295.70273271812,295.70273271812,225.90446315209,589.13598097808,-1.4756029092954,517.3571582203,-1.4876258532754,0
0.0004634375,2032718673.9499,3.9921292863474e-05,0.00013732668037254,5.9560235581279e-05,1.0436165922383,0,0,0,0,0,0,0,0,0,0,0,0,0,0,0,0,0,0,0,0,0,0,0,0,0,0,0,0,0,0,0,0,0,0,0,0,0,0,0,0,0,0,0,0,0,0,0,0,-0.97416650798473,0.071566090655125,-0.22340793109703,5.1970282331617,2.9265247199757,1.0534187964459,-3.0749846180007,1.5458973461144,2.7119746586347,-0.44994543501072,1.8767496144896,-5.3948210526965,1.5585183880602,-1.2861904975924,1.8440283309872,-4.0686907854073,1.8367826638167,4.438184667408,-1.0268797242781,-4.4801141578194,1.9068143104715,1.9565257655708,0.02471209015396,-4.1990648258394,3.2092246371131,-2.5478084859583,1.2120333314506,1.040331406784,-1.5561891407844,1.060866164382,1.2876658313428,-0.24662754323119,0.80532530895506,-3.9190238189443,-1.5863644403939,-3.2917815997891,5.4080168233027,-2.5282116162563,3.1365363193622,-0.39199093556908,-1.2580697583202,-6.7198174963072,1.0318205552759,-1.98801659428,-3.3993421409559,1.4997123606051,3.2643988522606,-3.3382090390983,296.16332618877,296.16332618877,296.16332618877,296.16332618877,296.16332618877,296.16332618877,296.16332618877,296.16332618877,296.16332618877,296.16332618877,296.16332618877,296.16332618877,296.16332618877,296.16332618877,296.16332618877,296.16332618877,296.16332618877,296.16332618877,296.16332618877,296.16332618877,296.16332618877,296.16332618877,296.16332618877,296.16332618877,296.16332618877,296.16332618877,296.16332618877,296.16332618877,296.16332618877,296.16332618877,296.16332618877,296.16332618877,296.16332618877,296.16332618877,296.16332618877,296.16332618877,296.16332618877,296.16332618877,296.16332618877,296.16332618877,296.16332618877,296.16332618877,296.16332618877,296.16332618877,296.16332618877,296.16332618877,296.16332618877,296.16332618877,225.87837672218,590.08108075876,-1.4823872740326,518.16849699804,-1.4944195438191,0
0.0004646875,2041513278.5176,4.0026581069164e-05,0.00013769718029946,5.9729129831015e-05,1.0437361492328,0,0,0,0,0,0,0,0,0,0,0,0,0,0,0,0,0,0,0,0,0,0,0,0,0,0,0,0,0,0,0,0,0,0,0,0,0,0,0,0,0,0,0,0,0,0,0,0,-0.97405615738292,0.073040054659326,-0.22326223685744,5.1968080160187,2.9259439681231,1.0529878382449,-3.0735482769562,1.5455250125516,2.7115532362779,-0.44959395307008,1.8767172277929,-5.3945096599367,1.5591415079711,-1.2851026846616,1.8445321273471,-4.0664915664186,1.8352645918782,4.4370020943783,-1.0269393686526,-4.4797596437074,1.9070719627076,1.9577019238074,0.024731925714436,-4.2005897394682,3.2093893867103,-2.5497958092512,1.2120769677017,1.0400878055755,-1.5546622336273,1.0600762183288,1.2867619135738,-0.24585656290656,0.805255072478,-3.9172853786218,-1.5851487810112,-3.2910781838078,5.4081644552802,-2.5263997837864,3.1363589188395,-0.39177625246081,-1.2577955605041,-6.7180795994199,1.0319121242757,-1.9878052132259,-3.3996033775989,1.5009799742571,3.2632152756681,-3.335767015326,296.62382537726,296.62382537726,296.62382537726,296.62382537726,296.62382537726,296.62382537726,296.62382537726,296.62382537726,296.62382537726,296.62382537726,296.62382537726,296.62382537726,296.62382537726,296.62382537726,296.62382537726,296.62382537726,296.62382537726,296.62382537726,296.62382537726,296.62382537726,296.62382537726,296.62382537726,296.62382537726,296.62382537726,296.62382537726,296.62382537726,296.62382537726,296.62382537726,296.62382537726,296.62382537726,296.62382537726,296.62382537726,296.62382537726,296.62382537726,296.62382537726,296.62382537726,296.62382537726,296.62382537726,296.62382537726,296.62382537726,296.62382537726,296.62382537726,296.62382537726,296.62382537726,296.62382537726,296.62382537726,296.62382537726,296.62382537726,225.85227565813,591.02596159149,-1.4891852231205,518.97962717182,-1.5012267776446,0
0.0004659375,2050323826.3838,4.0131863941086e-05,0.00013806768029217,5.9898054653037e-05,1.0438557026468,0,0,0,0,0,0,0,0,0,0,0,0,0,0,0,0,0,0,0,0,0,0,0,0,0,0,0,0,0,0,0,0,0,0,0,0,0,0,0,0,0,0,0,0,0,0,0,0,-0.97394497680812,0.074513589060925,-0.22312394932864,5.1965863875387,2.9253638185168,1.0525578584575,-3.0721117252202,1.5451515484966,2.7111313466168,-0.44924198600559,1.8766816499177,-5.3941961723876,1.5597647955997,-1.2840166139991,1.8450314398108,-4.0642895197715,1.8337461725104,4.4358219444098,-1.0269981268515,-4.4794063086724,1.9073245769519,1.958876621524,0.024752644972957,-4.202118297401,3.2095501783816,-2.5517807229988,1.2121195242674,1.0398439244517,-1.5531339674178,1.059286194372,1.2858582189917,-0.24508403100887,0.80518467207896,-3.9155472060965,-1.5839356363156,-3.2903744215855,5.4083055096635,-2.524586527423,3.1361809753149,-0.39156237786862,-1.2575221282017,-6.7163391741471,1.0320015715561,-1.9875934344218,-3.3998637313871,1.5022483688559,3.2620353770787,-3.3333274299619,297.08423025437,297.08423025437,297.08423025437,297.08423025437,297.08423025437,297.08423025437,297.08423025437,297.08423025437,297.08423025437,297.08423025437,297.08423025437,297.08423025437,297.08423025437,297.08423025437,297.08423025437,297.08423025437,297.08423025437,297.08423025437,297.08423025437,297.08423025437,297.08423025437,297.08423025437,297.08423025437,297.08423025437,297.08423025437,297.08423025437,297.08423025437,297.08423025437,297.08423025437,297.08423025437,297.08423025437,297.08423025437,297.08423025437,297.08423025437,297.08423025437,297.08423025437,297.08423025437,297.08423025437,297.08423025437,297.08423025437,297.08423025437,297.08423025437,297.08423025437,297.08423025437,297.08423025437,297.08423025437,297.08423025437,297.08423025437,225.82615993582,591.97062373178,-1.4959967490908,519.79054880503,-1.5080475478319,0
0.0004671875,2059150325.1209,4.0237141541635e-05,0.00013843818034989,6.0067010064215e-05,1.0439752524811,0,0,0,0,0,0,0,0,0,0,0,0,0,0,0,0,0,0,0,0,0,0,0,0,0,0,0,0,0,0,0,0,0,0,0,0,0,0,0,0,0,0,0,0,0,0,0,0,-0.97383297979585,0.07598669592815,-0.22299298440171,5.1963633612117,2.924784275999,1.0521288578004,-3.0706749781155,1.5447769861759,2.7107089974401,-0.44888954212889,1.8766429018299,-5.3938806110161,1.5603882474243,-1.2829322884458,1.8455263166232,-4.0620847532363,1.8322273813219,4.4346442085548,-1.0270559807707,-4.4790541412233,1.9075722285066,1.9600498336869,0.02477423787124,-4.2036504844036,3.2097070341831,-2.5537632306646,1.2121610232903,1.0395997565433,-1.5516043537959,1.0584961118451,1.2849547733788,-0.2443099647633,0.80511411063886,-3.9138093132443,-1.5827249541095,-3.2896703206136,5.4084400056355,-2.5227718925714,3.1360024911221,-0.39134931025126,-1.2572494345592,-6.7145963147582,1.0320888688623,-1.9873812111443,-3.4001231314996,1.5035175683149,3.2608591312602,-3.330890267683,297.54454079089,297.54454079089,297.54454079089,297.54454079089,297.54454079089,297.54454079089,297.54454079089,297.54454079089,297.54454079089,297.54454079089,297.54454079089,297.54454079089,297.54454079089,297.54454079089,297.54454079089,297.54454079089,297.54454079089,297.54454079089,297.54454079089,297.54454079089,297.54454079089,297.54454079089,297.54454079089,297.54454079089,297.54454079089,297.54454079089,297.54454079089,297.54454079089,297.54454079089,297.54454079089,297.54454079089,297.54454079089,297.54454079089,297.54454079089,297.54454079089,297.54454079089,297.54454079089,297.54454079089,297.54454079089,297.54454079089,297.54454079089,297.54454079089,297.54454079089,297.54454079089,297.54454079089,297.54454079089,297.54454079089,297.54454079089,225.80002953386,592.91506744044,-1.5028218445942,520.6012619604,-1.5148818474905,0
0.0004684375,2067992782.0567,4.0342413642375e-05,0.00013880868047185,6.023599555021e-05,1.0440947987363,0,0,0,0,0,0,0,0,0,0,0,0,0,0,0,0,0,0,0,0,0,0,0,0,0,0,0,0,0,0,0,0,0,0,0,0,0,0,0,0,0,0,0,0,0,0,0,0,-0.97372017975589,0.077459376865059,-0.22286925855358,5.1961389554291,2.924205344643,1.0517008379665,-3.0692380537439,1.5444013579388,2.7102861959869,-0.44853663020752,1.8766010044244,-5.3935629970826,1.5610118586859,-1.2818497103261,1.8460168085584,-4.0598773723452,1.8307081941145,4.4334688775188,-1.0271129104008,-4.4787031328577,1.9078149926993,1.9612215352948,0.024796694131069,-4.2051862839529,3.2098599764277,-2.5557433339322,1.2122014860418,1.0393552953997,-1.5500734077564,1.0577059900212,1.2840516017707,-0.24353438219532,0.80504339074495,-3.9120717126444,-1.5815166846881,-3.2889658882935,5.4085679679736,-2.5209559260398,3.1358234676659,-0.3911370478488,-1.2569774514591,-6.712851112192,1.0321739884683,-1.9871684995911,-3.4003815111386,1.5047875958323,3.2596865134294,-3.3284555114817,298.00475695762,298.00475695762,298.00475695762,298.00475695762,298.00475695762,298.00475695762,298.00475695762,298.00475695762,298.00475695762,298.00475695762,298.00475695762,298.00475695762,298.00475695762,298.00475695762,298.00475695762,298.00475695762,298.00475695762,298.00475695762,298.00475695762,298.00475695762,298.00475695762,298.00475695762,298.00475695762,298.00475695762,298.00475695762,298.00475695762,298.00475695762,298.00475695762,298.00475695762,298.00475695762,298.00475695762,298.00475695762,298.00475695762,298.00475695762,298.00475695762,298.00475695762,298.00475695762,298.00475695762,298.00475695762,298.00475695762,298.00475695762,298.00475695762,298.00475695762,298.00475695762,298.00475695762,298.00475695762,298.00475695762,298.00475695762,225.77388443535,593.85929298293,-1.5096605022868,521.41176670013,-1.5217296697498,0
0.0004696875,2076851204.2316,4.0447680270211e-05,0.00013917918065733,6.0405011066522e-05,1.0442143414131,0,0,0,0,0,0,0,0,0,0,0,0,0,0,0,0,0,0,0,0,0,0,0,0,0,0,0,0,0,0,0,0,0,0,0,0,0,0,0,0,0,0,0,0,0,0,0,0,-0.97360658992735,0.078931633061558,-0.22275268897221,5.1959131930784,2.9236270277412,1.0512738013755,-3.0678009728505,1.5440246960927,2.7098629489768,-0.44818325943987,1.8765559784988,-5.3932433519696,1.5616356234571,-1.2807688814184,1.8465029688174,-4.0576674797738,1.8291885869003,4.4322959416187,-1.0271688941696,-4.4783532777591,1.9080529446065,1.9623917014144,0.024820003276984,-4.2067256783021,3.2100090276734,-2.5577210326114,1.2122409329066,1.0391105349073,-1.5485411476703,1.0569158480758,1.2831487284654,-0.24275730207335,0.80497251468549,-3.9103344174853,-1.5803107808794,-3.2882611319045,5.4086894268617,-2.5191386755975,3.1356439054104,-0.3909255886545,-1.2567061495753,-6.7111036536714,1.032256903232,-1.9869552589544,-3.4006388074118,1.5060584738346,3.2585174992511,-3.3260231428576,298.46487872538,298.46487872538,298.46487872538,298.46487872538,298.46487872538,298.46487872538,298.46487872538,298.46487872538,298.46487872538,298.46487872538,298.46487872538,298.46487872538,298.46487872538,298.46487872538,298.46487872538,298.46487872538,298.46487872538,298.46487872538,298.46487872538,298.46487872538,298.46487872538,298.46487872538,298.46487872538,298.46487872538,298.46487872538,298.46487872538,298.46487872538,298.46487872538,298.46487872538,298.46487872538,298.46487872538,298.46487872538,298.46487872538,298.46487872538,298.46487872538,298.46487872538,298.46487872538,298.46487872538,298.46487872538,298.46487872538,298.46487872538,298.46487872538,298.46487872538,298.46487872538,298.46487872538,298.46487872538,298.46487872538,298.46487872538,225.747724629,594.80330062877,-1.5165127148902,522.22206308588,-1.5285910077768,0
0.0004709375,2085725598.3584,4.0552941302148e-05,0.00013954968090559,6.0574056295131e-05,1.0443338805121,0,0,0,0,0,0,0,0,0,0,0,0,0,0,0,0,0,0,0,0,0,0,0,0,0,0,0,0,0,0,0,0,0,0,0,0,0,0,0,0,0,0,0,0,0,0,0,0,-0.973492223339,0.080403465341063,-0.22264319366108,5.195686101105,2.9230493278236,1.0508477509196,-3.0663637587301,1.5436470327601,2.709439262575,-0.44782943942695,1.8765078447371,-5.3929216970262,1.5622595347312,-1.2796898029432,1.8469848528829,-4.0554551747515,1.8276685358944,4.4311253907919,-1.0272239093102,-4.478004572547,1.9082861587998,1.963560307204,0.024844154658148,-4.2082686484707,3.2101542107132,-2.559696324587,1.2122793833798,1.038865469211,-1.5470075953164,1.0561257050663,1.2822461769552,-0.24197874384792,0.80490148445342,-3.908597441474,-1.5791071980627,-3.2875560585576,5.4088044176485,-2.5173201895496,3.1354638038097,-0.39071493041096,-1.256435498464,-6.7093540222688,1.0323375866653,-1.9867414514607,-3.4008949611832,1.507330223893,3.2573520648626,-3.3235931420264,298.92490606502,298.92490606502,298.92490606502,298.92490606502,298.92490606502,298.92490606502,298.92490606502,298.92490606502,298.92490606502,298.92490606502,298.92490606502,298.92490606502,298.92490606502,298.92490606502,298.92490606502,298.92490606502,298.92490606502,298.92490606502,298.92490606502,298.92490606502,298.92490606502,298.92490606502,298.92490606502,298.92490606502,298.92490606502,298.92490606502,298.92490606502,298.92490606502,298.92490606502,298.92490606502,298.92490606502,298.92490606502,298.92490606502,298.92490606502,298.92490606502,298.92490606502,298.92490606502,298.92490606502,298.92490606502,298.92490606502,298.92490606502,298.92490606502,298.92490606502,298.92490606502,298.92490606502,298.92490606502,298.92490606502,298.92490606502,225.72155011027,595.74709065074,-1.523378475179,523.03215117885,-1.5354658547538,0
0.0004721875,2094615970.7863,4.0658196633504e-05,0.00013992018121598,6.0743130954223e-05,1.0444534160339,0,0,0,0,0,0,0,0,0,0,0,0,0,0,0,0,0,0,0,0,0,0,0,0,0,0,0,0,0,0,0,0,0,0,0,0,0,0,0,0,0,0,0,0,0,0,0,0,-0.97337709277382,0.081874874206235,-0.22254069158474,5.1954577100751,2.9224722466611,1.0504226896903,-3.0649264372434,1.5432683997286,2.7090151426312,-0.44747518014336,1.8764566237214,-5.3925980533674,1.5628835845051,-1.2786124755783,1.8474625184205,-4.0532405524285,1.826148017617,4.4299572145675,-1.0272779322449,-4.4776570161552,1.9085147090801,1.9647273280862,0.024869137470006,-4.2098151740531,3.210295548617,-2.5616692057626,1.2123168560615,1.0386200926187,-1.5454727759876,1.0553355799068,1.2813439701068,-0.24119872760194,0.80483030175847,-3.9068607987141,-1.577905894179,-3.2868506751859,5.4089129806564,-2.5155005163279,3.1352831613807,-0.39050507061792,-1.2561654666216,-6.7076022962688,1.0324160130239,-1.9865270424568,-3.4011499169431,1.5086028666959,3.2561901868579,-3.3211654881252,299.38483894744,299.38483894744,299.38483894744,299.38483894744,299.38483894744,299.38483894744,299.38483894744,299.38483894744,299.38483894744,299.38483894744,299.38483894744,299.38483894744,299.38483894744,299.38483894744,299.38483894744,299.38483894744,299.38483894744,299.38483894744,299.38483894744,299.38483894744,299.38483894744,299.38483894744,299.38483894744,299.38483894744,299.38483894744,299.38483894744,299.38483894744,299.38483894744,299.38483894744,299.38483894744,299.38483894744,299.38483894744,299.38483894744,299.38483894744,299.38483894744,299.38483894744,299.38483894744,299.38483894744,299.38483894744,299.38483894744,299.38483894744,299.38483894744,299.38483894744,299.38483894744,299.38483894744,299.38483894744,299.38483894744,299.38483894744,225.69536088215,596.69066332428,-1.5302577759183,523.84203103983,-1.5423542038865,0
0.0004734375,2103522327.4674,4.0763446196664e-05,0.00014029068158783,6.0912234830985e-05,1.0445729479793,0,0,0,0,0,0,0,0,0,0,0,0,0,0,0,0,0,0,0,0,0,0,0,0,0,0,0,0,0,0,0,0,0,0,0,0,0,0,0,0,0,0,0,0,0,0,0,0,-0.97326121072427,0.08334585988374,-0.22244510280143,5.1952280536581,2.9218957852969,1.0499986207422,-3.0634890365757,1.542888828295,2.7085905945556,-0.447120491909,1.8764023359074,-5.3922724417827,1.5635077638868,-1.2775368994035,1.8479360251217,-4.0510237035495,1.8246270088924,4.4287914020828,-1.027330938931,-4.4773106094266,1.9087386682131,1.9658927396896,0.024894940770748,-4.2113652334153,3.2104330647156,-2.5636396701129,1.2123533686672,1.0383743995255,-1.5439367184099,1.0545454913224,1.2804421300343,-0.24041727397563,0.8047589680292,-3.9051245036279,-1.5767068296817,-3.2861449884798,5.4090151609416,-2.5136797041281,3.1351019756618,-0.39029600648917,-1.2558960215996,-6.7058485491292,1.0324921573737,-1.9863120004135,-3.4014036226919,1.5098764219845,3.2550318422947,-3.3187401594257,299.84467734363,299.84467734363,299.84467734363,299.84467734363,299.84467734363,299.84467734363,299.84467734363,299.84467734363,299.84467734363,299.84467734363,299.84467734363,299.84467734363,299.84467734363,299.84467734363,299.84467734363,299.84467734363,299.84467734363,299.84467734363,299.84467734363,299.84467734363,299.84467734363,299.84467734363,299.84467734363,299.84467734363,299.84467734363,299.84467734363,299.84467734363,299.84467734363,299.84467734363,299.84467734363,299.84467734363,299.84467734363,299.84467734363,299.84467734363,299.84467734363,299.84467734363,299.84467734363,299.84467734363,299.84467734363,299.84467734363,299.84467734363,299.84467734363,299.84467734363,299.84467734363,299.84467734363,299.84467734363,299.84467734363,299.84467734363,225.66915695615,597.63401892672,-1.5371506099675,524.65170272925,-1.5492560484248,0
0.0004746875,2112444673.9264,4.086868990612e-05,0.00014066118202051,6.108136768223e-05,1.0446924763488,0,0,0,0,0,0,0,0,0,0,0,0,0,0,0,0,0,0,0,0,0,0,0,0,0,0,0,0,0,0,0,0,0,0,0,0,0,0,0,0,0,0,0,0,0,0,0,0,-0.97314458936528,0.084816422335327,-0.22235634858227,5.194997168147,2.9213199440825,1.0495755468415,-3.0620515871821,1.5425083491369,2.7081656233937,-0.446765385365,1.8763450016311,-5.3919448825794,1.5641320631953,-1.2764630739525,1.8484054345551,-4.0488047140817,1.8231054869138,4.4276279421009,-1.0273829052258,-4.4769653549272,1.9089581076981,1.9670565179167,0.024921553494022,-4.212918803627,3.2105667826223,-2.565607709707,1.21238893804,1.038128384327,-1.5423994547804,1.0537554578278,1.2795406781321,-0.23963440411263,0.80468748442949,-3.9033885708438,-1.5755099674942,-3.2854390049103,5.4091110080256,-2.5118578005856,3.1349202432516,-0.39008773498023,-1.2556271300974,-6.7040928491731,1.0325659956519,-1.9860962969751,-3.4016560297734,1.5111509085163,3.2538770086864,-3.3163171335482,300.30442122465,300.30442122465,300.30442122465,300.30442122465,300.30442122465,300.30442122465,300.30442122465,300.30442122465,300.30442122465,300.30442122465,300.30442122465,300.30442122465,300.30442122465,300.30442122465,300.30442122465,300.30442122465,300.30442122465,300.30442122465,300.30442122465,300.30442122465,300.30442122465,300.30442122465,300.30442122465,300.30442122465,300.30442122465,300.30442122465,300.30442122465,300.30442122465,300.30442122465,300.30442122465,300.30442122465,300.30442122465,300.30442122465,300.30442122465,300.30442122465,300.30442122465,300.30442122465,300.30442122465,300.30442122465,300.30442122465,300.30442122465,300.30442122465,300.30442122465,300.30442122465,300.30442122465,300.30442122465,300.30442122465,300.30442122465,225.64293835268,598.57715773657,-1.5440569702143,525.4611663072,-1.5561713816366,0
0.0004759375,2121383015.2321,4.0973927658295e-05,0.00014103168251341,6.1250529233091e-05,1.0448120011432,0,0,0,0,0,0,0,0,0,0,0,0,0,0,0,0,0,0,0,0,0,0,0,0,0,0,0,0,0,0,0,0,0,0,0,0,0,0,0,0,0,0,0,0,0,0,0,0,-0.97302724051885,0.08628656130645,-0.22227435154943,5.1947650919612,2.9207447227107,1.0491534702387,-3.0606141216786,1.5421269921825,2.7077402339058,-0.44640987144349,1.8762846411177,-5.3916153955022,1.5647564720742,-1.2753909981974,1.848870810014,-4.0465836649002,1.8215834293233,4.4264668230215,-1.0274338072207,-4.4766212567261,1.9091730975357,1.9682186390135,0.024948964463615,-4.2144758604099,3.2106967262584,-2.5675733148135,1.2124235801635,1.0378820413411,-1.5408610207428,1.0529654976903,1.2786396351242,-0.23885013959529,0.80461585187661,-3.9016530151159,-1.5743152729455,-3.2847327306823,5.4092005756596,-2.510034852477,3.1347379598662,-0.38988025277847,-1.2553587580775,-6.7023352593156,1.0326375047549,-1.9858799069648,-3.4019070927659,1.5124263440386,3.2527256639867,-3.3138963876522,300.76407056166,300.76407056166,300.76407056166,300.76407056166,300.76407056166,300.76407056166,300.76407056166,300.76407056166,300.76407056166,300.76407056166,300.76407056166,300.76407056166,300.76407056166,300.76407056166,300.76407056166,300.76407056166,300.76407056166,300.76407056166,300.76407056166,300.76407056166,300.76407056166,300.76407056166,300.76407056166,300.76407056166,300.76407056166,300.76407056166,300.76407056166,300.76407056166,300.76407056166,300.76407056166,300.76407056166,300.76407056166,300.76407056166,300.76407056166,300.76407056166,300.76407056166,300.76407056166,300.76407056166,300.76407056166,300.76407056166,300.76407056166,300.76407056166,300.76407056166,300.76407056166,300.76407056166,300.76407056166,300.76407056166,300.76407056166,225.61670510161,599.52008003285,-1.5509768495691,526.27042183354,-1.5631001968162,0
0.0004771875,2130337355.9717,4.1079159367787e-05,0.00014140218306597,6.141971924425e-05,1.0449315223629,0,0,0,0,0,0,0,0,0,0,0,0,0,0,0,0,0,0,0,0,0,0,0,0,0,0,0,0,0,0,0,0,0,0,0,0,0,0,0,0,0,0,0,0,0,0,0,0,-0.97290917562732,0.087756276323247,-0.22219903581267,5.194531865165,2.9201701202662,1.0487323924708,-3.0591766746515,1.5417447864904,2.7073144305426,-0.44605396134945,1.8762212744802,-5.391283999668,1.5653809795937,-1.27432067053,1.8493322163453,-4.0443606316808,1.8200608142486,4.4253080329173,-1.0274836215431,-4.4762783201023,1.9093837060148,1.9693790795753,0.024977162396959,-4.2160363782415,3.2108229198695,-2.5695364740252,1.2124573101856,1.0376353647419,-1.5393214552969,1.0521756288949,1.2777390210048,-0.23806450238483,0.80454407105325,-3.8999178512446,-1.5731227136795,-3.2840261716853,5.4092839215451,-2.5082109054886,3.134555120353,-0.38967355629007,-1.25509087088,-6.7005758371127,1.0327066625836,-1.9856628083569,-3.4021567693423,1.5137027452491,3.2515777865755,-3.3114778986353,301.22362532598,301.22362532598,301.22362532598,301.22362532598,301.22362532598,301.22362532598,301.22362532598,301.22362532598,301.22362532598,301.22362532598,301.22362532598,301.22362532598,301.22362532598,301.22362532598,301.22362532598,301.22362532598,301.22362532598,301.22362532598,301.22362532598,301.22362532598,301.22362532598,301.22362532598,301.22362532598,301.22362532598,301.22362532598,301.22362532598,301.22362532598,301.22362532598,301.22362532598,301.22362532598,301.22362532598,301.22362532598,301.22362532598,301.22362532598,301.22362532598,301.22362532598,301.22362532598,301.22362532598,301.22362532598,301.22362532598,301.22362532598,301.22362532598,301.22362532598,301.22362532598,301.22362532598,301.22362532598,301.22362532598,301.22362532598,225.59045724235,600.46278609435,-1.5579102410052,527.07946936788,-1.5700424872959,0
0.0004784375,2139307700.2257,4.1184385104044e-05,0.00014177268367762,6.1588937762516e-05,1.0450510400088,0,0,0,0,0,0,0,0,0,0,0,0,0,0,0,0,0,0,0,0,0,0,0,0,0,0,0,0,0,0,0,0,0,0,0,0,0,0,0,0,0,0,0,0,0,0,0,0,-0.97279040572657,0.08922556670833,-0.22213032709082,5.1942975289921,2.9195961352703,1.048312314167,-3.0577392825178,1.5413617601509,2.7068882174755,-0.44569766653293,1.8761549217342,-5.3909507135087,1.5660055743618,-1.2732520887729,1.8497897197698,-4.0421356848137,1.8185376203674,4.4241515595586,-1.0275323256469,-4.4759365513237,1.9095899995283,1.9705378165813,0.025006135912698,-4.2176003303911,3.2109453880491,-2.5714971744109,1.2124901424397,1.0373883484895,-1.5377808007299,1.0513858691159,1.2768388550399,-0.23727751475419,0.80447214243231,-3.8981830939974,-1.571932259559,-3.2833193334838,5.4093611070478,-2.5063860040134,3.1343717187395,-0.38946764164047,-1.2548234333499,-6.6988146347518,1.03277344811,-1.9854449822687,-3.4024050201287,1.5149801277762,3.2504333552335,-3.30906164331,301.68308548903,301.68308548903,301.68308548903,301.68308548903,301.68308548903,301.68308548903,301.68308548903,301.68308548903,301.68308548903,301.68308548903,301.68308548903,301.68308548903,301.68308548903,301.68308548903,301.68308548903,301.68308548903,301.68308548903,301.68308548903,301.68308548903,301.68308548903,301.68308548903,301.68308548903,301.68308548903,301.68308548903,301.68308548903,301.68308548903,301.68308548903,301.68308548903,301.68308548903,301.68308548903,301.68308548903,301.68308548903,301.68308548903,301.68308548903,301.68308548903,301.68308548903,301.68308548903,301.68308548903,301.68308548903,301.68308548903,301.68308548903,301.68308548903,301.68308548903,301.68308548903,301.68308548903,301.68308548903,301.68308548903,301.68308548903,225.564194824,601.40527619906,-1.5648571375641,527.88830896967,-1.5769982464362,0
0.0004796875,2148294051.5451,4.1289604633157e-05,0.00014214318434783,6.175818428022e-05,1.0451705540812,0,0,0,0,0,0,0,0,0,0,0,0,0,0,0,0,0,0,0,0,0,0,0,0,0,0,0,0,0,0,0,0,0,0,0,0,0,0,0,0,0,0,0,0,0,0,0,0,-0.97267094142302,0.090694431587924,-0.22206815281823,5.1940621254135,2.9190227657417,1.0478932348859,-3.0563019833423,1.5409779401907,2.7064615986335,-0.44534099867324,1.8760856028051,-5.3906155547106,1.5666302446133,-1.2721852501901,1.8502433877305,-4.0399088894122,1.8170138270263,4.4229973904577,-1.0275798980695,-4.475595957392,1.9097920424107,1.9716948273955,0.025035873529543,-4.2191676889873,3.2110641557597,-2.5734554016534,1.2125220904789,1.0371409862701,-1.5362391025076,1.0505962356775,1.2759391558018,-0.23648919923241,0.80440006629223,-3.8964487580229,-1.5707438825545,-3.2826122213003,5.4094321969483,-2.5045601909986,3.1341877483776,-0.3892625046752,-1.254556409933,-6.6970516991413,1.0328378414346,-1.9852264129174,-3.4026518086065,1.5162585062033,3.2492923491185,-3.3066475985955,302.14245102245,302.14245102245,302.14245102245,302.14245102245,302.14245102245,302.14245102245,302.14245102245,302.14245102245,302.14245102245,302.14245102245,302.14245102245,302.14245102245,302.14245102245,302.14245102245,302.14245102245,302.14245102245,302.14245102245,302.14245102245,302.14245102245,302.14245102245,302.14245102245,302.14245102245,302.14245102245,302.14245102245,302.14245102245,302.14245102245,302.14245102245,302.14245102245,302.14245102245,302.14245102245,302.14245102245,302.14245102245,302.14245102245,302.14245102245,302.14245102245,302.14245102245,302.14245102245,302.14245102245,302.14245102245,302.14245102245,302.14245102245,302.14245102245,302.14245102245,302.14245102245,302.14245102245,302.14245102245,302.14245102245,302.14245102245,225.53791790527,602.34755062347,-1.5718175323088,528.6969406983,-1.5839674676221,0
0.0004809375,2157296412.9283,4.1394817920361e-05,0.00014251368507611,6.1927458656575e-05,1.045290064581,0,0,0,0,0,0,0,0,0,0,0,0,0,0,0,0,0,0,0,0,0,0,0,0,0,0,0,0,0,0,0,0,0,0,0,0,0,0,0,0,0,0,0,0,0,0,0,0,-0.97255079288971,0.092162869887691,-0.2220124422427,5.1938256967246,2.918450009234,1.0474751529703,-3.0548648168867,1.5405933525099,2.7060345776076,-0.44498396965063,1.8760133375656,-5.3902785401924,1.5672549783059,-1.2711201515961,1.8506932887323,-4.0376803052845,1.8154894143093,4.4218455129015,-1.0276263186532,-4.475256546068,1.9099898968053,1.9728500897571,0.025066363674593,-4.2207384248543,3.2111792483751,-2.5754111402601,1.2125531670867,1.0368932714436,-1.5346964092844,1.0498067455325,1.275039941048,-0.235699578549,0.80432784275093,-3.8947148577849,-1.5695575566569,-3.2819048400566,5.409497259231,-2.5027335078339,3.1340032019623,-0.38905814104187,-1.2542897648029,-6.6952870717628,1.0328998238638,-1.9850070875868,-3.4028971010458,1.5175378940318,3.2481547477484,-3.3042357416342,302.60172189802,302.60172189802,302.60172189802,302.60172189802,302.60172189802,302.60172189802,302.60172189802,302.60172189802,302.60172189802,302.60172189802,302.60172189802,302.60172189802,302.60172189802,302.60172189802,302.60172189802,302.60172189802,302.60172189802,302.60172189802,302.60172189802,302.60172189802,302.60172189802,302.60172189802,302.60172189802,302.60172189802,302.60172189802,302.60172189802,302.60172189802,302.60172189802,302.60172189802,302.60172189802,302.60172189802,302.60172189802,302.60172189802,302.60172189802,302.60172189802,302.60172189802,302.60172189802,302.60172189802,302.60172189802,302.60172189802,302.60172189802,302.60172189802,302.60172189802,302.60172189802,302.60172189802,302.60172189802,302.60172189802,302.60172189802,225.51162655428,603.28960964205,-1.5787914182674,529.50536461314,-1.5909501442359,0
0.0004821875,2166314786.7995,4.1500024845285e-05,0.00014288418586196,6.2096760595967e-05,1.0454095715086,0,0,0,0,0,0,0,0,0,0,0,0,0,0,0,0,0,0,0,0,0,0,0,0,0,0,0,0,0,0,0,0,0,0,0,0,0,0,0,0,0,0,0,0,0,0,0,0,-0.97242996983656,0.093630880324898,-0.22196312654787,5.1935882851804,2.9178778629091,1.0470580654427,-3.0534278241101,1.5402080218067,2.7056071578279,-0.44462659153847,1.8759381458154,-5.3899396861699,1.5678797632078,-1.2700567891612,1.8511394921105,-4.0354499872305,1.8139643630523,4.4206959139947,-1.0276715687284,-4.4749183253511,1.9101836225347,1.974003581885,0.025097594667698,-4.2223125079368,3.2112906916686,-2.577364373776,1.2125833843304,1.0366451970042,-1.5331527725447,1.0490174152241,1.2741412278397,-0.23490867556475,0.80425547177267,-3.8929814075439,-1.5683732577176,-3.281197194178,5.4095563646823,-2.5009059942708,3.1338180715941,-0.38885454606083,-1.2540234619889,-6.6935207892966,1.0329593778997,-1.9847869964828,-3.4031408663072,1.5188183036962,3.2470205309495,-3.301826049954,303.06089808775,303.06089808775,303.06089808775,303.06089808775,303.06089808775,303.06089808775,303.06089808775,303.06089808775,303.06089808775,303.06089808775,303.06089808775,303.06089808775,303.06089808775,303.06089808775,303.06089808775,303.06089808775,303.06089808775,303.06089808775,303.06089808775,303.06089808775,303.06089808775,303.06089808775,303.06089808775,303.06089808775,303.06089808775,303.06089808775,303.06089808775,303.06089808775,303.06089808775,303.06089808775,303.06089808775,303.06089808775,303.06089808775,303.06089808775,303.06089808775,303.06089808775,303.06089808775,303.06089808775,303.06089808775,303.06089808775,303.06089808775,303.06089808775,303.06089808775,303.06089808775,303.06089808775,303.06089808775,303.06089808775,303.06089808775,225.48532084791,604.23145352673,-1.5857787886353,530.31358077357,-1.5979462697358,0
0.0004834375,2175349174.9864,4.160522537708e-05,0.00014325468670494,6.2266089969245e-05,1.0455290748646,0,0,0,0,0,0,0,0,0,0,0,0,0,0,0,0,0,0,0,0,0,0,0,0,0,0,0,0,0,0,0,0,0,0,0,0,0,0,0,0,0,0,0,0,0,0,0,0,-0.97230848150892,0.095098461405931,-0.22192013891759,5.1933499326534,2.9173063235823,1.0466419679085,-3.051991047239,1.5398219715415,2.7051793424227,-0.4442688765815,1.8758600473273,-5.389599008088,1.568504586961,-1.2689951585843,1.8515820679025,-4.0332179851128,1.8124386549964,4.4195485807056,-1.027715631274,-4.4745813035425,1.9103732770238,1.9751552823751,0.02512955472642,-4.2238899071196,3.2113985118638,-2.5793150849473,1.2126127535782,1.0363967555409,-1.5316082466121,1.0482282608638,1.2732430324385,-0.23411651322614,0.80418295320167,-3.8912484212592,-1.5671909633533,-3.2804892877151,5.4096095867213,-2.4990776883831,3.1336323489245,-0.3886517148335,-1.253757465464,-6.6917528835269,1.0330164873315,-1.9845661327107,-3.4033830758165,1.5200997465871,3.2458896788458,-3.2994185015914,303.51997956387,303.51997956387,303.51997956387,303.51997956387,303.51997956387,303.51997956387,303.51997956387,303.51997956387,303.51997956387,303.51997956387,303.51997956387,303.51997956387,303.51997956387,303.51997956387,303.51997956387,303.51997956387,303.51997956387,303.51997956387,303.51997956387,303.51997956387,303.51997956387,303.51997956387,303.51997956387,303.51997956387,303.51997956387,303.51997956387,303.51997956387,303.51997956387,303.51997956387,303.51997956387,303.51997956387,303.51997956387,303.51997956387,303.51997956387,303.51997956387,303.51997956387,303.51997956387,303.51997956387,303.51997956387,303.51997956387,303.51997956387,303.51997956387,303.51997956387,303.51997956387,303.51997956387,303.51997956387,303.51997956387,303.51997956387,225.45900087205,605.17308254637,-1.5927796365798,531.12158923914,-1.6049558375667,0
0.0004846875,2184399578.6985,4.171041949029e-05,0.00014362518760461,6.2435446659328e-05,1.0456485746495,0,0,0,0,0,0,0,0,0,0,0,0,0,0,0,0,0,0,0,0,0,0,0,0,0,0,0,0,0,0,0,0,0,0,0,0,0,0,0,0,0,0,0,0,0,0,0,0,-0.97218633668311,0.09656561140047,-0.22188341461863,5.19311068036,2.9167353877748,1.0462268544889,-3.0505545295243,1.539435223903,2.7047511342764,-0.4439108371818,1.8757790618539,-5.3892565206968,1.5691294371487,-1.2679352550296,1.8520210866482,-4.030984344123,1.8109122728151,4.4184034998988,-1.0277584910418,-4.4742454890422,1.9105589152298,1.9763051702611,0.025162231955116,-4.225470590382,3.211502735642,-2.581263255958,1.2126412855364,1.0361479392099,-1.530062888415,1.0474392981056,1.2723453703163,-0.23332311450724,0.80411028678065,-3.8895159125782,-1.5660106528118,-3.2797811242363,5.4096570010921,-2.4972486265537,3.1334460252072,-0.38844964221343,-1.2534917392626,-6.6899833816945,1.0330711372357,-1.9843444921263,-3.4036237034467,1.5213822330598,3.2447621718098,-3.297013075189,303.97896629885,303.97896629885,303.97896629885,303.97896629885,303.97896629885,303.97896629885,303.97896629885,303.97896629885,303.97896629885,303.97896629885,303.97896629885,303.97896629885,303.97896629885,303.97896629885,303.97896629885,303.97896629885,303.97896629885,303.97896629885,303.97896629885,303.97896629885,303.97896629885,303.97896629885,303.97896629885,303.97896629885,303.97896629885,303.97896629885,303.97896629885,303.97896629885,303.97896629885,303.97896629885,303.97896629885,303.97896629885,303.97896629885,303.97896629885,303.97896629885,303.97896629885,303.97896629885,303.97896629885,303.97896629885,303.97896629885,303.97896629885,303.97896629885,303.97896629885,303.97896629885,303.97896629885,303.97896629885,303.97896629885,303.97896629885,225.43266672052,606.11449696638,-1.5997939553354,531.92939006959,-1.6119788412113,0
0.0004859375,2193465998.5055,4.1815607068202e-05,0.00014399568856054,6.2604830383078e-05,1.045768070864,0,0,0,0,0,0,0,0,0,0,0,0,0,0,0,0,0,0,0,0,0,0,0,0,0,0,0,0,0,0,0,0,0,0,0,0,0,0,0,0,0,0,0,0,0,0,0,0,-0.97206354366299,0.098032328333474,-0.22185289104624,5.1928705686079,2.9161650517712,1.0458127177775,-3.0491183150917,1.539047799794,2.7043225359981,-0.44355248588521,1.8756952091479,-5.3889122380676,1.5697543013456,-1.2668770731569,1.8524566192236,-4.028749105028,1.8093852001871,4.4172606583881,-1.027800134644,-4.4739108902391,1.910740589607,1.9774532249886,0.025195614339958,-4.2270545248589,3.2116033901549,-2.5832088686219,1.2126689902822,1.0358987397134,-1.528516757316,1.046650542126,1.2714482561267,-0.23252850235874,0.80403747217545,-3.8877838947882,-1.5648323068496,-3.279072706824,5.4096986856219,-2.4954188434821,3.1332590913803,-0.38824832282656,-1.2532262475783,-6.6882123067454,1.0331233140103,-1.9841220732337,-3.4038627254509,1.5226657724499,3.2436379904435,-3.2946097500869,304.43785826541,304.43785826541,304.43785826541,304.43785826541,304.43785826541,304.43785826541,304.43785826541,304.43785826541,304.43785826541,304.43785826541,304.43785826541,304.43785826541,304.43785826541,304.43785826541,304.43785826541,304.43785826541,304.43785826541,304.43785826541,304.43785826541,304.43785826541,304.43785826541,304.43785826541,304.43785826541,304.43785826541,304.43785826541,304.43785826541,304.43785826541,304.43785826541,304.43785826541,304.43785826541,304.43785826541,304.43785826541,304.43785826541,304.43785826541,304.43785826541,304.43785826541,304.43785826541,304.43785826541,304.43785826541,304.43785826541,304.43785826541,304.43785826541,304.43785826541,304.43785826541,304.43785826541,304.43785826541,304.43785826541,304.43785826541,225.40631849475,607.05569704829,-1.6068217381782,532.73698332495,-1.619015274163,0
0.0004871875,2202548434.3146,4.1920788053554e-05,0.00014436618957236,6.2774240969195e-05,1.0458875635086,0,0,0,0,0,0,0,0,0,0,0,0,0,0,0,0,0,0,0,0,0,0,0,0,0,0,0,0,0,0,0,0,0,0,0,0,0,0,0,0,0,0,0,0,0,0,0,0,-0.97194011028224,0.099498609966953,-0.221828507782,5.1926296366118,2.9155953116638,1.0453995488152,-3.0476824488028,1.5386597188222,2.7038935499115,-0.44319383536956,1.8756085089816,-5.3885661736244,1.5703791671589,-1.2658206071479,1.852888736667,-4.026512304464,1.8078574218827,4.4161200429661,-1.0278405506187,-4.473577515435,1.9109183500825,1.9785994264045,0.025229689736912,-4.2286416769422,3.211700503044,-2.5851519045664,1.212695877294,1.0356491482833,-1.5269699149307,1.0458620075992,1.2705517036934,-0.23173269965682,0.8039645089965,-3.8860523807813,-1.5636559076111,-3.2783640380617,5.40973471996,-2.4935883722206,3.1330715381933,-0.38804775109069,-1.2529609548565,-6.6864396776455,1.0331730053998,-1.9838988770584,-3.4041001203827,1.5239503731217,3.2425171155322,-3.2922085063936,304.89665543655,304.89665543655,304.89665543655,304.89665543655,304.89665543655,304.89665543655,304.89665543655,304.89665543655,304.89665543655,304.89665543655,304.89665543655,304.89665543655,304.89665543655,304.89665543655,304.89665543655,304.89665543655,304.89665543655,304.89665543655,304.89665543655,304.89665543655,304.89665543655,304.89665543655,304.89665543655,304.89665543655,304.89665543655,304.89665543655,304.89665543655,304.89665543655,304.89665543655,304.89665543655,304.89665543655,304.89665543655,304.89665543655,304.89665543655,304.89665543655,304.89665543655,304.89665543655,304.89665543655,304.89665543655,304.89665543655,304.89665543655,304.89665543655,304.89665543655,304.89665543655,304.89665543655,304.89665543655,304.89665543655,304.89665543655,225.3799563032,607.99668304947,-1.6138629784345,533.54436906559,-1.6260651299547,0
0.0004884375,2211646885.3487,4.2025962324948e-05,0.00014473669063968,6.2943678130677e-05,1.0460070525837,0,0,0,0,0,0,0,0,0,0,0,0,0,0,0,0,0,0,0,0,0,0,0,0,0,0,0,0,0,0,0,0,0,0,0,0,0,0,0,0,0,0,0,0,0,0,0,0,-0.97181604391133,0.10096445377563,-0.22181020660956,5.1923879223201,2.9150261633995,1.0449873370857,-3.0462469761062,1.538270999316,2.7034641780527,-0.44283489843099,1.8755189811654,-5.3882183401949,1.5710040222533,-1.2647658507141,1.8533175100092,-4.0242739752088,1.8063289238005,4.4149816404442,-1.0278797294634,-4.4732453727756,1.9110922440671,1.9797437547587,0.025264445868194,-4.230232012307,3.2117941024442,-2.5870923454294,1.212721955484,1.0353991556739,-1.5254224249248,1.0450737086903,1.2696557259995,-0.23093572915864,0.80389139682058,-3.8843213830329,-1.5624814385122,-3.2776551199931,5.4097651853311,-2.4917572442219,3.1328833562615,-0.38784792123165,-1.2526958258797,-6.684665509613,1.0332202004907,-1.9836749069954,-3.4043358690278,1.525236042481,3.2413995280204,-3.289809325042,305.35535778555,305.35535778555,305.35535778555,305.35535778555,305.35535778555,305.35535778555,305.35535778555,305.35535778555,305.35535778555,305.35535778555,305.35535778555,305.35535778555,305.35535778555,305.35535778555,305.35535778555,305.35535778555,305.35535778555,305.35535778555,305.35535778555,305.35535778555,305.35535778555,305.35535778555,305.35535778555,305.35535778555,305.35535778555,305.35535778555,305.35535778555,305.35535778555,305.35535778555,305.35535778555,305.35535778555,305.35535778555,305.35535778555,305.35535778555,305.35535778555,305.35535778555,305.35535778555,305.35535778555,305.35535778555,305.35535778555,305.35535778555,305.35535778555,305.35535778555,305.35535778555,305.35535778555,305.35535778555,305.35535778555,305.35535778555,225.35358026076,608.93745522278,-1.6209176694444,534.35154735235,-1.6331284021194,0
0.0004896875,2220761350.1239,4.2131129814125e-05,0.00014510719176216,6.311314167996e-05,1.0461265380898,0,0,0,0,0,0,0,0,0,0,0,0,0,0,0,0,0,0,0,0,0,0,0,0,0,0,0,0,0,0,0,0,0,0,0,0,0,0,0,0,0,0,0,0,0,0,0,0,-0.97169135146249,0.10242985692566,-0.22179793153926,5.1921454623203,2.9144576028276,1.0445760705322,-3.0448119428247,1.5378816583372,2.7030344221236,-0.44247568797737,1.8754266455524,-5.387868750078,1.5716288543834,-1.2637127970864,1.8537430100956,-4.0220341465501,1.8047996930009,4.413845437696,-1.0279176636415,-4.4729144701395,1.9112623164722,1.9808861906717,0.025299870307613,-4.231825496121,3.2118842169749,-2.5890301730347,1.2127472332335,1.0351487521604,-1.5238743527522,1.0442856590338,1.2687603351406,-0.23013761345173,0.80381813520881,-3.8825909135928,-1.5613088841134,-3.276945954084,5.409790164277,-2.4899254894011,3.1326945361414,-0.38764882727837,-1.2524308258643,-6.6828898145833,1.0332648897075,-1.9834501686484,-3.4045699543306,1.5265227870126,3.2402852089852,-3.2874121878383,305.81396528597,305.81396528597,305.81396528597,305.81396528597,305.81396528597,305.81396528597,305.81396528597,305.81396528597,305.81396528597,305.81396528597,305.81396528597,305.81396528597,305.81396528597,305.81396528597,305.81396528597,305.81396528597,305.81396528597,305.81396528597,305.81396528597,305.81396528597,305.81396528597,305.81396528597,305.81396528597,305.81396528597,305.81396528597,305.81396528597,305.81396528597,305.81396528597,305.81396528597,305.81396528597,305.81396528597,305.81396528597,305.81396528597,305.81396528597,305.81396528597,305.81396528597,305.81396528597,305.81396528597,305.81396528597,305.81396528597,305.81396528597,305.81396528597,305.81396528597,305.81396528597,305.81396528597,305.81396528597,305.81396528597,305.81396528597,225.32719048803,609.8780138164,-1.6279858046309,535.15851824658,-1.6402050842085,0
0.0004909375,2229891826.4269,4.2236290572634e-05,0.00014547769293947,6.3282631651161e-05,1.0462460200275,0,0,0,0,0,0,0,0,0,0,0,0,0,0,0,0,0,0,0,0,0,0,0,0,0,0,0,0,0,0,0,0,0,0,0,0,0,0,0,0,0,0,0,0,0,0,0,0,-0.97156603940456,0.10389481625674,-0.22179162881586,5.1919022917405,2.9138896257354,1.0441657355857,-3.0433773950969,1.5374917117114,2.7026042835282,-0.44211621701436,1.8753315220668,-5.3875174150678,1.5722536513965,-1.2626614390463,1.8541653074347,-4.0197928445152,1.8032697177741,4.4127114216798,-1.027954347564,-4.4725848151768,1.9114286097494,1.9820267151598,0.02533595047627,-4.2334220929914,3.2119708757568,-2.5909653695432,1.2127717184197,1.0348979275405,-1.5223257655035,1.0434978717265,1.2678655423587,-0.22933837491607,0.80374472372956,-3.8808609840569,-1.5601382300187,-3.2762365412048,5.4098097404368,-2.4880931362002,3.1325050684303,-0.38745046309464,-1.2521659205226,-6.6811126013226,1.0333070648161,-1.9832246696891,-3.4048023613479,1.5278106123201,3.2391741395983,-3.2850170774693,306.27247791171,306.27247791171,306.27247791171,306.27247791171,306.27247791171,306.27247791171,306.27247791171,306.27247791171,306.27247791171,306.27247791171,306.27247791171,306.27247791171,306.27247791171,306.27247791171,306.27247791171,306.27247791171,306.27247791171,306.27247791171,306.27247791171,306.27247791171,306.27247791171,306.27247791171,306.27247791171,306.27247791171,306.27247791171,306.27247791171,306.27247791171,306.27247791171,306.27247791171,306.27247791171,306.27247791171,306.27247791171,306.27247791171,306.27247791171,306.27247791171,306.27247791171,306.27247791171,306.27247791171,306.27247791171,306.27247791171,306.27247791171,306.27247791171,306.27247791171,306.27247791171,306.27247791171,306.27247791171,306.27247791171,306.27247791171,225.30078711105,610.81835907357,-1.63506737745,535.96528181016,-1.6472951698057,0
0.0004921875,2239038311.2932,4.2341444312905e-05,0.00014584819417128,6.3452147458449e-05,1.0463654983972,0,0,0,0,0,0,0,0,0,0,0,0,0,0,0,0,0,0,0,0,0,0,0,0,0,0,0,0,0,0,0,0,0,0,0,0,0,0,0,0,0,0,0,0,0,0,0,0,-0.97144011376979,0.10535932825536,-0.22179124691575,5.1916584442364,2.9133222278815,1.0437563172096,-3.0419433791849,1.5371011740624,2.7021737633595,-0.44175649864008,1.8752336307065,-5.3871643465349,1.5728784012488,-1.2616117689159,1.8545844720277,-4.0175500922204,1.8017389876402,4.4115795794616,-1.0279897775613,-4.4722564152491,1.911591163941,1.9831653096248,0.025372673628994,-4.2350217671303,3.2120541083968,-2.5928979176076,1.2127954184485,1.0346466711453,-1.5207767316339,1.0427103593175,1.2669713580243,-0.22853803568167,0.80367116197412,-3.8791316055721,-1.5589694627628,-3.2755268815919,5.4098239983016,-2.4862602116683,3.1323149438039,-0.38725282237529,-1.2519010761511,-6.6793338758349,1.0333467188917,-1.9829984196735,-3.4050330771775,1.5290995231503,3.2380663010936,-3.2826239775332,306.73089563696,306.73089563696,306.73089563696,306.73089563696,306.73089563696,306.73089563696,306.73089563696,306.73089563696,306.73089563696,306.73089563696,306.73089563696,306.73089563696,306.73089563696,306.73089563696,306.73089563696,306.73089563696,306.73089563696,306.73089563696,306.73089563696,306.73089563696,306.73089563696,306.73089563696,306.73089563696,306.73089563696,306.73089563696,306.73089563696,306.73089563696,306.73089563696,306.73089563696,306.73089563696,306.73089563696,306.73089563696,306.73089563696,306.73089563696,306.73089563696,306.73089563696,306.73089563696,306.73089563696,306.73089563696,306.73089563696,306.73089563696,306.73089563696,306.73089563696,306.73089563696,306.73089563696,306.73089563696,306.73089563696,306.73089563696,225.27437026043,611.75849123248,-1.6421623814083,536.77183810567,-1.654398652501,0
0.0004934375,2248200800.9854,4.2446591040605e-05,0.00014621869545729,6.3621689056108e-05,1.0464849731993,0,0,0,0,0,0,0,0,0,0,0,0,0,0,0,0,0,0,0,0,0,0,0,0,0,0,0,0,0,0,0,0,0,0,0,0,0,0,0,0,0,0,0,0,0,0,0,0,-0.97131358017604,0.10682338902785,-0.22179673650874,5.1914139519414,2.9127554050386,1.0433477989605,-3.0405099413307,1.5367100588601,2.7017428622075,-0.44139654603397,1.8751329915466,-5.3868095554615,1.5735030920074,-1.2605637785986,1.8550005732101,-4.0153059102144,1.8002074933465,4.4104498982701,-1.0280239518155,-4.4719292773818,1.9117500167537,1.9843019557176,0.025410026852795,-4.2366244825183,3.2121339449562,-2.5948278004936,1.2128183402819,1.0343949718518,-1.5192273207415,1.0419231338064,1.266077791494,-0.22773661758496,0.80359744957312,-3.877402788825,-1.5578025697065,-3.274816974855,5.4098330229933,-2.4844267415434,3.1321241530604,-0.38705589867831,-1.2516362597034,-6.6775536417648,1.0333838462873,-1.9827714298804,-3.4052620909059,1.5303895234304,3.2369616747723,-3.280232872541,307.18921843623,307.18921843623,307.18921843623,307.18921843623,307.18921843623,307.18921843623,307.18921843623,307.18921843623,307.18921843623,307.18921843623,307.18921843623,307.18921843623,307.18921843623,307.18921843623,307.18921843623,307.18921843623,307.18921843623,307.18921843623,307.18921843623,307.18921843623,307.18921843623,307.18921843623,307.18921843623,307.18921843623,307.18921843623,307.18921843623,307.18921843623,307.18921843623,307.18921843623,307.18921843623,307.18921843623,307.18921843623,307.18921843623,307.18921843623,307.18921843623,307.18921843623,307.18921843623,307.18921843623,307.18921843623,307.18921843623,307.18921843623,307.18921843623,307.18921843623,307.18921843623,307.18921843623,307.18921843623,307.18921843623,307.18921843623,225.24794007107,612.6984105261,-1.6492708101078,537.57818719627,-1.661515525921,0
0.0004946875,2257379290.972,4.2551730669712e-05,0.00014658919679724,6.3791256232964e-05,1.0466044444343,0,0,0,0,0,0,0,0,0,0,0,0,0,0,0,0,0,0,0,0,0,0,0,0,0,0,0,0,0,0,0,0,0,0,0,0,0,0,0,0,0,0,0,0,0,0,0,0,-0.97118644384878,0.10828699430621,-0.22180805041749,5.191168845505,2.9121891530045,1.0429401630281,-3.0390771278615,1.5363183784772,2.7013115803827,-0.4410363724443,1.8750296247806,-5.3864530523996,1.5741277118281,-1.2595174597306,1.8554136795677,-4.0130603166059,1.7986752270058,4.4093223654776,-1.0280568703238,-4.4716034084968,1.9119052036453,1.9854366354621,0.02544799705928,-4.2382302027149,3.2122104159806,-2.5967550021279,1.2128404904609,1.0341428180839,-1.5176776035114,1.0411362066444,1.2651848513311,-0.22693414214319,0.80352358622267,-3.8756745439897,-1.5566375389691,-3.2741068200925,5.4098369001508,-2.482592750331,3.1319326873123,-0.38685968551884,-1.2513714388096,-6.6757719002899,1.0334184426494,-1.9825437132052,-3.4054893936208,1.5316806163528,3.2358602419421,-3.2778437478999,307.64744628438,307.64744628438,307.64744628438,307.64744628438,307.64744628438,307.64744628438,307.64744628438,307.64744628438,307.64744628438,307.64744628438,307.64744628438,307.64744628438,307.64744628438,307.64744628438,307.64744628438,307.64744628438,307.64744628438,307.64744628438,307.64744628438,307.64744628438,307.64744628438,307.64744628438,307.64744628438,307.64744628438,307.64744628438,307.64744628438,307.64744628438,307.64744628438,307.64744628438,307.64744628438,307.64744628438,307.64744628438,307.64744628438,307.64744628438,307.64744628438,307.64744628438,307.64744628438,307.64744628438,307.64744628438,307.64744628438,307.64744628438,307.64744628438,307.64744628438,307.64744628438,307.64744628438,307.64744628438,307.64744628438,307.64744628438,225.22149668149,613.63811718215,-1.6563926570234,538.38432914598,-1.6686457836346,0
0.0004959375,2266573775.9076,4.2656863155541e-05,0.00014695969819086,6.3960848854143e-05,1.0467239121025,0,0,0,0,0,0,0,0,0,0,0,0,0,0,0,0,0,0,0,0,0,0,0,0,0,0,0,0,0,0,0,0,0,0,0,0,0,0,0,0,0,0,0,0,0,0,0,0,-0.97105870962709,0.10975013939082,-0.22182514361007,5.1909231541317,2.9116234676415,1.0425333903443,-3.0376449847693,1.535926144229,2.7008799177801,-0.44067599118771,1.8749235506856,-5.3860948476857,1.5747522489736,-1.2584728034427,1.8558238587133,-4.0108133274901,1.7971421819322,4.4081969686464,-1.0280885347779,-4.4712788151636,1.9120567578913,1.9865693312162,0.025486570974081,-4.2398388912249,3.2122835524327,-2.5986795073168,1.2128618751409,1.0338901978524,-1.5161276512508,1.0403495887244,1.2642925451298,-0.22613063051441,0.80344957168517,-3.8739468808175,-1.5554743593074,-3.2733964156132,5.4098357155976,-2.4807582613824,3.1317405378481,-0.38666417624454,-1.251106581894,-6.6739886507792,1.0334505048149,-1.982315283866,-3.4057149782792,1.532972804343,3.2347619839164,-3.2754565898871,308.10557915661,308.10557915661,308.10557915661,308.10557915661,308.10557915661,308.10557915661,308.10557915661,308.10557915661,308.10557915661,308.10557915661,308.10557915661,308.10557915661,308.10557915661,308.10557915661,308.10557915661,308.10557915661,308.10557915661,308.10557915661,308.10557915661,308.10557915661,308.10557915661,308.10557915661,308.10557915661,308.10557915661,308.10557915661,308.10557915661,308.10557915661,308.10557915661,308.10557915661,308.10557915661,308.10557915661,308.10557915661,308.10557915661,308.10557915661,308.10557915661,308.10557915661,308.10557915661,308.10557915661,308.10557915661,308.10557915661,308.10557915661,308.10557915661,308.10557915661,308.10557915661,308.10557915661,308.10557915661,308.10557915661,308.10557915661,225.19504023342,614.57761142299,-1.663527915826,539.19026401949,-1.6757894192846,0
0.0004971875,2275784249.6139,4.2761988476577e-05,0.0001473301996379,6.4130466830617e-05,1.0468433762043,0,0,0,0,0,0,0,0,0,0,0,0,0,0,0,0,0,0,0,0,0,0,0,0,0,0,0,0,0,0,0,0,0,0,0,0,0,0,0,0,0,0,0,0,0,0,0,0,-0.97093038199096,0.11121281914422,-0.22184797312973,5.190676905636,2.9110583448932,1.0421274606449,-3.03621355777,1.5355333664401,2.7004478738592,-0.4403154156371,1.8748147896451,-5.3857349513849,1.5753766917973,-1.2574298005253,1.8562311771921,-4.0085649571323,1.7956083526978,4.4070736955375,-1.0281189484931,-4.4709555037591,1.9122047106904,1.987700025622,0.025525735135712,-4.2414505114556,3.2123533856852,-2.6006013017451,1.2128825001128,1.0336370987663,-1.5145775358067,1.0395632903911,1.2634008795482,-0.22532610346747,0.80337540581214,-3.8722198085919,-1.5543130200431,-3.2726857590949,5.4098295552012,-2.4789232969691,3.1315476962488,-0.38646936412654,-1.2508416582035,-6.6722038908657,1.0334800307853,-1.9820861573097,-3.4059388396832,1.5342660891274,3.2336668819945,-3.273071385635,308.56361702844,308.56361702844,308.56361702844,308.56361702844,308.56361702844,308.56361702844,308.56361702844,308.56361702844,308.56361702844,308.56361702844,308.56361702844,308.56361702844,308.56361702844,308.56361702844,308.56361702844,308.56361702844,308.56361702844,308.56361702844,308.56361702844,308.56361702844,308.56361702844,308.56361702844,308.56361702844,308.56361702844,308.56361702844,308.56361702844,308.56361702844,308.56361702844,308.56361702844,308.56361702844,308.56361702844,308.56361702844,308.56361702844,308.56361702844,308.56361702844,308.56361702844,308.56361702844,308.56361702844,308.56361702844,308.56361702844,308.56361702844,308.56361702844,308.56361702844,308.56361702844,308.56361702844,308.56361702844,308.56361702844,308.56361702844,225.16857087165,615.51689346563,-1.6706765801832,539.99599188231,-1.6829464264952,0
0.0004984375,2285010705.0627,4.2867106485938e-05,0.00014770070113812,6.4300109844773e-05,1.0469628367402,0,0,0,0,0,0,0,0,0,0,0,0,0,0,0,0,0,0,0,0,0,0,0,0,0,0,0,0,0,0,0,0,0,0,0,0,0,0,0,0,0,0,0,0,0,0,0,0,-0.97080146508215,0.11267502797462,-0.22187649804008,5.1904301265052,2.9104937808056,1.0417223525617,-3.0347828921839,1.5351400545042,2.7000154476059,-0.43995465921212,1.8747033621444,-5.3853733733461,1.5760010287385,-1.2563884414244,1.8566357003532,-4.0063152182259,1.7940737351047,4.4059525341329,-1.0281481163023,-4.4706334804791,1.912349091264,1.988828701585,0.025565475894464,-4.2430650268331,3.2124199474883,-2.6025203720565,1.2129023708267,1.0333835080579,-1.5130273293362,1.0387773214405,1.2625098602808,-0.22452058135147,0.8033010885529,-3.8704933361413,-1.5531535109927,-3.2719748475365,5.409818504702,-2.477087878366,3.1313541544037,-0.38627524237126,-1.2505766378712,-6.6704176167293,1.0335070196782,-1.9818563500144,-3.4061609744499,1.5355604717645,3.2325749174546,-3.2706881230974,309.02155987576,309.02155987576,309.02155987576,309.02155987576,309.02155987576,309.02155987576,309.02155987576,309.02155987576,309.02155987576,309.02155987576,309.02155987576,309.02155987576,309.02155987576,309.02155987576,309.02155987576,309.02155987576,309.02155987576,309.02155987576,309.02155987576,309.02155987576,309.02155987576,309.02155987576,309.02155987576,309.02155987576,309.02155987576,309.02155987576,309.02155987576,309.02155987576,309.02155987576,309.02155987576,309.02155987576,309.02155987576,309.02155987576,309.02155987576,309.02155987576,309.02155987576,309.02155987576,309.02155987576,309.02155987576,309.02155987576,309.02155987576,309.02155987576,309.02155987576,309.02155987576,309.02155987576,309.02155987576,309.02155987576,309.02155987576,225.14208874345,616.45596352164,-1.6778386438202,540.80151280068,-1.6901167989259,0
0.0004996875,2294253134.3603,4.2972217122203e-05,0.00014807120269131,6.4469777738129e-05,1.0470822937105,0,0,0,0,0,0,0,0,0,0,0,0,0,0,0,0,0,0,0,0,0,0,0,0,0,0,0,0,0,0,0,0,0,0,0,0,0,0,0,0,0,0,0,0,0,0,0,0,-0.97067196272612,0.11413675983044,-0.22191067937333,5.1901828420024,2.9099297715295,1.0413180437054,-3.0333530329121,1.5347462169446,2.6995826377453,-0.43959373537183,1.8745892887869,-5.3850101231994,1.576625248301,-1.2553487162736,1.8570374922689,-4.004064122014,1.7925383262216,4.4048334726103,-1.0281760444586,-4.4703127514539,1.9124899269541,1.9899553424009,0.02560577940767,-4.2446824007389,3.2124832699643,-2.6044367058681,1.2129214924143,1.0331294126057,-1.5114771041494,1.0379916911282,1.2616194922553,-0.22371408407821,0.80322661997099,-3.8687674718299,-1.5519958223994,-3.271263677286,5.4098026495805,-2.4752520259054,3.1311599046086,-0.38608180413751,-1.2503114919355,-6.6686298231015,1.0335314716895,-1.9816258793589,-3.4063813809771,1.5368559527078,3.2314860715056,-3.268306790997,309.47940767481,309.47940767481,309.47940767481,309.47940767481,309.47940767481,309.47940767481,309.47940767481,309.47940767481,309.47940767481,309.47940767481,309.47940767481,309.47940767481,309.47940767481,309.47940767481,309.47940767481,309.47940767481,309.47940767481,309.47940767481,309.47940767481,309.47940767481,309.47940767481,309.47940767481,309.47940767481,309.47940767481,309.47940767481,309.47940767481,309.47940767481,309.47940767481,309.47940767481,309.47940767481,309.47940767481,309.47940767481,309.47940767481,309.47940767481,309.47940767481,309.47940767481,309.47940767481,309.47940767481,309.47940767481,309.47940767481,309.47940767481,309.47940767481,309.47940767481,309.47940767481,309.47940767481,309.47940767481,309.47940767481,309.47940767481,225.11559399834,617.39482179727,-1.6850141004826,541.6068268417,-1.6973005302347,0
0.0005009375,2303511528.734,4.3077320399699e-05,0.00014844170429728,6.4639470492398e-05,1.0472017471154,0,0,0,0,0,0,0,0,0,0,0,0,0,0,0,0,0,0,0,0,0,0,0,0,0,0,0,0,0,0,0,0,0,0,0,0,0,0,0,0,0,0,0,0,0,0,0,0,-0.97054187845468,0.11559800815435,-0.22195048002682,5.1899350762361,2.9093663133488,1.0409145107693,-3.0319240243029,1.5343518614827,2.6991494423859,-0.43923265760473,1.8744725902723,-5.3846452104383,1.577249339056,-1.2543106149297,1.8574366155991,-4.0018116786087,1.791002124272,4.4037164993928,-1.0282027405094,-4.4699933227198,1.9126272433416,1.9910799315268,0.02564663164523,-4.2463025967384,3.2125433855352,-2.6063502918528,1.2129398697114,1.0328747989671,-1.5099269324751,1.0372064081777,1.2607297793393,-0.22290663109052,0.80315200025055,-3.8670422235902,-1.5508399448656,-3.2705522440455,5.409782074852,-2.4734157590635,3.1309649394955,-0.38588904256205,-1.2500461924078,-6.6668405037182,1.0335533880006,-1.9813947634288,-3.4066000593667,1.5381525318075,3.2304003253208,-3.2659273788028,309.93716040218,309.93716040218,309.93716040218,309.93716040218,309.93716040218,309.93716040218,309.93716040218,309.93716040218,309.93716040218,309.93716040218,309.93716040218,309.93716040218,309.93716040218,309.93716040218,309.93716040218,309.93716040218,309.93716040218,309.93716040218,309.93716040218,309.93716040218,309.93716040218,309.93716040218,309.93716040218,309.93716040218,309.93716040218,309.93716040218,309.93716040218,309.93716040218,309.93716040218,309.93716040218,309.93716040218,309.93716040218,309.93716040218,309.93716040218,309.93716040218,309.93716040218,309.93716040218,309.93716040218,309.93716040218,309.93716040218,309.93716040218,309.93716040218,309.93716040218,309.93716040218,309.93716040218,309.93716040218,309.93716040218,309.93716040218,225.08908678801,618.3334684934,-1.6922029439503,542.41193407321,-1.7044976140724,0
0.0005021875,2312785878.5214,4.3182416204956e-05,0.00014881220595582,6.4809187857621e-05,1.0473211969553,0,0,0,0,0,0,0,0,0,0,0,0,0,0,0,0,0,0,0,0,0,0,0,0,0,0,0,0,0,0,0,0,0,0,0,0,0,0,0,0,0,0,0,0,0,0,0,0,-0.97041121552889,0.1170587658786,-0.22199586470724,5.1896868522481,2.9088034026863,1.0405117296232,-3.0304959100568,1.5339569950981,2.6987158590388,-0.43887143942149,1.8743532873861,-5.3842786444662,1.5778732896447,-1.2532741269608,1.8578331314919,-3.9995578971675,1.7894651285629,4.4026016031486,-1.0282282131801,-4.4696752002491,1.912761064344,1.9922024526206,0.025688018388216,-4.2479255786764,3.2126003268793,-2.6082611197748,1.2129575072764,1.0326196534104,-1.5083768862484,1.0364214807881,1.2598407243479,-0.22209824133881,0.80307722970532,-3.8653175989489,-1.5496858692895,-3.2698405428449,5.409756864933,-2.4715790965108,3.130769251992,-0.38569695075994,-1.2497807123276,-6.6650496515149,1.0335727707161,-1.9811630208447,-3.4068170113969,1.5394502083206,3.2293176600227,-3.2635498766569,310.39481803484,310.39481803484,310.39481803484,310.39481803484,310.39481803484,310.39481803484,310.39481803484,310.39481803484,310.39481803484,310.39481803484,310.39481803484,310.39481803484,310.39481803484,310.39481803484,310.39481803484,310.39481803484,310.39481803484,310.39481803484,310.39481803484,310.39481803484,310.39481803484,310.39481803484,310.39481803484,310.39481803484,310.39481803484,310.39481803484,310.39481803484,310.39481803484,310.39481803484,310.39481803484,310.39481803484,310.39481803484,310.39481803484,310.39481803484,310.39481803484,310.39481803484,310.39481803484,310.39481803484,310.39481803484,310.39481803484,310.39481803484,310.39481803484,310.39481803484,310.39481803484,310.39481803484,310.39481803484,310.39481803484,310.39481803484,225.06256726572,619.27190380555,-1.6994051680574,543.21683456383,-1.7117080441004,0
0.0005034375,2322076173.1612,4.3287504489603e-05,0.00014918270766675,6.4978929704869e-05,1.0474406432306,0,0,0,0,0,0,0,0,0,0,0,0,0,0,0,0,0,0,0,0,0,0,0,0,0,0,0,0,0,0,0,0,0,0,0,0,0,0,0,0,0,0,0,0,0,0,0,0,-0.9702799769608,0.11851902543841,-0.22204679986357,5.189438192134,2.9082410361056,1.0401096754003,-3.0290687332626,1.5335616240889,2.6982818849859,-0.43851009434346,1.8742314010195,-5.3839104345381,1.578497088751,-1.2522392416797,1.8582270995495,-3.9973027859165,1.7879273395672,4.4014887727682,-1.0282524722765,-4.4693583900957,1.9128914123225,1.9933228897361,0.025729925233628,-4.2495513105108,3.212654126941,-2.6101691804321,1.2129744094104,1.0323639619341,-1.506827037019,1.0356369166432,1.2589523293939,-0.22128893327579,0.80300230879035,-3.8635936049965,-1.5485335868327,-3.2691285680695,5.4097271035443,-2.469742056164,3.130572835489,-0.38550552183921,-1.2495150257494,-6.6632572584596,1.0335896228336,-1.9809306706502,-3.4070322404781,1.5407489810088,3.2282380566476,-3.2611742753367,310.85238055011,310.85238055011,310.85238055011,310.85238055011,310.85238055011,310.85238055011,310.85238055011,310.85238055011,310.85238055011,310.85238055011,310.85238055011,310.85238055011,310.85238055011,310.85238055011,310.85238055011,310.85238055011,310.85238055011,310.85238055011,310.85238055011,310.85238055011,310.85238055011,310.85238055011,310.85238055011,310.85238055011,310.85238055011,310.85238055011,310.85238055011,310.85238055011,310.85238055011,310.85238055011,310.85238055011,310.85238055011,310.85238055011,310.85238055011,310.85238055011,310.85238055011,310.85238055011,310.85238055011,310.85238055011,310.85238055011,310.85238055011,310.85238055011,310.85238055011,310.85238055011,310.85238055011,310.85238055011,310.85238055011,310.85238055011,225.03603558634,620.21012792401,-1.7066207666629,544.02152838291,-1.7189318139942,0
0.0005046875,2331382401.1878,4.3392585223403e-05,0.00014955320942991,6.5148695940243e-05,1.0475600859414,0,0,0,0,0,0,0,0,0,0,0,0,0,0,0,0,0,0,0,0,0,0,0,0,0,0,0,0,0,0,0,0,0,0,0,0,0,0,0,0,0,0,0,0,0,0,0,0,-0.9701481655371,0.11997877873373,-0.22210325359061,5.1891891171297,2.9076792103183,1.0397083226047,-3.0276425362589,1.5331657541327,2.6978475169733,-0.4381486358944,1.8741069521417,-5.3835405898507,1.5791207251122,-1.2512059481502,1.8586185777277,-3.9950463524034,1.7863887587781,4.4003779973782,-1.0282755285537,-4.4690428983591,1.9130183081868,1.994441227149,0.02577233759853,-4.2511797565508,3.2127048188529,-2.6120744657153,1.2129905801753,1.0321077103092,-1.5052774557156,1.0348527229221,1.2580645956225,-0.22047872483086,0.80292723810598,-3.8618702484379,-1.5473830888579,-3.2684163134495,5.4096928735592,-2.4679046552406,3.130375683725,-0.38531474891156,-1.2492491078025,-6.661463315958,1.033603948144,-1.9806977321264,-3.4072457515936,1.5420488481226,3.2271614961558,-3.2588005662032,311.30984792566,311.30984792566,311.30984792566,311.30984792566,311.30984792566,311.30984792566,311.30984792566,311.30984792566,311.30984792566,311.30984792566,311.30984792566,311.30984792566,311.30984792566,311.30984792566,311.30984792566,311.30984792566,311.30984792566,311.30984792566,311.30984792566,311.30984792566,311.30984792566,311.30984792566,311.30984792566,311.30984792566,311.30984792566,311.30984792566,311.30984792566,311.30984792566,311.30984792566,311.30984792566,311.30984792566,311.30984792566,311.30984792566,311.30984792566,311.30984792566,311.30984792566,311.30984792566,311.30984792566,311.30984792566,311.30984792566,311.30984792566,311.30984792566,311.30984792566,311.30984792566,311.30984792566,311.30984792566,311.30984792566,311.30984792566,225.00949190637,621.14814103385,-1.7138497336794,544.82601560053,-1.726168917443,0
0.0005059375,2340704550.2278,4.3497658287584e-05,0.00014992371124515,6.5318486309128e-05,1.0476795250881,0,0,0,0,0,0,0,0,0,0,0,0,0,0,0,0,0,0,0,0,0,0,0,0,0,0,0,0,0,0,0,0,0,0,0,0,0,0,0,0,0,0,0,0,0,0,0,0,-0.97001578384408,0.12143801713095,-0.22216519553899,5.1889396477003,2.9071179221909,1.0393076451975,-3.0262173606676,1.5327693903525,2.6974127512615,-0.43778707758884,1.8739799618022,-5.3831691195277,1.5797441875113,-1.2501742352631,1.8590076222963,-3.992788603582,1.7848493886955,4.3992692663465,-1.0282973936065,-4.4687287312985,1.9131417715098,1.9955574493867,0.025815240730195,-4.2528108814166,3.2127524359116,-2.6139769685797,1.2130060234082,1.0318508841035,-1.5037282125547,1.0340689063156,1.2571775232733,-0.21966763340229,0.80285201840621,-3.8601475355916,-1.5462343669013,-3.2677037721254,5.4096542569237,-2.4660669103108,3.1301777908245,-0.38512462513544,-1.2489829347043,-6.6596678148662,1.0336157511827,-1.9804642246785,-3.407457551266,1.5433498074477,3.2260879594338,-3.2564287411364,311.76722013957,311.76722013957,311.76722013957,311.76722013957,311.76722013957,311.76722013957,311.76722013957,311.76722013957,311.76722013957,311.76722013957,311.76722013957,311.76722013957,311.76722013957,311.76722013957,311.76722013957,311.76722013957,311.76722013957,311.76722013957,311.76722013957,311.76722013957,311.76722013957,311.76722013957,311.76722013957,311.76722013957,311.76722013957,311.76722013957,311.76722013957,311.76722013957,311.76722013957,311.76722013957,311.76722013957,311.76722013957,311.76722013957,311.76722013957,311.76722013957,311.76722013957,311.76722013957,311.76722013957,311.76722013957,311.76722013957,311.76722013957,311.76722013957,311.76722013957,311.76722013957,311.76722013957,311.76722013957,311.76722013957,311.76722013957,224.98293638363,622.08594331502,-1.7210920630065,545.63029628743,-1.7334193481219,0
0.0005071875,2350042607.0002,4.3602723408903e-05,0.00015029421311231,6.5488300276735e-05,1.047798960671,0,0,0,0,0,0,0,0,0,0,0,0,0,0,0,0,0,0,0,0,0,0,0,0,0,0,0,0,0,0,0,0,0,0,0,0,0,0,0,0,0,0,0,0,0,0,0,0,-0.96988283428729,0.12289673145792,-0.22223259684026,5.1886898036291,2.9065571687463,1.0389076167029,-3.0247932472845,1.5323725373654,2.6969775836465,-0.43742543292166,1.8738504511126,-5.3827960326512,1.5803674647818,-1.2491440917032,1.8593942877854,-3.9905295459356,1.7833092327483,4.3981625692767,-1.0283180797466,-4.4684158953185,1.9132618206167,1.9966715412414,0.025858619713911,-4.2544446501282,3.2127970115254,-2.6158766830419,1.2130207427399,1.0315934687216,-1.5021793768431,1.0332854730329,1.2562911116993,-0.21885567584374,0.80277665060221,-3.8584254724147,-1.5450874126288,-3.266990936614,5.4096113345374,-2.4642288373334,3.1299791512616,-0.38493514369704,-1.248716483783,-6.6578707456472,1.0336250371582,-1.9802301676817,-3.4076676474902,1.5446518563189,3.2250174272898,-3.2540587924902,312.22449717026,312.22449717026,312.22449717026,312.22449717026,312.22449717026,312.22449717026,312.22449717026,312.22449717026,312.22449717026,312.22449717026,312.22449717026,312.22449717026,312.22449717026,312.22449717026,312.22449717026,312.22449717026,312.22449717026,312.22449717026,312.22449717026,312.22449717026,312.22449717026,312.22449717026,312.22449717026,312.22449717026,312.22449717026,312.22449717026,312.22449717026,312.22449717026,312.22449717026,312.22449717026,312.22449717026,312.22449717026,312.22449717026,312.22449717026,312.22449717026,312.22449717026,312.22449717026,312.22449717026,312.22449717026,312.22449717026,312.22449717026,312.22449717026,312.22449717026,312.22449717026,312.22449717026,312.22449717026,312.22449717026,312.22449717026,224.9563691771,623.02353494236,-1.7283477485974,546.43437051499,-1.7406830997156,0
0.0005084375,2359670780.706,4.3707781001324e-05,0.00015066471503126,6.5658138568232e-05,1.0479183926901,0,0,0,0,0,0,0,0,0,0,0,0,0,0,0,0,0,0,0,0,0,0,0,0,0,0,0,0,0,0,0,0,0,0,0,0,0,0,0,0,0,0,0,0,0,0,0,0,-0.96974931911548,0.12435491200014,-0.22230543000637,5.1884396041067,2.9059969471637,1.0385082102909,-3.0233702360966,1.5319751993443,2.6965420094876,-0.43706371535759,1.8737184412399,-5.3824213382672,1.5809905458067,-1.2481155059975,1.8597786269611,-3.9882691855587,1.7817682952594,4.3970578960049,-1.0283375999024,-4.4681043970497,1.9133784726963,1.9977834877946,0.025902459481583,-4.2560810281062,3.2128385791795,-2.617773604153,1.2130347416069,1.0313354494325,-1.5006310168865,1.0325024288194,1.2554053594046,-0.21804286845882,0.8027011357664,-3.8567040645185,-1.5439422178137,-3.2662777988525,5.4095641861949,-2.4623904516995,3.1297797598835,-0.38474629783747,-1.2484497334906,-6.6560720984238,1.0336318118894,-1.9799955803643,-3.4078760497001,1.5459549916629,3.2239498804479,-3.2516907130277,312.68167899654,312.68167899654,312.68167899654,312.68167899654,312.68167899654,312.68167899654,312.68167899654,312.68167899654,312.68167899654,312.68167899654,312.68167899654,312.68167899654,312.68167899654,312.68167899654,312.68167899654,312.68167899654,312.68167899654,312.68167899654,312.68167899654,312.68167899654,312.68167899654,312.68167899654,312.68167899654,312.68167899654,312.68167899654,312.68167899654,312.68167899654,312.68167899654,312.68167899654,312.68167899654,312.68167899654,312.68167899654,312.68167899654,312.68167899654,312.68167899654,312.68167899654,312.68167899654,312.68167899654,312.68167899654,312.68167899654,312.68167899654,312.68167899654,312.68167899654,312.68167899654,312.68167899654,312.68167899654,312.68167899654,312.68167899654,224.9297904469,623.96091608577,-1.7356167844327,547.23823835516,-1.7479601659029,0
0.0005096875,2369393928.2735,4.3812829816319e-05,0.00015103521700188,6.5827998865105e-05,1.0480378211459,0,0,0,0,0,0,0,0,0,0,0,0,0,0,0,0,0,0,0,0,0,0,0,0,0,0,0,0,0,0,0,0,0,0,0,0,0,0,0,0,0,0,0,0,0,0,0,0,-0.96961524043875,0.1258125484994,-0.22238366885753,5.1881890678001,2.9054372547835,1.0381093988813,-3.0219483661816,1.5315773800642,2.6961060237047,-0.43670193832036,1.8735839533872,-5.3820450454141,1.5816134195267,-1.2470884664926,1.8601606907833,-3.9860075282592,1.780226581355,4.3959552366007,-1.0283559674969,-4.4677942433156,1.9134917438846,1.9988932744153,0.025946744824743,-4.2577199812515,3.2128771723856,-2.6196677279862,1.2130480232705,1.0310768114104,-1.4990831998177,1.0317197789684,1.2545202640445,-0.21722922699536,0.80262547513337,-3.8549833171962,-1.5427987742996,-3.2655643501708,5.4095128904613,-2.4605517682596,3.1295796118561,-0.38455808083882,-1.2481826634169,-6.6542718631221,1.0336360817315,-1.9797604816698,-3.4080827686753,1.5472592100071,3.222885299556,-3.2493244958758,313.13876559758,313.13876559758,313.13876559758,313.13876559758,313.13876559758,313.13876559758,313.13876559758,313.13876559758,313.13876559758,313.13876559758,313.13876559758,313.13876559758,313.13876559758,313.13876559758,313.13876559758,313.13876559758,313.13876559758,313.13876559758,313.13876559758,313.13876559758,313.13876559758,313.13876559758,313.13876559758,313.13876559758,313.13876559758,313.13876559758,313.13876559758,313.13876559758,313.13876559758,313.13876559758,313.13876559758,313.13876559758,313.13876559758,313.13876559758,313.13876559758,313.13876559758,313.13876559758,313.13876559758,313.13876559758,313.13876559758,313.13876559758,313.13876559758,313.13876559758,313.13876559758,313.13876559758,313.13876559758,313.13876559758,313.13876559758,224.90320035432,624.89808691022,-1.7428991645123,548.04189988041,-1.7552505404308,0
0.0005109375,2379134784.2881,4.3917870705035e-05,0.00015140571902404,6.5997882696738e-05,1.0481572460384,0,0,0,0,0,0,0,0,0,0,0,0,0,0,0,0,0,0,0,0,0,0,0,0,0,0,0,0,0,0,0,0,0,0,0,0,0,0,0,0,0,0,0,0,0,0,0,0,-0.96948060025479,0.1272696301597,-0.22246728841692,5.1879382129203,2.9048780890979,1.0377111552248,-3.0205276757633,1.5311790829576,2.6956696207706,-0.4363401151785,1.8734470087944,-5.3816671630949,1.5822360749432,-1.2460629614539,1.8605405284232,-3.9837445796015,1.7786840969492,4.3948545813572,-1.0283731963515,-4.4674854412293,1.9136016493706,2.0000008867465,0.025991460409997,-4.2593614759131,3.2129128246573,-2.6215590515803,1.2130605908223,1.0308175397641,-1.4975359915474,1.0309375283384,1.2536358224438,-0.21641476664222,0.80254967010686,-3.853263235424,-1.5416570739904,-3.2648505814023,5.4094575246729,-2.4587128013623,3.1293787027029,-0.384370486076,-1.2479152542839,-6.6524700294624,1.033637853534,-1.9795248901819,-3.4082878165325,1.5485645075244,3.2218236651874,-3.2469601344728,313.59575695295,313.59575695295,313.59575695295,313.59575695295,313.59575695295,313.59575695295,313.59575695295,313.59575695295,313.59575695295,313.59575695295,313.59575695295,313.59575695295,313.59575695295,313.59575695295,313.59575695295,313.59575695295,313.59575695295,313.59575695295,313.59575695295,313.59575695295,313.59575695295,313.59575695295,313.59575695295,313.59575695295,313.59575695295,313.59575695295,313.59575695295,313.59575695295,313.59575695295,313.59575695295,313.59575695295,313.59575695295,313.59575695295,313.59575695295,313.59575695295,313.59575695295,313.59575695295,313.59575695295,313.59575695295,313.59575695295,313.59575695295,313.59575695295,313.59575695295,313.59575695295,313.59575695295,313.59575695295,313.59575695295,313.59575695295,224.87659906158,625.83504757586,-1.7501948828688,548.84535516372,-1.7625542169455,0
0.0005121875,2388893338.0344,4.4022904316075e-05,0.00015177622109765,6.6167791223456e-05,1.0482766673679,0,0,0,0,0,0,0,0,0,0,0,0,0,0,0,0,0,0,0,0,0,0,0,0,0,0,0,0,0,0,0,0,0,0,0,0,0,0,0,0,0,0,0,0,0,0,0,0,-0.96934540046394,0.12872614565848,-0.22255626483295,5.1876870572825,2.9043194477537,1.0373134519949,-3.0191082021504,1.5307803111545,2.6952327947699,-0.43597825923439,1.8733076287157,-5.3812877003059,1.5828585011248,-1.2450389790189,1.8609181872436,-3.9814803449776,1.77714084867,4.3937559207853,-1.0283893005772,-4.4671779981824,1.9137082034752,2.0011063107619,0.02603659078971,-4.2610054789299,3.2129455694591,-2.6234475729263,1.2130724472021,1.030557619574,-1.4959894566324,1.0301556813606,1.2527520306422,-0.21559950202992,0.8024737222563,-3.8515438238894,-1.5405171088234,-3.2641364828248,5.4093981648477,-2.4568735648777,3.1291770282602,-0.38418350699299,-1.2476474879516,-6.650666587052,1.0336371345819,-1.9792888239852,-3.4084912066475,1.5498708800435,3.2207649578335,-3.2445976225007,314.05265304259,314.05265304259,314.05265304259,314.05265304259,314.05265304259,314.05265304259,314.05265304259,314.05265304259,314.05265304259,314.05265304259,314.05265304259,314.05265304259,314.05265304259,314.05265304259,314.05265304259,314.05265304259,314.05265304259,314.05265304259,314.05265304259,314.05265304259,314.05265304259,314.05265304259,314.05265304259,314.05265304259,314.05265304259,314.05265304259,314.05265304259,314.05265304259,314.05265304259,314.05265304259,314.05265304259,314.05265304259,314.05265304259,314.05265304259,314.05265304259,314.05265304259,314.05265304259,314.05265304259,314.05265304259,314.05265304259,314.05265304259,314.05265304259,314.05265304259,314.05265304259,314.05265304259,314.05265304259,314.05265304259,314.05265304259,224.84998673187,626.77179823814,-1.7575039335646,549.64860427845,-1.7698711891264,0
0.0005134375,2398669578.807,4.4127929798171e-05,0.00015214672322258,6.6337722860095e-05,1.0483960851346,0,0,0,0,0,0,0,0,0,0,0,0,0,0,0,0,0,0,0,0,0,0,0,0,0,0,0,0,0,0,0,0,0,0,0,0,0,0,0,0,0,0,0,0,0,0,0,0,-0.96920964288988,0.13018208314411,-0.22265057529551,5.1874356183577,2.9037613285498,1.036916261875,-3.0176899816806,1.5303810675279,2.6947955394123,-0.43561638371235,1.8731658344069,-5.3809066660535,1.5834806872219,-1.2440165072126,1.8612937127987,-3.9792148296671,1.7755968437828,4.3926592456094,-1.0284042944774,-4.4668719218171,1.9138114197372,2.00220953277,0.026082120419876,-4.2626519576736,3.2129754401705,-2.6253332909325,1.213083595209,1.0302970359289,-1.4944436581642,1.0293742420607,1.2518688839128,-0.21478344723235,0.80239763331751,-3.849825087021,-1.5393788707555,-3.2634220441882,5.4093348856252,-2.4550340722229,3.1289745846586,-0.38399713710502,-1.2473793474185,-6.6488615254664,1.0336339325203,-1.9790523005742,-3.4086929535794,1.5511783230762,3.2197091579137,-3.2422369538497,314.5094538468,314.5094538468,314.5094538468,314.5094538468,314.5094538468,314.5094538468,314.5094538468,314.5094538468,314.5094538468,314.5094538468,314.5094538468,314.5094538468,314.5094538468,314.5094538468,314.5094538468,314.5094538468,314.5094538468,314.5094538468,314.5094538468,314.5094538468,314.5094538468,314.5094538468,314.5094538468,314.5094538468,314.5094538468,314.5094538468,314.5094538468,314.5094538468,314.5094538468,314.5094538468,314.5094538468,314.5094538468,314.5094538468,314.5094538468,314.5094538468,314.5094538468,314.5094538468,314.5094538468,314.5094538468,314.5094538468,314.5094538468,314.5094538468,314.5094538468,314.5094538468,314.5094538468,314.5094538468,314.5094538468,314.5094538468,224.82336352919,627.70833904788,-1.7648263106534,550.45164729836,-1.7772014506956,0
0.0005146875,2408463495.9105,4.4232947255051e-05,0.00015251722539874,6.6507677771492e-05,1.0485154993386,0,0,0,0,0,0,0,0,0,0,0,0,0,0,0,0,0,0,0,0,0,0,0,0,0,0,0,0,0,0,0,0,0,0,0,0,0,0,0,0,0,0,0,0,0,0,0,0,-0.96907332929935,0.1316374302532,-0.22275019793539,5.1871839133153,2.9032037294358,1.0365195576431,-3.0162730497328,1.5299813547352,2.6943578480114,-0.4352545017461,1.8730216471115,-5.3805240693452,1.5841026224758,-1.2429955339974,1.861667148854,-3.976948038882,1.774052090153,4.3915645467686,-1.0284181924533,-4.4665672200577,1.9139113110003,2.0033105394018,0.026128033675295,-4.2643008800511,3.2130024700437,-2.6272162053755,1.2130940375147,1.0300357739635,-1.4928986577092,1.0285932140706,1.2509863767576,-0.21396661577077,0.80232140519293,-3.8481070290023,-1.5382423517461,-3.2627072547718,5.4092677602439,-2.4531943363889,3.1287713683147,-0.3838113700231,-1.2471108168118,-6.6470548342868,1.0336282553202,-1.978815336774,-3.4088930730246,1.5524868318378,3.2186562457845,-3.2398781225674,314.9661593463,314.9661593463,314.9661593463,314.9661593463,314.9661593463,314.9661593463,314.9661593463,314.9661593463,314.9661593463,314.9661593463,314.9661593463,314.9661593463,314.9661593463,314.9661593463,314.9661593463,314.9661593463,314.9661593463,314.9661593463,314.9661593463,314.9661593463,314.9661593463,314.9661593463,314.9661593463,314.9661593463,314.9661593463,314.9661593463,314.9661593463,314.9661593463,314.9661593463,314.9661593463,314.9661593463,314.9661593463,314.9661593463,314.9661593463,314.9661593463,314.9661593463,314.9661593463,314.9661593463,314.9661593463,314.9661593463,314.9661593463,314.9661593463,314.9661593463,314.9661593463,314.9661593463,314.9661593463,314.9661593463,314.9661593463,224.79672961843,628.64467015137,-1.7721620082337,551.2544842975,-1.7845449953555,0
0.0005159375,2418275078.6596,4.4337956549053e-05,0.00015288772762605,6.6677655682827e-05,1.0486349099802,0,0,0,0,0,0,0,0,0,0,0,0,0,0,0,0,0,0,0,0,0,0,0,0,0,0,0,0,0,0,0,0,0,0,0,0,0,0,0,0,0,0,0,0,0,0,0,0,-0.96893646141946,0.1330921741318,-0.2228551117603,5.1869319590502,2.9026466484936,1.0361233122441,-3.014857440777,1.5295811752513,2.6939197135725,-0.43489262636116,1.8728750880636,-5.3801399191608,1.5847242962236,-1.2419760473048,1.8620385374295,-3.9746799777486,1.7725065962238,4.3904718153842,-1.0284310089141,-4.4662639011708,1.9140078894808,2.0044093176681,0.026174314870584,-4.2659522144215,3.2130266921982,-2.6290963168454,1.2131037766662,1.0297738188864,-1.4913545152857,1.0278126006409,1.2501045029972,-0.21314902062124,0.80224503995369,-3.8463896537716,-1.5371075437591,-3.2619921034187,5.4091968605466,-2.4513543699574,3.1285673759514,-0.38362619947077,-1.2468418813619,-6.6452465030105,1.0336201112443,-1.9785779486728,-3.4090915817822,1.5537964012843,3.2176062017258,-3.2375211227947,315.42276952216,315.42276952216,315.42276952216,315.42276952216,315.42276952216,315.42276952216,315.42276952216,315.42276952216,315.42276952216,315.42276952216,315.42276952216,315.42276952216,315.42276952216,315.42276952216,315.42276952216,315.42276952216,315.42276952216,315.42276952216,315.42276952216,315.42276952216,315.42276952216,315.42276952216,315.42276952216,315.42276952216,315.42276952216,315.42276952216,315.42276952216,315.42276952216,315.42276952216,315.42276952216,315.42276952216,315.42276952216,315.42276952216,315.42276952216,315.42276952216,315.42276952216,315.42276952216,315.42276952216,315.42276952216,315.42276952216,315.42276952216,315.42276952216,315.42276952216,315.42276952216,315.42276952216,315.42276952216,315.42276952216,315.42276952216,224.7700851652,629.58079169046,-1.7795110203659,552.0571153502,-1.7919018167966,0
0.0005171875,2428104316.3792,4.4442957483588e-05,0.00015325822990443,6.6847656212154e-05,1.0487543170595,0,0,0,0,0,0,0,0,0,0,0,0,0,0,0,0,0,0,0,0,0,0,0,0,0,0,0,0,0,0,0,0,0,0,0,0,0,0,0,0,0,0,0,0,0,0,0,0,-0.96879904095437,0.13454630144367,-0.22296529654771,5.1866797722345,2.902090083946,1.0357274988776,-3.0134431882727,1.5291805314059,2.6934811288311,-0.43453077046817,1.8727261784561,-5.3797542245025,1.5853456979166,-1.2409580349981,1.8624079187994,-3.9724106513748,1.7709603709323,4.3893810427684,-1.0284427581936,-4.4659619736797,1.9141011668495,2.0055058549978,0.026220948272701,-4.2676059296814,3.2130481395528,-2.6309736267267,1.2131128151079,1.029511156025,-1.4898112892375,1.0270324046606,1.2492232557934,-0.21233067422458,0.80216853983267,-3.844672965072,-1.53597443874,-3.2612765785012,5.4091222568998,-2.4495141851182,3.1283626045583,-0.38344161925881,-1.2465725274003,-6.643436521187,1.0336095087797,-1.9783401515174,-3.4092884976424,1.5551070261242,3.2165590059521,-3.2351659487355,315.87928435586,315.87928435586,315.87928435586,315.87928435586,315.87928435586,315.87928435586,315.87928435586,315.87928435586,315.87928435586,315.87928435586,315.87928435586,315.87928435586,315.87928435586,315.87928435586,315.87928435586,315.87928435586,315.87928435586,315.87928435586,315.87928435586,315.87928435586,315.87928435586,315.87928435586,315.87928435586,315.87928435586,315.87928435586,315.87928435586,315.87928435586,315.87928435586,315.87928435586,315.87928435586,315.87928435586,315.87928435586,315.87928435586,315.87928435586,315.87928435586,315.87928435586,315.87928435586,315.87928435586,315.87928435586,315.87928435586,315.87928435586,315.87928435586,315.87928435586,315.87928435586,315.87928435586,315.87928435586,315.87928435586,315.87928435586,224.74343033571,630.51670380274,-1.7868733411338,552.859540531,-1.7992719087213,0
0.0005184375,2437951198.4039,4.4547950161338e-05,0.00015362873223378,6.701767952748e-05,1.0488737205766,0,0,0,0,0,0,0,0,0,0,0,0,0,0,0,0,0,0,0,0,0,0,0,0,0,0,0,0,0,0,0,0,0,0,0,0,0,0,0,0,0,0,0,0,0,0,0,0,-0.96866106959649,0.13599979837844,-0.22308073277459,5.1864273692934,2.9015340341554,1.0353320910829,-3.012030324575,1.5287794254125,2.6930420861029,-0.43416894684765,1.872574939423,-5.3793669944104,1.5859668171437,-1.2399414848815,1.8627753314978,-3.9701400649627,1.769413423595,4.3882922204336,-1.0284534544498,-4.4656614462485,1.9141911542979,2.0066001391285,0.026267918123715,-4.269261995389,3.2130668447924,-2.6328481371705,1.2131211551888,1.0292477708665,-1.4882690361277,1.0262526286688,1.2483426275391,-0.2115115884878,0.80209190722092,-3.8429569664772,-1.5348430286045,-3.2605606679538,5.4090440181414,-2.4476737937005,3.1281570513023,-0.38325762328002,-1.2463027423629,-6.6416248786353,1.0335964565747,-1.9781019596434,-3.4094838393123,1.556418700815,3.2155146386369,-3.2328125946241,316.33570382925,316.33570382925,316.33570382925,316.33570382925,316.33570382925,316.33570382925,316.33570382925,316.33570382925,316.33570382925,316.33570382925,316.33570382925,316.33570382925,316.33570382925,316.33570382925,316.33570382925,316.33570382925,316.33570382925,316.33570382925,316.33570382925,316.33570382925,316.33570382925,316.33570382925,316.33570382925,316.33570382925,316.33570382925,316.33570382925,316.33570382925,316.33570382925,316.33570382925,316.33570382925,316.33570382925,316.33570382925,316.33570382925,316.33570382925,316.33570382925,316.33570382925,316.33570382925,316.33570382925,316.33570382925,316.33570382925,316.33570382925,316.33570382925,316.33570382925,316.33570382925,316.33570382925,316.33570382925,316.33570382925,316.33570382925,224.71676529687,631.45240662154,-1.7942489646962,553.66175991458,-1.8066552648296,0
0.0005196875,2447815714.0785,4.4652934526039e-05,0.00015399923461403,6.7187725507304e-05,1.0489931205317,0,0,0,0,0,0,0,0,0,0,0,0,0,0,0,0,0,0,0,0,0,0,0,0,0,0,0,0,0,0,0,0,0,0,0,0,0,0,0,0,0,0,0,0,0,0,0,0,-0.9685225490461,0.13745265070195,-0.22320140154992,5.1861747664501,2.9009784975952,1.0349370627978,-3.0106188811043,1.5283778593946,2.6926025775688,-0.43380716813386,1.8724213920526,-5.3789782378937,1.5865876436275,-1.2389263847544,1.8631408124139,-3.9678682236516,1.7678657639859,4.3872053400372,-1.0284631116044,-4.4653623278487,1.9142778625986,2.007692158306,0.026315208659011,-4.2709203814924,3.2130828403764,-2.6347198509965,1.2131287991678,1.0289836490848,-1.4867278108216,1.0254732748679,1.2474626101066,-0.21069177480778,0.80201514467099,-3.8412416613782,-1.5337133052445,-3.2598443593276,5.4089622116607,-2.4458332071652,3.1279507136475,-0.38307420553999,-1.2460325147331,-6.63981156507,1.0335809634597,-1.9778633864522,-3.4096776264062,1.5577314196255,3.2144730798784,-3.2304610546502,316.79202792458,316.79202792458,316.79202792458,316.79202792458,316.79202792458,316.79202792458,316.79202792458,316.79202792458,316.79202792458,316.79202792458,316.79202792458,316.79202792458,316.79202792458,316.79202792458,316.79202792458,316.79202792458,316.79202792458,316.79202792458,316.79202792458,316.79202792458,316.79202792458,316.79202792458,316.79202792458,316.79202792458,316.79202792458,316.79202792458,316.79202792458,316.79202792458,316.79202792458,316.79202792458,316.79202792458,316.79202792458,316.79202792458,316.79202792458,316.79202792458,316.79202792458,316.79202792458,316.79202792458,316.79202792458,316.79202792458,316.79202792458,316.79202792458,316.79202792458,316.79202792458,316.79202792458,316.79202792458,316.79202792458,316.79202792458,224.69009021604,632.38790027612,-1.8016378851649,554.46377357574,-1.8140518788218,0
0.0005209375,2457697852.7573,4.4757910476638e-05,0.00015436973704511,6.7357793949404e-05,1.049112516925,0,0,0,0,0,0,0,0,0,0,0,0,0,0,0,0,0,0,0,0,0,0,0,0,0,0,0,0,0,0,0,0,0,0,0,0,0,0,0,0,0,0,0,0,0,0,0,0,-0.96838348102552,0.13890484375919,-0.22332728450857,5.1859219797212,2.9004234728589,1.0345423884266,-3.0092088882452,1.527975835413,2.6921625951533,-0.43344544680356,1.8722655573626,-5.3785879639545,1.5872081672438,-1.2379127224337,1.8635043968135,-3.9655951326479,1.7663174022393,4.3861203934007,-1.0284717432754,-4.4650646276315,1.9143613021784,2.0087819011808,0.026362804127508,-4.2725810584865,3.2130961584892,-2.6365887716669,1.2131357492297,1.0287187765764,-1.4851876663923,1.0246943451386,1.2465831947683,-0.20987124407705,0.80193825489027,-3.8395270530124,-1.53258526052,-3.2591276398308,5.4088769033482,-2.4439924366436,3.1277435892989,-0.38289136016134,-1.2457618340258,-6.6379965703666,1.0335630383793,-1.97762444435,-3.4098698793524,1.5590451766489,3.2134343097288,-3.2281113229594,317.24825662447,317.24825662447,317.24825662447,317.24825662447,317.24825662447,317.24825662447,317.24825662447,317.24825662447,317.24825662447,317.24825662447,317.24825662447,317.24825662447,317.24825662447,317.24825662447,317.24825662447,317.24825662447,317.24825662447,317.24825662447,317.24825662447,317.24825662447,317.24825662447,317.24825662447,317.24825662447,317.24825662447,317.24825662447,317.24825662447,317.24825662447,317.24825662447,317.24825662447,317.24825662447,317.24825662447,317.24825662447,317.24825662447,317.24825662447,317.24825662447,317.24825662447,317.24825662447,317.24825662447,317.24825662447,317.24825662447,317.24825662447,317.24825662447,317.24825662447,317.24825662447,317.24825662447,317.24825662447,317.24825662447,317.24825662447,224.66340526096,633.32318489179,-1.8090400966494,555.26558158936,-1.8214617443939,0
0.0005221875,2467597603.8041,4.4862877964663e-05,0.00015474023952695,6.7527884748612e-05,1.0492319097565,0,0,0,0,0,0,0,0,0,0,0,0,0,0,0,0,0,0,0,0,0,0,0,0,0,0,0,0,0,0,0,0,0,0,0,0,0,0,0,0,0,0,0,0,0,0,0,0,-0.96824386728695,0.14035636250521,-0.22345836376031,5.1856690249175,2.8998689586418,1.0341480429316,-3.0078003753183,1.5275733554841,2.6917221305876,-0.43308379516382,1.8721074562883,-5.3781961816237,1.5878283780426,-1.2369004856997,1.8638661183631,-3.9633207972034,1.7647683487726,4.3850373724772,-1.0284793626795,-4.4647683548863,1.9144414831646,2.0098693568884,0.026410688807968,-4.2742439973617,3.2131068310173,-2.6384549032706,1.2131420074935,1.0284531395101,-1.4836486540665,1.0239158410535,1.2457043722288,-0.20905000670163,0.80186124073656,-3.8378131445046,-1.5314588862469,-3.2584104962742,5.4087881575683,-2.4421514929374,3.1275356761406,-0.38270908135068,-1.2454906907822,-6.6361798845114,1.0335426903563,-1.9773851446745,-3.4100606193139,1.5603599657974,3.2123983081759,-3.2257633935779,317.70438991195,317.70438991195,317.70438991195,317.70438991195,317.70438991195,317.70438991195,317.70438991195,317.70438991195,317.70438991195,317.70438991195,317.70438991195,317.70438991195,317.70438991195,317.70438991195,317.70438991195,317.70438991195,317.70438991195,317.70438991195,317.70438991195,317.70438991195,317.70438991195,317.70438991195,317.70438991195,317.70438991195,317.70438991195,317.70438991195,317.70438991195,317.70438991195,317.70438991195,317.70438991195,317.70438991195,317.70438991195,317.70438991195,317.70438991195,317.70438991195,317.70438991195,317.70438991195,317.70438991195,317.70438991195,317.70438991195,317.70438991195,317.70438991195,317.70438991195,317.70438991195,317.70438991195,317.70438991195,317.70438991195,317.70438991195,224.63671059981,634.25826058999,-1.8164555932792,556.06718403035,-1.828884855238,0
0.0005234375,2477514956.5919,4.4967836857441e-05,0.0001551107420595,6.7697997647497e-05,1.0493512990265,0,0,0,0,0,0,0,0,0,0,0,0,0,0,0,0,0,0,0,0,0,0,0,0,0,0,0,0,0,0,0,0,0,0,0,0,0,0,0,0,0,0,0,0,0,0,0,0,-0.9681037096299,0.14180719153282,-0.22359462179423,5.1854159176419,2.8993149537369,1.0337540018794,-3.0063933706177,1.5271704216051,2.6912811754452,-0.43272222533788,1.8719471096835,-5.3778028999137,1.5884482662533,-1.2358896623759,1.8642260091951,-3.96104522262,1.7632186143085,4.3839562693541,-1.0284859825887,-4.4644735190366,1.9145184154553,2.0109545150409,0.026458847032455,-4.2759091695786,3.2131148895402,-2.6403182504384,1.2131475760219,1.0281867243518,-1.4821108232479,1.0231377638915,1.2448261326899,-0.20822807261645,0.80178410521762,-3.8360999388634,-1.5303341742031,-3.2576929151768,5.4086960371828,-2.4403103865395,3.1273269723077,-0.38252736343529,-1.2452190765247,-6.6343614975973,1.0335199284843,-1.9771454976977,-3.4102498681387,1.5616757808561,3.2113650551664,-3.2234172604009,318.1604277704,318.1604277704,318.1604277704,318.1604277704,318.1604277704,318.1604277704,318.1604277704,318.1604277704,318.1604277704,318.1604277704,318.1604277704,318.1604277704,318.1604277704,318.1604277704,318.1604277704,318.1604277704,318.1604277704,318.1604277704,318.1604277704,318.1604277704,318.1604277704,318.1604277704,318.1604277704,318.1604277704,318.1604277704,318.1604277704,318.1604277704,318.1604277704,318.1604277704,318.1604277704,318.1604277704,318.1604277704,318.1604277704,318.1604277704,318.1604277704,318.1604277704,318.1604277704,318.1604277704,318.1604277704,318.1604277704,318.1604277704,318.1604277704,318.1604277704,318.1604277704,318.1604277704,318.1604277704,318.1604277704,318.1604277704,224.61000640082,635.19312748846,-1.8238843691646,556.86858097364,-1.8363212050496,0
0.00052468749999999,2487449900.5028,4.5072787161383e-05,0.00015548124464267,6.7868132644873e-05,1.049470684735,0,0,0,0,0,0,0,0,0,0,0,0,0,0,0,0,0,0,0,0,0,0,0,0,0,0,0,0,0,0,0,0,0,0,0,0,0,0,0,0,0,0,0,0,0,0,0,0,-0.96796300990522,0.14325731510105,-0.22373604142098,5.1851626732816,2.8987614570243,1.0333602415147,-3.004987901322,1.5267670357648,2.6908397211584,-0.43236074925394,1.8717845382945,-5.3774081278567,1.589067822306,-1.2348802402574,1.8645840999405,-3.9587684142826,1.7616682097672,4.3828770762266,-1.028491615258,-4.464180129529,1.9145921087598,2.0120373657574,0.026507263202028,-4.2775765470963,3.2131203652912,-2.642178818331,1.2131524568371,1.0279195179078,-1.4805742214315,1.0223601146491,1.2439484658513,-0.20740545130067,0.80170685148071,-3.8343874390178,-1.5292111161077,-3.256974882703,5.4086006035264,-2.4384691276428,3.1271174760937,-0.38234620081516,-1.2449469837415,-6.6325413998961,1.0334947618778,-1.9769055125503,-3.4104376482739,1.5629926154693,3.2103345305909,-3.2210729171551,318.61637018364,318.61637018364,318.61637018364,318.61637018364,318.61637018364,318.61637018364,318.61637018364,318.61637018364,318.61637018364,318.61637018364,318.61637018364,318.61637018364,318.61637018364,318.61637018364,318.61637018364,318.61637018364,318.61637018364,318.61637018364,318.61637018364,318.61637018364,318.61637018364,318.61637018364,318.61637018364,318.61637018364,318.61637018364,318.61637018364,318.61637018364,318.61637018364,318.61637018364,318.61637018364,318.61637018364,318.61637018364,318.61637018364,318.61637018364,318.61637018364,318.61637018364,318.61637018364,318.61637018364,318.61637018364,318.61637018364,318.61637018364,318.61637018364,318.61637018364,318.61637018364,318.61637018364,318.61637018364,318.61637018364,318.61637018364,224.58329283245,636.12778570138,-1.8313264184523,557.66977249409,-1.8437707875266,0
0.00052593749999999,2497402424.9273,4.517772882324e-05,0.00015585174727641,6.8038289630448e-05,1.0495900668822,0,0,0,0,0,0,0,0,0,0,0,0,0,0,0,0,0,0,0,0,0,0,0,0,0,0,0,0,0,0,0,0,0,0,0,0,0,0,0,0,0,0,0,0,0,0,0,0,-0.96782177003038,0.14470671716587,-0.22388260569469,5.1849093069864,2.898208467455,1.0329667388239,-3.0035839935681,1.526363199961,2.6903977590704,-0.43199937863204,1.8716197627733,-5.3770118744622,1.589687036836,-1.2338722071988,1.864940419792,-3.9564903776265,1.7601171462935,4.3817997853789,-1.0284962723644,-4.4638881958497,1.9146625726561,2.0131178996777,0.026555921807252,-4.2792461022923,3.2131232891676,-2.6440366125623,1.2131566519248,1.0276515073609,-1.4790388942659,1.0215828940521,1.2430713609864,-0.20658215179768,0.80162948281582,-3.8326756478169,-1.5280897036338,-3.2562563847691,5.4085019164312,-2.4366277261543,3.1269071860167,-0.38216558800647,-1.2446744058434,-6.630719581777,1.0334671996704,-1.9766651972411,-3.4106239827172,1.5643104631877,3.2093067142866,-3.2187303573669,319.07221713583,319.07221713583,319.07221713583,319.07221713583,319.07221713583,319.07221713583,319.07221713583,319.07221713583,319.07221713583,319.07221713583,319.07221713583,319.07221713583,319.07221713583,319.07221713583,319.07221713583,319.07221713583,319.07221713583,319.07221713583,319.07221713583,319.07221713583,319.07221713583,319.07221713583,319.07221713583,319.07221713583,319.07221713583,319.07221713583,319.07221713583,319.07221713583,319.07221713583,319.07221713583,319.07221713583,319.07221713583,319.07221713583,319.07221713583,319.07221713583,319.07221713583,319.07221713583,319.07221713583,319.07221713583,319.07221713583,319.07221713583,319.07221713583,319.07221713583,319.07221713583,319.07221713583,319.07221713583,319.07221713583,319.07221713583,224.55657006314,637.06223533946,-1.8387817352642,558.47075866651,-1.8512335963571,0
0.00052718749999999,2507372519.2644,4.5282661793383e-05,0.00015622224996066,6.8208468503e-05,1.0497094454682,0,0,0,0,0,0,0,0,0,0,0,0,0,0,0,0,0,0,0,0,0,0,0,0,0,0,0,0,0,0,0,0,0,0,0,0,0,0,0,0,0,0,0,0,0,0,0,0,-0.96767999199608,0.14615538141265,-0.22403429783702,5.1846558336748,2.8976559840398,1.0325734715862,-3.0021816724102,1.5259589162141,2.689955280459,-0.43163812497245,1.8714528036618,-5.3766141487334,1.5903059007028,-1.2328655510803,1.8652949965557,-3.9542111181582,1.7585654351953,4.3807243891669,-1.0284999649611,-4.4635977274536,1.9147298166408,2.0141961079914,0.026604807446388,-4.2809178079697,3.213123691704,-2.6458916391664,1.2131601632475,1.0273826803025,-1.4775048855183,1.0208061025698,1.2421948069583,-0.20575818273198,0.80155200264805,-3.8309645680572,-1.5269699283925,-3.255537407019,5.4084000342385,-2.4347861917063,3.1266961007863,-0.38198551961698,-1.2444013371387,-6.6288960337518,1.0334372509857,-1.976424558616,-3.4108088949505,1.5656293174814,3.2082815860381,-3.2163895743314,319.52796861155,319.52796861155,319.52796861155,319.52796861155,319.52796861155,319.52796861155,319.52796861155,319.52796861155,319.52796861155,319.52796861155,319.52796861155,319.52796861155,319.52796861155,319.52796861155,319.52796861155,319.52796861155,319.52796861155,319.52796861155,319.52796861155,319.52796861155,319.52796861155,319.52796861155,319.52796861155,319.52796861155,319.52796861155,319.52796861155,319.52796861155,319.52796861155,319.52796861155,319.52796861155,319.52796861155,319.52796861155,319.52796861155,319.52796861155,319.52796861155,319.52796861155,319.52796861155,319.52796861155,319.52796861155,319.52796861155,319.52796861155,319.52796861155,319.52796861155,319.52796861155,319.52796861155,319.52796861155,319.52796861155,319.52796861155,224.52983826106,637.99647651015,-1.8462503137153,559.27153956565,-1.8587096252303,0
0.00052843749999999,2517360172.9207,4.5387586000379e-05,0.00015659275269536,6.8378669121628e-05,1.0498288204932,0,0,0,0,0,0,0,0,0,0,0,0,0,0,0,0,0,0,0,0,0,0,0,0,0,0,0,0,0,0,0,0,0,0,0,0,0,0,0,0,0,0,0,0,0,0,0,0,-0.96753767787364,0.14760329128655,-0.22419110118097,5.1844022680027,2.8971040058413,1.0321804184376,-3.0007809618029,1.5255541865739,2.6895122765534,-0.43127699954608,1.8712836813866,-5.3762149596618,1.590924404997,-1.2318602598238,1.8656478566893,-3.951930641455,1.7570130879213,4.3796508800036,-1.0285027034188,-4.4633087336977,1.91479385017,2.0152719824342,0.026653904841802,-4.2825916373322,3.213121603065,-2.6477439045534,1.2131629927582,1.0271130247728,-1.4759722370691,1.0200297404229,1.2413187922513,-0.20493355232958,0.8014744145326,-3.8292542024959,-1.5258517819362,-3.2548179348611,5.4082950137836,-2.4329445336705,3.1264842193024,-0.38180599034657,-1.2441277728022,-6.6270707464746,1.0334049249265,-1.9761836023492,-3.4109924088642,1.5669491717547,3.2072591255773,-3.2140505610938,319.98362459574,319.98362459574,319.98362459574,319.98362459574,319.98362459574,319.98362459574,319.98362459574,319.98362459574,319.98362459574,319.98362459574,319.98362459574,319.98362459574,319.98362459574,319.98362459574,319.98362459574,319.98362459574,319.98362459574,319.98362459574,319.98362459574,319.98362459574,319.98362459574,319.98362459574,319.98362459574,319.98362459574,319.98362459574,319.98362459574,319.98362459574,319.98362459574,319.98362459574,319.98362459574,319.98362459574,319.98362459574,319.98362459574,319.98362459574,319.98362459574,319.98362459574,319.98362459574,319.98362459574,319.98362459574,319.98362459574,319.98362459574,319.98362459574,319.98362459574,319.98362459574,319.98362459574,319.98362459574,319.98362459574,319.98362459574,224.50309759425,638.93050931776,-1.8537321479149,560.07211526615,-1.8661988678292,0
0.00052968749999999,2527365375.3105,4.5492501377417e-05,0.00015696325548045,6.8548891354994e-05,1.0499481919572,0,0,0,0,0,0,0,0,0,0,0,0,0,0,0,0,0,0,0,0,0,0,0,0,0,0,0,0,0,0,0,0,0,0,0,0,0,0,0,0,0,0,0,0,0,0,0,0,-0.96739482982232,0.14905043002732,-0.22435299909391,5.1841486243559,2.8965525319542,1.0317875589204,-2.9993818846081,1.525149013131,2.6890687385949,-0.43091601338239,1.8711124162574,-5.3758143162269,1.5915425410529,-1.2308563213848,1.8659990253641,-3.9496489531614,1.7554601160206,4.3785792503288,-1.0285044973806,-4.4630212238058,1.9148546827069,2.0163455153392,0.026703198857865,-4.2842675639546,3.2131170530371,-2.6495934154668,1.213165142409,1.026842529292,-1.4744409889251,1.0192538075974,1.2404433050231,-0.20410826843626,0.80139672215175,-3.8275445538718,-1.5247352557449,-3.2540979534713,5.4081869104239,-2.431102761163,3.1262715406442,-0.38162699497676,-1.2438537088376,-6.6252437107353,1.0333702305502,-1.9759423329324,-3.411174548703,1.5682700193666,3.2062393125759,-3.2117133104144,320.43918507374,320.43918507374,320.43918507374,320.43918507374,320.43918507374,320.43918507374,320.43918507374,320.43918507374,320.43918507374,320.43918507374,320.43918507374,320.43918507374,320.43918507374,320.43918507374,320.43918507374,320.43918507374,320.43918507374,320.43918507374,320.43918507374,320.43918507374,320.43918507374,320.43918507374,320.43918507374,320.43918507374,320.43918507374,320.43918507374,320.43918507374,320.43918507374,320.43918507374,320.43918507374,320.43918507374,320.43918507374,320.43918507374,320.43918507374,320.43918507374,320.43918507374,320.43918507374,320.43918507374,320.43918507374,320.43918507374,320.43918507374,320.43918507374,320.43918507374,320.43918507374,320.43918507374,320.43918507374,320.43918507374,320.43918507374,224.47634823027,639.86433386365,-1.8612272319771,560.87248584253,-1.8737013178365,0
0.00053093749999999,2537388115.8548,4.5597407775732e-05,0.00015733375831587,6.8719134923309e-05,1.0500675598604,0,0,0,0,0,0,0,0,0,0,0,0,0,0,0,0,0,0,0,0,0,0,0,0,0,0,0,0,0,0,0,0,0,0,0,0,0,0,0,0,0,0,0,0,0,0,0,0,-0.96725145009604,0.15049678070604,-0.22451997492201,5.1838949168332,2.8960015614905,1.0313948735421,-2.9979844625897,1.52474339802,2.6886246578358,-0.43055517726122,1.8709390284664,-5.3754122273888,1.5921603004599,-1.2298537237764,1.8663485265077,-3.9473660589869,1.7539065311196,4.37750949259,-1.0285053557109,-4.4627352068093,1.9149123237621,2.0174166996249,0.026752674515001,-4.2859455617532,3.2131100710292,-2.6514401789357,1.2131666141596,1.0265711828998,-1.4729111792334,1.0184783038496,1.2395683331219,-0.20328233853827,0.80131892931165,-3.825835624916,-1.5236203412281,-3.2533774478368,5.408075778043,-2.4292608830599,3.1260580640678,-0.38144852837748,-1.2435791420526,-6.6234149174547,1.0333331768636,-1.9757007536797,-3.4113553390028,1.5695918536476,3.2052221266428,-3.2093778147457,320.89465003128,320.89465003128,320.89465003128,320.89465003128,320.89465003128,320.89465003128,320.89465003128,320.89465003128,320.89465003128,320.89465003128,320.89465003128,320.89465003128,320.89465003128,320.89465003128,320.89465003128,320.89465003128,320.89465003128,320.89465003128,320.89465003128,320.89465003128,320.89465003128,320.89465003128,320.89465003128,320.89465003128,320.89465003128,320.89465003128,320.89465003128,320.89465003128,320.89465003128,320.89465003128,320.89465003128,320.89465003128,320.89465003128,320.89465003128,320.89465003128,320.89465003128,320.89465003128,320.89465003128,320.89465003128,320.89465003128,320.89465003128,320.89465003128,320.89465003128,320.89465003128,320.89465003128,320.89465003128,320.89465003128,320.89465003128,224.44959033612,640.79795024635,-1.8687355599976,561.67265136919,-1.8812169689484,0
0.00053218749999999,2547428383.9814,4.5702305368037e-05,0.00015770426120156,6.8889400136566e-05,1.0501869242029,0,0,0,0,0,0,0,0,0,0,0,0,0,0,0,0,0,0,0,0,0,0,0,0,0,0,0,0,0,0,0,0,0,0,0,0,0,0,0,0,0,0,0,0,0,0,0,0,-0.96710754104864,0.15194232625225,-0.22469201191502,5.183641159234,2.8954510935678,1.0310023438092,-2.9965887164334,1.5243373434273,2.6881800255663,-0.4301945017019,1.8707635380853,-5.3750087020609,1.5927776750612,-1.2288524551031,1.8666963828736,-3.9450819647089,1.752352344922,4.3764415992192,-1.0285052864702,-4.4624506915199,1.914966782936,2.0184855287903,0.026802317007313,-4.2876256049596,3.2131006860644,-2.6532842022131,1.2131674099937,1.0262989751786,-1.4713828443103,1.0177032287196,1.2386938641346,-0.20245576978,0.80124103993648,-3.8241274183555,-1.5225070297162,-3.2526564028145,5.4079616690861,-2.4274189080084,3.1258437890447,-0.3812705855141,-1.2433040700033,-6.6215843576869,1.0332937728113,-1.9754588667463,-3.4115348045423,1.5709146679371,3.2042075473247,-3.2070440662322,321.35001945445,321.35001945445,321.35001945445,321.35001945445,321.35001945445,321.35001945445,321.35001945445,321.35001945445,321.35001945445,321.35001945445,321.35001945445,321.35001945445,321.35001945445,321.35001945445,321.35001945445,321.35001945445,321.35001945445,321.35001945445,321.35001945445,321.35001945445,321.35001945445,321.35001945445,321.35001945445,321.35001945445,321.35001945445,321.35001945445,321.35001945445,321.35001945445,321.35001945445,321.35001945445,321.35001945445,321.35001945445,321.35001945445,321.35001945445,321.35001945445,321.35001945445,321.35001945445,321.35001945445,321.35001945445,321.35001945445,321.35001945445,321.35001945445,321.35001945445,321.35001945445,321.35001945445,321.35001945445,321.35001945445,321.35001945445,224.42282407812,641.73135856179,-1.8762571260601,562.47261192039,-1.8887458148156,0
0.00053343749999999,2557486169.1241,4.580719403795e-05,0.00015807476413746,6.9059686775116e-05,1.0503062849848,0,0,0,0,0,0,0,0,0,0,0,0,0,0,0,0,0,0,0,0,0,0,0,0,0,0,0,0,0,0,0,0,0,0,0,0,0,0,0,0,0,0,0,0,0,0,0,0,-0.96696310513522,0.15338704949164,-0.22486909317931,5.1833873650379,2.8949011272941,1.0306099522899,-2.9951946656567,1.5239308515928,2.6877348331702,-0.42983399695909,1.87058596506,-5.3746037491653,1.5933946569737,-1.2278525034732,1.8670426160582,-3.9427966761875,1.7507975691281,4.3753755626083,-1.0285042968597,-4.4621676863947,1.9150180699563,2.0195519969833,0.026852111711113,-4.2893076681427,3.2130889267791,-2.6551254927802,1.2131675319297,1.0260258962972,-1.4698560185964,1.0169285815385,1.2378198854122,-0.20162856898517,0.80116305806361,-3.8224199369568,-1.52139531245,-3.2519348030477,5.4078446345235,-2.4255768444324,3.1256287151884,-0.3810931613966,-1.2430284909865,-6.6197520226765,1.0332520272499,-1.9752166730915,-3.4117129702482,1.5722384555716,3.2031955540901,-3.2047120566646,321.80529332974,321.80529332974,321.80529332974,321.80529332974,321.80529332974,321.80529332974,321.80529332974,321.80529332974,321.80529332974,321.80529332974,321.80529332974,321.80529332974,321.80529332974,321.80529332974,321.80529332974,321.80529332974,321.80529332974,321.80529332974,321.80529332974,321.80529332974,321.80529332974,321.80529332974,321.80529332974,321.80529332974,321.80529332974,321.80529332974,321.80529332974,321.80529332974,321.80529332974,321.80529332974,321.80529332974,321.80529332974,321.80529332974,321.80529332974,321.80529332974,321.80529332974,321.80529332974,321.80529332974,321.80529332974,321.80529332974,321.80529332974,321.80529332974,321.80529332974,321.80529332974,321.80529332974,321.80529332974,321.80529332974,321.80529332974,224.39604962166,642.66455890345,-1.8837919242601,563.27236757027,-1.8962878491324,0
0.00053468749999999,2567561460.722,4.5912073674123e-05,0.00015844526712351,6.9229994630747e-05,1.0504256422064,0,0,0,0,0,0,0,0,0,0,0,0,0,0,0,0,0,0,0,0,0,0,0,0,0,0,0,0,0,0,0,0,0,0,0,0,0,0,0,0,0,0,0,0,0,0,0,0,-0.96681814491994,0.15483093318726,-0.22505120161025,5.1831335473985,2.8943516617445,1.0302176826441,-2.9938023287356,1.5235239248096,2.6872890721573,-0.42947367301105,1.8704063292255,-5.3741973775548,1.594011238583,-1.2268538571136,1.867387246589,-3.9405101993136,1.7492422154815,4.3743113750796,-1.0285023932004,-4.4618861996086,1.9150661947149,2.0206160989836,0.026902044202893,-4.2909917260767,3.2130748214397,-2.6569640582451,1.2131669820277,1.0257519370317,-1.4683307347712,1.0161543614318,1.2369463841431,-0.20080074267679,0.80108498784421,-3.8207131835024,-1.5202851805814,-3.2512126331106,5.4077247239383,-2.4237347005438,3.1254128423287,-0.38091625113267,-1.2427524039791,-6.6179179037196,1.0332079489697,-1.9749741725471,-3.4118898611963,1.5735632099312,3.2021861263345,-3.2023817774796,322.260471644,322.260471644,322.260471644,322.260471644,322.260471644,322.260471644,322.260471644,322.260471644,322.260471644,322.260471644,322.260471644,322.260471644,322.260471644,322.260471644,322.260471644,322.260471644,322.260471644,322.260471644,322.260471644,322.260471644,322.260471644,322.260471644,322.260471644,322.260471644,322.260471644,322.260471644,322.260471644,322.260471644,322.260471644,322.260471644,322.260471644,322.260471644,322.260471644,322.260471644,322.260471644,322.260471644,322.260471644,322.260471644,322.260471644,322.260471644,322.260471644,322.260471644,322.260471644,322.260471644,322.260471644,322.260471644,322.260471644,322.260471644,224.36926713122,643.59755136256,-1.8913399486558,564.07191839285,-1.9038430655567,0
0.00053593749999999,2577654248.2195,4.6016944343016e-05,0.00015881577015965,6.9400323820903e-05,1.0505449958676,0,0,0,0,0,0,0,0,0,0,0,0,0,0,0,0,0,0,0,0,0,0,0,0,0,0,0,0,0,0,0,0,0,0,0,0,0,0,0,0,0,0,0,0,0,0,0,0,-0.96667266307784,0.1562739600662,-0.22523831983822,5.182879719131,2.8938026959521,1.0298255196669,-2.9924117230132,1.5231165654266,2.6868427341373,-0.42911353955582,1.8702246502952,-5.3737895960657,1.5946274125547,-1.2258565042979,1.8677302939403,-3.9382225400649,1.7476862956824,4.3732490288657,-1.0284995808958,-4.4616062389191,1.9151111673047,2.021677830206,0.026952100266895,-4.2926777538211,3.2130583979333,-2.6587999063484,1.2131657624044,1.0254770887996,-1.4668070237102,1.0153805673311,1.2360733473187,-0.19997229709347,0.80100683353483,-3.8190071608312,-1.5191766251592,-3.2504898774407,5.4076019854848,-2.421892484353,3.1251961704422,-0.38073984988534,-1.2424758086224,-6.61608199231,1.0331615466577,-1.9747313637889,-3.4120655025126,1.5748889244314,3.2011792433661,-3.200053219734,322.71555438447,322.71555438447,322.71555438447,322.71555438447,322.71555438447,322.71555438447,322.71555438447,322.71555438447,322.71555438447,322.71555438447,322.71555438447,322.71555438447,322.71555438447,322.71555438447,322.71555438447,322.71555438447,322.71555438447,322.71555438447,322.71555438447,322.71555438447,322.71555438447,322.71555438447,322.71555438447,322.71555438447,322.71555438447,322.71555438447,322.71555438447,322.71555438447,322.71555438447,322.71555438447,322.71555438447,322.71555438447,322.71555438447,322.71555438447,322.71555438447,322.71555438447,322.71555438447,322.71555438447,322.71555438447,322.71555438447,322.71555438447,322.71555438447,322.71555438447,322.71555438447,322.71555438447,322.71555438447,322.71555438447,322.71555438447,224.34247677006,644.5303360283,-1.8989011933235,564.87126446196,-1.911411457768,0
0.00053718749999999,2587764521.0653,4.6121805948314e-05,0.00015918627324581,6.9570674166168e-05,1.0506643459686,0,0,0,0,0,0,0,0,0,0,0,0,0,0,0,0,0,0,0,0,0,0,0,0,0,0,0,0,0,0,0,0,0,0,0,0,0,0,0,0,0,0,0,0,0,0,0,0,-0.96652666239584,0.15771611285395,-0.22543043015764,5.1826258926997,2.8932542288881,1.0294334493186,-2.9910228647481,1.5227087758476,2.6863958108376,-0.42875360600572,1.8700409478663,-5.3733804134759,1.5952431718309,-1.2248604334219,1.8680717766056,-3.9359337044752,1.7461298214184,4.3721885160795,-1.028495864414,-4.4613278116597,1.9151529980562,2.0227371866784,0.027002265906482,-4.2943657266451,3.2130396837694,-2.660633044892,1.2131638752455,1.0252013436822,-1.4652849145482,1.014607197977,1.2352007617849,-0.19914323821001,0.80092859949537,-3.8173018718294,-1.5180696371248,-3.2497665204515,5.4074764659519,-2.4200502036778,3.1249786997177,-0.38056395289982,-1.2421987051708,-6.6142442800682,1.0331128289085,-1.9744882443934,-3.4122399193524,1.5762155925701,3.2001748844051,-3.1977263741093,323.17054153876,323.17054153876,323.17054153876,323.17054153876,323.17054153876,323.17054153876,323.17054153876,323.17054153876,323.17054153876,323.17054153876,323.17054153876,323.17054153876,323.17054153876,323.17054153876,323.17054153876,323.17054153876,323.17054153876,323.17054153876,323.17054153876,323.17054153876,323.17054153876,323.17054153876,323.17054153876,323.17054153876,323.17054153876,323.17054153876,323.17054153876,323.17054153876,323.17054153876,323.17054153876,323.17054153876,323.17054153876,323.17054153876,323.17054153876,323.17054153876,323.17054153876,323.17054153876,323.17054153876,323.17054153876,323.17054153876,323.17054153876,323.17054153876,323.17054153876,323.17054153876,323.17054153876,323.17054153876,323.17054153876,323.17054153876,224.31567870012,645.462912988,-1.9064756522905,565.67040585138,-1.9189930194213,0
0.00053843749999999,2597892268.7121,4.6226658368006e-05,0.00015955677638192,6.9741045440665e-05,1.0507836925096,0,0,0,0,0,0,0,0,0,0,0,0,0,0,0,0,0,0,0,0,0,0,0,0,0,0,0,0,0,0,0,0,0,0,0,0,0,0,0,0,0,0,0,0,0,0,0,0,-0.96638014577454,0.15915737431941,-0.22562751450131,5.1823720802206,2.8927062594429,1.0290414587668,-2.9896357691026,1.5223005585266,2.6859482942904,-0.42839388148278,1.869855241432,-5.372969838513,1.5958585096352,-1.2238656329249,1.8684117121347,-3.9336436986096,1.7445728043246,4.3711298286807,-1.0284912472531,-4.4610509246963,1.9151916975658,2.0237941651779,0.027052527350349,-4.2960556199737,3.2130187061144,-2.662463481709,1.2131613228146,1.0249246944556,-1.4637644346974,1.0138342519252,1.2343286143941,-0.19831357175703,0.80085029018701,-3.8155973194496,-1.5169642073032,-3.2490425464558,5.4073482107568,-2.4182078661472,3.1247604305185,-0.38038855546005,-1.2419210944582,-6.6124047586922,1.0330618042147,-1.9742448108379,-3.4124131368359,1.5775432079221,3.1991730285595,-3.1954012308763,323.62543309482,323.62543309482,323.62543309482,323.62543309482,323.62543309482,323.62543309482,323.62543309482,323.62543309482,323.62543309482,323.62543309482,323.62543309482,323.62543309482,323.62543309482,323.62543309482,323.62543309482,323.62543309482,323.62543309482,323.62543309482,323.62543309482,323.62543309482,323.62543309482,323.62543309482,323.62543309482,323.62543309482,323.62543309482,323.62543309482,323.62543309482,323.62543309482,323.62543309482,323.62543309482,323.62543309482,323.62543309482,323.62543309482,323.62543309482,323.62543309482,323.62543309482,323.62543309482,323.62543309482,323.62543309482,323.62543309482,323.62543309482,323.62543309482,323.62543309482,323.62543309482,323.62543309482,323.62543309482,323.62543309482,323.62543309482,224.28887308183,646.39528232734,-1.9140633196024,566.46934263474,-1.9265877441856,0
0.00053968749999999,2608037480.616,4.6331501625983e-05,0.00015992727956792,6.9911437686309e-05,1.0509030354907,0,0,0,0,0,0,0,0,0,0,0,0,0,0,0,0,0,0,0,0,0,0,0,0,0,0,0,0,0,0,0,0,0,0,0,0,0,0,0,0,0,0,0,0,0,0,0,0,-0.96623311623147,0.16059772729562,-0.22582955437104,5.182118293451,2.8921587864097,1.028649536403,-2.9882504501608,1.5218919159661,2.6855001765991,-0.42803437481451,1.8696675503787,-5.3725578798519,1.5964734194737,-1.2228720913765,1.8687501171758,-3.9313525286179,1.7430152559625,4.370072958458,-1.0284857319293,-4.4607755843888,1.9152272767301,2.0248487630686,0.027102871062802,-4.2977474094399,3.2129954917816,-2.6642912246293,1.2131581074639,1.0246471346078,-1.4622456098858,1.0130617275494,1.2334568918302,-0.19748330323406,0.80077191016701,-3.8138935067198,-1.5158603263959,-3.2483179397764,5.4072172639822,-2.4163654792191,3.1245413633853,-0.38021365292764,-1.241642977872,-6.6105634200787,1.033008480965,-1.9740010585361,-3.4125851800167,1.5788717641625,3.1981736548366,-3.1930777798988,324.08022904101,324.08022904101,324.08022904101,324.08022904101,324.08022904101,324.08022904101,324.08022904101,324.08022904101,324.08022904101,324.08022904101,324.08022904101,324.08022904101,324.08022904101,324.08022904101,324.08022904101,324.08022904101,324.08022904101,324.08022904101,324.08022904101,324.08022904101,324.08022904101,324.08022904101,324.08022904101,324.08022904101,324.08022904101,324.08022904101,324.08022904101,324.08022904101,324.08022904101,324.08022904101,324.08022904101,324.08022904101,324.08022904101,324.08022904101,324.08022904101,324.08022904101,324.08022904101,324.08022904101,324.08022904101,324.08022904101,324.08022904101,324.08022904101,324.08022904101,324.08022904101,324.08022904101,324.08022904101,324.08022904101,324.08022904101,224.26206007409,647.3274441306,-1.9216641892725,567.26807488558,-1.934195625711,0
0.00054093749999999,2618200146.2359,4.6436335614928e-05,0.00016029778280373,7.0081850705889e-05,1.0510223749121,0,0,0,0,0,0,0,0,0,0,0,0,0,0,0,0,0,0,0,0,0,0,0,0,0,0,0,0,0,0,0,0,0,0,0,0,0,0,0,0,0,0,0,0,0,0,0,0,-0.96608557689958,0.16203715472218,-0.22603653077439,5.1818645437897,2.8916118084708,1.0282576718688,-2.986866920932,1.5214828507147,2.6850514501361,-0.42767509453233,1.8694778939914,-5.3721445461044,1.5970878951303,-1.2218797974505,1.8690870075268,-3.929060200694,1.7414571878103,4.3690178969997,-1.0284793199669,-4.4605017965548,1.9152597467823,2.0259009784104,0.027153283748277,-4.2994410708093,3.21297006724,-2.6661162814359,1.2131542316487,1.0243686583614,-1.4607284641961,1.0122896230476,1.2325855807929,-0.19665243792986,0.80069346408592,-3.8121904367498,-1.5147579849667,-3.2475926847467,5.4070836683918,-2.4145230501798,3.1243214990514,-0.38003924071763,-1.2413643573059,-6.60872025624,1.0329528674342,-1.9737569818806,-3.4127560738297,1.5802012550899,3.197176742123,-3.1907560106322,324.53492936602,324.53492936602,324.53492936602,324.53492936602,324.53492936602,324.53492936602,324.53492936602,324.53492936602,324.53492936602,324.53492936602,324.53492936602,324.53492936602,324.53492936602,324.53492936602,324.53492936602,324.53492936602,324.53492936602,324.53492936602,324.53492936602,324.53492936602,324.53492936602,324.53492936602,324.53492936602,324.53492936602,324.53492936602,324.53492936602,324.53492936602,324.53492936602,324.53492936602,324.53492936602,324.53492936602,324.53492936602,324.53492936602,324.53492936602,324.53492936602,324.53492936602,324.53492936602,324.53492936602,324.53492936602,324.53492936602,324.53492936602,324.53492936602,324.53492936602,324.53492936602,324.53492936602,324.53492936602,324.53492936602,324.53492936602,224.2352398339,648.25939848082,-1.9292782553106,568.06660267734,-1.9418166576574,0
0.00054218749999999,2628380255.033,4.6541160317029e-05,0.00016066828608929,7.0252284466816e-05,1.0511417107739,0,0,0,0,0,0,0,0,0,0,0,0,0,0,0,0,0,0,0,0,0,0,0,0,0,0,0,0,0,0,0,0,0,0,0,0,0,0,0,0,0,0,0,0,0,0,0,0,-0.96593753102768,0.16347563967822,-0.2262484242051,5.1816108422788,2.8910653241741,1.0278658560791,-2.9854851933596,1.5210733653582,2.6846021075254,-0.42731604886957,1.8692862914646,-5.3717298458076,1.5977019306667,-1.2208887399222,1.8694223981779,-3.9267667210808,1.7398986112503,4.3679646356605,-1.0284720118745,-4.4602295664404,1.9152891193132,2.0269508099508,0.027203752354944,-4.3011365799682,3.2129424586459,-2.6679386598233,1.2131496979338,1.0240892606915,-1.4592130200965,1.0115179364413,1.2317146679933,-0.19582098093799,0.80061495668457,-3.8104881127358,-1.5136571734417,-3.2468667657114,5.40694746546,-2.4126805861564,3.1241008384361,-0.37986531429566,-1.2410852351275,-6.6068752593189,1.0328949717892,-1.9735125742554,-3.4129258430602,1.5815316746342,3.1961822691751,-3.1884359121014,324.98953405889,324.98953405889,324.98953405889,324.98953405889,324.98953405889,324.98953405889,324.98953405889,324.98953405889,324.98953405889,324.98953405889,324.98953405889,324.98953405889,324.98953405889,324.98953405889,324.98953405889,324.98953405889,324.98953405889,324.98953405889,324.98953405889,324.98953405889,324.98953405889,324.98953405889,324.98953405889,324.98953405889,324.98953405889,324.98953405889,324.98953405889,324.98953405889,324.98953405889,324.98953405889,324.98953405889,324.98953405889,324.98953405889,324.98953405889,324.98953405889,324.98953405889,324.98953405889,324.98953405889,324.98953405889,324.98953405889,324.98953405889,324.98953405889,324.98953405889,324.98953405889,324.98953405889,324.98953405889,324.98953405889,324.98953405889,224.20841251643,649.19114546008,-1.9369055117018,568.86492608341,-1.9494508336696,0
0.00054343749999999,2638577796.4701,4.664597581776e-05,0.0001610387894245,7.0422739125817e-05,1.0512610430762,0,0,0,0,0,0,0,0,0,0,0,0,0,0,0,0,0,0,0,0,0,0,0,0,0,0,0,0,0,0,0,0,0,0,0,0,0,0,0,0,0,0,0,0,0,0,0,0,-0.9657889819798,0.16491316540689,-0.22646521458296,5.1813571996087,2.8905193319209,1.0274740812309,-2.9841052783383,1.5206634625165,2.6841521416047,-0.42695724576061,1.8690927619039,-5.3713137874415,1.5983155204187,-1.2198989076877,1.8697563033479,-3.9244720960808,1.7383395375292,4.3669131655412,-1.0284638071454,-4.4599588987022,1.9153154063018,2.0279982570964,0.027254264078869,-4.3028339129129,3.2129126918418,-2.6697583673832,1.213144509006,1.0238089373398,-1.4576992984805,1.0107466655793,1.2308441401305,-0.19498893717098,0.80053639278982,-3.8087865379778,-1.5125578820906,-3.246140167072,5.4068086953964,-2.410838094121,3.1238793826195,-0.37969186917952,-1.2408056141498,-6.6050284216133,1.0328348020757,-1.9732678280788,-3.4130945123095,1.5828630168651,3.1951902146115,-3.1861174729006,325.44404310904,325.44404310904,325.44404310904,325.44404310904,325.44404310904,325.44404310904,325.44404310904,325.44404310904,325.44404310904,325.44404310904,325.44404310904,325.44404310904,325.44404310904,325.44404310904,325.44404310904,325.44404310904,325.44404310904,325.44404310904,325.44404310904,325.44404310904,325.44404310904,325.44404310904,325.44404310904,325.44404310904,325.44404310904,325.44404310904,325.44404310904,325.44404310904,325.44404310904,325.44404310904,325.44404310904,325.44404310904,325.44404310904,325.44404310904,325.44404310904,325.44404310904,325.44404310904,325.44404310904,325.44404310904,325.44404310904,325.44404310904,325.44404310904,325.44404310904,325.44404310904,325.44404310904,325.44404310904,325.44404310904,325.44404310904,224.18157827475,650.12268514971,-1.9445459524392,569.66304517712,-1.9570981473911,0
0.00054468749999999,2648792760.0113,4.6750781962546e-05,0.0001614092928093,7.059321440072e-05,1.0513803718193,0,0,0,0,0,0,0,0,0,0,0,0,0,0,0,0,0,0,0,0,0,0,0,0,0,0,0,0,0,0,0,0,0,0,0,0,0,0,0,0,0,0,0,0,0,0,0,0,-0.96563993323196,0.16634971535847,-0.22668688121498,5.1811036261237,2.8899738299509,1.0270823408274,-2.9827271856773,1.5202531448333,2.6837015455286,-0.42659869284236,1.868897324332,-5.3708963794153,1.598928658995,-1.218910289725,1.8700887365185,-3.9221763320506,1.7367799777564,4.3658634774623,-1.0284547042405,-4.4596897973385,1.9153386201414,2.0290433199663,0.027304806364509,-4.3045330457462,3.2128807923751,-2.67157541156,1.2131386676876,1.023527684833,-1.4561873186708,1.0099758081377,1.2299739839926,-0.19415631137507,0.80045777731172,-3.807085715882,-1.5114601010159,-3.2454128732669,5.4066673971447,-2.4089955808949,3.1236571328572,-0.37951890091129,-1.2405254975962,-6.6031797355819,1.0327723662223,-1.9730227348289,-3.4132621059372,1.58419527601,3.1942005569035,-3.1838006811904,325.89845650622,325.89845650622,325.89845650622,325.89845650622,325.89845650622,325.89845650622,325.89845650622,325.89845650622,325.89845650622,325.89845650622,325.89845650622,325.89845650622,325.89845650622,325.89845650622,325.89845650622,325.89845650622,325.89845650622,325.89845650622,325.89845650622,325.89845650622,325.89845650622,325.89845650622,325.89845650622,325.89845650622,325.89845650622,325.89845650622,325.89845650622,325.89845650622,325.89845650622,325.89845650622,325.89845650622,325.89845650622,325.89845650622,325.89845650622,325.89845650622,325.89845650622,325.89845650622,325.89845650622,325.89845650622,325.89845650622,325.89845650622,325.89845650622,325.89845650622,325.89845650622,325.89845650622,325.89845650622,325.89845650622,325.89845650622,224.15473725969,651.05401763049,-1.9521995715342,570.46096003171,-1.9647585924909,0
0.00054593749999999,2659025135.1211,4.685557861018e-05,0.00016177979624359,7.0763710034288e-05,1.0514996970032,0,0,0,0,0,0,0,0,0,0,0,0,0,0,0,0,0,0,0,0,0,0,0,0,0,0,0,0,0,0,0,0,0,0,0,0,0,0,0,0,0,0,0,0,0,0,0,0,-0.96549038837445,0.16778527321741,-0.22691340275862,5.180850131831,2.8894288163183,1.0266906296673,-2.9813509242077,1.5198424149747,2.6832503127254,-0.42624039745288,1.8686999977047,-5.3704776300369,1.5995413412668,-1.2179228751832,1.8704197104917,-3.919879435394,1.7352199429044,4.3648155619308,-1.0284447006052,-4.459422265746,1.9153587736667,2.0300859993472,0.027355366908504,-4.3062339546277,3.2128467855284,-2.6733897996002,1.2131321769382,1.0232455004837,-1.4546770985351,1.0092053616244,1.2291041864499,-0.19332310814484,0.80037911524189,-3.8053856499532,-1.5103638201559,-3.2446848688817,5.4065236084538,-2.4071530531633,3.1234340905994,-0.37934640509974,-1.2402448890607,-6.601329193815,1.0327076720426,-1.9727772851157,-3.4134286480657,1.5855284464796,3.1932132743619,-3.1814855247009,326.3527742405,326.3527742405,326.3527742405,326.3527742405,326.3527742405,326.3527742405,326.3527742405,326.3527742405,326.3527742405,326.3527742405,326.3527742405,326.3527742405,326.3527742405,326.3527742405,326.3527742405,326.3527742405,326.3527742405,326.3527742405,326.3527742405,326.3527742405,326.3527742405,326.3527742405,326.3527742405,326.3527742405,326.3527742405,326.3527742405,326.3527742405,326.3527742405,326.3527742405,326.3527742405,326.3527742405,326.3527742405,326.3527742405,326.3527742405,326.3527742405,326.3527742405,326.3527742405,326.3527742405,326.3527742405,326.3527742405,326.3527742405,326.3527742405,326.3527742405,326.3527742405,326.3527742405,326.3527742405,326.3527742405,326.3527742405,224.12788961977,651.98514298293,-1.9598663629505,571.25867072046,-1.972432162614,0
0.00054718749999999,2669274911.2641,4.6960365911518e-05,0.0001621502997273,7.0934226305125e-05,1.0516190186281,0,0,0,0,0,0,0,0,0,0,0,0,0,0,0,0,0,0,0,0,0,0,0,0,0,0,0,0,0,0,0,0,0,0,0,0,0,0,0,0,0,0,0,0,0,0,0,0,-0.96534035111728,0.16921982293939,-0.22714475714545,5.1805967264127,2.8888842888837,1.0262989438363,-2.9799765018786,1.5194312756249,2.6827984369338,-0.42588236663234,1.8685008009277,-5.3700575474574,1.6001535623469,-1.2169366534713,1.8707492374537,-3.9175814125192,1.7336594438568,4.3637694091218,-1.0284337926832,-4.4591563067695,1.9153758801897,2.0311262966841,0.02740593366123,-4.3079366156971,3.2128106963349,-2.6752015384847,1.2131250398673,1.0229623823896,-1.4531686545997,1.0084353233803,1.2282347345315,-0.19248933193872,0.80030041165399,-3.8036863437717,-1.509269029284,-3.24395613875,5.4063773659367,-2.4053105174799,3.1232102575573,-0.3791743774704,-1.2399637924499,-6.5994767889451,1.0326407272569,-1.9725314687573,-3.4135941625701,1.5868625229088,3.1922283451298,-3.1791719907325,326.80699630233,326.80699630233,326.80699630233,326.80699630233,326.80699630233,326.80699630233,326.80699630233,326.80699630233,326.80699630233,326.80699630233,326.80699630233,326.80699630233,326.80699630233,326.80699630233,326.80699630233,326.80699630233,326.80699630233,326.80699630233,326.80699630233,326.80699630233,326.80699630233,326.80699630233,326.80699630233,326.80699630233,326.80699630233,326.80699630233,326.80699630233,326.80699630233,326.80699630233,326.80699630233,326.80699630233,326.80699630233,326.80699630233,326.80699630233,326.80699630233,326.80699630233,326.80699630233,326.80699630233,326.80699630233,326.80699630233,326.80699630233,326.80699630233,326.80699630233,326.80699630233,326.80699630233,326.80699630233,326.80699630233,326.80699630233,224.10103550109,652.91606128749,-1.967546320542,572.05617731673,-1.980118851358,0
0.00054843749999999,2679542077.9042,4.706514376465e-05,0.00016252080326032,7.1104763028782e-05,1.0517383366943,0,0,0,0,0,0,0,0,0,0,0,0,0,0,0,0,0,0,0,0,0,0,0,0,0,0,0,0,0,0,0,0,0,0,0,0,0,0,0,0,0,0,0,0,0,0,0,0,-0.96518982527097,0.17065334875934,-0.22738092160595,5.1803434192466,2.8883402452979,1.0259072807343,-2.9786039255013,1.5190197294658,2.6823459122051,-0.42552460713192,1.8682997528299,-5.3696361398333,1.6007653176116,-1.215951613995,1.8710773289383,-3.9152822699472,1.7320984912335,4.3627250088542,-1.0284219758881,-4.4588919224831,1.9153899534975,2.0321642141455,0.027456494816578,-4.3096410052312,3.2127725495704,-2.6770106350306,1.2131172597464,1.0226783294571,-1.4516620018436,1.0076656905714,1.2273656153513,-0.19165498708775,0.80022167168974,-3.8019878010836,-1.5081757179686,-3.2432266676957,5.4062287049843,-2.4034679802683,3.1229856355112,-0.37900281371046,-1.2396822120059,-6.5976225139082,1.0325715394313,-1.9722852746818,-3.4137586729822,1.5881975000864,3.1912457471709,-3.1768600661376,327.26112268246,327.26112268246,327.26112268246,327.26112268246,327.26112268246,327.26112268246,327.26112268246,327.26112268246,327.26112268246,327.26112268246,327.26112268246,327.26112268246,327.26112268246,327.26112268246,327.26112268246,327.26112268246,327.26112268246,327.26112268246,327.26112268246,327.26112268246,327.26112268246,327.26112268246,327.26112268246,327.26112268246,327.26112268246,327.26112268246,327.26112268246,327.26112268246,327.26112268246,327.26112268246,327.26112268246,327.26112268246,327.26112268246,327.26112268246,327.26112268246,327.26112268246,327.26112268246,327.26112268246,327.26112268246,327.26112268246,327.26112268246,327.26112268246,327.26112268246,327.26112268246,327.26112268246,327.26112268246,327.26112268246,327.26112268246,224.07417504714,653.84677262482,-1.9752394382929,572.85347989378,-1.9878186523773,0
0.00054968749999999,2689826624.5046,4.7169912064084e-05,0.00016289130684256,7.1275320015562e-05,1.051857651202,0,0,0,0,0,0,0,0,0,0,0,0,0,0,0,0,0,0,0,0,0,0,0,0,0,0,0,0,0,0,0,0,0,0,0,0,0,0,0,0,0,0,0,0,0,0,0,0,-0.96503881475598,0.17208583524425,-0.22762187259847,5.1800902194073,2.8877966829918,1.0255156390434,-2.9772332009767,1.5186077791783,2.6818927329195,-0.42516712541056,1.8680968721989,-5.3692134151742,1.6013766026748,-1.2149677463737,1.8714039959136,-3.9129820142242,1.730537095499,4.3616823505752,-1.02840924464,-4.4586291143326,1.915401007889,2.0331997545619,0.027507038818022,-4.3113470995036,3.2127323697957,-2.6788170957461,1.2131088400151,1.0223933413848,-1.4501571539342,1.0068964601969,1.2264968162102,-0.19082007780685,0.80014290056424,-3.800290025727,-1.5070838755868,-3.2424964407858,5.4060776598796,-2.4016254478286,3.122760226449,-0.3788317095839,-1.2394001522412,-6.595766361745,1.0325001160259,-1.9720386910903,-3.4139222025193,1.5895333730297,3.1902654582641,-3.1745497373417,327.71515337197,327.71515337197,327.71515337197,327.71515337197,327.71515337197,327.71515337197,327.71515337197,327.71515337197,327.71515337197,327.71515337197,327.71515337197,327.71515337197,327.71515337197,327.71515337197,327.71515337197,327.71515337197,327.71515337197,327.71515337197,327.71515337197,327.71515337197,327.71515337197,327.71515337197,327.71515337197,327.71515337197,327.71515337197,327.71515337197,327.71515337197,327.71515337197,327.71515337197,327.71515337197,327.71515337197,327.71515337197,327.71515337197,327.71515337197,327.71515337197,327.71515337197,327.71515337197,327.71515337197,327.71515337197,327.71515337197,327.71515337197,327.71515337197,327.71515337197,327.71515337197,327.71515337197,327.71515337197,327.71515337197,327.71515337197,224.04730839887,654.77727707597,-1.9829457101337,573.650578525,-1.9955315593123,0
0.00055093749999999,2700128540.5265,4.7274670777227e-05,0.00016326181047392,7.1445897208807e-05,1.0519769621512,0,0,0,0,0,0,0,0,0,0,0,0,0,0,0,0,0,0,0,0,0,0,0,0,0,0,0,0,0,0,0,0,0,0,0,0,0,0,0,0,0,0,0,0,0,0,0,0,-0.96488732359942,0.1735172673123,-0.2278675857898,5.1798371356888,2.8872535991555,1.0251240187143,-2.9758643333055,1.5181954274317,2.6814388937991,-0.42480992764162,1.8678921777856,-5.3687893813712,1.6019874133772,-1.2139850404293,1.871729248814,-3.9106806519416,1.7289752669475,4.3606414233281,-1.0283955923813,-4.4583678831312,1.9154090581921,2.0342329214336,0.027557554353314,-4.3130548747942,3.2126901813756,-2.6806209268342,1.2130997842844,1.0221074186607,-1.4486541232551,1.0061276290832,1.2256283246134,-0.1899846082086,0.80006410356207,-3.7985930216518,-1.5059934913185,-3.2417654433283,5.4059242638186,-2.3997829263453,3.1225340325607,-0.37866106092242,-1.2391176179046,-6.5939083256479,1.0324264643907,-1.9717917054807,-3.4140847740649,1.5908701369922,3.1892874559913,-3.1722409903409,328.16908836226,328.16908836226,328.16908836226,328.16908836226,328.16908836226,328.16908836226,328.16908836226,328.16908836226,328.16908836226,328.16908836226,328.16908836226,328.16908836226,328.16908836226,328.16908836226,328.16908836226,328.16908836226,328.16908836226,328.16908836226,328.16908836226,328.16908836226,328.16908836226,328.16908836226,328.16908836226,328.16908836226,328.16908836226,328.16908836226,328.16908836226,328.16908836226,328.16908836226,328.16908836226,328.16908836226,328.16908836226,328.16908836226,328.16908836226,328.16908836226,328.16908836226,328.16908836226,328.16908836226,328.16908836226,328.16908836226,328.16908836226,328.16908836226,328.16908836226,328.16908836226,328.16908836226,328.16908836226,328.16908836226,328.16908836226,224.0204356944,655.70757472262,-1.9906651299465,574.44747328382,-2.00325756578,0
0.00055218749999999,2710447815.4292,4.7379419932519e-05,0.0001636323141543,7.1616494664359e-05,1.0520962695422,0,0,0,0,0,0,0,0,0,0,0,0,0,0,0,0,0,0,0,0,0,0,0,0,0,0,0,0,0,0,0,0,0,0,0,0,0,0,0,0,0,0,0,0,0,0,0,0,-0.9647353559297,0.17494763025873,-0.22811803603143,5.1795841766268,2.8867109907353,1.0247324209584,-2.974497326546,1.5177826768765,2.6809843899121,-0.4244530197173,1.8676856883038,-5.3683640462187,1.6025977457873,-1.2130034861409,1.8720530975572,-3.9083781897507,1.7274130156409,4.3596022157442,-1.0283810115851,-4.4581082290091,1.9154141197783,2.0352637189371,0.027608030350798,-4.3147643074063,3.2126460084872,-2.6824221341884,1.2130900963487,1.0218205625619,-1.4471529208933,1.0053591938876,1.224760128269,-0.18914858231113,0.79998528603195,-3.7968967929337,-1.5049045541314,-3.2410336608396,5.4057685489194,-2.3979404218911,3.1223070561721,-0.37849086359605,-1.2388346139713,-6.5920483990017,1.0323505917477,-1.971544304663,-3.4142464101303,1.5922077874481,3.1883117177339,-3.1699338107084,328.62292764505,328.62292764505,328.62292764505,328.62292764505,328.62292764505,328.62292764505,328.62292764505,328.62292764505,328.62292764505,328.62292764505,328.62292764505,328.62292764505,328.62292764505,328.62292764505,328.62292764505,328.62292764505,328.62292764505,328.62292764505,328.62292764505,328.62292764505,328.62292764505,328.62292764505,328.62292764505,328.62292764505,328.62292764505,328.62292764505,328.62292764505,328.62292764505,328.62292764505,328.62292764505,328.62292764505,328.62292764505,328.62292764505,328.62292764505,328.62292764505,328.62292764505,328.62292764505,328.62292764505,328.62292764505,328.62292764505,328.62292764505,328.62292764505,328.62292764505,328.62292764505,328.62292764505,328.62292764505,328.62292764505,328.62292764505,223.99355706903,656.63766564737,-1.9983976916632,575.24416424376,-2.0109966654259,0
0.00055343749999999,2720784438.6689,4.7484159425948e-05,0.0001640028178836,7.1787112195843e-05,1.0522155733752,0,0,0,0,0,0,0,0,0,0,0,0,0,0,0,0,0,0,0,0,0,0,0,0,0,0,0,0,0,0,0,0,0,0,0,0,0,0,0,0,0,0,0,0,0,0,0,0,-0.96458291597438,0.17637690978316,-0.22837319733015,5.1793313505116,2.88616885442,1.024340848212,-2.9731321838914,1.5173695301347,2.6805292166861,-0.42409640725388,1.8674774224428,-5.3679374173775,1.603207596181,-1.2120230736938,1.8723755515866,-3.9060746343538,1.7258503514411,4.3585647160211,-1.0283654937865,-4.4578501514588,1.9154162085805,2.0362921519107,0.027658455973659,-4.3164753736406,3.212599875143,-2.6842207233487,1.213079780189,1.021532775136,-1.4456535567281,1.0045911510942,1.2238922151319,-0.18831200404833,0.7999064533845,-3.7952013437576,-1.5038170527803,-3.2403010791054,5.4056105462649,-2.396097940433,3.1220792997912,-0.37832111353883,-1.2385511455978,-6.5901865753646,1.0322725052073,-1.9712964748216,-3.4144071328534,1.5935463201213,3.1873382206589,-3.1676281835969,329.07667121234,329.07667121234,329.07667121234,329.07667121234,329.07667121234,329.07667121234,329.07667121234,329.07667121234,329.07667121234,329.07667121234,329.07667121234,329.07667121234,329.07667121234,329.07667121234,329.07667121234,329.07667121234,329.07667121234,329.07667121234,329.07667121234,329.07667121234,329.07667121234,329.07667121234,329.07667121234,329.07667121234,329.07667121234,329.07667121234,329.07667121234,329.07667121234,329.07667121234,329.07667121234,329.07667121234,329.07667121234,329.07667121234,329.07667121234,329.07667121234,329.07667121234,329.07667121234,329.07667121234,329.07667121234,329.07667121234,329.07667121234,329.07667121234,329.07667121234,329.07667121234,329.07667121234,329.07667121234,329.07667121234,329.07667121234,223.9666726553,657.56754993387,-2.0061433891495,576.04065147849,-2.0187488518615,0
0.00055468749999999,2731138399.6991,4.7588889207924e-05,0.00016437332166169,7.1957749716931e-05,1.0523348736504,0,0,0,0,0,0,0,0,0,0,0,0,0,0,0,0,0,0,0,0,0,0,0,0,0,0,0,0,0,0,0,0,0,0,0,0,0,0,0,0,0,0,0,0,0,0,0,0,-0.96443000805876,0.1778050920153,-0.22863304282918,5.179078665411,2.8856271866301,1.023949304108,-2.9717689076829,1.5169559897922,2.6800733699162,-0.42374009559601,1.8672673988722,-5.3675095023813,1.6038169610394,-1.2110437934874,1.8726966198983,-3.9037699925003,1.7242872839893,4.3575289119044,-1.0283490296118,-4.4575936493321,1.9154153411055,2.0373182258468,0.027708820616997,-4.3181880497845,3.2125518052075,-2.6860166994894,1.2130688399782,1.0212440591869,-1.4441560394662,1.0038234970151,1.2230245734233,-0.18747487727833,0.79982761108892,-3.7935066784229,-1.5027309758007,-3.2395676842134,5.4054502859317,-2.3942554878335,3.1218507660911,-0.37815180674706,-1.2382672181061,-6.5883228484687,1.032192211766,-1.971048201565,-3.4145669639809,1.5948857309919,3.1863669417129,-3.165324093753,329.53031905647,329.53031905647,329.53031905647,329.53031905647,329.53031905647,329.53031905647,329.53031905647,329.53031905647,329.53031905647,329.53031905647,329.53031905647,329.53031905647,329.53031905647,329.53031905647,329.53031905647,329.53031905647,329.53031905647,329.53031905647,329.53031905647,329.53031905647,329.53031905647,329.53031905647,329.53031905647,329.53031905647,329.53031905647,329.53031905647,329.53031905647,329.53031905647,329.53031905647,329.53031905647,329.53031905647,329.53031905647,329.53031905647,329.53031905647,329.53031905647,329.53031905647,329.53031905647,329.53031905647,329.53031905647,329.53031905647,329.53031905647,329.53031905647,329.53031905647,329.53031905647,329.53031905647,329.53031905647,329.53031905647,329.53031905647,223.93978258273,658.49722766713,-2.0139022162839,576.83693506178,-2.0265141187166,0
0.00055593749999999,2741509687.9693,4.7693609237368e-05,0.00016474382548846,7.2128407156833e-05,1.052454170368,0,0,0,0,0,0,0,0,0,0,0,0,0,0,0,0,0,0,0,0,0,0,0,0,0,0,0,0,0,0,0,0,0,0,0,0,0,0,0,0,0,0,0,0,0,0,0,0,-0.96427663660154,0.17923216353535,-0.22889754479612,5.1788261291877,2.8850859835179,1.023557793447,-2.9704074994334,1.5165420583923,2.6796168457641,-0.42338408982522,1.8670556362489,-5.3670803086344,1.6044258370334,-1.2100656361411,1.8730163110692,-3.9014642710039,1.7227238226841,4.3564947906902,-1.0283316088019,-4.457338720847,1.9154115344465,2.0383419468852,0.027759113901514,-4.3199023121233,3.2125018224167,-2.6878100674059,1.2130572800881,1.020954418261,-1.4426603766822,1.0030562277899,1.2221571916433,-0.18663720579301,0.79974876466964,-3.7918128013433,-1.5016463115045,-3.2388334625611,5.4052877970201,-2.3924130698609,3.1216214578889,-0.37798293928361,-1.2379828369533,-6.5864572122548,1.0321097182982,-1.9707994699604,-3.4147259248594,1.5962260162941,3.1853978576286,-3.1630215255182,329.98387117003,329.98387117003,329.98387117003,329.98387117003,329.98387117003,329.98387117003,329.98387117003,329.98387117003,329.98387117003,329.98387117003,329.98387117003,329.98387117003,329.98387117003,329.98387117003,329.98387117003,329.98387117003,329.98387117003,329.98387117003,329.98387117003,329.98387117003,329.98387117003,329.98387117003,329.98387117003,329.98387117003,329.98387117003,329.98387117003,329.98387117003,329.98387117003,329.98387117003,329.98387117003,329.98387117003,329.98387117003,329.98387117003,329.98387117003,329.98387117003,329.98387117003,329.98387117003,329.98387117003,329.98387117003,329.98387117003,329.98387117003,329.98387117003,329.98387117003,329.98387117003,329.98387117003,329.98387117003,329.98387117003,329.98387117003,223.91288697793,659.42669893365,-2.0216741669392,577.63301506758,-2.0342924596121,0
0.00055718749999999,2751898292.9247,4.7798319832565e-05,0.0001651143293638,7.2299085103378e-05,1.0525734635283,0,0,0,0,0,0,0,0,0,0,0,0,0,0,0,0,0,0,0,0,0,0,0,0,0,0,0,0,0,0,0,0,0,0,0,0,0,0,0,0,0,0,0,0,0,0,0,0,-0.96412280610997,0.18065811140161,-0.22916667460638,5.1785737495115,2.8845452409536,1.0231663221555,-2.9690479598384,1.5161277384237,2.6791596407375,-0.42302839476402,1.8668421532163,-5.3666498434164,1.6050342210224,-1.2090885924862,1.8733346332777,-3.8991574767441,1.7211599766704,4.3554623392008,-1.0283132202476,-4.4570853635848,1.9154048062888,2.0393633217911,0.027809325667204,-4.3216181369534,3.2124499503841,-2.6896008315082,1.2130451050882,1.020663856623,-1.4411665748463,1.0022893393814,1.2212900585648,-0.18579899332152,0.79966991970095,-3.7901197170491,-1.5005630479757,-3.2380984008615,5.4051231076773,-2.3905706921865,3.1213913781296,-0.3778145072706,-1.23769800772,-6.5845896608939,1.032025031568,-1.9705502645644,-3.4148840364212,1.5975671725186,3.1844309449072,-3.1607204628411,330.43732754592,330.43732754592,330.43732754592,330.43732754592,330.43732754592,330.43732754592,330.43732754592,330.43732754592,330.43732754592,330.43732754592,330.43732754592,330.43732754592,330.43732754592,330.43732754592,330.43732754592,330.43732754592,330.43732754592,330.43732754592,330.43732754592,330.43732754592,330.43732754592,330.43732754592,330.43732754592,330.43732754592,330.43732754592,330.43732754592,330.43732754592,330.43732754592,330.43732754592,330.43732754592,330.43732754592,330.43732754592,330.43732754592,330.43732754592,330.43732754592,330.43732754592,330.43732754592,330.43732754592,330.43732754592,330.43732754592,330.43732754592,330.43732754592,330.43732754592,330.43732754592,330.43732754592,330.43732754592,330.43732754592,330.43732754592,223.88598596456,660.3559638217,-2.0294592349997,578.42889156998,-2.0420838681561,0
0.00055843749999999,2762304204.006,4.7903020506442e-05,0.00016548483328757,7.2469782670748e-05,1.0526927531315,0,0,0,0,0,0,0,0,0,0,0,0,0,0,0,0,0,0,0,0,0,0,0,0,0,0,0,0,0,0,0,0,0,0,0,0,0,0,0,0,0,0,0,0,0,0,0,0,-0.96396852117997,0.18208292317217,-0.22944040273019,5.1783215339037,2.8840049545258,1.022774897236,-2.9676902888647,1.5157130323194,2.6787017517551,-0.42267301498402,1.8666269684192,-5.3662181138511,1.6056421100338,-1.2081126536208,1.8736515943449,-3.8968496166293,1.7195957548587,4.3544315437829,-1.0282938520394,-4.4568335745702,1.9153951749237,2.0403823579654,0.027859445968541,-4.3233355004938,3.2123962126304,-2.6913889957852,1.2130323197529,1.0203723792285,-1.439674639415,1.0015228275829,1.2204231633177,-0.18496024354453,0.79959108180667,-3.7884274301702,-1.4994811730751,-3.2373624862172,5.4049562451454,-2.3887283603927,3.1211605299214,-0.37764650691685,-1.2374127360704,-6.5827201886877,1.0319381582295,-1.9703005695017,-3.4150413191818,1.5989091964393,3.1834661798219,-3.158420889298,330.89068817733,330.89068817733,330.89068817733,330.89068817733,330.89068817733,330.89068817733,330.89068817733,330.89068817733,330.89068817733,330.89068817733,330.89068817733,330.89068817733,330.89068817733,330.89068817733,330.89068817733,330.89068817733,330.89068817733,330.89068817733,330.89068817733,330.89068817733,330.89068817733,330.89068817733,330.89068817733,330.89068817733,330.89068817733,330.89068817733,330.89068817733,330.89068817733,330.89068817733,330.89068817733,330.89068817733,330.89068817733,330.89068817733,330.89068817733,330.89068817733,330.89068817733,330.89068817733,330.89068817733,330.89068817733,330.89068817733,330.89068817733,330.89068817733,330.89068817733,330.89068817733,330.89068817733,330.89068817733,330.89068817733,330.89068817733,223.85907966325,661.28502242145,-2.0372574142857,579.22456464329,-2.0498883379926,0
0.00055968749999999,2772727410.6487,4.8007711606475e-05,0.00016585533725965,7.2640500499368e-05,1.0528120391779,0,0,0,0,0,0,0,0,0,0,0,0,0,0,0,0,0,0,0,0,0,0,0,0,0,0,0,0,0,0,0,0,0,0,0,0,0,0,0,0,0,0,0,0,0,0,0,0,-0.96381378648831,0.18350658691547,-0.22971869873391,5.1780694897227,2.8834651195402,1.0223835267288,-2.9663344856855,1.5152979424416,2.678243176109,-0.42231795481272,1.8664101004983,-5.3657851269179,1.6062495012593,-1.2071378108797,1.8739672017363,-3.8945406976744,1.7180311658982,4.3534023903032,-1.028273491494,-4.4565833501772,1.9153826592457,2.041399063412,0.027909465066836,-4.3250543790364,3.2123406325863,-2.6931745638063,1.2130189290641,1.0200799917002,-1.4381845748143,1.0007566880107,1.2195564953679,-0.1841209600916,0.7995122566527,-3.7867359454408,-1.4984006744289,-3.2366257060986,5.4047872357534,-2.3868860799782,3.1209289165067,-0.37747893449859,-1.2371270277456,-6.5808487902739,1.0318491048184,-1.9700503684759,-3.415197793213,1.6002520851063,3.1825035384124,-3.1561227881043,331.34395305771,331.34395305771,331.34395305771,331.34395305771,331.34395305771,331.34395305771,331.34395305771,331.34395305771,331.34395305771,331.34395305771,331.34395305771,331.34395305771,331.34395305771,331.34395305771,331.34395305771,331.34395305771,331.34395305771,331.34395305771,331.34395305771,331.34395305771,331.34395305771,331.34395305771,331.34395305771,331.34395305771,331.34395305771,331.34395305771,331.34395305771,331.34395305771,331.34395305771,331.34395305771,331.34395305771,331.34395305771,331.34395305771,331.34395305771,331.34395305771,331.34395305771,331.34395305771,331.34395305771,331.34395305771,331.34395305771,331.34395305771,331.34395305771,331.34395305771,331.34395305771,331.34395305771,331.34395305771,331.34395305771,331.34395305771,223.83216819179,662.21387482521,-2.0450686986702,580.020034362,-2.0577058627179,0
0.00056093749999999,2783167902.2824,4.8112392899656e-05,0.00016622584127991,7.2811238168644e-05,1.0529313216676,0,0,0,0,0,0,0,0,0,0,0,0,0,0,0,0,0,0,0,0,0,0,0,0,0,0,0,0,0,0,0,0,0,0,0,0,0,0,0,0,0,0,0,0,0,0,0,0,-0.96365860679094,0.18492909122898,-0.23000153127556,5.1778176241842,2.8829257310173,1.0219922196602,-2.9649805487234,1.5148824710811,2.6777839114337,-0.42196321834157,1.8661915680908,-5.3653508894469,1.6068563920466,-1.2061640558617,1.8742814625944,-3.8922307270099,1.7164662181492,4.3523748641472,-1.0282521251993,-4.4563346861548,1.9153672787602,2.0424134467045,0.027959373423594,-4.3267747489443,3.2122832336036,-2.6949575387109,1.2130049382126,1.0197867002988,-1.4366963844935,0.999990916109,1.2186900445069,-0.1832811465483,0.79943344994307,-3.785045267695,-1.4973215394282,-3.2358880483879,5.4046161049645,-2.3850438563644,3.1206965412322,-0.37731178637334,-1.2368408885422,-6.5789754606442,1.0317578777461,-1.9697996448251,-3.4153534781468,1.6015958358458,3.1815429964901,-3.1538261421242,331.79712218076,331.79712218076,331.79712218076,331.79712218076,331.79712218076,331.79712218076,331.79712218076,331.79712218076,331.79712218076,331.79712218076,331.79712218076,331.79712218076,331.79712218076,331.79712218076,331.79712218076,331.79712218076,331.79712218076,331.79712218076,331.79712218076,331.79712218076,331.79712218076,331.79712218076,331.79712218076,331.79712218076,331.79712218076,331.79712218076,331.79712218076,331.79712218076,331.79712218076,331.79712218076,331.79712218076,331.79712218076,331.79712218076,331.79712218076,331.79712218076,331.79712218076,331.79712218076,331.79712218076,331.79712218076,331.79712218076,331.79712218076,331.79712218076,331.79712218076,331.79712218076,331.79712218076,331.79712218076,331.79712218076,331.79712218076,223.805251665,663.14252112761,-2.0528930820391,580.81530080082,-2.0655364359696,0
0.00056218749999999,2793625668.331,4.8217064335894e-05,0.0001665963453482,7.2981995592563e-05,1.0530506006009,0,0,0,0,0,0,0,0,0,0,0,0,0,0,0,0,0,0,0,0,0,0,0,0,0,0,0,0,0,0,0,0,0,0,0,0,0,0,0,0,0,0,0,0,0,0,0,0,-0.96350298692037,0.18635042527058,-0.23028886810301,5.1775659443957,2.8823867836926,1.0216009859744,-2.963628475745,1.514466620447,2.6773239558043,-0.4216088094322,1.8659713898442,-5.3649154081134,1.6074627798875,-1.2051913804376,1.8745943837722,-3.8899197117792,1.7149009197187,4.351348950215,-1.0282297390744,-4.4560875777369,1.9153490535827,2.0434255170341,0.028009161696323,-4.3284965864707,3.2122240389807,-2.6967379232067,1.2129903525957,1.0194925118805,-1.4352100709998,0.99922550714725,1.2178238009524,-0.18244080647286,0.79935466741864,-3.7833554018618,-1.4962437552409,-3.2351495013812,5.4044428774318,-2.3832016948857,3.1204634075763,-0.37714505898931,-1.2365543242913,-6.5771001949029,1.0316644833252,-1.969548381558,-3.4155083931882,1.6029404462714,3.1805845296331,-3.1515309338906,332.25019554047,332.25019554047,332.25019554047,332.25019554047,332.25019554047,332.25019554047,332.25019554047,332.25019554047,332.25019554047,332.25019554047,332.25019554047,332.25019554047,332.25019554047,332.25019554047,332.25019554047,332.25019554047,332.25019554047,332.25019554047,332.25019554047,332.25019554047,332.25019554047,332.25019554047,332.25019554047,332.25019554047,332.25019554047,332.25019554047,332.25019554047,332.25019554047,332.25019554047,332.25019554047,332.25019554047,332.25019554047,332.25019554047,332.25019554047,332.25019554047,332.25019554047,332.25019554047,332.25019554047,332.25019554047,332.25019554047,332.25019554047,332.25019554047,332.25019554047,332.25019554047,332.25019554047,332.25019554047,332.25019554047,332.25019554047,223.77833019498,664.0709614257,-2.0607305582494,581.61036403468,-2.0733800513702,0
0.00056343749999999,2804100698.2114,4.8321725987428e-05,0.00016696684946439,7.3152772909166e-05,1.0531698759782,0,0,0,0,0,0,0,0,0,0,0,0,0,0,0,0,0,0,0,0,0,0,0,0,0,0,0,0,0,0,0,0,0,0,0,0,0,0,0,0,0,0,0,0,0,0,0,0,-0.9633469317899,0.18777057878849,-0.23058067605057,5.1773144573966,2.8818482720091,1.0212098364762,-2.9622782640865,1.5140503926723,2.6768633075877,-0.42125473171942,1.8657495844331,-5.3644786894179,1.6080686624096,-1.2042197768644,1.8749059718697,-3.8876076590588,1.7133352784566,4.3503246329159,-1.028206318405,-4.4558420198865,1.9153280044425,2.0444352841308,0.028058820733234,-4.3302198675763,3.2121630719869,-2.6985157195789,1.2129751778073,1.0191974338648,-1.4337256361329,0.99846045623165,1.2169577552276,-0.18159994340237,0.7992759148624,-3.7816663529449,-1.4951673088366,-3.2344100538911,5.4042675770782,-2.3813596007973,3.1202295191055,-0.37697874896217,-1.2362673408433,-6.5752229880403,1.0315689278007,-1.9692965614221,-3.4156625571528,1.6042859142576,3.1796281131893,-3.1492371455761,332.70317313107,332.70317313107,332.70317313107,332.70317313107,332.70317313107,332.70317313107,332.70317313107,332.70317313107,332.70317313107,332.70317313107,332.70317313107,332.70317313107,332.70317313107,332.70317313107,332.70317313107,332.70317313107,332.70317313107,332.70317313107,332.70317313107,332.70317313107,332.70317313107,332.70317313107,332.70317313107,332.70317313107,332.70317313107,332.70317313107,332.70317313107,332.70317313107,332.70317313107,332.70317313107,332.70317313107,332.70317313107,332.70317313107,332.70317313107,332.70317313107,332.70317313107,332.70317313107,332.70317313107,332.70317313107,332.70317313107,332.70317313107,332.70317313107,332.70317313107,332.70317313107,332.70317313107,332.70317313107,332.70317313107,332.70317313107,223.75140389087,664.99919581909,-2.0685811210003,582.40522413877,-2.0812367025069,0
0.00056468749999999,2814592981.3339,4.8426377777785e-05,0.00016733735362832,7.3323569984387e-05,1.0532891477997,0,0,0,0,0,0,0,0,0,0,0,0,0,0,0,0,0,0,0,0,0,0,0,0,0,0,0,0,0,0,0,0,0,0,0,0,0,0,0,0,0,0,0,0,0,0,0,0,-0.96319044636797,0.18918954208642,-0.23087692107852,5.1770631701252,2.8813101901458,1.0208187827887,-2.9609299101302,1.5136337897868,2.6764019655912,-0.42090098863069,1.8655261705011,-5.3640407397517,1.6086740373803,-1.2032492375366,1.8752162331667,-3.8852945762389,1.7117693018485,4.3493018961991,-1.0281818478983,-4.4555980067054,1.9153041526613,2.0454427582906,0.028108341558807,-4.3319445686851,3.2121003558118,-2.7002909296877,1.2129594196613,1.0189014742055,-1.4322430806478,0.99769575829154,1.2160918983017,-0.18075856083042,0.79919719806987,-3.7799781260608,-1.4940921869285,-3.233669695066,5.4040902269233,-2.3795175792943,3.1199948794371,-0.37681285290252,-1.2359799440783,-6.5733438359257,1.0314712172447,-1.9690441668637,-3.4158159883147,1.6056322379648,3.1786737222866,-3.1469447590985,333.15605494705,333.15605494705,333.15605494705,333.15605494705,333.15605494705,333.15605494705,333.15605494705,333.15605494705,333.15605494705,333.15605494705,333.15605494705,333.15605494705,333.15605494705,333.15605494705,333.15605494705,333.15605494705,333.15605494705,333.15605494705,333.15605494705,333.15605494705,333.15605494705,333.15605494705,333.15605494705,333.15605494705,333.15605494705,333.15605494705,333.15605494705,333.15605494705,333.15605494705,333.15605494705,333.15605494705,333.15605494705,333.15605494705,333.15605494705,333.15605494705,333.15605494705,333.15605494705,333.15605494705,333.15605494705,333.15605494705,333.15605494705,333.15605494705,333.15605494705,333.15605494705,333.15605494705,333.15605494705,333.15605494705,333.15605494705,223.72447285864,665.92722441021,-2.0764447642595,583.19988118848,-2.0891063830378,0
0.00056593749999999,2825102507.1014,4.8531019709568e-05,0.00016770785783986,7.3494386828952e-05,1.0534084160656,0,0,0,0,0,0,0,0,0,0,0,0,0,0,0,0,0,0,0,0,0,0,0,0,0,0,0,0,0,0,0,0,0,0,0,0,0,0,0,0,0,0,0,0,0,0,0,0,-0.9630335356975,0.19060730607745,-0.23117756823304,5.1768120894414,2.8807725320029,1.020427837261,-2.9595834098732,1.5132168137355,2.6759399289449,-0.42054758338109,1.8653011667198,-5.3636015652641,1.6092789026793,-1.2022797553124,1.8755251737445,-3.8829804706713,1.7102029971625,4.3482807235369,-1.0281563117439,-4.4553555319981,1.9152775201712,2.0464479502829,0.028157715379308,-4.3336706659853,3.2120359136285,-2.7020635549101,1.2129430841697,1.0186046413331,-1.4307624046585,0.99693140809735,1.2152262215499,-0.17991666223921,0.7991185228693,-3.7782907263604,-1.4930183760365,-3.2329284146828,5.4039108493311,-2.3776756355002,3.1197594923394,-0.37664736762397,-1.2356921398517,-6.5714627344021,1.0313713576624,-1.968791180179,-3.415968704562,1.6069794158591,3.1777213318327,-3.1446537560827,333.60884098313,333.60884098313,333.60884098313,333.60884098313,333.60884098313,333.60884098313,333.60884098313,333.60884098313,333.60884098313,333.60884098313,333.60884098313,333.60884098313,333.60884098313,333.60884098313,333.60884098313,333.60884098313,333.60884098313,333.60884098313,333.60884098313,333.60884098313,333.60884098313,333.60884098313,333.60884098313,333.60884098313,333.60884098313,333.60884098313,333.60884098313,333.60884098313,333.60884098313,333.60884098313,333.60884098313,333.60884098313,333.60884098313,333.60884098313,333.60884098313,333.60884098313,333.60884098313,333.60884098313,333.60884098313,333.60884098313,333.60884098313,333.60884098313,333.60884098313,333.60884098313,333.60884098313,333.60884098313,333.60884098313,333.60884098313,223.69753720237,666.85504730434,-2.0843214817883,583.99433525949,-2.0969890865525,0
0.00056718749999999,2835629264.9089,4.8635651770661e-05,0.00016807836209885,7.3665223426648e-05,1.0535276807764,0,0,0,0,0,0,0,0,0,0,0,0,0,0,0,0,0,0,0,0,0,0,0,0,0,0,0,0,0,0,0,0,0,0,0,0,0,0,0,0,0,0,0,0,0,0,0,0,-0.96287620487613,0.1920238622829,-0.23148258172239,5.1765612221503,2.8802352912164,1.0200370129246,-2.9582387586314,1.512799466357,2.6754771971818,-0.42019451898964,1.8650745917552,-5.3631611720037,1.6098832563126,-1.2013113232564,1.8758327994236,-3.8806653498317,1.7086363713065,4.3472610979406,-1.0281296936547,-4.455114589019,1.9152481294822,2.0474508714372,0.028206933566169,-4.3353981357424,3.2119697685825,-2.7038335962485,1.2129261775484,1.0183069441291,-1.4292836074203,0.99616740025192,1.2143607167667,-0.17907425109397,0.79903989510406,-3.7766041590959,-1.4919458624593,-3.2321862028981,5.4037294658927,-2.3758337744683,3.1195233615736,-0.3764822899949,-1.2354039340269,-6.5695796797067,1.0312693549329,-1.9685375834393,-3.4161207232977,1.6083274466566,3.1767709165159,-3.1423641178831,334.06153123427,334.06153123427,334.06153123427,334.06153123427,334.06153123427,334.06153123427,334.06153123427,334.06153123427,334.06153123427,334.06153123427,334.06153123427,334.06153123427,334.06153123427,334.06153123427,334.06153123427,334.06153123427,334.06153123427,334.06153123427,334.06153123427,334.06153123427,334.06153123427,334.06153123427,334.06153123427,334.06153123427,334.06153123427,334.06153123427,334.06153123427,334.06153123427,334.06153123427,334.06153123427,334.06153123427,334.06153123427,334.06153123427,334.06153123427,334.06153123427,334.06153123427,334.06153123427,334.06153123427,334.06153123427,334.06153123427,334.06153123427,334.06153123427,334.06153123427,334.06153123427,334.06153123427,334.06153123427,334.06153123427,334.06153123427,223.67059702316,667.78266460972,-2.0922112674813,584.78858642768,-2.1048848066984,0
0.00056843749999999,2846173244.1432,4.8740273841495e-05,0.00016844886640512,7.3836079565068e-05,1.0536469419321,0,0,0,0,0,0,0,0,0,0,0,0,0,0,0,0,0,0,0,0,0,0,0,0,0,0,0,0,0,0,0,0,0,0,0,0,0,0,0,0,0,0,0,0,0,0,0,0,-0.96271845906048,0.19343920284146,-0.23179192489692,5.1763105750019,2.8796984611689,1.0196463234131,-2.956895951209,1.5123817493889,2.6750137701541,-0.41984179828237,1.864846464272,-5.3627195658276,1.6104870963991,-1.200343934809,1.8761391158165,-3.8783492212864,1.7070694308989,4.3462430019799,-1.0281019769307,-4.4548751705944,1.9152160036834,2.04845153352,0.028255987657347,-4.3371269542337,3.2119019437876,-2.7056010542615,1.2129087062133,1.0180083918742,-1.427806687492,0.99540372920066,1.213495376163,-0.17823133084577,0.79896132063276,-3.7749184295701,-1.4908746322982,-3.2314430504363,5.4035460975186,-2.373992001193,3.1192864909746,-0.37631761703217,-1.2351153324455,-6.5676946683795,1.0311652148332,-1.9682833586022,-3.4162720614772,1.6096763293578,3.1758224508281,-3.1400758256209,334.51412569566,334.51412569566,334.51412569566,334.51412569566,334.51412569566,334.51412569566,334.51412569566,334.51412569566,334.51412569566,334.51412569566,334.51412569566,334.51412569566,334.51412569566,334.51412569566,334.51412569566,334.51412569566,334.51412569566,334.51412569566,334.51412569566,334.51412569566,334.51412569566,334.51412569566,334.51412569566,334.51412569566,334.51412569566,334.51412569566,334.51412569566,334.51412569566,334.51412569566,334.51412569566,334.51412569566,334.51412569566,334.51412569566,334.51412569566,334.51412569566,334.51412569566,334.51412569566,334.51412569566,334.51412569566,334.51412569566,334.51412569566,334.51412569566,334.51412569566,334.51412569566,334.51412569566,334.51412569566,334.51412569566,334.51412569566,223.64365241977,668.71007643767,-2.1001141151938,585.58263476916,-2.1127935371169,0
0.00056968749999999,2856734434.1826,4.8844885881974e-05,0.00016881937075853,7.4006955176776e-05,1.0537661995333,0,0,0,0,0,0,0,0,0,0,0,0,0,0,0,0,0,0,0,0,0,0,0,0,0,0,0,0,0,0,0,0,0,0,0,0,0,0,0,0,0,0,0,0,0,0,0,0,-0.96256030346815,0.19485332052415,-0.23210556025194,5.1760601546982,2.8791620349927,1.0192557828775,-2.9555549820259,1.5119636644725,2.6745496480354,-0.41948942389792,1.8646168029465,-5.362276752352,1.6110904211558,-1.1993775838781,1.8764441283609,-3.8760320926629,1.7055021823021,4.345226417787,-1.0280731445345,-4.4546372692347,1.9151811664427,2.0494499487109,0.028304869353714,-4.3388570976825,3.2118324623485,-2.7073659290442,1.212890676768,1.0177089941939,-1.4263316428499,0.9946403892414,1.2126301923976,-0.17738790493981,0.79888280532951,-3.7732335431024,-1.4898046714772,-3.2306989486787,5.4033607645033,-2.3721503206135,3.1190488844785,-0.37615334595711,-1.234826340907,-6.5658076971913,1.0310589430584,-1.9680284875692,-3.4164227356387,1.6110260632658,3.1748759090656,-3.1377888602096,334.96662436273,334.96662436273,334.96662436273,334.96662436273,334.96662436273,334.96662436273,334.96662436273,334.96662436273,334.96662436273,334.96662436273,334.96662436273,334.96662436273,334.96662436273,334.96662436273,334.96662436273,334.96662436273,334.96662436273,334.96662436273,334.96662436273,334.96662436273,334.96662436273,334.96662436273,334.96662436273,334.96662436273,334.96662436273,334.96662436273,334.96662436273,334.96662436273,334.96662436273,334.96662436273,334.96662436273,334.96662436273,334.96662436273,334.96662436273,334.96662436273,334.96662436273,334.96662436273,334.96662436273,334.96662436273,334.96662436273,334.96662436273,334.96662436273,334.96662436273,334.96662436273,334.96662436273,334.96662436273,334.96662436273,334.96662436273,223.61670348859,669.63728290266,-2.1080300186563,586.3764803604,-2.1207152713874,0
0.00057093749999999,2867312824.3965,4.8949487997258e-05,0.00016918987515892,7.4177850460517e-05,1.0538854535802,0,0,0,0,0,0,0,0,0,0,0,0,0,0,0,0,0,0,0,0,0,0,0,0,0,0,0,0,0,0,0,0,0,0,0,0,0,0,0,0,0,0,0,0,0,0,0,0,-0.96240174336093,0.196266208734,-0.23242344950026,5.1758099679108,2.8786260055903,1.0188654059421,-2.9542158449219,1.5115452131359,2.6740848313793,-0.41913739830024,1.8643856264387,-5.3618327370878,1.6116932289136,-1.198412264613,1.8767478422804,-3.8737139717155,1.7039346315049,4.3442113270807,-1.0280431791184,-4.4544008769866,1.9151436419666,2.0504461296784,0.028353570506281,-4.3405885423851,3.2117613473436,-2.7091282203437,1.2128720960109,1.0174087610317,-1.4248584707283,0.99387737451911,1.2117651585757,-0.17654397681479,0.79880435507155,-3.7715495050906,-1.4887359657295,-3.2299538894291,5.4031734864594,-2.37030873761,3.1188105459735,-0.37598947407459,-1.2345369651972,-6.5639187633119,1.0309505451774,-1.9677729521156,-3.4165727618402,1.612376647919,3.1739312653403,-3.1355032023504,335.41902723112,335.41902723112,335.41902723112,335.41902723112,335.41902723112,335.41902723112,335.41902723112,335.41902723112,335.41902723112,335.41902723112,335.41902723112,335.41902723112,335.41902723112,335.41902723112,335.41902723112,335.41902723112,335.41902723112,335.41902723112,335.41902723112,335.41902723112,335.41902723112,335.41902723112,335.41902723112,335.41902723112,335.41902723112,335.41902723112,335.41902723112,335.41902723112,335.41902723112,335.41902723112,335.41902723112,335.41902723112,335.41902723112,335.41902723112,335.41902723112,335.41902723112,335.41902723112,335.41902723112,335.41902723112,335.41902723112,335.41902723112,335.41902723112,335.41902723112,335.41902723112,335.41902723112,335.41902723112,335.41902723112,335.41902723112,223.58975032371,670.56428412236,-2.1159589717421,587.170123278,-2.1286500031433,0
0.00057218749999999,2877908404.145,4.9054080096572e-05,0.00016956037960611,7.4348765255889e-05,1.0540047040731,0,0,0,0,0,0,0,0,0,0,0,0,0,0,0,0,0,0,0,0,0,0,0,0,0,0,0,0,0,0,0,0,0,0,0,0,0,0,0,0,0,0,0,0,0,0,0,0,-0.96224278404746,0.19767786151638,-0.23274555357634,5.1755600212678,2.8780903656429,1.0184752076173,-2.9528785332925,1.511126396801,2.6736193210396,-0.41878572378173,1.8641529533937,-5.3613875253566,1.6122955181054,-1.1974479715587,1.8770502626085,-3.871394866307,1.7023667841777,4.3431977111788,-1.0280120630994,-4.4541659855259,1.9151034549958,2.0514400894671,0.028402083117315,-4.3423212646742,3.2116886218255,-2.7108879275062,1.2128529709241,1.0171077025914,-1.4233871677574,0.9931146790387,1.2109002682404,-0.17569954990605,0.79872597573814,-3.769866320961,-1.487668500617,-3.2292078650923,5.4029842823656,-2.36846725701,3.1185714793602,-0.37582599885345,-1.2342472110721,-6.5620278642643,1.0308400266557,-1.9675167339949,-3.4167221556771,1.6137280831213,3.1729884935915,-3.1332188325767,335.87133429669,335.87133429669,335.87133429669,335.87133429669,335.87133429669,335.87133429669,335.87133429669,335.87133429669,335.87133429669,335.87133429669,335.87133429669,335.87133429669,335.87133429669,335.87133429669,335.87133429669,335.87133429669,335.87133429669,335.87133429669,335.87133429669,335.87133429669,335.87133429669,335.87133429669,335.87133429669,335.87133429669,335.87133429669,335.87133429669,335.87133429669,335.87133429669,335.87133429669,335.87133429669,335.87133429669,335.87133429669,335.87133429669,335.87133429669,335.87133429669,335.87133429669,335.87133429669,335.87133429669,335.87133429669,335.87133429669,335.87133429669,335.87133429669,335.87133429669,335.87133429669,335.87133429669,335.87133429669,335.87133429669,335.87133429669,223.56279301737,671.49108021771,-2.1239009682852,587.96356359881,-2.1365977260208,0
0.00057343749999999,2888521162.7788,4.9158662193863e-05,0.00016993088409994,7.4519699594594e-05,1.0541239510123,0,0,0,0,0,0,0,0,0,0,0,0,0,0,0,0,0,0,0,0,0,0,0,0,0,0,0,0,0,0,0,0,0,0,0,0,0,0,0,0,0,0,0,0,0,0,0,0,-0.96208343087459,0.19908827356288,-0.23307183268735,5.1753103213689,2.8775551076282,1.0180852032419,-2.9515430400488,1.5107072167768,2.6731531182699,-0.41843440247376,1.8639188024359,-5.3609411223279,1.6128972872715,-1.1964846995516,1.8773513941959,-3.8690747844148,1.7007986456441,4.3421855510199,-1.0279797787041,-4.4539325861335,1.9150606307772,2.0524318415665,0.0284503993317,-4.3440552409443,3.2116143088304,-2.7126450495141,1.2128333086731,1.0168058292994,-1.4219177299374,0.9923522966683,1.2100355154426,-0.17485462764977,0.79864767320434,-3.768183996181,-1.4866022615363,-3.2284608685572,5.4027931705822,-2.3666258835847,3.1183316885049,-0.37566291787894,-1.2339570842625,-6.5601349979522,1.0307273928458,-1.9672598149266,-3.4168709322716,1.6150803689192,3.1720475675963,-3.1309357312659,336.32354555552,336.32354555552,336.32354555552,336.32354555552,336.32354555552,336.32354555552,336.32354555552,336.32354555552,336.32354555552,336.32354555552,336.32354555552,336.32354555552,336.32354555552,336.32354555552,336.32354555552,336.32354555552,336.32354555552,336.32354555552,336.32354555552,336.32354555552,336.32354555552,336.32354555552,336.32354555552,336.32354555552,336.32354555552,336.32354555552,336.32354555552,336.32354555552,336.32354555552,336.32354555552,336.32354555552,336.32354555552,336.32354555552,336.32354555552,336.32354555552,336.32354555552,336.32354555552,336.32354555552,336.32354555552,336.32354555552,336.32354555552,336.32354555552,336.32354555552,336.32354555552,336.32354555552,336.32354555552,336.32354555552,336.32354555552,223.53583165972,672.41767131293,-2.131856002193,588.75680139988,-2.1445584336889,0
0.00057468749999999,2899151089.6383,4.9263234253468e-05,0.00017030138864024,7.4690653417858e-05,1.0542431943983,0,0,0,0,0,0,0,0,0,0,0,0,0,0,0,0,0,0,0,0,0,0,0,0,0,0,0,0,0,0,0,0,0,0,0,0,0,0,0,0,0,0,0,0,0,0,0,0,-0.96192368923248,0.20049744021104,-0.23340224631113,5.1750608747663,2.8770202238298,1.0176954083927,-2.9502093577822,1.5102876742703,2.6726862244931,-0.41808343634793,1.8636831921697,-5.3604935329446,1.6134985350491,-1.1955224439408,1.877651241743,-3.8667537341306,1.699230220927,4.3411748271899,-1.0279463080469,-4.4537006698247,1.9150151950587,2.0534213996947,0.02849851144022,-4.34579044762,3.2115384313684,-2.7143995849578,1.2128131165887,1.0165031517476,-1.4204501527835,0.99159022115069,1.2091708946115,-0.17400921348301,0.79856945334249,-3.7665025362085,-1.4855372337483,-3.2277128934459,5.4026001689312,-2.3647846220654,3.1180911772878,-0.37550022896692,-1.2336665904603,-6.5582401626325,1.0306126490068,-1.9670021767064,-3.4170191063209,1.6164335056224,3.171108461001,-3.1286538786936,336.77566100387,336.77566100387,336.77566100387,336.77566100387,336.77566100387,336.77566100387,336.77566100387,336.77566100387,336.77566100387,336.77566100387,336.77566100387,336.77566100387,336.77566100387,336.77566100387,336.77566100387,336.77566100387,336.77566100387,336.77566100387,336.77566100387,336.77566100387,336.77566100387,336.77566100387,336.77566100387,336.77566100387,336.77566100387,336.77566100387,336.77566100387,336.77566100387,336.77566100387,336.77566100387,336.77566100387,336.77566100387,336.77566100387,336.77566100387,336.77566100387,336.77566100387,336.77566100387,336.77566100387,336.77566100387,336.77566100387,336.77566100387,336.77566100387,336.77566100387,336.77566100387,336.77566100387,336.77566100387,336.77566100387,336.77566100387,223.50886633933,673.34405753552,-2.1398240672892,589.54983675846,-2.1525321197627,0
0.00057593749999999,2909798174.0538,4.9367796290341e-05,0.00017067189322683,7.4861626758806e-05,1.0543624342313,0,0,0,0,0,0,0,0,0,0,0,0,0,0,0,0,0,0,0,0,0,0,0,0,0,0,0,0,0,0,0,0,0,0,0,0,0,0,0,0,0,0,0,0,0,0,0,0,-0.96176356454985,0.20190535744894,-0.23373675323892,5.1748116879779,2.8764857063545,1.0173058388142,-2.9488774787767,1.5098677703841,2.6722186414512,-0.41773282722344,1.8634461411723,-5.3600447619308,1.6140992601727,-1.194561200513,1.8779498098083,-3.8644317236386,1.6976615147438,4.3401655199348,-1.0279116331848,-4.4534702273727,1.9149671740632,2.0544087779028,0.02854641187287,-4.3475268611197,3.2114610124241,-2.7161515320547,1.2127924021662,1.0161996806465,-1.4189844313412,0.99082844611053,1.2083064006705,-0.17316331084951,0.79849132201672,-3.7648219464883,-1.4844734023909,-3.2269639340131,5.4024052947099,-2.3629434771412,3.1178499495716,-0.3753379301388,-1.233375735318,-6.5563433568693,1.0304958003075,-1.9667438011931,-3.4171666920856,1.617787493785,3.1701711473202,-3.1263732550314,337.22768063826,337.22768063826,337.22768063826,337.22768063826,337.22768063826,337.22768063826,337.22768063826,337.22768063826,337.22768063826,337.22768063826,337.22768063826,337.22768063826,337.22768063826,337.22768063826,337.22768063826,337.22768063826,337.22768063826,337.22768063826,337.22768063826,337.22768063826,337.22768063826,337.22768063826,337.22768063826,337.22768063826,337.22768063826,337.22768063826,337.22768063826,337.22768063826,337.22768063826,337.22768063826,337.22768063826,337.22768063826,337.22768063826,337.22768063826,337.22768063826,337.22768063826,337.22768063826,337.22768063826,337.22768063826,337.22768063826,337.22768063826,337.22768063826,337.22768063826,337.22768063826,337.22768063826,337.22768063826,337.22768063826,337.22768063826,223.48189714295,674.27023901627,-2.1478051573628,590.34266975206,-2.1605187778555,0
0.00057718749999999,2920462405.3451,4.9472348307794e-05,0.00017104239785955,7.5032619629368e-05,1.0544816705117,0,0,0,0,0,0,0,0,0,0,0,0,0,0,0,0,0,0,0,0,0,0,0,0,0,0,0,0,0,0,0,0,0,0,0,0,0,0,0,0,0,0,0,0,0,0,0,0,-0.96160306228491,0.20331202191373,-0.23407531163608,5.1745627674797,2.8759515471544,1.0169165103662,-2.9475473949152,1.5094475061125,2.6717503712245,-0.4173825767772,1.863207667977,-5.359594813884,1.6146994614839,-1.1936009653859,1.8782471027784,-3.8621087612519,1.6960925314446,4.3391576091896,-1.0278757361589,-4.4532412492364,1.9149165944535,2.0553939905896,0.02859409319329,-4.3492644579331,3.2113820749472,-2.717900888745,1.2127711730625,1.0158954267912,-1.417520560119,0.99006696506167,1.2074420290359,-0.17231692320204,0.79841328507493,-3.7631422324915,-1.4834107524801,-3.2262139850453,5.4022085646486,-2.3611024534569,3.1176080091301,-0.37517601956149,-1.2330845244707,-6.5544445796328,1.0303768517963,-1.9664846702998,-3.4173137033469,1.6191423341766,3.1692355999559,-3.12409384037,337.67960445536,337.67960445536,337.67960445536,337.67960445536,337.67960445536,337.67960445536,337.67960445536,337.67960445536,337.67960445536,337.67960445536,337.67960445536,337.67960445536,337.67960445536,337.67960445536,337.67960445536,337.67960445536,337.67960445536,337.67960445536,337.67960445536,337.67960445536,337.67960445536,337.67960445536,337.67960445536,337.67960445536,337.67960445536,337.67960445536,337.67960445536,337.67960445536,337.67960445536,337.67960445536,337.67960445536,337.67960445536,337.67960445536,337.67960445536,337.67960445536,337.67960445536,337.67960445536,337.67960445536,337.67960445536,337.67960445536,337.67960445536,337.67960445536,337.67960445536,337.67960445536,337.67960445536,337.67960445536,337.67960445536,337.67960445536,223.45492415582,675.19621588929,-2.1557992662621,591.1353004583,-2.1685184016138,0
0.00057843749999999,2931143772.8212,4.9576890253957e-05,0.00017141290253822,7.5203631939901e-05,1.05460090324,0,0,0,0,0,0,0,0,0,0,0,0,0,0,0,0,0,0,0,0,0,0,0,0,0,0,0,0,0,0,0,0,0,0,0,0,0,0,0,0,0,0,0,0,0,0,0,0,-0.9614421879186,0.20471743088426,-0.23441787907315,5.1743141196984,2.8754177380443,1.0165274389542,-2.9462190976908,1.509026882346,2.6712814161119,-0.41703268654793,1.8629677910596,-5.3591436932261,1.6152991379338,-1.1926417350697,1.8785431248755,-3.8597848554654,1.6945232750081,4.3381510746095,-1.0278385990537,-4.4530137255437,1.9148634833123,2.0563770523794,0.028641548097924,-4.3510032147159,3.211301641834,-2.7196476526606,1.2127494370868,1.0155904010157,-1.4160585331235,0.98930577141617,1.2065777755509,-0.1714700539967,0.79833534834572,-3.7614633996794,-1.4823492689211,-3.2254630419402,5.4020099949377,-2.3592615556205,3.1173653596333,-0.37501449557707,-1.2327929635392,-6.5525438304256,1.0302558083997,-1.9662247660449,-3.4174601534185,1.6204980277742,3.1683017922236,-3.1218156147662,338.13143245206,338.13143245206,338.13143245206,338.13143245206,338.13143245206,338.13143245206,338.13143245206,338.13143245206,338.13143245206,338.13143245206,338.13143245206,338.13143245206,338.13143245206,338.13143245206,338.13143245206,338.13143245206,338.13143245206,338.13143245206,338.13143245206,338.13143245206,338.13143245206,338.13143245206,338.13143245206,338.13143245206,338.13143245206,338.13143245206,338.13143245206,338.13143245206,338.13143245206,338.13143245206,338.13143245206,338.13143245206,338.13143245206,338.13143245206,338.13143245206,338.13143245206,338.13143245206,338.13143245206,338.13143245206,338.13143245206,338.13143245206,338.13143245206,338.13143245206,338.13143245206,338.13143245206,338.13143245206,338.13143245206,338.13143245206,223.42794746212,676.12198829189,-2.1638063878907,591.92772895494,-2.1765309846983,0
0.00057968749999999,2941842265.7799,4.968142202101e-05,0.00017178340726266,7.5374663499631e-05,1.0547201324164,0,0,0,0,0,0,0,0,0,0,0,0,0,0,0,0,0,0,0,0,0,0,0,0,0,0,0,0,0,0,0,0,0,0,0,0,0,0,0,0,0,0,0,0,0,0,0,0,-0.96128094695621,0.20612158228182,-0.23476441257384,5.1740657509885,2.8748842707163,1.0161386404584,-2.9448925782956,1.5086058998726,2.6708117786687,-0.41668315794132,1.862726528837,-5.3586914041824,1.615898288584,-1.1916835065,1.8788378801715,-3.8574600149012,1.6929537490707,4.3371458955875,-1.0278002040516,-4.4527876461747,1.9148078681123,2.0573579781241,0.028688769413383,-4.352743108192,3.2112197359342,-2.7213918211404,1.2127272021896,1.0152846141452,-1.4145983439329,0.98854485849305,1.205713636532,-0.1706227067,0.79825751763513,-3.7597854534841,-1.481288936536,-3.2247111007338,5.4018096012627,-2.3574207882039,3.117122004663,-0.37485335672814,-1.2325010581307,-6.5506411091489,1.0301326749345,-1.9659640705885,-3.417606055152,1.6218545757609,3.1673696973626,-3.1195385582569,338.58316462546,338.58316462546,338.58316462546,338.58316462546,338.58316462546,338.58316462546,338.58316462546,338.58316462546,338.58316462546,338.58316462546,338.58316462546,338.58316462546,338.58316462546,338.58316462546,338.58316462546,338.58316462546,338.58316462546,338.58316462546,338.58316462546,338.58316462546,338.58316462546,338.58316462546,338.58316462546,338.58316462546,338.58316462546,338.58316462546,338.58316462546,338.58316462546,338.58316462546,338.58316462546,338.58316462546,338.58316462546,338.58316462546,338.58316462546,338.58316462546,338.58316462546,338.58316462546,338.58316462546,338.58316462546,338.58316462546,338.58316462546,338.58316462546,338.58316462546,338.58316462546,338.58316462546,338.58316462546,338.58316462546,338.58316462546,223.40096714488,677.04755636461,-2.1718265161555,592.71995531985,-2.1845565207855,0
0.00058093749999999,2952557873.5074,4.978594371545e-05,0.0001721539120327,7.5545714509232e-05,1.0548393580414,0,0,0,0,0,0,0,0,0,0,0,0,0,0,0,0,0,0,0,0,0,0,0,0,0,0,0,0,0,0,0,0,0,0,0,0,0,0,0,0,0,0,0,0,0,0,0,0,-0.9611193449257,0.20752447466617,-0.23511486863286,5.1738176676398,2.8743511367591,1.0157501306678,-2.9435678276878,1.5081845593883,2.670341461645,-0.41633399223407,1.8624838996632,-5.3582379507773,1.6164969126077,-1.1907262770858,1.8791313726077,-3.8551342483104,1.6913839569384,4.3361420512848,-1.0277605334923,-4.4525630008292,1.9147497767,2.058336782837,0.028735750098058,-4.3544841151351,3.2111363800391,-2.7231333912474,1.2127044764541,1.0149780769543,-1.4131399857546,0.98778421953226,1.2048496087349,-0.16977488479145,0.79817979872684,-3.758108399296,-1.4802297400814,-3.2239581581494,5.4016073988609,-2.3555801557492,3.1168779477078,-0.37469260178984,-1.2322088138393,-6.5487364160904,1.0300074561189,-1.9657025662747,-3.4177514209689,1.6232119795169,3.1664392885641,-3.1172626508991,339.03480097282,339.03480097282,339.03480097282,339.03480097282,339.03480097282,339.03480097282,339.03480097282,339.03480097282,339.03480097282,339.03480097282,339.03480097282,339.03480097282,339.03480097282,339.03480097282,339.03480097282,339.03480097282,339.03480097282,339.03480097282,339.03480097282,339.03480097282,339.03480097282,339.03480097282,339.03480097282,339.03480097282,339.03480097282,339.03480097282,339.03480097282,339.03480097282,339.03480097282,339.03480097282,339.03480097282,339.03480097282,339.03480097282,339.03480097282,339.03480097282,339.03480097282,339.03480097282,339.03480097282,339.03480097282,339.03480097282,339.03480097282,339.03480097282,339.03480097282,339.03480097282,339.03480097282,339.03480097282,339.03480097282,339.03480097282,223.37398328606,677.97292025107,-2.1798596449303,593.51197963103,-2.1925950035138,0
0.00058218749999999,2963290585.2783,4.9890455312056e-05,0.00017252441684815,7.5716784927244e-05,1.0549585801153,0,0,0,0,0,0,0,0,0,0,0,0,0,0,0,0,0,0,0,0,0,0,0,0,0,0,0,0,0,0,0,0,0,0,0,0,0,0,0,0,0,0,0,0,0,0,0,0,-0.96095738738068,0.20892610722871,-0.23546920327368,5.1735698758739,2.8738183276652,1.0153619252082,-2.9422448367577,1.5077628615005,2.6698704680782,-0.41598519057515,1.8622399218413,-5.3577833367898,1.6170950092821,-1.1897700447718,1.8794236060301,-3.8528075644778,1.6898139016407,4.3351395206393,-1.0277195699315,-4.4523397791933,1.9146892372634,2.059313481746,0.028782483241049,-4.356226212192,3.2110515969062,-2.7248723597663,1.2126812680793,1.0146708001188,-1.4116834515528,0.9870238477056,1.2039856894425,-0.16892659177122,0.79810219738456,-3.7564322424311,-1.4791716642838,-3.2232042116414,5.4014034025876,-2.3537396627672,3.1166331922018,-0.37453222981726,-1.2319162362304,-6.5468297516889,1.0298801565915,-1.9654402356774,-3.4178962628882,1.6245702406281,3.165510538974,-3.1149878727626,339.48634149164,339.48634149164,339.48634149164,339.48634149164,339.48634149164,339.48634149164,339.48634149164,339.48634149164,339.48634149164,339.48634149164,339.48634149164,339.48634149164,339.48634149164,339.48634149164,339.48634149164,339.48634149164,339.48634149164,339.48634149164,339.48634149164,339.48634149164,339.48634149164,339.48634149164,339.48634149164,339.48634149164,339.48634149164,339.48634149164,339.48634149164,339.48634149164,339.48634149164,339.48634149164,339.48634149164,339.48634149164,339.48634149164,339.48634149164,339.48634149164,339.48634149164,339.48634149164,339.48634149164,339.48634149164,339.48634149164,339.48634149164,339.48634149164,339.48634149164,339.48634149164,339.48634149164,339.48634149164,339.48634149164,339.48634149164,223.34699596679,678.89808009801,-2.1879057679508,594.30380196662,-2.2006464264975,0
0.00058343749999999,2974040390.3556,4.9994956701053e-05,0.00017289492170884,7.5887874558873e-05,1.0550777986385,0,0,0,0,0,0,0,0,0,0,0,0,0,0,0,0,0,0,0,0,0,0,0,0,0,0,0,0,0,0,0,0,0,0,0,0,0,0,0,0,0,0,0,0,0,0,0,0,-0.96079507987537,0.21032647977385,-0.23582737210167,5.1733223818121,2.8732858348788,1.0149740395224,-2.9409235959046,1.5073408067209,2.6693988011571,-0.41563675400112,1.8619946135517,-5.3573275659203,1.6176925780251,-1.1888148077776,1.8797145840824,-3.8504799724926,1.6882435857343,4.3341382824293,-1.0276772961522,-4.4521179705242,1.9146262782913,2.0602880901981,0.028828962053489,-4.357969376405,3.210965409167,-2.7266087233409,1.2126575853944,1.0143627942019,-1.4102287337533,0.9862637361211,1.2031218763192,-0.16807783114125,0.79802471932974,-3.7547569882054,-1.4781146938044,-3.2224492591636,5.4011976267419,-2.351899313747,3.1163877413149,-0.3743722399837,-1.2316233309109,-6.5449211172167,1.0297507808197,-1.9651770615138,-3.418040592404,1.625929360804,3.1645834217355,-3.1127142039921,339.93778617957,339.93778617957,339.93778617957,339.93778617957,339.93778617957,339.93778617957,339.93778617957,339.93778617957,339.93778617957,339.93778617957,339.93778617957,339.93778617957,339.93778617957,339.93778617957,339.93778617957,339.93778617957,339.93778617957,339.93778617957,339.93778617957,339.93778617957,339.93778617957,339.93778617957,339.93778617957,339.93778617957,339.93778617957,339.93778617957,339.93778617957,339.93778617957,339.93778617957,339.93778617957,339.93778617957,339.93778617957,339.93778617957,339.93778617957,339.93778617957,339.93778617957,339.93778617957,339.93778617957,339.93778617957,339.93778617957,339.93778617957,339.93778617957,339.93778617957,339.93778617957,339.93778617957,339.93778617957,339.93778617957,339.93778617957,223.32000526745,679.8230360551,-2.1959648792003,595.0954224047,-2.2087107834437,0
0.00058468749999999,2984807277.9898,5.009944787837e-05,0.0001732654266146,7.6058983401722e-05,1.0551970136116,0,0,0,0,0,0,0,0,0,0,0,0,0,0,0,0,0,0,0,0,0,0,0,0,0,0,0,0,0,0,0,0,0,0,0,0,0,0,0,0,0,0,0,0,0,0,0,0,-0.96063242798018,0.21172559272201,-0.23618933034394,5.1730751914755,2.8727536497879,1.0145864887773,-2.9396040954657,1.5069183954838,2.6689264642664,-0.41528868343023,1.8617479929001,-5.356870641611,1.618289618371,-1.1878605648796,1.8800043103064,-3.8481514815113,1.686673011493,4.3331383152701,-1.0276336952503,-4.451897564052,1.914560928556,2.0612606236314,0.028875179876797,-4.3597135847482,3.2108778393931,-2.728342478364,1.2126334368264,1.0140540695942,-1.4087758245724,0.98550387784192,1.2022581675132,-0.16722860642323,0.79794737025676,-3.7530826418352,-1.4770588133063,-3.2216932994417,5.400990085255,-2.3500591131554,3.1161415981324,-0.37421263175318,-1.23133010348,-6.5430105141715,1.0296193331877,-1.9649130267947,-3.4181844205978,1.6272893419339,3.1636579099943,-3.1104416248251,340.38913503446,340.38913503446,340.38913503446,340.38913503446,340.38913503446,340.38913503446,340.38913503446,340.38913503446,340.38913503446,340.38913503446,340.38913503446,340.38913503446,340.38913503446,340.38913503446,340.38913503446,340.38913503446,340.38913503446,340.38913503446,340.38913503446,340.38913503446,340.38913503446,340.38913503446,340.38913503446,340.38913503446,340.38913503446,340.38913503446,340.38913503446,340.38913503446,340.38913503446,340.38913503446,340.38913503446,340.38913503446,340.38913503446,340.38913503446,340.38913503446,340.38913503446,340.38913503446,340.38913503446,340.38913503446,340.38913503446,340.38913503446,340.38913503446,340.38913503446,340.38913503446,340.38913503446,340.38913503446,340.38913503446,340.38913503446,223.29301126824,680.74778827489,-2.2040369725164,595.88684102343,-2.2167880680047,0
0.00058593749999999,2995591237.4193,5.0203928839152e-05,0.00017363593156525,7.6230111451549e-05,1.0553162250348,0,0,0,0,0,0,0,0,0,0,0,0,0,0,0,0,0,0,0,0,0,0,0,0,0,0,0,0,0,0,0,0,0,0,0,0,0,0,0,0,0,0,0,0,0,0,0,0,-0.96046943726853,0.21312344708956,-0.23655503290009,5.1728283107574,2.8722217637571,1.014199287843,-2.9382863255128,1.5064956281408,2.6684534609474,-0.4149409796725,1.8615000778774,-5.3564125671555,1.6188861299968,-1.1869073152461,1.8802927880935,-3.8458221008838,1.6851021807956,4.3321395976556,-1.0275887506449,-4.4516785487913,1.9144932170741,2.0622310975662,0.02892113017656,-4.361458814375,3.2107889100447,-2.7300736210892,1.2126088309047,1.0137446364977,-1.4073247158709,0.98474426588956,1.2013945615878,-0.16637892115055,0.79787015582065,-3.7514092084809,-1.4760040074395,-3.2209363318044,5.4007807916259,-2.3482190654371,3.1158947655176,-0.37405340478924,-1.2310365595724,-6.5410979446001,1.029485817945,-1.9646481147695,-3.4183277580922,1.6286501860264,3.1627339769271,-3.1081701156094,340.84038805437,340.84038805437,340.84038805437,340.84038805437,340.84038805437,340.84038805437,340.84038805437,340.84038805437,340.84038805437,340.84038805437,340.84038805437,340.84038805437,340.84038805437,340.84038805437,340.84038805437,340.84038805437,340.84038805437,340.84038805437,340.84038805437,340.84038805437,340.84038805437,340.84038805437,340.84038805437,340.84038805437,340.84038805437,340.84038805437,340.84038805437,340.84038805437,340.84038805437,340.84038805437,340.84038805437,340.84038805437,340.84038805437,340.84038805437,340.84038805437,340.84038805437,340.84038805437,340.84038805437,340.84038805437,340.84038805437,340.84038805437,340.84038805437,340.84038805437,340.84038805437,340.84038805437,340.84038805437,340.84038805437,340.84038805437,223.26601404872,681.67233691269,-2.2121220418108,596.67805790092,-2.2248782738537,0
0.00058718749999999,3006392257.8697,5.0308399598451e-05,0.0001740064365606,7.6401258741364e-05,1.0554354329086,0,0,0,0,0,0,0,0,0,0,0,0,0,0,0,0,0,0,0,0,0,0,0,0,0,0,0,0,0,0,0,0,0,0,0,0,0,0,0,0,0,0,0,0,0,0,0,0,-0.96030611331679,0.21452004448131,-0.23692443438182,5.1725817454209,2.8716901681403,1.0138124512264,-2.9369702759794,1.5060725049749,2.6679797949039,-0.41459364342992,1.8612508863604,-5.355953345646,1.6194821127182,-1.1859550585244,1.8805800207133,-3.8434918401074,1.6835310951748,4.33114210798,-1.0275424461417,-4.4514609136535,1.9144231730823,2.0631995275631,0.028966806545882,-4.3632050425263,3.2106986434693,-2.7318021476073,1.2125837762456,1.0134345048837,-1.4058753992644,0.9839848932623,1.2005310575601,-0.16552877887102,0.7977930816392,-3.7497366932129,-1.4749502608757,-3.22017835628,5.4005697589748,-2.3463791750219,3.1156472461595,-0.37389455900417,-1.2307427048463,-6.5391834109721,1.0293502392208,-1.9643823089947,-3.4184706150715,1.6300118952206,3.1618115957577,-3.1058996568431,341.29154523753,341.29154523753,341.29154523753,341.29154523753,341.29154523753,341.29154523753,341.29154523753,341.29154523753,341.29154523753,341.29154523753,341.29154523753,341.29154523753,341.29154523753,341.29154523753,341.29154523753,341.29154523753,341.29154523753,341.29154523753,341.29154523753,341.29154523753,341.29154523753,341.29154523753,341.29154523753,341.29154523753,341.29154523753,341.29154523753,341.29154523753,341.29154523753,341.29154523753,341.29154523753,341.29154523753,341.29154523753,341.29154523753,341.29154523753,341.29154523753,341.29154523753,341.29154523753,341.29154523753,341.29154523753,341.29154523753,341.29154523753,341.29154523753,341.29154523753,341.29154523753,341.29154523753,341.29154523753,341.29154523753,341.29154523753,223.23901368834,682.59668212642,-2.2202200809883,597.46907311526,-2.2329813946698,0
0.00058843749999999,3017210328.5539,5.0412860134231e-05,0.00017437694160049,7.657242523489e-05,1.0555546372334,0,0,0,0,0,0,0,0,0,0,0,0,0,0,0,0,0,0,0,0,0,0,0,0,0,0,0,0,0,0,0,0,0,0,0,0,0,0,0,0,0,0,0,0,0,0,0,0,-0.96014246170119,0.21591538707415,-0.23729748916196,5.172335501072,2.8711588542999,1.0134259930315,-2.9356559366617,1.5056490262027,2.6675054699556,-0.41424667530051,1.8610004361058,-5.3554929799765,1.6200775664974,-1.1850037948397,1.8808660113114,-3.8411607088363,1.6819597558163,4.3301458245672,-1.0274947659626,-4.4512446474448,1.9143508260062,2.0641659291821,0.029012202704856,-4.3649522465427,3.2106070618984,-2.7335280538781,1.2125582815417,1.0131236844655,-1.4044278661316,0.98322575294293,1.1996676548618,-0.1646781831461,0.79771615329073,-3.748065101001,-1.4738975583216,-3.2194193735909,5.4003570000575,-2.3445394463263,3.115399042546,-0.37373609456367,-1.2304485449966,-6.5372669162001,1.0292126010284,-1.9641155933479,-3.4186130012871,1.6313744717658,3.1608907397838,-3.1036302291941,341.74260658235,341.74260658235,341.74260658235,341.74260658235,341.74260658235,341.74260658235,341.74260658235,341.74260658235,341.74260658235,341.74260658235,341.74260658235,341.74260658235,341.74260658235,341.74260658235,341.74260658235,341.74260658235,341.74260658235,341.74260658235,341.74260658235,341.74260658235,341.74260658235,341.74260658235,341.74260658235,341.74260658235,341.74260658235,341.74260658235,341.74260658235,341.74260658235,341.74260658235,341.74260658235,341.74260658235,341.74260658235,341.74260658235,341.74260658235,341.74260658235,341.74260658235,341.74260658235,341.74260658235,341.74260658235,341.74260658235,341.74260658235,341.74260658235,341.74260658235,341.74260658235,341.74260658235,341.74260658235,341.74260658235,341.74260658235,223.21201026645,683.52082407652,-2.2283310839324,598.25988674444,-2.2410974241283,0
0.00058968749999999,3028045438.6718,5.0517310484813e-05,0.00017474744668474,7.6743611006958e-05,1.0556738380098,0,0,0,0,0,0,0,0,0,0,0,0,0,0,0,0,0,0,0,0,0,0,0,0,0,0,0,0,0,0,0,0,0,0,0,0,0,0,0,0,0,0,0,0,0,0,0,0,-0.95997848799273,0.21730947760285,-0.23767415142443,5.1720895831516,2.8706278136259,1.0130399269283,-2.934343297208,1.5052251919794,2.6670304900578,-0.41390007578216,1.8607487447327,-5.3550314728723,1.6206724914549,-1.1840535247503,1.881150762905,-3.838828716895,1.6803881635372,4.3291507256949,-1.0274456947729,-4.4510297388611,1.9142762054258,2.0651303179885,0.02905731250069,-4.366700403893,3.2105141874229,-2.7352513357754,1.2125323555575,1.0128121846771,-1.4029821076124,0.98246683790911,1.1988043533488,-0.16382713755046,0.7976393763101,-3.7463944367208,-1.4728458845319,-3.2186593851048,5.4001425272642,-2.3426998837558,3.1151501569313,-0.3735780118661,-1.2301540857671,-6.5353484636707,1.0290729072504,-1.9638479520332,-3.4187549260473,1.6327379179974,3.1599713823942,-3.1013618135167,342.19357208744,342.19357208744,342.19357208744,342.19357208744,342.19357208744,342.19357208744,342.19357208744,342.19357208744,342.19357208744,342.19357208744,342.19357208744,342.19357208744,342.19357208744,342.19357208744,342.19357208744,342.19357208744,342.19357208744,342.19357208744,342.19357208744,342.19357208744,342.19357208744,342.19357208744,342.19357208744,342.19357208744,342.19357208744,342.19357208744,342.19357208744,342.19357208744,342.19357208744,342.19357208744,342.19357208744,342.19357208744,342.19357208744,342.19357208744,342.19357208744,342.19357208744,342.19357208744,342.19357208744,342.19357208744,342.19357208744,342.19357208744,342.19357208744,342.19357208744,342.19357208744,342.19357208744,342.19357208744,342.19357208744,342.19357208744,223.18500386231,684.44476292576,-2.2364550445533,599.05049886637,-2.2492263559082,0
0.00059093749999999,3038897577.4102,5.0621750654819e-05,0.00017511795181318,7.6914816070397e-05,1.0557930352381,0,0,0,0,0,0,0,0,0,0,0,0,0,0,0,0,0,0,0,0,0,0,0,0,0,0,0,0,0,0,0,0,0,0,0,0,0,0,0,0,0,0,0,0,0,0,0,0,-0.95981419775425,0.21870231934313,-0.23805437520897,5.1718439969133,2.8700970375518,1.0126542661091,-2.9330323471621,1.5048010024085,2.666554859263,-0.41355384527471,1.8604958297182,-5.35456882687,1.6212668878717,-1.1831042492791,1.8814342783962,-3.8364958742759,1.678816318792,4.3281567896203,-1.0273952177217,-4.4508161765179,1.9141993410475,2.0660927095019,0.029102129907841,-4.3684494921694,3.2104200419873,-2.7369719890915,1.2125060071157,1.0125000146457,-1.4015381146568,0.98170814114913,1.1979411532818,-0.16297564567003,0.79756275618863,-3.7447247051349,-1.4717952243276,-3.2178983928765,5.3999263526527,-2.3408604917084,3.1149005913245,-0.37342031155897,-1.2298593329516,-6.5334280572352,1.028931161639,-1.9635793696275,-3.4188963982289,1.6341022363239,3.1590534970871,-3.0990943908874,342.6444417516,342.6444417516,342.6444417516,342.6444417516,342.6444417516,342.6444417516,342.6444417516,342.6444417516,342.6444417516,342.6444417516,342.6444417516,342.6444417516,342.6444417516,342.6444417516,342.6444417516,342.6444417516,342.6444417516,342.6444417516,342.6444417516,342.6444417516,342.6444417516,342.6444417516,342.6444417516,342.6444417516,342.6444417516,342.6444417516,342.6444417516,342.6444417516,342.6444417516,342.6444417516,342.6444417516,342.6444417516,342.6444417516,342.6444417516,342.6444417516,342.6444417516,342.6444417516,342.6444417516,342.6444417516,342.6444417516,342.6444417516,342.6444417516,342.6444417516,342.6444417516,342.6444417516,342.6444417516,342.6444417516,342.6444417516,223.15799455541,685.36849883915,-2.2445919567647,599.84090955877,-2.2573681837081,0
0.00059218749999999,3049766733.9425,5.0726180554e-05,0.00017548845698564,7.7086040264604e-05,1.0559122289187,0,0,0,0,0,0,0,0,0,0,0,0,0,0,0,0,0,0,0,0,0,0,0,0,0,0,0,0,0,0,0,0,0,0,0,0,0,0,0,0,0,0,0,0,0,0,0,0,-0.95964959653656,0.22009391609561,-0.2384381144595,5.1715987474096,2.869566517572,1.0122690232583,-2.9317230759613,1.5043764575448,2.6660785817127,-0.41320798408277,1.8602417083875,-5.354105044321,1.6218607562,-1.1821559699031,1.8817165605753,-3.8341621911398,1.6772442216814,4.3271639946071,-1.0273433204695,-4.4506039489514,1.9141202626725,2.0670531191748,0.029146649029903,-4.3701994890843,3.2103246473787,-2.7386900095658,1.2124792450901,1.0121871831709,-1.4000958780267,0.98094965566634,1.1970780553199,-0.16212371110256,0.79748629837172,-3.7430559108837,-1.4707455626114,-3.2171363996294,5.3997084879635,-2.3390212745763,3.1146503474872,-0.37326299453851,-1.2295642924008,-6.5315057012035,1.0287873678176,-1.9633098310856,-3.4190374262871,1.6354674292143,3.1581370574959,-3.0968279426309,343.09521557382,343.09521557382,343.09521557382,343.09521557382,343.09521557382,343.09521557382,343.09521557382,343.09521557382,343.09521557382,343.09521557382,343.09521557382,343.09521557382,343.09521557382,343.09521557382,343.09521557382,343.09521557382,343.09521557382,343.09521557382,343.09521557382,343.09521557382,343.09521557382,343.09521557382,343.09521557382,343.09521557382,343.09521557382,343.09521557382,343.09521557382,343.09521557382,343.09521557382,343.09521557382,343.09521557382,343.09521557382,343.09521557382,343.09521557382,343.09521557382,343.09521557382,343.09521557382,343.09521557382,343.09521557382,343.09521557382,343.09521557382,343.09521557382,343.09521557382,343.09521557382,343.09521557382,343.09521557382,343.09521557382,343.09521557382,223.13098242545,686.29203198374,-2.2527418144862,600.63111889922,-2.2655229012227,0
0.00059343749999999,3060652897.4288,5.0830600087318e-05,0.00017585896220195,7.7257283419352e-05,1.0560314190523,0,0,0,0,0,0,0,0,0,0,0,0,0,0,0,0,0,0,0,0,0,0,0,0,0,0,0,0,0,0,0,0,0,0,0,0,0,0,0,0,0,0,0,0,0,0,0,0,-0.95948468987575,0.22148427216657,-0.23882532305652,5.1713538394717,2.869036245259,1.0118842105255,-2.930415472976,1.5039515574048,2.6656016616106,-0.41286249241785,1.8599863979063,-5.3536401273947,1.6224540970673,-1.1812086885602,1.8819976121307,-3.8318276778157,1.6756718719519,4.3261723189529,-1.0272899892096,-4.4503930446464,1.9140390001727,2.0680115623622,0.029190864099777,-4.3719503724734,3.2102280252106,-2.7404053929063,1.212452078395,1.0118736987064,-1.3986553883407,0.98019137449555,1.1962150605012,-0.16127133745523,0.79741000825863,-3.7413880584798,-1.469696884385,-3.2163734087686,5.399488944638,-2.3371822367497,3.1143994269143,-0.3731060619551,-1.2292689700267,-6.5295814003426,1.0286415292807,-1.9630393217776,-3.4191780182502,1.6368334991798,3.1572220374093,-3.0945624503326,343.54589355327,343.54589355327,343.54589355327,343.54589355327,343.54589355327,343.54589355327,343.54589355327,343.54589355327,343.54589355327,343.54589355327,343.54589355327,343.54589355327,343.54589355327,343.54589355327,343.54589355327,343.54589355327,343.54589355327,343.54589355327,343.54589355327,343.54589355327,343.54589355327,343.54589355327,343.54589355327,343.54589355327,343.54589355327,343.54589355327,343.54589355327,343.54589355327,343.54589355327,343.54589355327,343.54589355327,343.54589355327,343.54589355327,343.54589355327,343.54589355327,343.54589355327,343.54589355327,343.54589355327,343.54589355327,343.54589355327,343.54589355327,343.54589355327,343.54589355327,343.54589355327,343.54589355327,343.54589355327,343.54589355327,343.54589355327,223.10396755242,687.21536252847,-2.2609046116156,601.42112696508,-2.2736905021405,0
0.00059468749999999,3071556057.0154,5.0935009582626e-05,0.00017622946746196,7.7428546137883e-05,1.0561506056391,0,0,0,0,0,0,0,0,0,0,0,0,0,0,0,0,0,0,0,0,0,0,0,0,0,0,0,0,0,0,0,0,0,0,0,0,0,0,0,0,0,0,0,0,0,0,0,0,-0.95931948328864,0.22287339235343,-0.23921595487842,5.1711092776979,2.8685062122759,1.0114998395,-2.9291095275135,1.5035263019694,2.6651241032463,-0.41251737040036,1.8597299152725,-5.3531740780769,1.6230469112827,-1.1802624076297,1.8822774356569,-3.8294923447953,1.674099269005,4.3251817410051,-1.0272352106958,-4.4501834520452,1.913955583453,2.0689680543248,0.02923476948012,-4.3737021202875,3.2101301969176,-2.7421181348103,1.2124245159759,1.0115595693442,-1.3972166360833,0.97943329070902,1.1953521702583,-0.16041852834328,0.79733389119997,-3.7397211522977,-1.4686491747611,-3.2156094243576,5.3992677338386,-2.3353433826175,3.1141478308326,-0.37294951520463,-1.228973371801,-6.5276551598573,1.0284936493941,-1.9627678275034,-3.4193181817349,1.6382004487611,3.1563084107832,-3.0922978958686,343.99647568931,343.99647568931,343.99647568931,343.99647568931,343.99647568931,343.99647568931,343.99647568931,343.99647568931,343.99647568931,343.99647568931,343.99647568931,343.99647568931,343.99647568931,343.99647568931,343.99647568931,343.99647568931,343.99647568931,343.99647568931,343.99647568931,343.99647568931,343.99647568931,343.99647568931,343.99647568931,343.99647568931,343.99647568931,343.99647568931,343.99647568931,343.99647568931,343.99647568931,343.99647568931,343.99647568931,343.99647568931,343.99647568931,343.99647568931,343.99647568931,343.99647568931,343.99647568931,343.99647568931,343.99647568931,343.99647568931,343.99647568931,343.99647568931,343.99647568931,343.99647568931,343.99647568931,343.99647568931,343.99647568931,343.99647568931,223.07695001668,688.13849064399,-2.2690803420893,602.21093383345,-2.2818709801673,0
0.00059593749999999,3082476201.8348,5.103940888884e-05,0.0001765999727655,7.7599828147848e-05,1.0562697886798,0,0,0,0,0,0,0,0,0,0,0,0,0,0,0,0,0,0,0,0,0,0,0,0,0,0,0,0,0,0,0,0,0,0,0,0,0,0,0,0,0,0,0,0,0,0,0,0,-0.95915398227075,0.22426128192045,-0.23960996382828,5.1708650664306,2.8679764103961,1.0111159211923,-2.9278052288261,1.5031006911942,2.6646459109049,-0.41217261806186,1.8594722773064,-5.3527068981811,1.6236391998481,-1.1793171299395,1.8825560336653,-3.8271562027533,1.6725264118778,4.3241922391995,-1.0271789722586,-4.4499751595462,1.9138700424313,2.069922610156,0.029278359665251,-4.3754547106221,3.210031183734,-2.7438282309949,1.2123965668009,1.0112448028023,-1.3957796116204,0.97867539742932,1.1944893863445,-0.1595652873876,0.79725795249811,-3.738055196571,-1.4676024189778,-3.2148444511293,5.399044866471,-2.333504716571,3.1138955601586,-0.37279335593463,-1.2286775037642,-6.5257269854334,1.0283437313872,-1.9624953345144,-3.4194579239494,1.6395682804984,3.1553961517754,-3.0900342614303,344.4469619815,344.4469619815,344.4469619815,344.4469619815,344.4469619815,344.4469619815,344.4469619815,344.4469619815,344.4469619815,344.4469619815,344.4469619815,344.4469619815,344.4469619815,344.4469619815,344.4469619815,344.4469619815,344.4469619815,344.4469619815,344.4469619815,344.4469619815,344.4469619815,344.4469619815,344.4469619815,344.4469619815,344.4469619815,344.4469619815,344.4469619815,344.4469619815,344.4469619815,344.4469619815,344.4469619815,344.4469619815,344.4469619815,344.4469619815,344.4469619815,344.4469619815,344.4469619815,344.4469619815,344.4469619815,344.4469619815,344.4469619815,344.4469619815,344.4469619815,344.4469619815,344.4469619815,344.4469619815,344.4469619815,344.4469619815,223.04992989903,689.06141650252,-2.2772689998222,603.00053958119,-2.2900643290051,0
0.00059718749999999,3093413321.0059,5.1143797707475e-05,0.00017697047811241,7.7771128906942e-05,1.0563889681747,0,0,0,0,0,0,0,0,0,0,0,0,0,0,0,0,0,0,0,0,0,0,0,0,0,0,0,0,0,0,0,0,0,0,0,0,0,0,0,0,0,0,0,0,0,0,0,0,-0.95898819229002,0.22564794658293,-0.24000730388683,5.1706212097413,2.8674468315129,1.0107324660165,-2.9265025661147,1.502674725013,2.6641670889566,-0.41182823534576,1.8592135006448,-5.352238589335,1.6242309639556,-1.1783728587354,1.8828334085986,-3.8248192625441,1.6709532992698,4.323203792065,-1.0271212618228,-4.4497681554967,1.9137824070041,2.0708752448252,0.029321629281442,-4.3772081217334,3.2099310066926,-2.7455356771996,1.2123682398541,1.0109294064119,-1.3943443052219,0.97791768783777,1.1936267109066,-0.15871161820977,0.79718219740357,-3.7363901953782,-1.4665566024085,-3.2140784944536,5.3988203531932,-2.3316662430052,3.1136426155247,-0.37263758602858,-1.2283813720107,-6.5237968832359,1.0281917783572,-1.9622218295324,-3.4195972516912,1.6409369969358,3.1544852347466,-3.0877715295402,344.89735242957,344.89735242957,344.89735242957,344.89735242957,344.89735242957,344.89735242957,344.89735242957,344.89735242957,344.89735242957,344.89735242957,344.89735242957,344.89735242957,344.89735242957,344.89735242957,344.89735242957,344.89735242957,344.89735242957,344.89735242957,344.89735242957,344.89735242957,344.89735242957,344.89735242957,344.89735242957,344.89735242957,344.89735242957,344.89735242957,344.89735242957,344.89735242957,344.89735242957,344.89735242957,344.89735242957,344.89735242957,344.89735242957,344.89735242957,344.89735242957,344.89735242957,344.89735242957,344.89735242957,344.89735242957,344.89735242957,344.89735242957,344.89735242957,344.89735242957,344.89735242957,344.89735242957,344.89735242957,344.89735242957,344.89735242957,223.0229072807,689.98414027767,-2.2854705787335,603.78994428484,-2.298270542375,0
0.00059843749999999,3104367403.6333,5.124817639722e-05,0.00017734098350254,7.7942449073567e-05,1.0565081441244,0,0,0,0,0,0,0,0,0,0,0,0,0,0,0,0,0,0,0,0,0,0,0,0,0,0,0,0,0,0,0,0,0,0,0,0,0,0,0,0,0,0,0,0,0,0,0,0,-0.95882211878506,0.22703339248527,-0.24040792914989,5.1703777114095,2.8669174676553,1.0103494837721,-2.925201528558,1.5022484033445,2.6636876418311,-0.41148422211146,1.8589536017367,-5.3517691529806,1.624822204995,-1.1774295977028,1.8831095628547,-3.8224815351852,1.6693799295682,4.3222163782558,-1.0270620679286,-4.4495624282168,1.9136927070237,2.0718259731517,0.029364573085492,-4.378962331998,3.2098296866159,-2.7472404692058,1.2123395441246,1.0106133871069,-1.3929107070918,0.97716015518138,1.1927641464605,-0.15785752443598,0.79710663111612,-3.7347261526354,-1.465511710578,-3.2133115603656,5.3985942044592,-2.3298279663197,3.1133889972843,-0.37248220761831,-1.2280849826875,-6.5218648598603,1.0280377932818,-1.9619472997857,-3.4197361713695,1.6423066006036,3.1535756342825,-3.085509683073,345.34764703347,345.34764703347,345.34764703347,345.34764703347,345.34764703347,345.34764703347,345.34764703347,345.34764703347,345.34764703347,345.34764703347,345.34764703347,345.34764703347,345.34764703347,345.34764703347,345.34764703347,345.34764703347,345.34764703347,345.34764703347,345.34764703347,345.34764703347,345.34764703347,345.34764703347,345.34764703347,345.34764703347,345.34764703347,345.34764703347,345.34764703347,345.34764703347,345.34764703347,345.34764703347,345.34764703347,345.34764703347,345.34764703347,345.34764703347,345.34764703347,345.34764703347,345.34764703347,345.34764703347,345.34764703347,345.34764703347,345.34764703347,345.34764703347,345.34764703347,345.34764703347,345.34764703347,345.34764703347,345.34764703347,345.34764703347,222.99588224351,690.90666214426,-2.2936850727731,604.57914802062,-2.3064896139838,0
0.00059968749999999,3115338438.8078,5.1352544748736e-05,0.00017771148893574,7.8113788268087e-05,1.0566273165294,0,0,0,0,0,0,0,0,0,0,0,0,0,0,0,0,0,0,0,0,0,0,0,0,0,0,0,0,0,0,0,0,0,0,0,0,0,0,0,0,0,0,0,0,0,0,0,0,-0.958655767163,0.22841762618139,-0.2408117938571,5.1701345749165,2.8663883110006,1.0099669836395,-2.9239021053462,1.5018217260999,2.6632075739248,-0.41114057813205,1.8586925968373,-5.3512985903995,1.625412924559,-1.176487350936,1.8833844988032,-3.8201430318507,1.6678063008129,4.3212299765773,-1.027001379735,-4.4493579660438,1.9136009722727,2.0727748097451,0.02940718596938,-4.3807173198935,3.2097272440997,-2.7489426028842,1.2123104885961,1.0102967514216,-1.3914788073896,0.97640279278271,1.1919016958055,-0.1570030096904,0.79703125878465,-3.7330630720993,-1.4644677291748,-3.2125436555178,5.3983664305404,-2.3279898909205,3.1131347054557,-0.37232722307571,-1.2277883419882,-6.5199309223021,1.0278817790078,-1.9616717330076,-3.4198746890159,1.6436770939863,3.1526673252221,-3.0832487052715,345.79784579333,345.79784579333,345.79784579333,345.79784579333,345.79784579333,345.79784579333,345.79784579333,345.79784579333,345.79784579333,345.79784579333,345.79784579333,345.79784579333,345.79784579333,345.79784579333,345.79784579333,345.79784579333,345.79784579333,345.79784579333,345.79784579333,345.79784579333,345.79784579333,345.79784579333,345.79784579333,345.79784579333,345.79784579333,345.79784579333,345.79784579333,345.79784579333,345.79784579333,345.79784579333,345.79784579333,345.79784579333,345.79784579333,345.79784579333,345.79784579333,345.79784579333,345.79784579333,345.79784579333,345.79784579333,345.79784579333,345.79784579333,345.79784579333,345.79784579333,345.79784579333,345.79784579333,345.79784579333,345.79784579333,345.79784579333,222.96885486982,691.82898227813,-2.3019124758713,605.36815086438,-2.3147215375612,0
0.00060093749999999,3126326415.6059,5.1456902750365e-05,0.00017808199441188,7.828514647194e-05,1.0567464853902,0,0,0,0,0,0,0,0,0,0,0,0,0,0,0,0,0,0,0,0,0,0,0,0,0,0,0,0,0,0,0,0,0,0,0,0,0,0,0,0,0,0,0,0,0,0,0,0,-0.95848914279615,0.22980065462356,-0.24121885242506,5.1698918034366,2.8658593538895,1.0095849741711,-2.9226042857162,1.5013946931956,2.6627268895321,-0.41079730309778,1.858430501998,-5.3508269027105,1.6260031244512,-1.1755461229568,1.8836582188011,-3.8178037638542,1.6662324107071,4.320244566015,-1.0269391870259,-4.4491547573695,1.9135072324458,2.0737217689543,0.02944946295918,-4.382473063966,3.2096236994988,-2.750642074205,1.2122810822397,1.0099795054849,-1.3900485962606,0.975645594054,1.1910393619606,-0.1561480775958,0.7969560855062,-3.7314009573615,-1.4634246440622,-3.2117747872042,5.3981370415513,-2.3261520212193,3.1128797397042,-0.37217263502229,-1.2274914561536,-6.5179950779085,1.0277237382681,-1.961395117469,-3.4200128102925,1.6450484794935,3.1517602826798,-3.0809885797596,346.24794870945,346.24794870945,346.24794870945,346.24794870945,346.24794870945,346.24794870945,346.24794870945,346.24794870945,346.24794870945,346.24794870945,346.24794870945,346.24794870945,346.24794870945,346.24794870945,346.24794870945,346.24794870945,346.24794870945,346.24794870945,346.24794870945,346.24794870945,346.24794870945,346.24794870945,346.24794870945,346.24794870945,346.24794870945,346.24794870945,346.24794870945,346.24794870945,346.24794870945,346.24794870945,346.24794870945,346.24794870945,346.24794870945,346.24794870945,346.24794870945,346.24794870945,346.24794870945,346.24794870945,346.24794870945,346.24794870945,346.24794870945,346.24794870945,346.24794870945,346.24794870945,346.24794870945,346.24794870945,346.24794870945,346.24794870945,222.94182524233,692.7511008559,-2.3101527818971,606.15695289163,-2.322966306812,0
0.00060218749999999,3137331323.0898,5.1561250719793e-05,0.0001784524999308,7.8456524268125e-05,1.0568656507073,0,0,0,0,0,0,0,0,0,0,0,0,0,0,0,0,0,0,0,0,0,0,0,0,0,0,0,0,0,0,0,0,0,0,0,0,0,0,0,0,0,0,0,0,0,0,0,0,-0.95832225100972,0.23118248512287,-0.24162905950867,5.1696493997886,2.8653305888368,1.009203463291,-2.9213080587477,1.5009673045414,2.6622455930945,-0.41045439661975,1.8581673330486,-5.3503540908523,1.6265928066791,-1.1746059185985,1.8839307252055,-3.8154637427994,1.6646582566461,4.3192601257382,-1.0268754802292,-4.4489527903776,1.9134115171092,2.0746668649981,0.02949139921159,-4.3842295431684,3.2095190729134,-2.7523388792152,1.2122513340141,1.0096616550203,-1.3886200637511,0.97488855248953,1.1901771483677,-0.15529273175437,0.79688111631625,-3.729739811833,-1.4623824412647,-3.2110049632696,5.3979060474105,-2.3243143616421,3.1126240994074,-0.3720184462538,-1.2271943314401,-6.5160573347866,1.0275636736571,-1.9611174419844,-3.4201505404512,1.6464207594931,3.1508544820387,-3.0787292905879,346.69795578237,346.69795578237,346.69795578237,346.69795578237,346.69795578237,346.69795578237,346.69795578237,346.69795578237,346.69795578237,346.69795578237,346.69795578237,346.69795578237,346.69795578237,346.69795578237,346.69795578237,346.69795578237,346.69795578237,346.69795578237,346.69795578237,346.69795578237,346.69795578237,346.69795578237,346.69795578237,346.69795578237,346.69795578237,346.69795578237,346.69795578237,346.69795578237,346.69795578237,346.69795578237,346.69795578237,346.69795578237,346.69795578237,346.69795578237,346.69795578237,346.69795578237,346.69795578237,346.69795578237,346.69795578237,346.69795578237,346.69795578237,346.69795578237,346.69795578237,346.69795578237,346.69795578237,346.69795578237,346.69795578237,346.69795578237,222.91479344402,693.67301805498,-2.3184059848914,606.94555417744,-2.3312239154738,0
0.00060343749999999,3148353150.3076,5.1665588517871e-05,0.00017882300549238,7.8627921404325e-05,1.0569848124811,0,0,0,0,0,0,0,0,0,0,0,0,0,0,0,0,0,0,0,0,0,0,0,0,0,0,0,0,0,0,0,0,0,0,0,0,0,0,0,0,0,0,0,0,0,0,0,0,-0.95815509709083,0.23256312534829,-0.24204237000944,5.1694073664416,2.8648020085409,1.0088224582828,-2.9200134136478,1.5005395600609,2.6617636890127,-0.41011185822729,1.8579031056226,-5.349880155568,1.6271819734506,-1.1736667431345,1.8842020204506,-3.8131229803762,1.6630838357705,4.3182766351275,-1.0268102504169,-4.4487520533511,1.9133138556951,2.0756101118458,0.029532990016523,-4.3859867364379,3.2094133842135,-2.7540330140637,1.2122212528501,1.0093432053365,-1.3871931999884,0.97413166168271,1.1893150587426,-0.15443697576539,0.79680635619946,-3.7280796387306,-1.4613411070045,-3.2102341922102,5.3976734579879,-2.3224769166188,3.1123677836605,-0.37186465982718,-1.2268969740941,-6.514117701265,1.0274015876843,-1.9608386959637,-3.4202878844323,1.647793936285,3.1499498989703,-3.0764708222196,347.1478670128,347.1478670128,347.1478670128,347.1478670128,347.1478670128,347.1478670128,347.1478670128,347.1478670128,347.1478670128,347.1478670128,347.1478670128,347.1478670128,347.1478670128,347.1478670128,347.1478670128,347.1478670128,347.1478670128,347.1478670128,347.1478670128,347.1478670128,347.1478670128,347.1478670128,347.1478670128,347.1478670128,347.1478670128,347.1478670128,347.1478670128,347.1478670128,347.1478670128,347.1478670128,347.1478670128,347.1478670128,347.1478670128,347.1478670128,347.1478670128,347.1478670128,347.1478670128,347.1478670128,347.1478670128,347.1478670128,347.1478670128,347.1478670128,347.1478670128,347.1478670128,347.1478670128,347.1478670128,347.1478670128,347.1478670128,222.88775955878,694.59473405324,-2.3266720787783,607.73395479653,-2.3394943572752,0
0.00060468749999999,3159391886.2926,5.1769916134668e-05,0.00017919351109649,7.8799337864153e-05,1.0571039707123,0,0,0,0,0,0,0,0,0,0,0,0,0,0,0,0,0,0,0,0,0,0,0,0,0,0,0,0,0,0,0,0,0,0,0,0,0,0,0,0,0,0,0,0,0,0,0,0,-0.95798768628119,0.23394258332362,-0.24245873912157,5.1691657055559,2.8642736058859,1.0084419657922,-2.9187203397816,1.500111459695,2.6612811817538,-0.40976968736994,1.8576378351516,-5.3494050974603,1.627770627182,-1.1727286021723,1.884472107065,-3.8107814882838,1.6615091449496,4.3172940737895,-1.0267434893096,-4.4485525347649,1.9132142774722,2.0765515233364,0.029574230797888,-4.3877446225593,3.2093066530313,-2.7557244750673,1.2121908476354,1.0090241613351,-1.3857679951772,0.97337491533297,1.1884530971109,-0.15358081322907,0.79673181008887,-3.7264204410959,-1.4603006277151,-3.209462483042,5.397439283109,-2.3206396905751,3.1121107912164,-0.37171127901188,-1.2265993903424,-6.5121761856956,1.0272374827866,-1.9605588693945,-3.4204248468544,1.6491680120481,3.149046509456,-3.074213159518,347.59768240164,347.59768240164,347.59768240164,347.59768240164,347.59768240164,347.59768240164,347.59768240164,347.59768240164,347.59768240164,347.59768240164,347.59768240164,347.59768240164,347.59768240164,347.59768240164,347.59768240164,347.59768240164,347.59768240164,347.59768240164,347.59768240164,347.59768240164,347.59768240164,347.59768240164,347.59768240164,347.59768240164,347.59768240164,347.59768240164,347.59768240164,347.59768240164,347.59768240164,347.59768240164,347.59768240164,347.59768240164,347.59768240164,347.59768240164,347.59768240164,347.59768240164,347.59768240164,347.59768240164,347.59768240164,347.59768240164,347.59768240164,347.59768240164,347.59768240164,347.59768240164,347.59768240164,347.59768240164,347.59768240164,347.59768240164,222.86072367062,695.51624902882,-2.3349510574336,608.52215482319,-2.3477776259573,0
0.00060593749999999,3170447520.0644,5.1874233403785e-05,0.000179564016743,7.8970773345127e-05,1.0572231254014,0,0,0,0,0,0,0,0,0,0,0,0,0,0,0,0,0,0,0,0,0,0,0,0,0,0,0,0,0,0,0,0,0,0,0,0,0,0,0,0,0,0,0,0,0,0,0,0,-0.95782002377087,0.23532086737501,-0.24287812231113,5.168924418889,2.8637453739774,1.0080619918396,-2.9174288264444,1.4996830034098,2.6607980755668,-0.40942788342169,1.8573715368177,-5.3489289169764,1.6283587704988,-1.1717915016899,1.8847409876664,-3.8084392785315,1.6599341807416,4.3163124216197,-1.0266751892658,-4.4483542229574,1.9131128115416,2.0774911129285,0.029615117110828,-4.3895031807512,3.209198898677,-2.7574132586893,1.2121601272229,1.0087045275172,-1.3843444395061,0.97261830725087,1.1875912676022,-0.1527242477098,0.79665748285245,-3.7247622217823,-1.4592609900153,-3.2086898453775,5.3972035325071,-2.3188026879587,3.1118531204709,-0.3715583072917,-1.2263015863834,-6.5102327972074,1.0270713612895,-1.9602779528661,-3.4205614319751,1.650542988844,3.1481442898273,-3.0719562878121,348.04740194999,348.04740194999,348.04740194999,348.04740194999,348.04740194999,348.04740194999,348.04740194999,348.04740194999,348.04740194999,348.04740194999,348.04740194999,348.04740194999,348.04740194999,348.04740194999,348.04740194999,348.04740194999,348.04740194999,348.04740194999,348.04740194999,348.04740194999,348.04740194999,348.04740194999,348.04740194999,348.04740194999,348.04740194999,348.04740194999,348.04740194999,348.04740194999,348.04740194999,348.04740194999,348.04740194999,348.04740194999,348.04740194999,348.04740194999,348.04740194999,348.04740194999,348.04740194999,348.04740194999,348.04740194999,348.04740194999,348.04740194999,348.04740194999,348.04740194999,348.04740194999,348.04740194999,348.04740194999,348.04740194999,348.04740194999,222.83368586355,696.43756316002,-2.3432429147738,609.31015433131,-2.3560737152423,0
0.00060718749999999,3181520040.6275,5.1978540568891e-05,0.00017993452243179,7.914222829467e-05,1.0573422765488,0,0,0,0,0,0,0,0,0,0,0,0,0,0,0,0,0,0,0,0,0,0,0,0,0,0,0,0,0,0,0,0,0,0,0,0,0,0,0,0,0,0,0,0,0,0,0,0,-0.957652114692,0.23669798612918,-0.24330047541805,5.1686835078261,2.8632173061346,1.0076825418201,-2.9161388629326,1.4992541911877,2.6603143748551,-0.40908644568132,1.8571042255883,-5.3484516143892,1.6289464062188,-1.1708554479005,1.8850086650333,-3.8060963632802,1.658358939488,4.3153316587758,-1.0266053432964,-4.4481571062232,1.9130094867957,2.0784288939594,0.029655644638462,-4.391262390394,3.2090901402198,-2.7590993615219,1.2121291004235,1.0083843079826,-1.3829225232036,0.97186183135306,1.1867295747308,-0.15186728275046,0.79658337929603,-3.7231049834474,-1.4582221807223,-3.2079162892784,5.3969662158889,-2.3169659132227,3.1115947695549,-0.37140574829625,-1.2260035683267,-6.5082875453304,1.0269032254451,-1.9599959375784,-3.4206976437233,1.6519188686378,3.1472432167326,-3.0697001928926,348.49702565916,348.49702565916,348.49702565916,348.49702565916,348.49702565916,348.49702565916,348.49702565916,348.49702565916,348.49702565916,348.49702565916,348.49702565916,348.49702565916,348.49702565916,348.49702565916,348.49702565916,348.49702565916,348.49702565916,348.49702565916,348.49702565916,348.49702565916,348.49702565916,348.49702565916,348.49702565916,348.49702565916,348.49702565916,348.49702565916,348.49702565916,348.49702565916,348.49702565916,348.49702565916,348.49702565916,348.49702565916,348.49702565916,348.49702565916,348.49702565916,348.49702565916,348.49702565916,348.49702565916,348.49702565916,348.49702565916,348.49702565916,348.49702565916,348.49702565916,348.49702565916,348.49702565916,348.49702565916,348.49702565916,348.49702565916,222.80664622181,697.35867662518,-2.351547644807,610.09795339433,-2.3643826188868,0
0.00060843749999999,3192609436.9722,5.2082837405174e-05,0.00018030502816276,7.9313702303477e-05,1.0574614241551,0,0,0,0,0,0,0,0,0,0,0,0,0,0,0,0,0,0,0,0,0,0,0,0,0,0,0,0,0,0,0,0,0,0,0,0,0,0,0,0,0,0,0,0,0,0,0,0,-0.95748396412475,0.23807394850383,-0.2437257546165,5.1684429733615,2.8626893958988,1.0073036204996,-2.9148504387238,1.498825023048,2.6598300839593,-0.40874537337271,1.8568359162123,-5.3479731897817,1.6295335373459,-1.1699204474094,1.8852751421744,-3.8037527547555,1.6567834173504,4.3143517657152,-1.0265339450616,-4.4479611729867,1.9129043319224,2.0793648795063,0.029695809192525,-4.3930222308522,3.2089803964522,-2.7607827803085,1.2120977759891,1.0080635064301,-1.3815022366655,0.97110548167656,1.18586802322,-0.15100992187633,0.79650950416714,-3.7214487285333,-1.4571841868718,-3.2071418253972,5.3967273430447,-2.3151293708202,3.1113357363303,-0.37125360589548,-1.2257053421619,-6.5063404397603,1.0267330774748,-1.9597128153962,-3.4208334857655,1.6532956532705,3.1463432671709,-3.0674448610057,348.94655353064,348.94655353064,348.94655353064,348.94655353064,348.94655353064,348.94655353064,348.94655353064,348.94655353064,348.94655353064,348.94655353064,348.94655353064,348.94655353064,348.94655353064,348.94655353064,348.94655353064,348.94655353064,348.94655353064,348.94655353064,348.94655353064,348.94655353064,348.94655353064,348.94655353064,348.94655353064,348.94655353064,348.94655353064,348.94655353064,348.94655353064,348.94655353064,348.94655353064,348.94655353064,348.94655353064,348.94655353064,348.94655353064,348.94655353064,348.94655353064,348.94655353064,348.94655353064,348.94655353064,348.94655353064,348.94655353064,348.94655353064,348.94655353064,348.94655353064,348.94655353064,348.94655353064,348.94655353064,348.94655353064,348.94655353064,222.77960483005,698.27958960242,-2.359865241395,610.88555208537,-2.372704330612,0
0.00060968749999999,3203715698.0744,5.218712388929e-05,0.0001806755339358,7.9485195329537e-05,1.0575805682209,0,0,0,0,0,0,0,0,0,0,0,0,0,0,0,0,0,0,0,0,0,0,0,0,0,0,0,0,0,0,0,0,0,0,0,0,0,0,0,0,0,0,0,0,0,0,0,0,-0.95731557708653,0.23944876369085,-0.24415391647512,5.1682028160966,2.8621616370513,1.0069252320393,-2.9135635433275,1.4983954990407,2.659345207248,-0.40840466564802,1.8565666232067,-5.3474936431087,1.6301201670715,-1.1689865070231,1.8855404223363,-3.8014084653238,1.6552076102806,4.3133727232241,-1.0264609888519,-4.4477664116631,1.9127973753758,2.0802990824694,0.029735606709578,-4.3947826816381,3.2088696858862,-2.7624635119874,1.2120661626146,1.007742126175,-1.3800835703577,0.97034925237657,1.1850066180339,-0.15015216858344,0.79643586214582,-3.7197934592959,-1.4561469957076,-3.2063664647676,5.3964869238092,-2.3132930652081,3.1110760183465,-0.37110188409845,-1.2254069137381,-6.5043914905544,1.0265609195602,-1.9594285787929,-3.4209689614719,1.6546733444277,3.1454444185035,-3.0651902788499,349.39598556613,349.39598556613,349.39598556613,349.39598556613,349.39598556613,349.39598556613,349.39598556613,349.39598556613,349.39598556613,349.39598556613,349.39598556613,349.39598556613,349.39598556613,349.39598556613,349.39598556613,349.39598556613,349.39598556613,349.39598556613,349.39598556613,349.39598556613,349.39598556613,349.39598556613,349.39598556613,349.39598556613,349.39598556613,349.39598556613,349.39598556613,349.39598556613,349.39598556613,349.39598556613,349.39598556613,349.39598556613,349.39598556613,349.39598556613,349.39598556613,349.39598556613,349.39598556613,349.39598556613,349.39598556613,349.39598556613,349.39598556613,349.39598556613,349.39598556613,349.39598556613,349.39598556613,349.39598556613,349.39598556613,349.39598556613,222.75256177248,699.20030226954,-2.3681956984672,611.67295047713,-2.3810388441699,0
0.00061093749999999,3214838812.8954,5.2291400101868e-05,0.00018104603975083,7.9656707520804e-05,1.0576997087466,0,0,0,0,0,0,0,0,0,0,0,0,0,0,0,0,0,0,0,0,0,0,0,0,0,0,0,0,0,0,0,0,0,0,0,0,0,0,0,0,0,0,0,0,0,0,0,0,-0.9571469585277,0.24082244113836,-0.24458491795644,5.1679630362331,2.8616340236242,1.0065473799965,-2.912278166284,1.4979656192529,2.6588597490672,-0.40806432159248,1.856296360848,-5.3470129741831,1.6307062987645,-1.1680536337762,1.8858045090471,-3.7990635074955,1.6536315140502,4.3123945124408,-1.026386469596,-4.4475728106389,1.9126886453686,2.0812315155245,0.029775033246021,-4.3965437224477,3.2087580267328,-2.7641415536817,1.2120342689358,1.007420170151,-1.3786665148339,0.96959313772963,1.1841453643353,-0.14929402633395,0.79636245784207,-3.7181391777951,-1.4551105946737,-3.205590218853,5.3962449680818,-2.31145700084,3.1108156128717,-0.37095058705874,-1.2251082887244,-6.5024407081538,1.0263867538575,-1.9591432208925,-3.4211040739162,1.656051943645,3.1445466484657,-3.062936433611,349.84532176751,349.84532176751,349.84532176751,349.84532176751,349.84532176751,349.84532176751,349.84532176751,349.84532176751,349.84532176751,349.84532176751,349.84532176751,349.84532176751,349.84532176751,349.84532176751,349.84532176751,349.84532176751,349.84532176751,349.84532176751,349.84532176751,349.84532176751,349.84532176751,349.84532176751,349.84532176751,349.84532176751,349.84532176751,349.84532176751,349.84532176751,349.84532176751,349.84532176751,349.84532176751,349.84532176751,349.84532176751,349.84532176751,349.84532176751,349.84532176751,349.84532176751,349.84532176751,349.84532176751,349.84532176751,349.84532176751,349.84532176751,349.84532176751,349.84532176751,349.84532176751,349.84532176751,349.84532176751,349.84532176751,349.84532176751,222.72551713319,700.12081480382,-2.3765390100017,612.46014864189,-2.3893861533205,0
0.00061218749999999,3225978770.3821,5.2395666094956e-05,0.00018141654560773,7.9828238972631e-05,1.0578188457329,0,0,0,0,0,0,0,0,0,0,0,0,0,0,0,0,0,0,0,0,0,0,0,0,0,0,0,0,0,0,0,0,0,0,0,0,0,0,0,0,0,0,0,0,0,0,0,0,-0.95697811333137,0.2421949905409,-0.24501871643844,5.1677236335619,2.8611065499071,1.0061700673434,-2.910994297234,1.4975353838154,2.6583737137468,-0.40772434022343,1.8560251431816,-5.3465311826644,1.6312919359551,-1.1671218349166,1.8860674061841,-3.7967178938896,1.6520551242994,4.3114171148798,-1.0263103828416,-4.44738035833,1.9125781698631,2.0821621911337,0.029814084977424,-4.3983053330859,3.2086454369169,-2.7658169026967,1.2120021035195,1.0070976409241,-1.3772510607999,0.96883713213719,1.1832842674803,-0.14843549855445,0.79628929579383,-3.7164858858855,-1.4540749714256,-3.2048130995058,5.3960014859064,-2.3096211821702,3.1105545169143,-0.37079971907555,-1.224809472561,-6.5004881032778,1.0262105825341,-1.958856735476,-3.4212388259229,1.6574314522921,3.1436499351811,-3.0606833129462,350.29456213686,350.29456213686,350.29456213686,350.29456213686,350.29456213686,350.29456213686,350.29456213686,350.29456213686,350.29456213686,350.29456213686,350.29456213686,350.29456213686,350.29456213686,350.29456213686,350.29456213686,350.29456213686,350.29456213686,350.29456213686,350.29456213686,350.29456213686,350.29456213686,350.29456213686,350.29456213686,350.29456213686,350.29456213686,350.29456213686,350.29456213686,350.29456213686,350.29456213686,350.29456213686,350.29456213686,350.29456213686,350.29456213686,350.29456213686,350.29456213686,350.29456213686,350.29456213686,350.29456213686,350.29456213686,350.29456213686,350.29456213686,350.29456213686,350.29456213686,350.29456213686,350.29456213686,350.29456213686,350.29456213686,350.29456213686,222.6984709959,701.0411273819,-2.3848951699433,613.24714665167,-2.3977462518145,0
0.00061343749999999,3237135559.4667,5.2499921777604e-05,0.00018178705150643,7.9999789519781e-05,1.0579379791802,0,0,0,0,0,0,0,0,0,0,0,0,0,0,0,0,0,0,0,0,0,0,0,0,0,0,0,0,0,0,0,0,0,0,0,0,0,0,0,0,0,0,0,0,0,0,0,0,-0.95680904630968,0.24356642183579,-0.24545526972355,5.1674846074619,2.8605792104537,1.0057932964666,-2.9097119259301,1.4971047929038,2.6578871055681,-0.40738472049295,1.8557529840112,-5.3460482680524,1.6318770823272,-1.1661911179023,1.8863291180205,-3.7943716372166,1.6504784365739,4.3104405124492,-1.026232724759,-4.4471890431874,1.9124659765553,2.0830911215335,0.02985275819369,-4.4000674934716,3.208531934057,-2.7674895565199,1.2119696748585,1.0067745406941,-1.3758371991299,0.96808123012594,1.1824233329748,-0.1475765886308,0.79621638046303,-3.7148335852085,-1.4530401138255,-3.2040351189612,5.3957564875036,-2.3077856136423,3.1102927272497,-0.37064928459262,-1.224510470421,-6.4985336869034,1.0260324078026,-1.9585691169941,-3.4213732200834,1.6588118715711,3.1427542571655,-3.0584309049913,350.74370667647,350.74370667647,350.74370667647,350.74370667647,350.74370667647,350.74370667647,350.74370667647,350.74370667647,350.74370667647,350.74370667647,350.74370667647,350.74370667647,350.74370667647,350.74370667647,350.74370667647,350.74370667647,350.74370667647,350.74370667647,350.74370667647,350.74370667647,350.74370667647,350.74370667647,350.74370667647,350.74370667647,350.74370667647,350.74370667647,350.74370667647,350.74370667647,350.74370667647,350.74370667647,350.74370667647,350.74370667647,350.74370667647,350.74370667647,350.74370667647,350.74370667647,350.74370667647,350.74370667647,350.74370667647,350.74370667647,350.74370667647,350.74370667647,350.74370667647,350.74370667647,350.74370667647,350.74370667647,350.74370667647,350.74370667647,222.67142344366,701.9612401796,-2.3932641722278,614.03394457813,-2.4061191334003,0
0.00061468749999999,3248309169.0671,5.2604167332573e-05,0.00018215755744685,8.017135949651e-05,1.0580571090892,0,0,0,0,0,0,0,0,0,0,0,0,0,0,0,0,0,0,0,0,0,0,0,0,0,0,0,0,0,0,0,0,0,0,0,0,0,0,0,0,0,0,0,0,0,0,0,0,-0.95663976219946,0.24493674518778,-0.24589453606782,5.1672459569023,2.8600520000957,1.005417069188,-2.9084310422082,1.4966738467403,2.6573999289189,-0.40704546129289,1.8554798969074,-5.3455642297039,1.6324617416967,-1.1652614903109,1.8865896492724,-3.7920247502704,1.6489014463545,4.3094646874767,-1.0261534921279,-4.4469988536654,1.912352092866,2.0840183188443,0.02989104929238,-4.4018301836386,3.2084175354857,-2.7691595128282,1.2119369913726,1.0064508713103,-1.3744249208653,0.96732542634749,1.1815625665831,-0.14671729990737,0.79614371623175,-3.7131822772007,-1.45200600994,-3.2032562897357,5.3955099832901,-2.3059502996906,3.110030240443,-0.3704992881491,-1.2242112871578,-6.496577470246,1.0258522319289,-1.9582803605559,-3.4215072587552,1.660193202511,3.1418595933314,-3.0561791983537,351.19275538879,351.19275538879,351.19275538879,351.19275538879,351.19275538879,351.19275538879,351.19275538879,351.19275538879,351.19275538879,351.19275538879,351.19275538879,351.19275538879,351.19275538879,351.19275538879,351.19275538879,351.19275538879,351.19275538879,351.19275538879,351.19275538879,351.19275538879,351.19275538879,351.19275538879,351.19275538879,351.19275538879,351.19275538879,351.19275538879,351.19275538879,351.19275538879,351.19275538879,351.19275538879,351.19275538879,351.19275538879,351.19275538879,351.19275538879,351.19275538879,351.19275538879,351.19275538879,351.19275538879,351.19275538879,351.19275538879,351.19275538879,351.19275538879,351.19275538879,351.19275538879,351.19275538879,351.19275538879,351.19275538879,351.19275538879,222.64437455864,702.88115337183,-2.4016460108142,614.82054249272,-2.414504791836,0
0.00061593749999999,3259499588.0865,5.2708402586442e-05,0.00018252806342892,8.034294858544e-05,1.0581762354603,0,0,0,0,0,0,0,0,0,0,0,0,0,0,0,0,0,0,0,0,0,0,0,0,0,0,0,0,0,0,0,0,0,0,0,0,0,0,0,0,0,0,0,0,0,0,0,0,-0.95647026566055,0.24630597098512,-0.24633647416636,5.167007680439,2.8595249139462,1.0050413867692,-2.9071516360596,1.4962425455991,2.6569121881301,-0.40670656145432,1.8552058952012,-5.3450790668236,1.6330459180002,-1.1643329598859,1.8868490051578,-3.7896772459045,1.647324149107,4.3084896227307,-1.0260726823279,-4.4468097782843,1.9122365459375,2.0849437949744,0.029928954775972,-4.4035933837057,3.2083022582289,-2.77082676949,1.2119040614006,1.0061266342757,-1.3730142172703,0.9665697155794,1.1807019741811,-0.14585763568025,0.79607130739829,-3.7115319630848,-1.4509726480366,-3.2024766246576,5.3952619839481,-2.3041152447308,3.1097670528777,-0.37034973440936,-1.2239119272662,-6.4946194647023,1.0256700572851,-1.9579904619455,-3.4216409441084,1.6615754459604,3.1409659230015,-3.05392818211,351.64170827648,351.64170827648,351.64170827648,351.64170827648,351.64170827648,351.64170827648,351.64170827648,351.64170827648,351.64170827648,351.64170827648,351.64170827648,351.64170827648,351.64170827648,351.64170827648,351.64170827648,351.64170827648,351.64170827648,351.64170827648,351.64170827648,351.64170827648,351.64170827648,351.64170827648,351.64170827648,351.64170827648,351.64170827648,351.64170827648,351.64170827648,351.64170827648,351.64170827648,351.64170827648,351.64170827648,351.64170827648,351.64170827648,351.64170827648,351.64170827648,351.64170827648,351.64170827648,351.64170827648,351.64170827648,351.64170827648,351.64170827648,351.64170827648,351.64170827648,351.64170827648,351.64170827648,351.64170827648,351.64170827648,351.64170827648,222.61732442221,703.80086713243,-2.4100406796041,615.60694046667,-2.4229032208622,0
0.00061718749999999,3270706805.4141,5.2812627577275e-05,0.00018289856945259,8.0514556855014e-05,1.0582953582941,0,0,0,0,0,0,0,0,0,0,0,0,0,0,0,0,0,0,0,0,0,0,0,0,0,0,0,0,0,0,0,0,0,0,0,0,0,0,0,0,0,0,0,0,0,0,0,0,-0.9563005612686,0.24767410983228,-0.24678104320445,5.1667697762245,2.8589979474099,1.0046662499393,-2.9058736975253,1.4958108897998,2.6564238877361,-0.40636801975622,1.8549309919863,-5.3445927784923,1.6336296152757,-1.163405534374,1.8871071914219,-3.7873291370394,1.6457465403049,4.3075153014329,-1.0259902933246,-4.4466218055199,1.912119362611,2.0858675618073,0.029966471240796,-4.4053570739271,3.2081861190259,-2.7724913245674,1.2118708932042,1.0058018307667,-1.37160507978,0.96581409272057,1.1798415619402,-0.14499759919785,0.79599915817012,-3.7098826438859,-1.4499400165724,-3.2016961366947,5.3950125003966,-2.3022804531591,3.1095031607722,-0.37020062807551,-1.2236123948372,-6.4926596818883,1.0254858863571,-1.957699417592,-3.4217742780948,1.6629586025844,3.1400732258938,-3.0516778457978,352.09056534237,352.09056534237,352.09056534237,352.09056534237,352.09056534237,352.09056534237,352.09056534237,352.09056534237,352.09056534237,352.09056534237,352.09056534237,352.09056534237,352.09056534237,352.09056534237,352.09056534237,352.09056534237,352.09056534237,352.09056534237,352.09056534237,352.09056534237,352.09056534237,352.09056534237,352.09056534237,352.09056534237,352.09056534237,352.09056534237,352.09056534237,352.09056534237,352.09056534237,352.09056534237,352.09056534237,352.09056534237,352.09056534237,352.09056534237,352.09056534237,352.09056534237,352.09056534237,352.09056534237,352.09056534237,352.09056534237,352.09056534237,352.09056534237,352.09056534237,352.09056534237,352.09056534237,352.09056534237,352.09056534237,352.09056534237,222.59027311442,704.72038163408,-2.4184481725905,616.39313857107,-2.4313144142661,0
0.00061843749999999,3281930809.9242,5.2916842446182e-05,0.00018326907551778,8.0686184562071e-05,1.0584144775911,0,0,0,0,0,0,0,0,0,0,0,0,0,0,0,0,0,0,0,0,0,0,0,0,0,0,0,0,0,0,0,0,0,0,0,0,0,0,0,0,0,0,0,0,0,0,0,0,-0.9561306535147,0.24904117253184,-0.24722820281332,5.1665322419943,2.8584710961977,1.0042916588965,-2.9045972167784,1.4953788797231,2.6559350321182,-0.40602983492558,1.8546552001064,-5.3441053636551,1.6342128376485,-1.1624792216312,1.8873642143833,-3.7849804366658,1.6441686154536,4.3065417073102,-1.0259063236607,-4.446434923873,1.9120005694433,2.0867896309583,0.030003595375931,-4.4071212346979,3.2080691342915,-2.7741531763226,1.2118374949606,1.0054764616382,-1.3701975000613,0.96505855279849,1.1789813360371,-0.1441371936514,0.7959272726586,-3.708234320419,-1.4489081041947,-3.2009148390522,5.3947615438499,-2.3004459293491,3.1092385601918,-0.37005197394204,-1.2233126935253,-6.4906981336359,1.0252997217776,-1.9574072245915,-3.421907262487,1.6643426728514,3.1391814821666,-3.0494281794327,352.53932658951,352.53932658951,352.53932658951,352.53932658951,352.53932658951,352.53932658951,352.53932658951,352.53932658951,352.53932658951,352.53932658951,352.53932658951,352.53932658951,352.53932658951,352.53932658951,352.53932658951,352.53932658951,352.53932658951,352.53932658951,352.53932658951,352.53932658951,352.53932658951,352.53932658951,352.53932658951,352.53932658951,352.53932658951,352.53932658951,352.53932658951,352.53932658951,352.53932658951,352.53932658951,352.53932658951,352.53932658951,352.53932658951,352.53932658951,352.53932658951,352.53932658951,352.53932658951,352.53932658951,352.53932658951,352.53932658951,352.53932658951,352.53932658951,352.53932658951,352.53932658951,352.53932658951,352.53932658951,352.53932658951,352.53932658951,222.56322071435,705.63969704811,-2.4268684837322,617.17913687689,-2.4397383657941,0
0.00061968749999999,3293171590.4771,5.3021047044571e-05,0.00018363958162446,8.0857831434671e-05,1.0585335933519,0,0,0,0,0,0,0,0,0,0,0,0,0,0,0,0,0,0,0,0,0,0,0,0,0,0,0,0,0,0,0,0,0,0,0,0,0,0,0,0,0,0,0,0,0,0,0,0,-0.95596054679996,0.25040717009589,-0.24767791310962,5.166295075081,2.8579443563246,1.0039176133333,-2.9033221840927,1.4949465158005,2.6554456258258,-0.40569200564182,1.854378532166,-5.3436168211242,1.6347955893096,-1.1615540294829,1.8876200809738,-3.7826311578022,1.6425903701504,4.3055688245855,-1.0258207724358,-4.446249121836,1.9118801926835,2.0877100140171,0.030040323953186,-4.4088858465238,3.2079513201421,-2.7758123232027,1.2118038747647,1.0051505274403,-1.3687914700082,0.96430309096058,1.1781213028866,-0.14327642217492,0.79585565487507,-3.7065869932941,-1.4478768997254,-3.2001327450125,5.394509125838,-2.2986116776409,3.1089732470925,-0.36990377682647,-1.223012826505,-6.4887348319135,1.0251115663639,-1.957113880683,-3.4220398988921,1.6657276570333,3.138290672386,-3.0471791734687,352.98799202108,352.98799202108,352.98799202108,352.98799202108,352.98799202108,352.98799202108,352.98799202108,352.98799202108,352.98799202108,352.98799202108,352.98799202108,352.98799202108,352.98799202108,352.98799202108,352.98799202108,352.98799202108,352.98799202108,352.98799202108,352.98799202108,352.98799202108,352.98799202108,352.98799202108,352.98799202108,352.98799202108,352.98799202108,352.98799202108,352.98799202108,352.98799202108,352.98799202108,352.98799202108,352.98799202108,352.98799202108,352.98799202108,352.98799202108,352.98799202108,352.98799202108,352.98799202108,352.98799202108,352.98799202108,352.98799202108,352.98799202108,352.98799202108,352.98799202108,352.98799202108,352.98799202108,352.98799202108,352.98799202108,352.98799202108,222.53616729918,706.55881354448,-2.435301607028,617.96493545509,-2.4481750692319,0
0.00062093749999999,3304429135.9184,5.3125241416335e-05,0.00018401008777259,8.1029497551726e-05,1.058652705577,0,0,0,0,0,0,0,0,0,0,0,0,0,0,0,0,0,0,0,0,0,0,0,0,0,0,0,0,0,0,0,0,0,0,0,0,0,0,0,0,0,0,0,0,0,0,0,0,-0.95579024543636,0.25177211372849,-0.24813013467962,5.1660582724191,2.8574177241187,1.0035441124364,-2.9020485899156,1.4945137985253,2.6549556732986,-0.40535453053939,1.8541010005228,-5.3431271495799,1.6353778744994,-1.1606299658021,1.8878747987696,-3.7802813134869,1.6410118001227,4.3045966380174,-1.025733639304,-4.4460643879572,1.9117582582821,2.0886287223577,0.030076653822138,-4.4106508900037,3.2078326923795,-2.7774687638474,1.2117700406202,1.0048240284219,-1.3673869817963,0.96354770247752,1.177261468911,-0.14241528783949,0.79578430872407,-3.7049406629107,-1.4468463921694,-3.1993498679993,5.3942552582478,-2.2967777023432,3.1087072173446,-0.36975604161244,-1.2227127964458,-6.4867697887941,1.0249214231569,-1.956819384258,-3.4221721887831,1.6671135551998,3.1374007775555,-3.0449308188146,353.43656164047,353.43656164047,353.43656164047,353.43656164047,353.43656164047,353.43656164047,353.43656164047,353.43656164047,353.43656164047,353.43656164047,353.43656164047,353.43656164047,353.43656164047,353.43656164047,353.43656164047,353.43656164047,353.43656164047,353.43656164047,353.43656164047,353.43656164047,353.43656164047,353.43656164047,353.43656164047,353.43656164047,353.43656164047,353.43656164047,353.43656164047,353.43656164047,353.43656164047,353.43656164047,353.43656164047,353.43656164047,353.43656164047,353.43656164047,353.43656164047,353.43656164047,353.43656164047,353.43656164047,353.43656164047,353.43656164047,353.43656164047,353.43656164047,353.43656164047,353.43656164047,353.43656164047,353.43656164047,353.43656164047,353.43656164047,222.50911294461,707.47773129155,-2.4437475364075,618.75053437669,-2.4566245183187,0
0.00062218749999999,3315703435.0796,5.3229425436133e-05,0.00018438059396212,8.1201182683114e-05,1.0587718142669,0,0,0,0,0,0,0,0,0,0,0,0,0,0,0,0,0,0,0,0,0,0,0,0,0,0,0,0,0,0,0,0,0,0,0,0,0,0,0,0,0,0,0,0,0,0,0,0,-0.955619753635,0.25313601483277,-0.24858482861981,5.1658218305524,2.8568911962275,1.0031711549205,-2.9007764247271,1.4940807284406,2.6544651792313,-0.4050174082153,1.8538226172906,-5.3426363475988,1.6359596974871,-1.1597070382963,1.8881283759977,-3.7779309167764,1.6394329012464,4.3036251328996,-1.0256449244469,-4.4458807107008,1.9116347918694,2.0895457674119,0.030112581897917,-4.4124163458937,3.2077132665083,-2.7791224970887,1.2117360004513,1.0044969645527,-1.3659840278034,0.96279238273429,1.1764018408011,-0.1415537936515,0.79571323799632,-3.7032953294778,-1.4458165706804,-3.1985662213523,5.3939999532797,-2.2949440077168,3.1084404667509,-0.36960877313364,-1.2224126054798,-6.4848030164922,1.0247292954295,-1.9565237343139,-3.4223041334686,1.668500367217,3.1365117790885,-3.0426831067997,353.88503545123,353.88503545123,353.88503545123,353.88503545123,353.88503545123,353.88503545123,353.88503545123,353.88503545123,353.88503545123,353.88503545123,353.88503545123,353.88503545123,353.88503545123,353.88503545123,353.88503545123,353.88503545123,353.88503545123,353.88503545123,353.88503545123,353.88503545123,353.88503545123,353.88503545123,353.88503545123,353.88503545123,353.88503545123,353.88503545123,353.88503545123,353.88503545123,353.88503545123,353.88503545123,353.88503545123,353.88503545123,353.88503545123,353.88503545123,353.88503545123,353.88503545123,353.88503545123,353.88503545123,353.88503545123,353.88503545123,353.88503545123,353.88503545123,353.88503545123,353.88503545123,353.88503545123,353.88503545123,353.88503545123,353.88503545123,222.48205772416,708.39645045613,-2.4522062659252,619.5359337128,-2.4650867068514,0
0.00062343749999999,3326994476.7779,5.3330270164369e-05,0.00018475110019303,8.1366809937725e-05,1.0588909194222,0,0,0,0,0,0,0,0,0,0,0,0,0,0,0,0,0,0,0,0,0,0,0,0,0,0,0,0,0,0,0,0,0,0,0,0,0,0,0,0,0,0,0,0,0,0,0,0,-0.95544907550711,0.25449888499658,-0.24904195651653,5.1655857456433,2.8563647696221,1.002798739036,-2.8995056790987,1.4936473061469,2.6539741483159,-0.40468063723179,1.853543394334,-5.3421444136471,1.6365410625554,-1.1587852545827,1.888380821547,-3.7755799807641,1.6378536695899,4.3026542950907,-1.0255546285659,-4.4456980784899,1.9115098187634,2.0904611604853,0.030148105155998,-4.4141821951456,3.2075930577203,-2.7807735219425,1.2117017620956,1.0041693355323,-1.3645826006605,0.96203712723231,1.1755424253108,-0.14069194254342,0.79564244636275,-3.7016509930072,-1.4447874245652,-3.1977818183942,5.3937432234696,-2.293110597981,3.1081729910818,-0.36946197621104,-1.2221122551915,-6.482834527399,1.0245351867229,-1.9562269304666,-3.4224357341161,1.669888092747,3.1356236588285,-3.04043602919,354.33341345709,354.33341345709,354.33341345709,354.33341345709,354.33341345709,354.33341345709,354.33341345709,354.33341345709,354.33341345709,354.33341345709,354.33341345709,354.33341345709,354.33341345709,354.33341345709,354.33341345709,354.33341345709,354.33341345709,354.33341345709,354.33341345709,354.33341345709,354.33341345709,354.33341345709,354.33341345709,354.33341345709,354.33341345709,354.33341345709,354.33341345709,354.33341345709,354.33341345709,354.33341345709,354.33341345709,354.33341345709,354.33341345709,354.33341345709,354.33341345709,354.33341345709,354.33341345709,354.33341345709,354.33341345709,354.33341345709,354.33341345709,354.33341345709,354.33341345709,354.33341345709,354.33341345709,354.33341345709,354.33341345709,354.33341345709,222.4550017097,709.31497120334,-2.4606776593255,620.3211335347,-2.4735617590065,0
0.00062468749999999,3338302249.8159,5.3431107903398e-05,0.0001851216064653,8.1532463017739e-05,1.0590100210434,0,0,0,0,0,0,0,0,0,0,0,0,0,0,0,0,0,0,0,0,0,0,0,0,0,0,0,0,0,0,0,0,0,0,0,0,0,0,0,0,0,0,0,0,0,0,0,0,-0.9552782150796,0.25586073599214,-0.24950148041404,5.1653500134809,2.8558384415814,1.0024268625536,-2.8982363440635,1.4932135323161,2.6534825853257,-0.40434421611002,1.8532633433157,-5.3416513459341,1.6371219739522,-1.1578646223909,1.8886321450743,-3.7732285183534,1.6362741016024,4.3016841109979,-1.0254627528889,-4.4455164800498,1.9113833639861,2.0913749128054,0.030183220632961,-4.4159484184813,3.2074720809492,-2.7824218375073,1.2116673332898,1.0038411407794,-1.3631826935339,0.96128193159321,1.1746832293505,-0.13982973738613,0.79557193738321,-3.7000076532381,-1.4437589433148,-3.1969966725917,5.3934850818789,-2.2912774773065,3.1079047862517,-0.36931565578738,-1.2218117465491,-6.4808643335067,1.0243391009461,-1.9559289730278,-3.4225669918926,1.671276731301,3.1347363990304,-3.0381895781416,354.78169566192,354.78169566192,354.78169566192,354.78169566192,354.78169566192,354.78169566192,354.78169566192,354.78169566192,354.78169566192,354.78169566192,354.78169566192,354.78169566192,354.78169566192,354.78169566192,354.78169566192,354.78169566192,354.78169566192,354.78169566192,354.78169566192,354.78169566192,354.78169566192,354.78169566192,354.78169566192,354.78169566192,354.78169566192,354.78169566192,354.78169566192,354.78169566192,354.78169566192,354.78169566192,354.78169566192,354.78169566192,354.78169566192,354.78169566192,354.78169566192,354.78169566192,354.78169566192,354.78169566192,354.78169566192,354.78169566192,354.78169566192,354.78169566192,354.78169566192,354.78169566192,354.78169566192,354.78169566192,354.78169566192,354.78169566192,222.427944971,710.23329369647,-2.4691618401959,621.10613391412,-2.4820495386659,0
0.00062593749999999,3349626742.9827,5.3531938354404e-05,0.00018549211277894,8.1698141374875e-05,1.059129119131,0,0,0,0,0,0,0,0,0,0,0,0,0,0,0,0,0,0,0,0,0,0,0,0,0,0,0,0,0,0,0,0,0,0,0,0,0,0,0,0,0,0,0,0,0,0,0,0,-0.95510717625587,0.25722157975768,-0.24996336287541,5.1651146295106,2.8553122097229,1.0020555228352,-2.8969684104457,1.4927794076645,2.6529904951181,-0.4040081433528,1.8529824756128,-5.3411571427248,1.6377024359197,-1.1569451490166,1.8888823568133,-3.7708765426001,1.6346941938617,4.3007145676244,-1.025369299107,-4.4453359038013,1.9112554522253,2.0922870355987,0.030217925399931,-4.4177149971032,3.2073503507745,-2.7840674431729,1.2116327216984,1.0035123794829,-1.361784299623,0.96052679154276,1.1738242598792,-0.13896718096147,0.79550171447409,-3.6983653097963,-1.4427311165176,-3.1962107970122,5.3932255417485,-2.2894446498096,3.1076358480573,-0.3691698166022,-1.2215110799959,-6.4788924473074,1.0241410422674,-1.9556298627763,-3.4226979077459,1.6726662821301,3.1338499823707,-3.0359437462084,355.22988206977,355.22988206977,355.22988206977,355.22988206977,355.22988206977,355.22988206977,355.22988206977,355.22988206977,355.22988206977,355.22988206977,355.22988206977,355.22988206977,355.22988206977,355.22988206977,355.22988206977,355.22988206977,355.22988206977,355.22988206977,355.22988206977,355.22988206977,355.22988206977,355.22988206977,355.22988206977,355.22988206977,355.22988206977,355.22988206977,355.22988206977,355.22988206977,355.22988206977,355.22988206977,355.22988206977,355.22988206977,355.22988206977,355.22988206977,355.22988206977,355.22988206977,355.22988206977,355.22988206977,355.22988206977,355.22988206977,355.22988206977,355.22988206977,355.22988206977,355.22988206977,355.22988206977,355.22988206977,355.22988206977,355.22988206977,222.40088757517,711.15141809703,-2.4776588026919,621.89093492297,-2.4905500396696,0
0.00062718749999999,3360967945.0528,5.3632761710612e-05,0.00018586261913392,8.1863845358952e-05,1.0592482136854,0,0,0,0,0,0,0,0,0,0,0,0,0,0,0,0,0,0,0,0,0,0,0,0,0,0,0,0,0,0,0,0,0,0,0,0,0,0,0,0,0,0,0,0,0,0,0,0,-0.95493596283892,0.25858142840209,-0.25042756695655,5.164879588818,2.854786071979,1.0016847168121,-2.8957018693114,1.4923449329707,2.6524978826186,-0.40367241743611,1.8527008023772,-5.3406618021059,1.6382824526479,-1.1560268416727,1.8891314676825,-3.7685240664564,1.6331139433083,4.2997456525499,-1.0252742693946,-4.4451563382414,1.9111261078553,2.0931975400215,0.030252216568558,-4.4194819122218,3.2072278814966,-2.7857103384413,1.2115979348942,1.0031830505874,-1.3603874125266,0.95977170291828,1.1729655239643,-0.13810427597331,0.79543178092166,-3.696723962078,-1.4417039339009,-3.1954242046643,5.3929646167186,-2.2876121195485,3.1073661724144,-0.36902446339616,-1.2212102553919,-6.4769188811421,1.0239410152283,-1.9553296011139,-3.4228284825672,1.6740567443077,3.1329643919382,-3.0336985263309,355.67797268483,355.67797268483,355.67797268483,355.67797268483,355.67797268483,355.67797268483,355.67797268483,355.67797268483,355.67797268483,355.67797268483,355.67797268483,355.67797268483,355.67797268483,355.67797268483,355.67797268483,355.67797268483,355.67797268483,355.67797268483,355.67797268483,355.67797268483,355.67797268483,355.67797268483,355.67797268483,355.67797268483,355.67797268483,355.67797268483,355.67797268483,355.67797268483,355.67797268483,355.67797268483,355.67797268483,355.67797268483,355.67797268483,355.67797268483,355.67797268483,355.67797268483,355.67797268483,355.67797268483,355.67797268483,355.67797268483,355.67797268483,355.67797268483,355.67797268483,355.67797268483,355.67797268483,355.67797268483,355.67797268483,355.67797268483,222.37382958754,712.06934456455,-2.4861685408843,622.67553663364,-2.4990632557853,0
0.00062843749999999,3372325844.7867,5.3733577875849e-05,0.00018623312553026,8.2029574791022e-05,1.0593673047073,0,0,0,0,0,0,0,0,0,0,0,0,0,0,0,0,0,0,0,0,0,0,0,0,0,0,0,0,0,0,0,0,0,0,0,0,0,0,0,0,0,0,0,0,0,0,0,0,-0.95476457852025,0.25994029419042,-0.25089405620962,5.164644886167,2.8542600266026,1.0013144410145,-2.8944367118621,1.4919101090697,2.6520047528481,-0.40333703681361,1.8524183345227,-5.340165322059,1.6388620282669,-1.155109707329,1.8893794892257,-3.7661711028211,1.6315333472237,4.2987773539403,-1.0251776663767,-4.4449777718665,1.9109953549327,2.0941064372119,0.030286091280094,-4.4212491451804,3.2071046871223,-2.7873505229729,1.2115629803659,1.0028531528132,-1.3589920261513,0.95901666165978,1.1721070287601,-0.13724102503686,0.79536213987296,-3.6950836092863,-1.4406773853094,-3.1946369083127,5.3927023207561,-2.2857798905205,3.1070957553285,-0.36887960082365,-1.2209092720447,-6.4749436473376,1.0237390247403,-1.9550281899835,-3.4229587171661,1.6754481167061,3.1320796112241,-3.0314539118107,356.12596751145,356.12596751145,356.12596751145,356.12596751145,356.12596751145,356.12596751145,356.12596751145,356.12596751145,356.12596751145,356.12596751145,356.12596751145,356.12596751145,356.12596751145,356.12596751145,356.12596751145,356.12596751145,356.12596751145,356.12596751145,356.12596751145,356.12596751145,356.12596751145,356.12596751145,356.12596751145,356.12596751145,356.12596751145,356.12596751145,356.12596751145,356.12596751145,356.12596751145,356.12596751145,356.12596751145,356.12596751145,356.12596751145,356.12596751145,356.12596751145,356.12596751145,356.12596751145,356.12596751145,356.12596751145,356.12596751145,356.12596751145,356.12596751145,356.12596751145,356.12596751145,356.12596751145,356.12596751145,356.12596751145,356.12596751145,222.34677107086,712.98707325666,-2.4946910488693,623.45993911904,-2.5075891808062,0
0.00062968749999999,3383700430.9309,5.3834386877546e-05,0.00018660363196797,8.2195329717963e-05,1.059486392197,0,0,0,0,0,0,0,0,0,0,0,0,0,0,0,0,0,0,0,0,0,0,0,0,0,0,0,0,0,0,0,0,0,0,0,0,0,0,0,0,0,0,0,0,0,0,0,0,-0.95459302687872,0.26129818953571,-0.25136279469256,5.1644105160031,2.8537340721526,1.0009446915806,-2.8931729294429,1.4914749368533,2.6515111109086,-0.40300199992143,1.8521350827299,-5.3396677004618,1.6394411668309,-1.1541937527134,1.8896264335681,-3.7638176645281,1.6299524032556,4.2978096605334,-1.0250794931167,-4.4448001931658,1.9108632171909,2.0950137382783,0.03031954669703,-4.4230166774554,3.2069807813712,-2.7889879965801,1.2115278655149,1.0025226846641,-1.3575981347362,0.9582616638112,1.1712487814984,-0.13637743067558,0.79529279433216,-3.6934442504323,-1.4396514606967,-3.1938489204691,5.3924386681232,-2.2839479666597,3.1068245929131,-0.36873523345364,-1.2206081287331,-6.4729667581833,1.0235350761018,-1.9547256318669,-3.4230886122748,1.6768403979976,3.1311956241105,-3.0292098962955,356.57386655411,356.57386655411,356.57386655411,356.57386655411,356.57386655411,356.57386655411,356.57386655411,356.57386655411,356.57386655411,356.57386655411,356.57386655411,356.57386655411,356.57386655411,356.57386655411,356.57386655411,356.57386655411,356.57386655411,356.57386655411,356.57386655411,356.57386655411,356.57386655411,356.57386655411,356.57386655411,356.57386655411,356.57386655411,356.57386655411,356.57386655411,356.57386655411,356.57386655411,356.57386655411,356.57386655411,356.57386655411,356.57386655411,356.57386655411,356.57386655411,356.57386655411,356.57386655411,356.57386655411,356.57386655411,356.57386655411,356.57386655411,356.57386655411,356.57386655411,356.57386655411,356.57386655411,356.57386655411,356.57386655411,356.57386655411,222.31971208564,713.90460432894,-2.5032263207648,624.24414245263,-2.5161278085196,0
0.00063093749999999,3395091692.2178,5.393518871552e-05,0.00018697413844705,8.2361110135744e-05,1.0596054761551,0,0,0,0,0,0,0,0,0,0,0,0,0,0,0,0,0,0,0,0,0,0,0,0,0,0,0,0,0,0,0,0,0,0,0,0,0,0,0,0,0,0,0,0,0,0,0,0,-0.95442131137868,0.26265512698101,-0.25183374696022,5.1641764724744,2.8532082074919,1.0005754642774,-2.8919105135502,1.4910394172683,2.6510169619628,-0.40266730518069,1.8518510574452,-5.3391689350865,1.6400198723069,-1.1532789842904,1.8898723133807,-3.7614637643335,1.6283711094526,4.2968425616419,-1.0249797530961,-4.4446235906361,1.9107297180433,2.0959194542856,0.030352579997351,-4.4247844906477,3.2068561776742,-2.7906227592182,1.2114925976579,1.0021916444405,-1.3562057328538,0.95750670551435,1.1703907894646,-0.13551349531736,0.79522374715607,-3.6918058843352,-1.4386261501181,-3.1930602533527,5.3921736733652,-2.2821163518367,3.1065526814373,-0.36859136575752,-1.2203068237341,-6.4709882258995,1.023329175009,-1.9544219297565,-3.4232181685624,1.6782335866684,3.1303124148669,-3.0269664737691,357.02166981745,357.02166981745,357.02166981745,357.02166981745,357.02166981745,357.02166981745,357.02166981745,357.02166981745,357.02166981745,357.02166981745,357.02166981745,357.02166981745,357.02166981745,357.02166981745,357.02166981745,357.02166981745,357.02166981745,357.02166981745,357.02166981745,357.02166981745,357.02166981745,357.02166981745,357.02166981745,357.02166981745,357.02166981745,357.02166981745,357.02166981745,357.02166981745,357.02166981745,357.02166981745,357.02166981745,357.02166981745,357.02166981745,357.02166981745,357.02166981745,357.02166981745,357.02166981745,357.02166981745,357.02166981745,357.02166981745,357.02166981745,357.02166981745,357.02166981745,357.02166981745,357.02166981745,357.02166981745,357.02166981745,357.02166981745,222.29265269004,714.82193793493,-2.5117743507085,625.02814670851,-2.5246791327106,0
0.00063218749999999,3406499617.366,5.4035983410911e-05,0.00018734464496755,8.2526916078575e-05,1.059724556582,0,0,0,0,0,0,0,0,0,0,0,0,0,0,0,0,0,0,0,0,0,0,0,0,0,0,0,0,0,0,0,0,0,0,0,0,0,0,0,0,0,0,0,0,0,0,0,0,-0.95424943536743,0.26401111918861,-0.25230687807651,5.1639427494498,2.8526824317735,1.0002067545156,-2.8906494558288,1.4906035513181,2.6505223112463,-0.40233295099907,1.8515662688882,-5.3386690236045,1.6405981485631,-1.1523654082254,1.8901171418055,-3.7591094149155,1.6267894642636,4.295876047134,-1.0248784501995,-4.4444479527749,1.9105948805811,2.0968235962692,0.030385188367799,-4.4265525665126,3.2067308891862,-2.7922548109791,1.2114571840264,1.0018600302513,-1.354814815416,0.95675178301011,1.1695330600005,-0.13464922128542,0.79515500105204,-3.6901685096257,-1.4376014437232,-3.1922709188458,5.3919073512518,-2.2802850498593,3.1062800173102,-0.36844800208869,-1.2200053548711,-6.4690080626426,1.0231213275597,-1.9541170871375,-3.4233473866296,1.6796276810044,3.1294299681323,-3.0247236385355,357.46937730621,357.46937730621,357.46937730621,357.46937730621,357.46937730621,357.46937730621,357.46937730621,357.46937730621,357.46937730621,357.46937730621,357.46937730621,357.46937730621,357.46937730621,357.46937730621,357.46937730621,357.46937730621,357.46937730621,357.46937730621,357.46937730621,357.46937730621,357.46937730621,357.46937730621,357.46937730621,357.46937730621,357.46937730621,357.46937730621,357.46937730621,357.46937730621,357.46937730621,357.46937730621,357.46937730621,357.46937730621,357.46937730621,357.46937730621,357.46937730621,357.46937730621,357.46937730621,357.46937730621,357.46937730621,357.46937730621,357.46937730621,357.46937730621,357.46937730621,357.46937730621,357.46937730621,357.46937730621,357.46937730621,357.46937730621,222.26559293991,715.73907422608,-2.5203351328802,625.81195196149,-2.533243147187,0
0.00063343749999999,3417924195.0802,5.4136771101351e-05,0.00018771515152949,8.2692747793109e-05,1.0598436334781,0,0,0,0,0,0,0,0,0,0,0,0,0,0,0,0,0,0,0,0,0,0,0,0,0,0,0,0,0,0,0,0,0,0,0,0,0,0,0,0,0,0,0,0,0,0,0,0,-0.95407740207307,0.26536617891904,-0.25278215361241,5.1637093405338,2.8521567444284,0.9998385573665,-2.8893897480686,1.4901673400577,2.650027164049,-0.4019989357732,1.8512807270507,-5.3381679636002,1.6411759993621,-1.1514530303686,1.8903609323973,-3.7567546288627,1.6252074665592,4.2949101074194,-1.0247755886906,-4.4442732680808,1.9104587275718,2.0977261752186,0.030417368998203,-4.4283208869523,3.2066049287849,-2.7938841520973,1.2114216317686,1.0015278400229,-1.353425377674,0.95599689263089,1.1686756004863,-0.13378461079521,0.79508655857467,-3.6885321247534,-1.4365773317465,-3.1914809284653,5.3916397167507,-2.2784540644716,3.1060065971202,-0.36830514667304,-1.2197037195569,-6.4670262804783,1.0229115402522,-1.9538111079669,-3.4234762670251,1.6810226791066,3.1285482689063,-3.0224813851989,357.91698902528,357.91698902528,357.91698902528,357.91698902528,357.91698902528,357.91698902528,357.91698902528,357.91698902528,357.91698902528,357.91698902528,357.91698902528,357.91698902528,357.91698902528,357.91698902528,357.91698902528,357.91698902528,357.91698902528,357.91698902528,357.91698902528,357.91698902528,357.91698902528,357.91698902528,357.91698902528,357.91698902528,357.91698902528,357.91698902528,357.91698902528,357.91698902528,357.91698902528,357.91698902528,357.91698902528,357.91698902528,357.91698902528,357.91698902528,357.91698902528,357.91698902528,357.91698902528,357.91698902528,357.91698902528,357.91698902528,357.91698902528,357.91698902528,357.91698902528,357.91698902528,357.91698902528,357.91698902528,357.91698902528,357.91698902528,222.23853288897,716.65601335175,-2.5289086614707,626.5955582871,-2.5418198457323,0
0.00063468749999999,3429365414.0512,5.4237551643219e-05,0.00018808565813291,8.2858605012921e-05,1.059962706844,0,0,0,0,0,0,0,0,0,0,0,0,0,0,0,0,0,0,0,0,0,0,0,0,0,0,0,0,0,0,0,0,0,0,0,0,0,0,0,0,0,0,0,0,0,0,0,0,-0.95390521460388,0.26672031901269,-0.25325953965108,5.1634762390937,2.8516311451507,0.99947086758158,-2.888131382233,1.4897307845972,2.6495315257075,-0.40166525788943,1.8509944417098,-5.3376657525608,1.6417534283541,-1.1505418562515,1.8906036990518,-3.7543994186648,1.6236251156453,4.2939447334284,-1.024671173199,-4.444099525086,1.9103212814608,2.0986272020727,0.03044911907701,-4.4300894340106,3.2064783090883,-2.7955107829308,1.211385947948,1.0011950715127,-1.3520374152369,0.95524203080337,1.167818418332,-0.13291966594697,0.7950184221271,-3.686896727984,-1.4355538045045,-3.1906902933477,5.3913707849803,-2.2766233993583,3.105732417643,-0.3681628036063,-1.2194019148496,-6.4650428913503,1.0226998199891,-1.9535039966568,-3.42360481024,1.6824185788908,3.1276673025326,-3.0202397086608,358.36450497969,358.36450497969,358.36450497969,358.36450497969,358.36450497969,358.36450497969,358.36450497969,358.36450497969,358.36450497969,358.36450497969,358.36450497969,358.36450497969,358.36450497969,358.36450497969,358.36450497969,358.36450497969,358.36450497969,358.36450497969,358.36450497969,358.36450497969,358.36450497969,358.36450497969,358.36450497969,358.36450497969,358.36450497969,358.36450497969,358.36450497969,358.36450497969,358.36450497969,358.36450497969,358.36450497969,358.36450497969,358.36450497969,358.36450497969,358.36450497969,358.36450497969,358.36450497969,358.36450497969,358.36450497969,358.36450497969,358.36450497969,358.36450497969,358.36450497969,358.36450497969,358.36450497969,358.36450497969,358.36450497969,358.36450497969,222.21147258889,717.57275545919,-2.5374949307012,627.37896576168,-2.5504092221589,0
0.00063593749999999,3440823262.9561,5.4338324683023e-05,0.00018845616477786,8.3024487087731e-05,1.06008177668,0,0,0,0,0,0,0,0,0,0,0,0,0,0,0,0,0,0,0,0,0,0,0,0,0,0,0,0,0,0,0,0,0,0,0,0,0,0,0,0,0,0,0,0,0,0,0,0,-0.95373287594647,0.26807355236594,-0.25373900278719,5.1632434382672,2.8511056338809,0.9991036796067,-2.886874350434,1.4892938860963,2.649035401584,-0.40133191572568,1.8507074224212,-5.3371623878866,1.6423304390712,-1.1496318910595,1.8908454559205,-3.7520437967193,1.6220424112575,4.2929799165868,-1.024565208696,-4.4439267123323,1.9101825643679,2.0995266877006,0.030480435786472,-4.4318581899055,3.2063510424447,-2.7971347039656,1.2113501395454,1.0008617223174,-1.3506509240547,0.95448719404141,1.1669615209594,-0.13205438871943,0.79495059395737,-3.6852623174038,-1.4345308523884,-3.189899024216,5.391100571158,-2.2747930581462,3.1054574758481,-0.36802097683624,-1.2190999375134,-6.463057907101,1.0224861740605,-1.9531957580484,-3.4237330167176,1.6838153780894,3.1267870546873,-3.0179986040944,358.81192517455,358.81192517455,358.81192517455,358.81192517455,358.81192517455,358.81192517455,358.81192517455,358.81192517455,358.81192517455,358.81192517455,358.81192517455,358.81192517455,358.81192517455,358.81192517455,358.81192517455,358.81192517455,358.81192517455,358.81192517455,358.81192517455,358.81192517455,358.81192517455,358.81192517455,358.81192517455,358.81192517455,358.81192517455,358.81192517455,358.81192517455,358.81192517455,358.81192517455,358.81192517455,358.81192517455,358.81192517455,358.81192517455,358.81192517455,358.81192517455,358.81192517455,358.81192517455,358.81192517455,358.81192517455,358.81192517455,358.81192517455,358.81192517455,358.81192517455,358.81192517455,358.81192517455,358.81192517455,358.81192517455,358.81192517455,222.18441208941,718.48930069352,-2.5460939348156,628.16217446235,-2.5590112702899,0
0.00063718749999999,3452297730.4586,5.4439090419396e-05,0.00018882667146438,8.3190394374345e-05,1.0602008429866,0,0,0,0,0,0,0,0,0,0,0,0,0,0,0,0,0,0,0,0,0,0,0,0,0,0,0,0,0,0,0,0,0,0,0,0,0,0,0,0,0,0,0,0,0,0,0,0,-0.95356038896341,0.26942589191097,-0.25422051014185,5.1630109309795,2.8505802107878,0.99873698760363,-2.8856186449311,1.4888566457657,2.6485387970649,-0.40099890765074,1.8504196785333,-5.3366578669027,1.6429070349278,-1.148723139618,1.8910862173317,-3.7496877753261,1.6204593535605,4.2920156487862,-1.0244577004762,-4.443754818374,1.9100425980883,2.1004246428989,0.03051131629907,-4.4336271370278,3.2062231409583,-2.7987559158195,1.2113142134583,1.0005277898851,-1.3492659004179,0.95373237894599,1.166104915799,-0.1311887809626,0.79488307616049,-3.6836288909274,-1.4335084658607,-3.1891071313525,5.3908290905482,-2.2729630444092,3.1051817689025,-0.36787967015424,-1.2187977840808,-6.4610713394507,1.0222706101354,-1.9528863973876,-3.4238608868478,1.6852130742546,3.1259075113574,-3.0157580669408,359.25924961511,359.25924961511,359.25924961511,359.25924961511,359.25924961511,359.25924961511,359.25924961511,359.25924961511,359.25924961511,359.25924961511,359.25924961511,359.25924961511,359.25924961511,359.25924961511,359.25924961511,359.25924961511,359.25924961511,359.25924961511,359.25924961511,359.25924961511,359.25924961511,359.25924961511,359.25924961511,359.25924961511,359.25924961511,359.25924961511,359.25924961511,359.25924961511,359.25924961511,359.25924961511,359.25924961511,359.25924961511,359.25924961511,359.25924961511,359.25924961511,359.25924961511,359.25924961511,359.25924961511,359.25924961511,359.25924961511,359.25924961511,359.25924961511,359.25924961511,359.25924961511,359.25924961511,359.25924961511,359.25924961511,359.25924961511,222.15735143852,719.40564919771,-2.5547056681087,628.94518446708,-2.5676259839392,0
0.00063843749999999,3463788805.2084,5.4539849087514e-05,0.00018919717819255,8.3356327296626e-05,1.0603199057642,0,0,0,0,0,0,0,0,0,0,0,0,0,0,0,0,0,0,0,0,0,0,0,0,0,0,0,0,0,0,0,0,0,0,0,0,0,0,0,0,0,0,0,0,0,0,0,0,-0.95338775639626,0.27077735058301,-0.25470402935535,5.1627787099685,2.8500548762441,0.99837078546769,-2.8843642581608,1.488419064865,2.6480417175294,-0.400666232025,1.8501312191885,-5.3361521868522,1.643483219218,-1.1478156064028,1.8913259977095,-3.7473313666798,1.6188759431396,4.2910519223514,-1.0243486541376,-4.4435838318135,1.9099014040913,2.1013210783624,0.030541757774887,-4.4353962579371,3.2060946164843,-2.8003744192288,1.2112781764986,1.0001932715263,-1.3478823409748,0.95297758220397,1.1652486102666,-0.13032284439133,0.79481587067924,-3.6819964462967,-1.4324866354521,-3.188314624608,5.3905563584225,-2.2711333616724,3.1049052941735,-0.3677388871997,-1.2184954509184,-6.4590831999714,1.0220531362375,-1.952575920316,-3.4239884209778,1.6866116647616,3.1250286588285,-3.0135180928942,359.70647830674,359.70647830674,359.70647830674,359.70647830674,359.70647830674,359.70647830674,359.70647830674,359.70647830674,359.70647830674,359.70647830674,359.70647830674,359.70647830674,359.70647830674,359.70647830674,359.70647830674,359.70647830674,359.70647830674,359.70647830674,359.70647830674,359.70647830674,359.70647830674,359.70647830674,359.70647830674,359.70647830674,359.70647830674,359.70647830674,359.70647830674,359.70647830674,359.70647830674,359.70647830674,359.70647830674,359.70647830674,359.70647830674,359.70647830674,359.70647830674,359.70647830674,359.70647830674,359.70647830674,359.70647830674,359.70647830674,359.70647830674,359.70647830674,359.70647830674,359.70647830674,359.70647830674,359.70647830674,359.70647830674,359.70647830674,222.1302906826,720.3218011126,-2.5633301249164,629.72799585466,-2.5762533569181,0
0.00063968749999999,3475296475.8422,5.4640600669966e-05,0.00018956768496242,8.3522285816622e-05,1.0604389650131,0,0,0,0,0,0,0,0,0,0,0,0,0,0,0,0,0,0,0,0,0,0,0,0,0,0,0,0,0,0,0,0,0,0,0,0,0,0,0,0,0,0,0,0,0,0,0,0,-0.95321498086137,0.27212794129451,-0.25518952859664,5.1625467677985,2.8495296308119,0.99800506684527,-2.8831111827159,1.4879811447019,2.6475441683456,-0.40033388719882,1.84984205333,-5.3356453449126,1.6440589951189,-1.1469092955212,1.891564811485,-3.7449745828844,1.6172921809989,4.2900887300124,-1.024238075565,-4.4434137412884,1.9097590035216,2.1022160046777,0.030571757360829,-4.4371655353936,3.2059654806418,-2.8019902150584,1.2112420353955,0.99985816442298,-1.3465002427111,0.95222280058437,1.1643926117599,-0.12945658057645,0.79474897930628,-3.6803649810887,-1.4314653517598,-3.1875215133772,5.3902823899934,-2.2693040134212,3.104628049236,-0.36759863144451,-1.2181929342938,-6.4570935001128,1.02183376073,-1.9522643328399,-3.4241156194033,1.688011146814,3.1241504836712,-3.0112786778966,360.15361125491,360.15361125491,360.15361125491,360.15361125491,360.15361125491,360.15361125491,360.15361125491,360.15361125491,360.15361125491,360.15361125491,360.15361125491,360.15361125491,360.15361125491,360.15361125491,360.15361125491,360.15361125491,360.15361125491,360.15361125491,360.15361125491,360.15361125491,360.15361125491,360.15361125491,360.15361125491,360.15361125491,360.15361125491,360.15361125491,360.15361125491,360.15361125491,360.15361125491,360.15361125491,360.15361125491,360.15361125491,360.15361125491,360.15361125491,360.15361125491,360.15361125491,360.15361125491,360.15361125491,360.15361125491,360.15361125491,360.15361125491,360.15361125491,360.15361125491,360.15361125491,360.15361125491,360.15361125491,360.15361125491,360.15361125491,222.10322986656,721.23775657695,-2.5719672995872,630.51060870476,-2.5848933830548,0
0.00064093749999999,3486820730.9829,5.4741345602479e-05,0.00018993819177406,8.368827072363e-05,1.0605580207338,0,0,0,0,0,0,0,0,0,0,0,0,0,0,0,0,0,0,0,0,0,0,0,0,0,0,0,0,0,0,0,0,0,0,0,0,0,0,0,0,0,0,0,0,0,0,0,0,-0.95304206485322,0.2734776769067,-0.25567697656891,5.1623150968735,2.849004475213,0.99763982515777,-2.8818594113686,1.4875428866324,2.6470461548355,-0.4000018715123,1.8495521897093,-5.3351373381904,1.6446343656908,-1.1460042107322,1.8918026730236,-3.7426174359436,1.6157080685373,4.2891260648606,-1.0241259709022,-4.4432445354984,1.9096154171984,2.1031094322922,0.030601312188043,-4.438934952342,3.2058357448237,-2.8036033042945,1.2112057967896,0.99952246564184,-1.3451196029643,0.95146803093964,1.1635369276332,-0.12858999093839,0.7946824036864,-3.6787344927153,-1.4304446054498,-3.1867278066129,5.3900072003844,-2.267475003108,3.1043500318619,-0.3674589062057,-1.2178902304385,-6.455102251166,1.0216124922857,-1.9519516413231,-3.4242424823787,1.689411517447,3.1232729727207,-3.0090398181203,360.60064846519,360.60064846519,360.60064846519,360.60064846519,360.60064846519,360.60064846519,360.60064846519,360.60064846519,360.60064846519,360.60064846519,360.60064846519,360.60064846519,360.60064846519,360.60064846519,360.60064846519,360.60064846519,360.60064846519,360.60064846519,360.60064846519,360.60064846519,360.60064846519,360.60064846519,360.60064846519,360.60064846519,360.60064846519,360.60064846519,360.60064846519,360.60064846519,360.60064846519,360.60064846519,360.60064846519,360.60064846519,360.60064846519,360.60064846519,360.60064846519,360.60064846519,360.60064846519,360.60064846519,360.60064846519,360.60064846519,360.60064846519,360.60064846519,360.60064846519,360.60064846519,360.60064846519,360.60064846519,360.60064846519,360.60064846519,222.07616903423,722.15351572739,-2.5806171865151,631.29302309785,-2.5935460561642,0
0.00064218749999999,3498361559.2404,5.48420836329e-05,0.00019030869862756,8.3854281550046e-05,1.0606770729266,0,0,0,0,0,0,0,0,0,0,0,0,0,0,0,0,0,0,0,0,0,0,0,0,0,0,0,0,0,0,0,0,0,0,0,0,0,0,0,0,0,0,0,0,0,0,0,0,-0.95286901074233,0.27482657019673,-0.25616634251164,5.162083689455,2.8484794103119,0.99727505361244,-2.8806089370604,1.4871042920565,2.6465476822697,-0.39967018329288,1.849261636891,-5.3346281637361,1.6452093338807,-1.1451003554281,1.89203959655,-3.7402599377676,1.6141236075409,4.2881639203151,-1.0240123465401,-4.4430762032033,1.9094706656141,2.1040013715038,0.030630419372785,-4.4407044919311,3.2057054202031,-2.8052136880541,1.2111694672374,0.99918617213798,-1.3437404194095,0.95071327019879,1.1626815651939,-0.12772307673897,0.79461614531979,-3.6771049784296,-1.4294243872522,-3.1859335128027,5.3897308045862,-2.2656463341578,3.1040712400188,-0.36731971463081,-1.2175873356087,-6.4531094642728,1.0213893398642,-1.9516378524518,-3.4243690101237,1.6908127735283,3.1223961130605,-3.0068015099667,361.04758994326,361.04758994326,361.04758994326,361.04758994326,361.04758994326,361.04758994326,361.04758994326,361.04758994326,361.04758994326,361.04758994326,361.04758994326,361.04758994326,361.04758994326,361.04758994326,361.04758994326,361.04758994326,361.04758994326,361.04758994326,361.04758994326,361.04758994326,361.04758994326,361.04758994326,361.04758994326,361.04758994326,361.04758994326,361.04758994326,361.04758994326,361.04758994326,361.04758994326,361.04758994326,361.04758994326,361.04758994326,361.04758994326,361.04758994326,361.04758994326,361.04758994326,361.04758994326,361.04758994326,361.04758994326,361.04758994326,361.04758994326,361.04758994326,361.04758994326,361.04758994326,361.04758994326,361.04758994326,361.04758994326,361.04758994326,222.04910822831,723.06907869845,-2.5892797800971,632.07523911523,-2.602211370099,0
0.00064343749999999,3509918949.2114,5.4942814716975e-05,0.000190679205523,8.4020318208325e-05,1.0607961215918,0,0,0,0,0,0,0,0,0,0,0,0,0,0,0,0,0,0,0,0,0,0,0,0,0,0,0,0,0,0,0,0,0,0,0,0,0,0,0,0,0,0,0,0,0,0,0,0,-0.95269582077866,0.27617463382675,-0.25665759620424,5.1618525376737,2.8479544370889,0.99691074522813,-2.879359752902,1.4866653624217,2.6460487558541,-0.39933882085466,1.8489704032601,-5.33411781855,1.6457839025303,-1.1441977326528,1.8922755960616,-3.737902100186,1.6125388001517,4.2872022900859,-1.0238972090964,-4.4429087332318,1.9093247689385,2.1048918324441,0.030659076015531,-4.4424741375328,3.205574517742,-2.8068213675855,1.2111330532049,0.99884928077106,-1.3423626900518,0.94995851537219,1.1618265316935,-0.12685583907327,0.79455020556622,-3.6754764353344,-1.4284046879664,-3.1851386399908,5.3894532173849,-2.2638180099806,3.1037916718591,-0.36718105970529,-1.2172842461509,-6.4511151504386,1.0211643126723,-1.9513229732268,-3.4244952028014,1.6922149117653,3.1215198920106,-3.0045637500609,361.49443569491,361.49443569491,361.49443569491,361.49443569491,361.49443569491,361.49443569491,361.49443569491,361.49443569491,361.49443569491,361.49443569491,361.49443569491,361.49443569491,361.49443569491,361.49443569491,361.49443569491,361.49443569491,361.49443569491,361.49443569491,361.49443569491,361.49443569491,361.49443569491,361.49443569491,361.49443569491,361.49443569491,361.49443569491,361.49443569491,361.49443569491,361.49443569491,361.49443569491,361.49443569491,361.49443569491,361.49443569491,361.49443569491,361.49443569491,361.49443569491,361.49443569491,361.49443569491,361.49443569491,361.49443569491,361.49443569491,361.49443569491,361.49443569491,361.49443569491,361.49443569491,361.49443569491,361.49443569491,361.49443569491,361.49443569491,222.02204749066,723.98444562262,-2.5979550747711,632.85725683898,-2.6108893187096,0
0.00064468749999999,3521492889.4794,5.5043538853752e-05,0.00019104971246047,8.4186380689999e-05,1.0609151667299,0,0,0,0,0,0,0,0,0,0,0,0,0,0,0,0,0,0,0,0,0,0,0,0,0,0,0,0,0,0,0,0,0,0,0,0,0,0,0,0,0,0,0,0,0,0,0,0,-0.95252249709071,0.27752188031108,-0.25715070797807,5.161621633546,2.8474295566181,0.99654689285864,-2.8781118521675,1.4862260992177,2.6455493807354,-0.39900778249653,1.8486784970262,-5.3336062995928,1.6463580743804,-1.1432963450776,1.8925106852743,-3.7355439349415,1.6109536488414,4.28624116813,-1.0237805653869,-4.4427421144866,1.9091777470133,2.1057808250893,0.030687279201017,-4.444243872731,3.2054430481999,-2.8084263442729,1.2110965610692,0.99851178831505,-1.340986413214,0.94920376354499,1.1609718343238,-0.12598827886383,0.79448458564778,-3.6738488603873,-1.4273854984581,-3.1843431957437,5.3891744533477,-2.2619900339756,3.1035113256992,-0.36704294423991,-1.2169809585537,-6.449119320507,1.0209374201334,-1.9510070109291,-3.4246210605385,1.6936179287001,3.1206442971042,-3.0023265352314,361.94118572602,361.94118572602,361.94118572602,361.94118572602,361.94118572602,361.94118572602,361.94118572602,361.94118572602,361.94118572602,361.94118572602,361.94118572602,361.94118572602,361.94118572602,361.94118572602,361.94118572602,361.94118572602,361.94118572602,361.94118572602,361.94118572602,361.94118572602,361.94118572602,361.94118572602,361.94118572602,361.94118572602,361.94118572602,361.94118572602,361.94118572602,361.94118572602,361.94118572602,361.94118572602,361.94118572602,361.94118572602,361.94118572602,361.94118572602,361.94118572602,361.94118572602,361.94118572602,361.94118572602,361.94118572602,361.94118572602,361.94118572602,361.94118572602,361.94118572602,361.94118572602,361.94118572602,361.94118572602,361.94118572602,361.94118572602,221.99498686254,724.89961663036,-2.6066430650049,633.63907635194,-2.6195798958497,0
0.00064593749999999,3533083368.6151,5.5144255909372e-05,0.00019142021944005,8.4352468742414e-05,1.0610342083412,0,0,0,0,0,0,0,0,0,0,0,0,0,0,0,0,0,0,0,0,0,0,0,0,0,0,0,0,0,0,0,0,0,0,0,0,0,0,0,0,0,0,0,0,0,0,0,0,-0.95234904168774,0.27886832197877,-0.25764564870385,5.1613909689797,2.8469047700475,0.99618348920457,-2.8768652283157,1.4857865039809,2.6450495619046,-0.39867706649854,1.8483859262327,-5.3330936037873,1.6469318520748,-1.1423961950701,1.8927448775675,-3.7331854537208,1.609368156405,4.2852805486236,-1.0236624224165,-4.4425763359651,1.9090296193632,2.1066683591578,0.030715026002285,-4.4460136813722,3.2053110221411,-2.8100286196429,1.2110599971157,0.99817369146355,-1.3396115875477,0.94844901188001,1.1601174801608,-0.12512039684772,0.79441928665526,-3.6722222504007,-1.4263668096686,-3.1835471872371,5.3888945267882,-2.2601624095496,3.1032302000359,-0.36690537089913,-1.2166774694924,-6.4471219852103,1.0207086718596,-1.950689973131,-3.4247465834214,1.6950218207278,3.1197693160865,-3.0000898625351,362.38784004257,362.38784004257,362.38784004257,362.38784004257,362.38784004257,362.38784004257,362.38784004257,362.38784004257,362.38784004257,362.38784004257,362.38784004257,362.38784004257,362.38784004257,362.38784004257,362.38784004257,362.38784004257,362.38784004257,362.38784004257,362.38784004257,362.38784004257,362.38784004257,362.38784004257,362.38784004257,362.38784004257,362.38784004257,362.38784004257,362.38784004257,362.38784004257,362.38784004257,362.38784004257,362.38784004257,362.38784004257,362.38784004257,362.38784004257,362.38784004257,362.38784004257,362.38784004257,362.38784004257,362.38784004257,362.38784004257,362.38784004257,362.38784004257,362.38784004257,362.38784004257,362.38784004257,362.38784004257,362.38784004257,362.38784004257,221.96792638467,725.81459185013,-2.6153437453074,634.42069773765,-2.6282830954011,0
0.00064718749999999,3544690375.1764,5.5244965940045e-05,0.00019179072646186,8.4518582460473e-05,1.061153246426,0,0,0,0,0,0,0,0,0,0,0,0,0,0,0,0,0,0,0,0,0,0,0,0,0,0,0,0,0,0,0,0,0,0,0,0,0,0,0,0,0,0,0,0,0,0,0,0,-0.95217545646329,0.2802139709479,-0.25814238981138,5.16116053579,2.8463800785741,0.99582052683634,-2.8756198749768,1.4853465782908,2.6445493042729,-0.3983466711214,1.8480926987628,-5.3325797280325,1.6475052381667,-1.1414972846569,1.8929781859262,-3.7308266681354,1.6077823259176,4.2843204259205,-1.0235427873559,-4.4424113867635,1.9088804051886,2.1075544441892,0.030742313479854,-4.4477835475236,3.2051784499481,-2.8116281953678,1.2110233675328,0.99783498684163,-1.3382382120085,0.94769425761529,1.1592634762076,-0.1242521935755,0.7943543095514,-3.6705966020554,-1.425348612618,-3.1827506211911,5.3886134517245,-2.2583351401207,3.1029482935089,-0.36676834218781,-1.2163737758744,-6.4451231551134,1.0204780776086,-1.9503718676374,-3.4248717714933,1.6964265840876,3.1188949368932,-2.9978537292195,362.83439865066,362.83439865066,362.83439865066,362.83439865066,362.83439865066,362.83439865066,362.83439865066,362.83439865066,362.83439865066,362.83439865066,362.83439865066,362.83439865066,362.83439865066,362.83439865066,362.83439865066,362.83439865066,362.83439865066,362.83439865066,362.83439865066,362.83439865066,362.83439865066,362.83439865066,362.83439865066,362.83439865066,362.83439865066,362.83439865066,362.83439865066,362.83439865066,362.83439865066,362.83439865066,362.83439865066,362.83439865066,362.83439865066,362.83439865066,362.83439865066,362.83439865066,362.83439865066,362.83439865066,362.83439865066,362.83439865066,362.83439865066,362.83439865066,362.83439865066,362.83439865066,362.83439865066,362.83439865066,362.83439865066,362.83439865066,221.94086609753,726.72937140841,-2.624057110184,635.20212108031,-2.6369989112285,0
0.00064843749999999,3556313897.7086,5.5345668717322e-05,0.00019216123352599,8.4684721419307e-05,1.0612722809845,0,0,0,0,0,0,0,0,0,0,0,0,0,0,0,0,0,0,0,0,0,0,0,0,0,0,0,0,0,0,0,0,0,0,0,0,0,0,0,0,0,0,0,0,0,0,0,0,-0.95200174319713,0.28155883908724,-0.2586409032711,5.1609303257027,2.8458554834242,0.99545799821533,-2.8743757859495,1.4849063237714,2.6440486125672,-0.39801659460277,1.8477988223393,-5.3320646692088,1.6480782351283,-1.1405996155651,1.8932106229022,-3.7284675897677,1.6061961607076,4.2833607945159,-1.0234216675239,-4.4422472560742,1.9087301233754,2.1084390894449,0.03076913868478,-4.4495534555525,3.2050453418119,-2.813225073272,1.2109866784152,0.99749567101619,-1.336866285851,0.94693949806242,1.1584098293216,-0.12338366939647,0.79428965517584,-3.6689719119025,-1.4243308984033,-3.1819535039376,5.3883312418636,-2.2565082291327,3.1026656048889,-0.36663186046549,-1.2160698748793,-6.4431228407029,1.0202456472533,-1.9500527025007,-3.4249966247603,1.6978322148679,3.1180211476411,-2.9956181327512,363.28086155646,363.28086155646,363.28086155646,363.28086155646,363.28086155646,363.28086155646,363.28086155646,363.28086155646,363.28086155646,363.28086155646,363.28086155646,363.28086155646,363.28086155646,363.28086155646,363.28086155646,363.28086155646,363.28086155646,363.28086155646,363.28086155646,363.28086155646,363.28086155646,363.28086155646,363.28086155646,363.28086155646,363.28086155646,363.28086155646,363.28086155646,363.28086155646,363.28086155646,363.28086155646,363.28086155646,363.28086155646,363.28086155646,363.28086155646,363.28086155646,363.28086155646,363.28086155646,363.28086155646,363.28086155646,363.28086155646,363.28086155646,363.28086155646,363.28086155646,363.28086155646,363.28086155646,363.28086155646,363.28086155646,363.28086155646,221.9138060413,727.64395542978,-2.6327831541763,635.98334646476,-2.6457273372167,0
0.00064968749999999,3567953924.7443,5.5446364548835e-05,0.00019253174063256,8.4850886171394e-05,1.0613913120172,0,0,0,0,0,0,0,0,0,0,0,0,0,0,0,0,0,0,0,0,0,0,0,0,0,0,0,0,0,0,0,0,0,0,0,0,0,0,0,0,0,0,0,0,0,0,0,0,-0.95182790355648,0.2829029379941,-0.25914116161917,5.1607003303737,2.8453309858331,0.99509589570725,-2.8731329552297,1.4844657420905,2.6435474915075,-0.3976868351564,1.8475043045437,-5.3315484241859,1.6486508453467,-1.1397031892111,1.8934422005951,-3.7261082301033,1.6046096643621,4.2824016490124,-1.0232990703728,-4.4420839332347,1.908578792491,2.1093223040383,0.030795498659773,-4.4513233900062,3.2049117077701,-2.8148192553374,1.2109499357566,0.99715574049989,-1.3354958086336,0.94618473060811,1.1575565463487,-0.12251482446231,0.79422532425097,-3.6673481763703,-1.4233136582132,-3.1811558413884,5.3880479105885,-2.2546816800568,3.1023821330999,-0.36649592794292,-1.2157657639692,-6.441121052217,1.0200113907548,-1.9497324859793,-3.4251211431914,1.6992387090238,3.1171479366078,-2.993383070784,363.72722876625,363.72722876625,363.72722876625,363.72722876625,363.72722876625,363.72722876625,363.72722876625,363.72722876625,363.72722876625,363.72722876625,363.72722876625,363.72722876625,363.72722876625,363.72722876625,363.72722876625,363.72722876625,363.72722876625,363.72722876625,363.72722876625,363.72722876625,363.72722876625,363.72722876625,363.72722876625,363.72722876625,363.72722876625,363.72722876625,363.72722876625,363.72722876625,363.72722876625,363.72722876625,363.72722876625,363.72722876625,363.72722876625,363.72722876625,363.72722876625,363.72722876625,363.72722876625,363.72722876625,363.72722876625,363.72722876625,363.72722876625,363.72722876625,363.72722876625,363.72722876625,363.72722876625,363.72722876625,363.72722876625,363.72722876625,221.88674625617,728.55834403695,-2.6415218718523,636.76437397638,-2.6544683672402,0
0.00065093749999999,3579610444.8038,5.554705355999e-05,0.00019290224778167,8.5017076936955e-05,1.0615103395243,0,0,0,0,0,0,0,0,0,0,0,0,0,0,0,0,0,0,0,0,0,0,0,0,0,0,0,0,0,0,0,0,0,0,0,0,0,0,0,0,0,0,0,0,0,0,0,0,-0.95165393910107,0.28424627895117,-0.25964313793968,5.1604705413832,2.8448065870287,0.99473421160915,-2.8718913769612,1.48402483496,2.643045945529,-0.39735739096925,1.8472091528094,-5.3310309898506,1.6492230711414,-1.1388080067352,1.8936729306029,-3.7237486006529,1.6030228406482,4.2814429840962,-1.0231750034627,-4.4419214076758,1.9084264307941,2.1102040967394,0.030821390442749,-4.4530933357957,3.2047775576874,-2.8164107437233,1.2109131454497,0.9968151917662,-1.3341267801738,0.94542995271002,1.1567036339029,-0.12164565870801,0.79416131738539,-3.6657253917815,-1.4222968833247,-3.1803576390834,5.3877634709238,-2.2528554964189,3.1020978771463,-0.3663605466974,-1.2154614409356,-6.4391177998978,1.0197753181152,-1.9494112265214,-3.4252453267183,1.7006460623581,3.1162752922388,-2.9911485411794,364.17350028642,364.17350028642,364.17350028642,364.17350028642,364.17350028642,364.17350028642,364.17350028642,364.17350028642,364.17350028642,364.17350028642,364.17350028642,364.17350028642,364.17350028642,364.17350028642,364.17350028642,364.17350028642,364.17350028642,364.17350028642,364.17350028642,364.17350028642,364.17350028642,364.17350028642,364.17350028642,364.17350028642,364.17350028642,364.17350028642,364.17350028642,364.17350028642,364.17350028642,364.17350028642,364.17350028642,364.17350028642,364.17350028642,364.17350028642,364.17350028642,364.17350028642,364.17350028642,364.17350028642,364.17350028642,364.17350028642,364.17350028642,364.17350028642,364.17350028642,364.17350028642,364.17350028642,364.17350028642,364.17350028642,364.17350028642,221.85968678238,729.47253735078,-2.6502732578212,637.54520370104,-2.6632219952024,0
0.00065218749999999,3591283446.3952,5.5647735563877e-05,0.00019327275497346,8.5183293366244e-05,1.0616293635062,0,0,0,0,0,0,0,0,0,0,0,0,0,0,0,0,0,0,0,0,0,0,0,0,0,0,0,0,0,0,0,0,0,0,0,0,0,0,0,0,0,0,0,0,0,0,0,0,-0.95147985128553,0.28558887290328,-0.26014680586167,5.1602409502418,2.8442822882161,0.99437293816714,-2.8706510454458,1.4835836041381,2.6425439789095,-0.39702826020004,1.8469133744248,-5.3305123631108,1.6497949147619,-1.1379140690068,1.8939028240157,-3.7213887128993,1.6014356935085,4.2804847945117,-1.0230494744445,-4.4417596689434,1.9082730562372,2.1110844760586,0.030846811068401,-4.4548632781266,3.204642901258,-2.8179995407717,1.2108763132842,0.99647402125645,-1.3327592005457,0.94467516190017,1.155851098464,-0.12077617185073,0.79409763507769,-3.664103554357,-1.4212805651075,-3.1795589021895,5.3874779355311,-2.2510296817923,3.1018128361234,-0.36622571867621,-1.215156903903,-6.4371130938756,1.0195374393493,-1.9490889327436,-3.4253691752336,1.7020542705323,3.1154032031327,-2.9889145419979,364.61967612344,364.61967612344,364.61967612344,364.61967612344,364.61967612344,364.61967612344,364.61967612344,364.61967612344,364.61967612344,364.61967612344,364.61967612344,364.61967612344,364.61967612344,364.61967612344,364.61967612344,364.61967612344,364.61967612344,364.61967612344,364.61967612344,364.61967612344,364.61967612344,364.61967612344,364.61967612344,364.61967612344,364.61967612344,364.61967612344,364.61967612344,364.61967612344,364.61967612344,364.61967612344,364.61967612344,364.61967612344,364.61967612344,364.61967612344,364.61967612344,364.61967612344,364.61967612344,364.61967612344,364.61967612344,364.61967612344,364.61967612344,364.61967612344,364.61967612344,364.61967612344,364.61967612344,364.61967612344,364.61967612344,364.61967612344,221.83262766026,730.38653549034,-2.6590373066813,638.32583572504,-2.6719882150115,0
0.00065343749999999,3602972918.0145,5.5748410677078e-05,0.00019364326220804,8.5349535662045e-05,1.061748383963,0,0,0,0,0,0,0,0,0,0,0,0,0,0,0,0,0,0,0,0,0,0,0,0,0,0,0,0,0,0,0,0,0,0,0,0,0,0,0,0,0,0,0,0,0,0,0,0,-0.95130564146576,0.2869307304422,-0.26065213957992,5.1600115484251,2.8437580905533,0.99401206757712,-2.869411955234,1.4831420514253,2.6420415959552,-0.39669944097713,1.8466169765638,-5.329992540858,1.650366378382,-1.1370213766717,1.894131891439,-3.719028578234,1.5998482271087,4.2795270750105,-1.0229224910676,-4.4415987068027,1.9081186864649,2.1119634503587,0.030871757569617,-4.4566332023605,3.204507748059,-2.8195856489676,1.2108394449404,0.9961322253771,-1.331393070137,0.94392035578113,1.1549989465361,-0.11990636339286,0.79403427772559,-3.6624826602018,-1.4202646950475,-3.1787596355496,5.3871913167453,-2.2492042398142,3.1015270092872,-0.36609144572155,-1.2148521513137,-6.4351069439782,1.0192977644848,-1.9487656134373,-3.4254926886157,1.7034633291085,3.1145316580107,-2.9866810714943,365.0657562839,365.0657562839,365.0657562839,365.0657562839,365.0657562839,365.0657562839,365.0657562839,365.0657562839,365.0657562839,365.0657562839,365.0657562839,365.0657562839,365.0657562839,365.0657562839,365.0657562839,365.0657562839,365.0657562839,365.0657562839,365.0657562839,365.0657562839,365.0657562839,365.0657562839,365.0657562839,365.0657562839,365.0657562839,365.0657562839,365.0657562839,365.0657562839,365.0657562839,365.0657562839,365.0657562839,365.0657562839,365.0657562839,365.0657562839,365.0657562839,365.0657562839,365.0657562839,365.0657562839,365.0657562839,365.0657562839,365.0657562839,365.0657562839,365.0657562839,365.0657562839,365.0657562839,365.0657562839,365.0657562839,365.0657562839,221.80556893027,731.30033857303,-2.6678140130278,639.10627013512,-2.6807670205768,0
0.00065468749999999,3614678848.1457,5.584907872508e-05,0.00019401376948554,8.5515803496645e-05,1.0618674008952,0,0,0,0,0,0,0,0,0,0,0,0,0,0,0,0,0,0,0,0,0,0,0,0,0,0,0,0,0,0,0,0,0,0,0,0,0,0,0,0,0,0,0,0,0,0,0,0,-0.95113131089759,0.28827186174878,-0.26115911381181,5.1597823273224,2.8432339951586,0.99365159203555,-2.8681741009066,1.4827001786728,2.6415388004726,-0.39637093139915,1.8463199662411,-5.3294715201012,1.6509374641282,-1.1361299301072,1.8943601429173,-3.7166682081924,1.5982604456411,4.2785698203843,-1.0227940611187,-4.4414385110162,1.9079633388332,2.1128410275248,0.030896226981676,-4.4584030944206,3.2043721074682,-2.8211690710569,1.2108025459951,0.99578980052956,-1.3300283894728,0.94316553202847,1.1541471841967,-0.11903623259448,0.79397124562022,-3.6608627053737,-1.4192492647181,-3.177959843639,5.386903626474,-2.2473791742037,3.1012403958437,-0.3659577295447,-1.2145471819861,-6.4330993602868,1.0190563034666,-1.9484412774876,-3.425615866681,1.7048732334685,3.1136606457661,-2.9844481281333,365.51174077446,365.51174077446,365.51174077446,365.51174077446,365.51174077446,365.51174077446,365.51174077446,365.51174077446,365.51174077446,365.51174077446,365.51174077446,365.51174077446,365.51174077446,365.51174077446,365.51174077446,365.51174077446,365.51174077446,365.51174077446,365.51174077446,365.51174077446,365.51174077446,365.51174077446,365.51174077446,365.51174077446,365.51174077446,365.51174077446,365.51174077446,365.51174077446,365.51174077446,365.51174077446,365.51174077446,365.51174077446,365.51174077446,365.51174077446,365.51174077446,365.51174077446,365.51174077446,365.51174077446,365.51174077446,365.51174077446,365.51174077446,365.51174077446,365.51174077446,365.51174077446,365.51174077446,365.51174077446,365.51174077446,365.51174077446,221.77851063322,732.21394671448,-2.6766033715409,639.88650701827,-2.6895584058302,0
0.00065593749999999,3626401225.2613,5.5949739782575e-05,0.00019438427680609,8.5682096996208e-05,1.0619864143029,0,0,0,0,0,0,0,0,0,0,0,0,0,0,0,0,0,0,0,0,0,0,0,0,0,0,0,0,0,0,0,0,0,0,0,0,0,0,0,0,0,0,0,0,0,0,0,0,-0.95095686074878,0.28961227660649,-0.26166770382721,5.1595532782947,2.8427100030766,0.99329150372294,-2.8669374773291,1.482257987778,2.6410355963435,-0.39604272953144,1.8460223503699,-5.3289492978224,1.6515081740486,-1.1352397295313,1.8945875880252,-3.7143076141992,1.5966723535073,4.2776130253883,-1.0226641924507,-4.4412790716091,1.9078070304033,2.1137172153165,0.030920216342339,-4.4601729403492,3.2042359887596,-2.8227498099143,1.2107656219099,0.99544674309487,-1.3286651594002,0.94241068839012,1.1532958175869,-0.11816577849323,0.79390853896146,-3.6592436858171,-1.4182342658242,-3.1771595306718,5.38661487632,-2.2455544887556,3.1009529951679,-0.36582457178792,-1.2142419950459,-6.431090352512,1.0188130662121,-1.9481159339269,-3.4257387092506,1.7062839789127,3.1127901553986,-2.9822157105712,365.95762960191,365.95762960191,365.95762960191,365.95762960191,365.95762960191,365.95762960191,365.95762960191,365.95762960191,365.95762960191,365.95762960191,365.95762960191,365.95762960191,365.95762960191,365.95762960191,365.95762960191,365.95762960191,365.95762960191,365.95762960191,365.95762960191,365.95762960191,365.95762960191,365.95762960191,365.95762960191,365.95762960191,365.95762960191,365.95762960191,365.95762960191,365.95762960191,365.95762960191,365.95762960191,365.95762960191,365.95762960191,365.95762960191,365.95762960191,365.95762960191,365.95762960191,365.95762960191,365.95762960191,365.95762960191,365.95762960191,365.95762960191,365.95762960191,365.95762960191,365.95762960191,365.95762960191,365.95762960191,365.95762960191,365.95762960191,221.75145280999,733.12736002877,-2.6854053768376,640.6665464618,-2.6983623646891,0
0.00065718749999999,3638140037.8219,5.6050394058448e-05,0.00019475478416982,8.5848416531684e-05,1.0621054241864,0,0,0,0,0,0,0,0,0,0,0,0,0,0,0,0,0,0,0,0,0,0,0,0,0,0,0,0,0,0,0,0,0,0,0,0,0,0,0,0,0,0,0,0,0,0,0,0,-0.95078229209606,0.29095198435677,-0.26217788543263,5.1593243926524,2.8421861152808,0.99293179483761,-2.8657020794461,1.4818154806846,2.6405319872242,-0.39571483340829,1.845724135727,-5.328425871122,1.6520785101378,-1.1343507749041,1.8948142358134,-3.7119468077448,1.5950839551605,4.2766566847548,-1.0225328929442,-4.4411203786836,1.9076497779493,2.1145920212007,0.030943722692884,-4.4619427266094,3.2040994010487,-2.8243278686668,1.2107286780358,0.99510304945352,-1.327303380914,0.94165582268434,1.1524448526332,-0.11729499988553,0.79384615785109,-3.6576255974382,-1.4172196901791,-3.1763587004971,5.386325077484,-2.243730187355,3.1006648066415,-0.36569197397055,-1.2139365899628,-6.4290799304047,1.0185680625325,-1.9477895918436,-3.4258612160895,1.7076955606043,3.1119201760407,-2.9799838176587,366.40342277311,366.40342277311,366.40342277311,366.40342277311,366.40342277311,366.40342277311,366.40342277311,366.40342277311,366.40342277311,366.40342277311,366.40342277311,366.40342277311,366.40342277311,366.40342277311,366.40342277311,366.40342277311,366.40342277311,366.40342277311,366.40342277311,366.40342277311,366.40342277311,366.40342277311,366.40342277311,366.40342277311,366.40342277311,366.40342277311,366.40342277311,366.40342277311,366.40342277311,366.40342277311,366.40342277311,366.40342277311,366.40342277311,366.40342277311,366.40342277311,366.40342277311,366.40342277311,366.40342277311,366.40342277311,366.40342277311,366.40342277311,366.40342277311,366.40342277311,366.40342277311,366.40342277311,366.40342277311,366.40342277311,366.40342277311,221.72439550181,734.04057862841,-2.6942200236121,641.44638855319,-2.7071788911069,0
0.00065843749999999,3649895274.2768,5.6151041074141e-05,0.00019512529157688,8.6014761219972e-05,1.062224430546,0,0,0,0,0,0,0,0,0,0,0,0,0,0,0,0,0,0,0,0,0,0,0,0,0,0,0,0,0,0,0,0,0,0,0,0,0,0,0,0,0,0,0,0,0,0,0,0,-0.95060760593272,0.29229099388352,-0.26268963497548,5.1590956616646,2.8416623326661,0.9925724576165,-2.8644679023266,1.481372659385,2.6400279765575,-0.39538724103238,1.8454253289697,-5.3279012371844,1.652648474329,-1.1334630659924,1.8950400948366,-3.7095858003612,1.5934952551131,4.2757007931823,-1.0224001704914,-4.4409624224613,1.9074915979628,2.1154654523488,0.030966743080624,-4.4637124400407,3.2039623533177,-2.8259032506551,1.2106917196111,0.99475871599571,-1.325943055185,0.94090093280057,1.1515942950648,-0.11642389532542,0.79378410230043,-3.6560084360934,-1.4162055297168,-3.175557356668,5.3860342408006,-2.2419062739852,3.100375829666,-0.36555993752479,-1.2136309665286,-6.4270681036854,1.0183213021225,-1.9474622603905,-3.4259833869335,1.7091079735774,3.1110506969553,-2.9777524484491,366.84912029506,366.84912029506,366.84912029506,366.84912029506,366.84912029506,366.84912029506,366.84912029506,366.84912029506,366.84912029506,366.84912029506,366.84912029506,366.84912029506,366.84912029506,366.84912029506,366.84912029506,366.84912029506,366.84912029506,366.84912029506,366.84912029506,366.84912029506,366.84912029506,366.84912029506,366.84912029506,366.84912029506,366.84912029506,366.84912029506,366.84912029506,366.84912029506,366.84912029506,366.84912029506,366.84912029506,366.84912029506,366.84912029506,366.84912029506,366.84912029506,366.84912029506,366.84912029506,366.84912029506,366.84912029506,366.84912029506,366.84912029506,366.84912029506,366.84912029506,366.84912029506,366.84912029506,366.84912029506,366.84912029506,366.84912029506,221.69733875017,734.95360262437,-2.7030473065596,642.2260333801,-2.7160079790609,0
0.00065968749999999,3661666923.064,5.6251681176492e-05,0.00019549579902739,8.6181131682862e-05,1.062343433382,0,0,0,0,0,0,0,0,0,0,0,0,0,0,0,0,0,0,0,0,0,0,0,0,0,0,0,0,0,0,0,0,0,0,0,0,0,0,0,0,0,0,0,0,0,0,0,0,-0.9504328031749,0.29362931359885,-0.2632029293179,5.1588670765617,2.8411386560368,0.9922134843353,-2.8632349412132,1.4809295259221,2.639523567648,-0.39505995037425,1.8451259366418,-5.327375393262,1.6532180684891,-1.1325766024251,1.895265173191,-3.7072246035967,1.5919062579615,4.2747453453123,-1.0222660329957,-4.4408051933339,1.9073325066658,2.1163375156775,0.030989274559758,-4.4654820678059,3.2038248544185,-2.8274759594186,1.2106547517571,0.99441373911736,-1.324584183588,0.94014601669932,1.1507441504801,-0.11555246312478,0.79372237223296,-3.6543921975853,-1.4151917765021,-3.1747555024967,5.3857423767732,-2.2400827527325,3.1000860637016,-0.36542846382604,-1.2133251248295,-6.4250548819682,1.0180727945607,-1.9471339487764,-3.4261052215021,1.710521212766,3.1101817075228,-2.9755216021935,367.29472217482,367.29472217482,367.29472217482,367.29472217482,367.29472217482,367.29472217482,367.29472217482,367.29472217482,367.29472217482,367.29472217482,367.29472217482,367.29472217482,367.29472217482,367.29472217482,367.29472217482,367.29472217482,367.29472217482,367.29472217482,367.29472217482,367.29472217482,367.29472217482,367.29472217482,367.29472217482,367.29472217482,367.29472217482,367.29472217482,367.29472217482,367.29472217482,367.29472217482,367.29472217482,367.29472217482,367.29472217482,367.29472217482,367.29472217482,367.29472217482,367.29472217482,367.29472217482,367.29472217482,367.29472217482,367.29472217482,367.29472217482,367.29472217482,367.29472217482,367.29472217482,367.29472217482,367.29472217482,367.29472217482,367.29472217482,221.67028259675,735.86643212619,-2.7118872204193,643.00548103027,-2.7248496225222,0
0.00066093749999999,3673454972.61,5.6352314285353e-05,0.00019586630652151,8.634752776312e-05,1.0624624326947,0,0,0,0,0,0,0,0,0,0,0,0,0,0,0,0,0,0,0,0,0,0,0,0,0,0,0,0,0,0,0,0,0,0,0,0,0,0,0,0,0,0,0,0,0,0,0,0,-0.95025788467595,0.29496695141893,-0.26371774580603,5.1586386285431,2.8406150861021,0.9918548673077,-2.8620031916268,1.4804860824006,2.6390187635896,-0.39473295937039,1.8448259651853,-5.3268483366287,1.6537872943982,-1.1316913838381,1.8954894785669,-3.7048632290093,1.5903169684347,4.2737903357261,-1.0221304883739,-4.4406486819538,1.9071725200292,2.117208217775,0.031011314195601,-4.467251597361,3.2036869130794,-2.8290459986538,1.2106177794743,0.99406811521725,-1.3232267677775,0.93939107241856,1.149894424313,-0.11468070135149,0.79366096748922,-3.6527768776455,-1.4141784227495,-3.1739531411941,5.3854494956429,-2.2382596278015,3.0997955083379,-0.36529755427699,-1.2130190652037,-6.4230402747221,1.0178225493126,-1.9468046662858,-3.4262267195419,1.7119352730393,3.1093131972459,-2.973291278355,367.74022841958,367.74022841958,367.74022841958,367.74022841958,367.74022841958,367.74022841958,367.74022841958,367.74022841958,367.74022841958,367.74022841958,367.74022841958,367.74022841958,367.74022841958,367.74022841958,367.74022841958,367.74022841958,367.74022841958,367.74022841958,367.74022841958,367.74022841958,367.74022841958,367.74022841958,367.74022841958,367.74022841958,367.74022841958,367.74022841958,367.74022841958,367.74022841958,367.74022841958,367.74022841958,367.74022841958,367.74022841958,367.74022841958,367.74022841958,367.74022841958,367.74022841958,367.74022841958,367.74022841958,367.74022841958,367.74022841958,367.74022841958,367.74022841958,367.74022841958,367.74022841958,367.74022841958,367.74022841958,367.74022841958,367.74022841958,221.64322708335,736.77906724205,-2.720739759742,643.78473159163,-2.7337038153891,0
0.00066218749999999,3685259411.331,5.6452940539283e-05,0.00019623681405939,8.6513949702462e-05,1.0625814284842,0,0,0,0,0,0,0,0,0,0,0,0,0,0,0,0,0,0,0,0,0,0,0,0,0,0,0,0,0,0,0,0,0,0,0,0,0,0,0,0,0,0,0,0,0,0,0,0,-0.95008285121253,0.29630391475286,-0.26423406231584,5.1584103087803,2.8400916234824,0.99149659894119,-2.8607726490556,1.4800423309686,2.6385135673397,-0.39440626593234,1.8445254209127,-5.3263200647955,1.6543561537807,-1.1308074095557,1.8957130181807,-3.7025016882529,1.5887273912042,4.2728357589514,-1.0219935445003,-4.4404928789897,1.9070116537525,2.1180775650453,0.031032859056662,-4.4690210166316,3.203548537883,-2.8306133723841,1.2105808076512,0.99372184073271,-1.3218708094169,0.93863609806434,1.149045121801,-0.11380860782577,0.79359988781974,-3.6511624720451,-1.4131654607913,-3.1731502755329,5.3851556072361,-2.2364369035051,3.0995041630747,-0.36516721013669,-1.2127127882776,-6.4210242914969,1.0175705756516,-1.9464744221249,-3.4263478807172,1.7133501491138,3.1084451557491,-2.9710614765671,368.18563903661,368.18563903661,368.18563903661,368.18563903661,368.18563903661,368.18563903661,368.18563903661,368.18563903661,368.18563903661,368.18563903661,368.18563903661,368.18563903661,368.18563903661,368.18563903661,368.18563903661,368.18563903661,368.18563903661,368.18563903661,368.18563903661,368.18563903661,368.18563903661,368.18563903661,368.18563903661,368.18563903661,368.18563903661,368.18563903661,368.18563903661,368.18563903661,368.18563903661,368.18563903661,368.18563903661,368.18563903661,368.18563903661,368.18563903661,368.18563903661,368.18563903661,368.18563903661,368.18563903661,368.18563903661,368.18563903661,368.18563903661,368.18563903661,368.18563903661,368.18563903661,368.18563903661,368.18563903661,368.18563903661,368.18563903661,221.6161722519,737.6915080788,-2.7296049192952,644.56378515202,-2.7425705516669,0
0.00066343749999999,3697080227.6319,5.6553559870346e-05,0.00019660732164118,8.6680397365618e-05,1.0627004207508,0,0,0,0,0,0,0,0,0,0,0,0,0,0,0,0,0,0,0,0,0,0,0,0,0,0,0,0,0,0,0,0,0,0,0,0,0,0,0,0,0,0,0,0,0,0,0,0,-0.94990770350175,0.29764021049173,-0.26475185721858,5.1581821084239,2.8395682686949,0.99113867171811,-2.8595433091407,1.4795982738303,2.638007981688,-0.39407986794371,1.8442243100283,-5.3257905753626,1.6549246482794,-1.1299246788234,1.8959357988558,-3.7001399930314,1.5871375310004,4.27188160944,-1.02185520923,-4.440337775272,1.9068499232856,2.1189455636127,0.031053906219579,-4.4707903139332,3.2034097372877,-2.8321780848238,1.2105438410569,0.99337491212299,-1.3205163103316,0.93788109181491,1.1481962480233,-0.11293618011938,0.79353913289163,-3.6495489765307,-1.4121528831024,-3.1723469081005,5.3848607210797,-2.2346145842761,3.09921202747,-0.36503743264367,-1.2124062949066,-6.419006941798,1.0173168826939,-1.9461432254999,-3.4264687046864,1.7147658356244,3.1075775727705,-2.9688321966762,368.63095403329,368.63095403329,368.63095403329,368.63095403329,368.63095403329,368.63095403329,368.63095403329,368.63095403329,368.63095403329,368.63095403329,368.63095403329,368.63095403329,368.63095403329,368.63095403329,368.63095403329,368.63095403329,368.63095403329,368.63095403329,368.63095403329,368.63095403329,368.63095403329,368.63095403329,368.63095403329,368.63095403329,368.63095403329,368.63095403329,368.63095403329,368.63095403329,368.63095403329,368.63095403329,368.63095403329,368.63095403329,368.63095403329,368.63095403329,368.63095403329,368.63095403329,368.63095403329,368.63095403329,368.63095403329,368.63095403329,368.63095403329,368.63095403329,368.63095403329,368.63095403329,368.63095403329,368.63095403329,368.63095403329,368.63095403329,221.58911814456,738.60375474202,-2.7384826938108,645.3426417993,-2.751449825363,0
0.00066468749999999,3708917409.907,5.6654172199455e-05,0.00019697782926702,8.6846870596811e-05,1.0628194094948,0,0,0,0,0,0,0,0,0,0,0,0,0,0,0,0,0,0,0,0,0,0,0,0,0,0,0,0,0,0,0,0,0,0,0,0,0,0,0,0,0,0,0,0,0,0,0,0,-0.94973244220801,0.29897584499364,-0.26527110935192,5.157954018601,2.8390450221628,0.99078107821373,-2.8583151676889,1.4791539132497,2.6375020092058,-0.39375376326186,1.8439226386304,-5.3252598660437,1.6554927794467,-1.1290431908566,1.8961578270561,-3.6977781550976,1.5855473925974,4.270927881587,-1.0217154903764,-4.4401833618098,1.9066873438431,2.1198122193051,0.031074452770005,-4.472559477956,3.2032705196226,-2.8337401403945,1.2105068843415,0.99302732587863,-1.3191632725033,0.93712605192514,1.147347807848,-0.11206341555629,0.79347870229045,-3.6479363868402,-1.4111406823046,-3.1715430413356,5.3845648464203,-2.2327926746722,3.0989191011244,-0.36490822304852,-1.2120995861464,-6.4169882350687,1.01706147939,-1.9458110855952,-3.4265891910982,1.7161823271237,3.1067104381755,-2.9666034387228,369.07617341712,369.07617341712,369.07617341712,369.07617341712,369.07617341712,369.07617341712,369.07617341712,369.07617341712,369.07617341712,369.07617341712,369.07617341712,369.07617341712,369.07617341712,369.07617341712,369.07617341712,369.07617341712,369.07617341712,369.07617341712,369.07617341712,369.07617341712,369.07617341712,369.07617341712,369.07617341712,369.07617341712,369.07617341712,369.07617341712,369.07617341712,369.07617341712,369.07617341712,369.07617341712,369.07617341712,369.07617341712,369.07617341712,369.07617341712,369.07617341712,369.07617341712,369.07617341712,369.07617341712,369.07617341712,369.07617341712,369.07617341712,369.07617341712,369.07617341712,369.07617341712,369.07617341712,369.07617341712,369.07617341712,369.07617341712,221.56206480344,739.51580733609,-2.7473730779583,646.12130162131,-2.7603416304547,0
0.00066593749999999,3720770946.5402,5.6754777553363e-05,0.00019734833693707,8.701336943331e-05,1.0629383947164,0,0,0,0,0,0,0,0,0,0,0,0,0,0,0,0,0,0,0,0,0,0,0,0,0,0,0,0,0,0,0,0,0,0,0,0,0,0,0,0,0,0,0,0,0,0,0,0,-0.94955706794388,0.30031082407759,-0.26579179803476,5.1577260304274,2.8385218842077,0.99042381110663,-2.8570882205902,1.4787092515445,2.6369956523782,-0.39342794972321,1.8436204127077,-5.3247279347246,1.6560605487463,-1.1281629447404,1.8963791088889,-3.6954161862674,1.5839569807832,4.2699745697137,-1.0215743957053,-4.4400296297319,1.9065239303992,2.1206775377661,0.031094495798406,-4.4743284978055,3.2031308930903,-2.8352995437641,1.2104699420373,0.99267907852753,-1.3178116979951,0.93637097672065,1.1464998060142,-0.11119031121565,0.7934185955187,-3.6463246987386,-1.4101288511635,-3.1707386774218,5.3842679922022,-2.2309711793733,3.0986253836534,-0.36477958256173,-1.21179266324,-6.4149681807357,1.0168043745034,-1.9454780115146,-3.426709339579,1.7175996180744,3.1058437419415,-2.9643752029342,369.52129719568,369.52129719568,369.52129719568,369.52129719568,369.52129719568,369.52129719568,369.52129719568,369.52129719568,369.52129719568,369.52129719568,369.52129719568,369.52129719568,369.52129719568,369.52129719568,369.52129719568,369.52129719568,369.52129719568,369.52129719568,369.52129719568,369.52129719568,369.52129719568,369.52129719568,369.52129719568,369.52129719568,369.52129719568,369.52129719568,369.52129719568,369.52129719568,369.52129719568,369.52129719568,369.52129719568,369.52129719568,369.52129719568,369.52129719568,369.52129719568,369.52129719568,369.52129719568,369.52129719568,369.52129719568,369.52129719568,369.52129719568,369.52129719568,369.52129719568,369.52129719568,369.52129719568,369.52129719568,369.52129719568,369.52129719568,221.53501227056,740.42766596429,-2.7562760664598,646.89976470583,-2.7692459609511,0
0.00066718749999999,3732640825.9051,5.685537602652e-05,0.0001977188446515,8.7179894034917e-05,1.063057376416,0,0,0,0,0,0,0,0,0,0,0,0,0,0,0,0,0,0,0,0,0,0,0,0,0,0,0,0,0,0,0,0,0,0,0,0,0,0,0,0,0,0,0,0,0,0,0,0,-0.94938158127856,0.30164515301551,-0.26631390305194,5.1574981350131,2.8379988550546,0.99006686319487,-2.855862463832,1.4782642910907,2.6364889135614,-0.39310242514578,1.8433176381421,-5.3241947794475,1.6566279575395,-1.1272839394969,1.8965996501348,-3.6930540984236,1.582366300374,4.2690216680767,-1.0214319329185,-4.4398765702938,1.9063596976995,2.1215415244121,0.031114032400553,-4.4760973630148,3.2029908657694,-2.8368562998181,1.2104330185598,0.99233016664287,-1.3164615889593,0.93561586460413,1.1456522471074,-0.11031686393223,0.79335881199574,-3.6447139080183,-1.4091173825919,-3.1699338183523,5.3839701670742,-2.2291501031868,3.0983308747076,-0.3646515123929,-1.2114855275856,-6.412946788214,1.0165455766157,-1.9451440122832,-3.4268291497197,1.7190177028638,3.1049774741641,-2.96214748973,369.96632537664,369.96632537664,369.96632537664,369.96632537664,369.96632537664,369.96632537664,369.96632537664,369.96632537664,369.96632537664,369.96632537664,369.96632537664,369.96632537664,369.96632537664,369.96632537664,369.96632537664,369.96632537664,369.96632537664,369.96632537664,369.96632537664,369.96632537664,369.96632537664,369.96632537664,369.96632537664,369.96632537664,369.96632537664,369.96632537664,369.96632537664,369.96632537664,369.96632537664,369.96632537664,369.96632537664,369.96632537664,369.96632537664,369.96632537664,369.96632537664,369.96632537664,369.96632537664,369.96632537664,369.96632537664,369.96632537664,369.96632537664,369.96632537664,369.96632537664,369.96632537664,369.96632537664,369.96632537664,369.96632537664,369.96632537664,221.50796058798,741.33933072882,-2.7651916540586,647.67803114052,-2.7781628108787,0
0.00066843749999999,3744527036.3648,5.6955967711167e-05,0.00019808935241045,8.7346444557693e-05,1.0631763545936,0,0,0,0,0,0,0,0,0,0,0,0,0,0,0,0,0,0,0,0,0,0,0,0,0,0,0,0,0,0,0,0,0,0,0,0,0,0,0,0,0,0,0,0,0,0,0,0,-0.9492059827447,0.3029788365153,-0.26683740462443,5.157270323469,2.8374759348346,0.98971022739113,-2.8546378935323,1.4778190343257,2.6359817949167,-0.3927771873318,1.8430143207112,-5.323660398416,1.6571950070753,-1.126406174131,1.8968194562891,-3.6906919035072,1.5807753562128,4.268069170875,-1.0212881096556,-4.4397241749163,1.9061946602729,2.1224041843989,0.031133059676503,-4.4778660635269,3.202850445609,-2.8384104136594,1.2103961182071,0.99198058683861,-1.3151129476466,0.93486071405323,1.1448051355007,-0.10944307029847,0.7932993510594,-3.6431040105063,-1.4081062696539,-3.1691284659719,5.383671379443,-2.2273294510479,3.0980355739751,-0.3645240137793,-1.2111781807065,-6.4109240668804,1.0162850941192,-1.9448090968289,-3.4269486211138,1.7204365758082,3.1041116250614,-2.9599202997177,370.4112579678,370.4112579678,370.4112579678,370.4112579678,370.4112579678,370.4112579678,370.4112579678,370.4112579678,370.4112579678,370.4112579678,370.4112579678,370.4112579678,370.4112579678,370.4112579678,370.4112579678,370.4112579678,370.4112579678,370.4112579678,370.4112579678,370.4112579678,370.4112579678,370.4112579678,370.4112579678,370.4112579678,370.4112579678,370.4112579678,370.4112579678,370.4112579678,370.4112579678,370.4112579678,370.4112579678,370.4112579678,370.4112579678,370.4112579678,370.4112579678,370.4112579678,370.4112579678,370.4112579678,370.4112579678,370.4112579678,370.4112579678,370.4112579678,370.4112579678,370.4112579678,370.4112579678,370.4112579678,370.4112579678,370.4112579678,221.48090979765,742.25080173089,-2.774119835458,648.45610101297,-2.787092174248,0
0.00066968749999999,3756429566.2723,5.7056552453719e-05,0.0001984598602141,8.751302070926e-05,1.0632953292496,0,0,0,0,0,0,0,0,0,0,0,0,0,0,0,0,0,0,0,0,0,0,0,0,0,0,0,0,0,0,0,0,0,0,0,0,0,0,0,0,0,0,0,0,0,0,0,0,-0.94903027284222,0.3043118787262,-0.26736228339795,5.1570425869105,2.8369531235867,0.98935389674257,-2.8534145058924,1.4773734837492,2.635474298347,-0.39245223407295,1.8427104660775,-5.3231247900409,1.6577616984919,-1.1255296476213,1.8970385325597,-3.6883296135438,1.5791841531303,4.2671170722611,-1.0211429334753,-4.4395724351508,1.9060288324391,2.1232655225879,0.031151574728828,-4.4796345897518,3.2027096404103,-2.8399618906364,1.2103592451587,0.99163033578395,-1.3137657763557,0.93410552362283,1.1439584752923,-0.10856892666586,0.79324021196433,-3.641495002093,-1.4070955055632,-3.1683226219649,5.3833716374434,-2.2255092280196,3.0977394811316,-0.36439708798065,-1.2108706242446,-6.4089000261427,1.0160229352122,-1.9444732739518,-3.4270677533292,1.7218562311335,3.1032461849852,-2.9576936336942,370.85609497704,370.85609497704,370.85609497704,370.85609497704,370.85609497704,370.85609497704,370.85609497704,370.85609497704,370.85609497704,370.85609497704,370.85609497704,370.85609497704,370.85609497704,370.85609497704,370.85609497704,370.85609497704,370.85609497704,370.85609497704,370.85609497704,370.85609497704,370.85609497704,370.85609497704,370.85609497704,370.85609497704,370.85609497704,370.85609497704,370.85609497704,370.85609497704,370.85609497704,370.85609497704,370.85609497704,370.85609497704,370.85609497704,370.85609497704,370.85609497704,370.85609497704,370.85609497704,370.85609497704,370.85609497704,370.85609497704,370.85609497704,370.85609497704,370.85609497704,370.85609497704,370.85609497704,370.85609497704,370.85609497704,370.85609497704,221.45385994122,743.16207907071,-2.7830606053484,649.23397441062,-2.7960340450829,0
0.00067093749999999,3768348403.9711,5.7157130315309e-05,0.00019883036806259,8.7679622588758e-05,1.0634143003843,0,0,0,0,0,0,0,0,0,0,0,0,0,0,0,0,0,0,0,0,0,0,0,0,0,0,0,0,0,0,0,0,0,0,0,0,0,0,0,0,0,0,0,0,0,0,0,0,-0.94885445204281,0.30564428323315,-0.26788852045652,5.156814916469,2.8364304212624,0.98899786443528,-2.852192297165,1.4769276419186,2.6349664257649,-0.39212756315541,1.8424060797983,-5.3225879529179,1.6583280327961,-1.1246543588807,1.8972568839023,-3.6859672406203,1.5775926959915,4.2661653663326,-1.0209964118502,-4.4394213426431,1.9058622283042,2.1241255437242,0.031169574658483,-4.4814029325533,3.2025684578523,-2.8415107363001,1.2103224034828,0.99127941020085,-1.3124200774184,0.93335029194432,1.1431122705218,-0.1076944291516,0.79318139387974,-3.6398868787313,-1.4060850836805,-3.1675162878118,5.383070948947,-2.2236894392883,3.0974425959111,-0.36427073626332,-1.2105628599165,-6.4068746754012,1.0157591078987,-1.9441365523065,-3.4271865459004,1.7232766630148,3.1023811443996,-2.9554674926283,371.30083641235,371.30083641235,371.30083641235,371.30083641235,371.30083641235,371.30083641235,371.30083641235,371.30083641235,371.30083641235,371.30083641235,371.30083641235,371.30083641235,371.30083641235,371.30083641235,371.30083641235,371.30083641235,371.30083641235,371.30083641235,371.30083641235,371.30083641235,371.30083641235,371.30083641235,371.30083641235,371.30083641235,371.30083641235,371.30083641235,371.30083641235,371.30083641235,371.30083641235,371.30083641235,371.30083641235,371.30083641235,371.30083641235,371.30083641235,371.30083641235,371.30083641235,371.30083641235,371.30083641235,371.30083641235,371.30083641235,371.30083641235,371.30083641235,371.30083641235,371.30083641235,371.30083641235,371.30083641235,371.30083641235,371.30083641235,221.42681105992,744.07316284769,-2.7920139584875,650.01165142079,-2.8049884174421,0
0.00067218749999999,3780283537.7945,5.7263158748086e-05,0.0001992008759561,8.7846250186174e-05,1.0635332679978,0,0,0,0,0,0,0,0,0,0,0,0,0,0,0,0,0,0,0,0,0,0,0,0,0,0,0,0,0,0,0,0,0,0,0,0,0,0,0,0,0,0,0,0,0,0,0,0,-0.94867852080176,0.3069760530499,-0.26841609729094,5.1565873033027,2.8359078277242,0.98864212379783,-2.8509712637299,1.476481511455,2.6344581789233,-0.39180317236197,1.8421011673336,-5.3220498858278,1.6588940108527,-1.1237803068568,1.8974745150549,-3.6836047968666,1.5760009896962,4.2652140471377,-1.0208485521663,-4.4392708892086,1.9056948617772,2.1249842523217,0.03118705656542,-4.4831710832121,3.2024269054925,-2.8430569563968,1.2102855971325,0.99092780686822,-1.3110758532398,0.93259501772832,1.1422665250378,-0.10681957364215,0.79312289589386,-3.6382796364444,-1.4050749975222,-3.1667094648841,5.3827693216038,-2.2218700901652,3.097144918096,-0.36414495995858,-1.2102548894874,-6.4048480239992,1.0154936199978,-1.9437989404027,-3.4273049983528,1.7246978655711,3.1015164938886,-2.9532418776716,371.74548228181,371.74548228181,371.74548228181,371.74548228181,371.74548228181,371.74548228181,371.74548228181,371.74548228181,371.74548228181,371.74548228181,371.74548228181,371.74548228181,371.74548228181,371.74548228181,371.74548228181,371.74548228181,371.74548228181,371.74548228181,371.74548228181,371.74548228181,371.74548228181,371.74548228181,371.74548228181,371.74548228181,371.74548228181,371.74548228181,371.74548228181,371.74548228181,371.74548228181,371.74548228181,371.74548228181,371.74548228181,371.74548228181,371.74548228181,371.74548228181,371.74548228181,371.74548228181,371.74548228181,371.74548228181,371.74548228181,371.74548228181,371.74548228181,371.74548228181,371.74548228181,371.74548228181,371.74548228181,371.74548228181,371.74548228181,221.39976319496,744.98405316039,-2.8009798895759,650.78913213065,-2.8139552853686,0
0.00067343749999999,3792234956.0661,5.7369234907036e-05,0.00019957138389478,8.8012903401606e-05,1.0636522320904,0,0,0,0,0,0,0,0,0,0,0,0,0,0,0,0,0,0,0,0,0,0,0,0,0,0,0,0,0,0,0,0,0,0,0,0,0,0,0,0,0,0,0,0,0,0,0,0,-0.94850247955614,0.30830719061441,-0.26894499578241,5.1563597386028,2.8353853427547,0.98828666830948,-2.8497514019887,1.47603509504,2.6339495594347,-0.39147905948138,1.8417957340267,-5.3215105877876,1.6594596333828,-1.1229074904708,1.8976914305342,-3.6812422944978,1.5744090391485,4.2642631086929,-1.0206993617089,-4.4391210667415,1.9055267465736,2.1258416526913,0.031204017543555,-4.4849390335194,3.2022849907369,-2.8446005568967,1.2102488299493,0.99057552262642,-1.3097331062121,0.93183969976394,1.1414212424966,-0.1059443557992,0.79306471700714,-3.6366732713559,-1.4040652407523,-3.1659021543805,5.3824667628091,-2.2200511860839,3.0968464474901,-0.36401976042906,-1.2099467147634,-6.4028200813399,1.0152264791282,-1.9434604465632,-3.4274231101734,1.7261198328589,3.1006522241653,-2.9510167901474,372.19003259361,372.19003259361,372.19003259361,372.19003259361,372.19003259361,372.19003259361,372.19003259361,372.19003259361,372.19003259361,372.19003259361,372.19003259361,372.19003259361,372.19003259361,372.19003259361,372.19003259361,372.19003259361,372.19003259361,372.19003259361,372.19003259361,372.19003259361,372.19003259361,372.19003259361,372.19003259361,372.19003259361,372.19003259361,372.19003259361,372.19003259361,372.19003259361,372.19003259361,372.19003259361,372.19003259361,372.19003259361,372.19003259361,372.19003259361,372.19003259361,372.19003259361,372.19003259361,372.19003259361,372.19003259361,372.19003259361,372.19003259361,372.19003259361,372.19003259361,372.19003259361,372.19003259361,372.19003259361,372.19003259361,372.19003259361,221.37271638707,745.89475010666,-2.8099583933546,651.56641662723,-2.8229346429376,0
0.00067468749999999,3804202647.1001,5.7475320505553e-05,0.00019994189187882,8.8179582197849e-05,1.0637711926623,0,0,0,0,0,0,0,0,0,0,0,0,0,0,0,0,0,0,0,0,0,0,0,0,0,0,0,0,0,0,0,0,0,0,0,0,0,0,0,0,0,0,0,0,0,0,0,0,-0.94832632874181,0.30963769779285,-0.26947519819232,5.156132213603,2.8348629660578,0.98793149159684,-2.8485327085154,1.4755883954224,2.6334405687909,-0.39115522230784,1.8414897851326,-5.320970057983,1.6600249009384,-1.1220359087487,1.8979076346945,-3.6788797457339,1.5728168493303,4.2633125449808,-1.0205488476662,-4.4389718673494,1.9053578962244,2.1266977489425,0.031220454682289,-4.4867067756345,3.2021427208785,-2.846141543927,1.2102121056624,0.9902225543735,-1.3083918388241,0.93108433692338,1.1405764263979,-0.10506877106796,0.79300685613938,-3.635067779665,-1.4030558071956,-3.1650943574505,5.3821632797833,-2.2182327325968,3.0965471839974,-0.36389513914976,-1.2096383375443,-6.4007908566928,1.014957692744,-1.9431210789523,-3.4275408808584,1.7275425589088,3.0997883260636,-2.9487922315411,372.63448735603,372.63448735603,372.63448735603,372.63448735603,372.63448735603,372.63448735603,372.63448735603,372.63448735603,372.63448735603,372.63448735603,372.63448735603,372.63448735603,372.63448735603,372.63448735603,372.63448735603,372.63448735603,372.63448735603,372.63448735603,372.63448735603,372.63448735603,372.63448735603,372.63448735603,372.63448735603,372.63448735603,372.63448735603,372.63448735603,372.63448735603,372.63448735603,372.63448735603,372.63448735603,372.63448735603,372.63448735603,372.63448735603,372.63448735603,372.63448735603,372.63448735603,372.63448735603,372.63448735603,372.63448735603,372.63448735603,372.63448735603,372.63448735603,372.63448735603,372.63448735603,372.63448735603,372.63448735603,372.63448735603,372.63448735603,221.34567067661,746.80525378364,-2.8189494644614,652.34350499746,-2.8319264841844,0
0.00067593749999999,3816186599.2015,5.7581415438882e-05,0.00020031239990837,8.8346286435455e-05,1.0638901497139,0,0,0,0,0,0,0,0,0,0,0,0,0,0,0,0,0,0,0,0,0,0,0,0,0,0,0,0,0,0,0,0,0,0,0,0,0,0,0,0,0,0,0,0,0,0,0,0,-0.94815006878496,0.31096757587148,-0.2700066871518,5.1559047195923,2.834340697266,0.98757658745535,-2.8473151798392,1.4751414154101,2.6329312083718,-0.39083165865387,1.841183325786,-5.3204282958883,1.6605898139094,-1.1211655606591,1.8981231316902,-3.6765171628908,1.5712244251989,4.2623623499649,-1.020397017107,-4.4388232831711,1.9051883240772,2.127552545021,0.031236365057221,-4.4884743022774,3.2020001030523,-2.8476799238509,1.2101754278949,0.98986889908124,-1.3070520534803,0.93032892815901,1.1397320800531,-0.10419281467956,0.79294931211935,-3.6334631577132,-1.4020466908174,-3.1642860750301,5.3818588794734,-2.2164147353725,3.0962471275101,-0.36377109761559,-1.2093297596343,-6.3987603594362,1.0146872680861,-1.9427808454889,-3.4276583098384,1.7289660376781,3.0989247905457,-2.9465682034985,373.07884657743,373.07884657743,373.07884657743,373.07884657743,373.07884657743,373.07884657743,373.07884657743,373.07884657743,373.07884657743,373.07884657743,373.07884657743,373.07884657743,373.07884657743,373.07884657743,373.07884657743,373.07884657743,373.07884657743,373.07884657743,373.07884657743,373.07884657743,373.07884657743,373.07884657743,373.07884657743,373.07884657743,373.07884657743,373.07884657743,373.07884657743,373.07884657743,373.07884657743,373.07884657743,373.07884657743,373.07884657743,373.07884657743,373.07884657743,373.07884657743,373.07884657743,373.07884657743,373.07884657743,373.07884657743,373.07884657743,373.07884657743,373.07884657743,373.07884657743,373.07884657743,373.07884657743,373.07884657743,373.07884657743,373.07884657743,221.31862610346,747.71556428787,-2.8279530976435,653.12039732807,-2.8409308032024,0
0.00067718749999999,3828186800.6656,5.7687519959341e-05,0.0002006829079836,8.8513016400288e-05,1.0640091032453,0,0,0,0,0,0,0,0,0,0,0,0,0,0,0,0,0,0,0,0,0,0,0,0,0,0,0,0,0,0,0,0,0,0,0,0,0,0,0,0,0,0,0,0,0,0,0,0,-0.94797370011766,0.3122968255607,-0.27053944565335,5.1556772479288,2.8338185359446,0.98722194983957,-2.8460988125735,1.4746941578753,2.6324214794341,-0.39050836635164,1.8408763610202,-5.3198853011872,1.6611543725025,-1.1202964452451,1.8983379255233,-3.6741545583194,1.569631771764,4.2614125175933,-1.0202438769912,-4.4386753064791,1.9050180433012,2.1284060446747,0.031251745731977,-4.4902416066361,3.2018571442604,-2.8492157031822,1.2101388001642,0.98951455378745,-1.3057137526071,0.92957347250774,1.1388882066051,-0.10331648166019,0.79289208368977,-3.6318594019548,-1.4010378857334,-3.163477307977,5.3815535686183,-2.2145972001894,3.0959462779995,-0.36364763741739,-1.2090209828027,-6.3967285989238,1.0144152122175,-1.9424397538958,-3.4277753965189,1.7303902630961,3.0980616086989,-2.9443447078292,373.52311026629,373.52311026629,373.52311026629,373.52311026629,373.52311026629,373.52311026629,373.52311026629,373.52311026629,373.52311026629,373.52311026629,373.52311026629,373.52311026629,373.52311026629,373.52311026629,373.52311026629,373.52311026629,373.52311026629,373.52311026629,373.52311026629,373.52311026629,373.52311026629,373.52311026629,373.52311026629,373.52311026629,373.52311026629,373.52311026629,373.52311026629,373.52311026629,373.52311026629,373.52311026629,373.52311026629,373.52311026629,373.52311026629,373.52311026629,373.52311026629,373.52311026629,373.52311026629,373.52311026629,373.52311026629,373.52311026629,373.52311026629,373.52311026629,373.52311026629,373.52311026629,373.52311026629,373.52311026629,373.52311026629,373.52311026629,221.29158270706,748.62568171533,-2.8369692876232,653.89709370565,-2.8499475940807,0
0.00067843749999999,3840203239.7789,5.779363406411e-05,0.0002010534161047,8.867977207378e-05,1.0641280532568,0,0,0,0,0,0,0,0,0,0,0,0,0,0,0,0,0,0,0,0,0,0,0,0,0,0,0,0,0,0,0,0,0,0,0,0,0,0,0,0,0,0,0,0,0,0,0,0,-0.94779722318127,0.31362544699768,-0.27107345702681,5.1554497900393,2.8332964815938,0.98686757286966,-2.8448836033898,1.4742466257523,2.6319113831311,-0.39018534325925,1.8405688957647,-5.3193410738058,1.661718576733,-1.1194285616142,1.898552020062,-3.6717919443916,1.5680388940828,4.2604630418044,-1.0200894341579,-4.4385279296666,1.9048470668957,2.1292582514866,0.031266593755036,-4.4920086823489,3.2017138513633,-2.8507488886077,1.2101022258831,0.98915951560051,-1.3043769386178,0.92881796909001,1.1380448090301,-0.10243976684109,0.79283516950567,-3.6302565089787,-1.4000293862082,-3.1626680570472,5.3812473537638,-2.2127801329302,3.095644635502,-0.3635247602428,-1.2087120087682,-6.3946955844598,1.0141415320291,-1.9420978116599,-3.4278921402819,1.7318152290557,3.0971987717368,-2.9421217464884,373.96727843117,373.96727843117,373.96727843117,373.96727843117,373.96727843117,373.96727843117,373.96727843117,373.96727843117,373.96727843117,373.96727843117,373.96727843117,373.96727843117,373.96727843117,373.96727843117,373.96727843117,373.96727843117,373.96727843117,373.96727843117,373.96727843117,373.96727843117,373.96727843117,373.96727843117,373.96727843117,373.96727843117,373.96727843117,373.96727843117,373.96727843117,373.96727843117,373.96727843117,373.96727843117,373.96727843117,373.96727843117,373.96727843117,373.96727843117,373.96727843117,373.96727843117,373.96727843117,373.96727843117,373.96727843117,373.96727843117,373.96727843117,373.96727843117,373.96727843117,373.96727843117,373.96727843117,373.96727843117,373.96727843117,373.96727843117,221.2645405264,749.53560616149,-2.8459980290877,654.67359421667,-2.8589768508977,0
0.00067968749999999,3852235904.8186,5.7899757642223e-05,0.00020142392427181,8.884655330886e-05,1.0642469997487,0,0,0,0,0,0,0,0,0,0,0,0,0,0,0,0,0,0,0,0,0,0,0,0,0,0,0,0,0,0,0,0,0,0,0,0,0,0,0,0,0,0,0,0,0,0,0,0,-0.94762063843024,0.31495343974268,-0.27160870493914,5.1552223374417,2.8327745336568,0.98651345083545,-2.8436695489986,1.4737988220384,2.6314009205151,-0.3898625872687,1.8402609348464,-5.3187956139141,1.6622824264143,-1.1185619089353,1.8987654190397,-3.669429333516,1.5664457972471,4.2595139165407,-1.0199336953219,-4.4383811452291,1.9046754076918,2.1301091688753,0.031280906154913,-4.4937755235539,3.201570231083,-2.852279486964,1.2100657083623,0.98880378170256,-1.3030416138984,0.92806241711231,1.13720189014,-0.10156266486544,0.79277856813373,-3.628654475517,-1.3990211866517,-3.1618583228986,5.3809402412399,-2.2109635395801,3.0953422001117,-0.36340246787314,-1.2084028391843,-6.3926613253549,1.0138662342259,-1.9417550260328,-3.4280085404707,1.7332409294159,3.0963362710025,-2.9398993215748,374.41135108073,374.41135108073,374.41135108073,374.41135108073,374.41135108073,374.41135108073,374.41135108073,374.41135108073,374.41135108073,374.41135108073,374.41135108073,374.41135108073,374.41135108073,374.41135108073,374.41135108073,374.41135108073,374.41135108073,374.41135108073,374.41135108073,374.41135108073,374.41135108073,374.41135108073,374.41135108073,374.41135108073,374.41135108073,374.41135108073,374.41135108073,374.41135108073,374.41135108073,374.41135108073,374.41135108073,374.41135108073,374.41135108073,374.41135108073,374.41135108073,374.41135108073,374.41135108073,374.41135108073,374.41135108073,374.41135108073,374.41135108073,374.41135108073,374.41135108073,374.41135108073,374.41135108073,374.41135108073,374.41135108073,374.41135108073,221.23749959983,750.4453377214,-2.855039316756,655.44989894747,-2.8680185677735,0
0.00068093749999999,3864284784.0533,5.8005890688176e-05,0.00020179443248513,8.9013360083736e-05,1.0643659427212,0,0,0,0,0,0,0,0,0,0,0,0,0,0,0,0,0,0,0,0,0,0,0,0,0,0,0,0,0,0,0,0,0,0,0,0,0,0,0,0,0,0,0,0,0,0,0,0,-0.94744394634007,0.31628080278198,-0.272145173369,5.1549948817546,2.8322526915204,0.9861595781953,-2.8424566461555,1.4733507497914,2.6308900925421,-0.38954009631116,1.8399524829865,-5.3182489219371,1.6628459211476,-1.1176964864607,1.8989781260757,-3.6670667381142,1.5648524864052,4.2585651357476,-1.0197766670725,-4.4382349457729,1.904503078357,2.1309588001021,0.031294679937842,-4.4955421248649,3.2014262899925,-2.8538075052327,1.2100292508129,0.98844734934945,-1.3017077808036,0.92730681586843,1.1363594525834,-0.10068517019873,0.79272227805104,-3.6270532984598,-1.3980132816183,-3.1610481061023,5.3806322371769,-2.2091474262173,3.0950389720004,-0.3632807622009,-1.2080934756216,-6.3906258308881,1.0135893253458,-1.9414114040105,-3.4281245963846,1.7346673580103,3.0954740979641,-2.9376774353254,374.85532822372,374.85532822372,374.85532822372,374.85532822372,374.85532822372,374.85532822372,374.85532822372,374.85532822372,374.85532822372,374.85532822372,374.85532822372,374.85532822372,374.85532822372,374.85532822372,374.85532822372,374.85532822372,374.85532822372,374.85532822372,374.85532822372,374.85532822372,374.85532822372,374.85532822372,374.85532822372,374.85532822372,374.85532822372,374.85532822372,374.85532822372,374.85532822372,374.85532822372,374.85532822372,374.85532822372,374.85532822372,374.85532822372,374.85532822372,374.85532822372,374.85532822372,374.85532822372,374.85532822372,374.85532822372,374.85532822372,374.85532822372,374.85532822372,374.85532822372,374.85532822372,374.85532822372,374.85532822372,374.85532822372,374.85532822372,221.21045996523,751.35487648973,-2.86409314532,656.22600798426,-2.8770727388152,0
0.00068218749999999,3876349865.7425,5.8112033200524e-05,0.00020216494074481,8.9180192380839e-05,1.0644848821745,0,0,0,0,0,0,0,0,0,0,0,0,0,0,0,0,0,0,0,0,0,0,0,0,0,0,0,0,0,0,0,0,0,0,0,0,0,0,0,0,0,0,0,0,0,0,0,0,-0.94726714741094,0.31760753453295,-0.2726828466038,5.1547674147058,2.8317309545211,0.98580594958056,-2.8412448916465,1.47290241213,2.6303789000701,-0.3892178683638,1.8396435448032,-5.3177009985547,1.6634090603117,-1.11683229353,1.8991901446822,-3.6647041706171,1.563258966757,4.2576166933836,-1.0196183558677,-4.4380893240025,1.9043300913978,2.1318071482714,0.031307912085161,-4.497308481375,3.2012820345194,-2.855332950525,1.2099928563485,0.98809021587423,-1.300375441644,0.92655116473996,1.1355174988466,-0.099807277140078,0.79266629764482,-3.6254529748606,-1.3970056658034,-3.1602374071507,5.3803233475063,-2.207331799008,3.0947349514123,-0.36315964523238,-1.2077839195531,-6.3885891103134,1.0133108117578,-1.9410669523333,-3.4282403072855,1.7360945086476,3.0946122442166,-2.9354560901074,375.29920986897,375.29920986897,375.29920986897,375.29920986897,375.29920986897,375.29920986897,375.29920986897,375.29920986897,375.29920986897,375.29920986897,375.29920986897,375.29920986897,375.29920986897,375.29920986897,375.29920986897,375.29920986897,375.29920986897,375.29920986897,375.29920986897,375.29920986897,375.29920986897,375.29920986897,375.29920986897,375.29920986897,375.29920986897,375.29920986897,375.29920986897,375.29920986897,375.29920986897,375.29920986897,375.29920986897,375.29920986897,375.29920986897,375.29920986897,375.29920986897,375.29920986897,375.29920986897,375.29920986897,375.29920986897,375.29920986897,375.29920986897,375.29920986897,375.29920986897,375.29920986897,375.29920986897,375.29920986897,375.29920986897,375.29920986897,221.18342165994,752.26422256084,-2.8731595094747,657.00192141314,-2.8861393581395,0
0.00068343749999999,3888431138.1372,5.821818514106e-05,0.00020253544905104,8.934705013933e-05,1.0646038181089,0,0,0,0,0,0,0,0,0,0,0,0,0,0,0,0,0,0,0,0,0,0,0,0,0,0,0,0,0,0,0,0,0,0,0,0,0,0,0,0,0,0,0,0,0,0,0,0,-0.94709024217355,0.31893363284323,-0.27322170922654,5.1545399281496,2.8312093219506,0.98545255979145,-2.8400342822942,1.4724538122315,2.629867343873,-0.38889590145714,1.8393341248127,-5.3171518447056,1.6639718430542,-1.1159693295833,1.8994014782761,-3.6623416434557,1.5616652435587,4.256668583429,-1.0194587680363,-4.4379442727251,1.904156459163,2.1326542163459,0.031320599548769,-4.4990745886653,3.2011374709453,-2.8568558300668,1.209956527988,0.98773237868556,-1.2990445986872,0.92579546319747,1.1346760312594,-0.098928979831058,0.79261062521232,-3.6238535019478,-1.395998334043,-3.1594262264628,5.3800135779657,-2.2055166642009,3.0944301386711,-0.36303911909848,-1.2074741723407,-6.386551172857,1.0130306996638,-1.9407216774708,-3.4283556723903,1.7375223751151,3.0937507014819,-2.9332352884144,375.74299602541,375.74299602541,375.74299602541,375.74299602541,375.74299602541,375.74299602541,375.74299602541,375.74299602541,375.74299602541,375.74299602541,375.74299602541,375.74299602541,375.74299602541,375.74299602541,375.74299602541,375.74299602541,375.74299602541,375.74299602541,375.74299602541,375.74299602541,375.74299602541,375.74299602541,375.74299602541,375.74299602541,375.74299602541,375.74299602541,375.74299602541,375.74299602541,375.74299602541,375.74299602541,375.74299602541,375.74299602541,375.74299602541,375.74299602541,375.74299602541,375.74299602541,375.74299602541,375.74299602541,375.74299602541,375.74299602541,375.74299602541,375.74299602541,375.74299602541,375.74299602541,375.74299602541,375.74299602541,375.74299602541,375.74299602541,221.15638472065,753.1733760288,-2.8822384039148,657.77763932011,-2.8952184198874,0
0.00068468749999999,3900528589.48,5.8324346544065e-05,0.00020290595740398,8.9513933384205e-05,1.0647227505246,0,0,0,0,0,0,0,0,0,0,0,0,0,0,0,0,0,0,0,0,0,0,0,0,0,0,0,0,0,0,0,0,0,0,0,0,0,0,0,0,0,0,0,0,0,0,0,0,-0.9469132311934,0.32025909499373,-0.27376174609996,5.1543124140771,2.8306877930594,0.98509940380577,-2.8388248149427,1.4720049533334,2.6293554246407,-0.38857419368001,1.8390242274309,-5.3166014615929,1.6645342682828,-1.1151075941681,1.8996121301831,-3.6599791690492,1.5600713221297,4.2557207998931,-1.0192979097666,-4.4377997848422,1.9039821938496,2.133500007147,0.03133273925126,-4.5008404427919,3.2009926054054,-2.8583761511863,1.2099202686577,0.98737383527354,-1.2977152541401,0.9250397108035,1.1338350519978,-0.098050272268478,0.7925552589609,-3.6222548771333,-1.3949912813091,-3.1586145643948,5.3797029340967,-2.2037020281188,3.0941245341845,-0.36291918605912,-1.2071642352263,-6.3845120277078,1.0127489951057,-1.9403755856172,-3.4284706908645,1.7389509511846,3.0928894616139,-2.9310150328531,376.18668670205,376.18668670205,376.18668670205,376.18668670205,376.18668670205,376.18668670205,376.18668670205,376.18668670205,376.18668670205,376.18668670205,376.18668670205,376.18668670205,376.18668670205,376.18668670205,376.18668670205,376.18668670205,376.18668670205,376.18668670205,376.18668670205,376.18668670205,376.18668670205,376.18668670205,376.18668670205,376.18668670205,376.18668670205,376.18668670205,376.18668670205,376.18668670205,376.18668670205,376.18668670205,376.18668670205,376.18668670205,376.18668670205,376.18668670205,376.18668670205,376.18668670205,376.18668670205,376.18668670205,376.18668670205,376.18668670205,376.18668670205,376.18668670205,376.18668670205,376.18668670205,376.18668670205,376.18668670205,376.18668670205,376.18668670205,221.12934918357,754.08233698752,-2.8913298233311,658.55316179109,-2.904309918181,0
0.00068593749999999,3912642208.0049,5.8430517379423e-05,0.00020327646580382,8.9680842063846e-05,1.0648416794219,0,0,0,0,0,0,0,0,0,0,0,0,0,0,0,0,0,0,0,0,0,0,0,0,0,0,0,0,0,0,0,0,0,0,0,0,0,0,0,0,0,0,0,0,0,0,0,0,-0.94673611507705,0.32158391770755,-0.27430294235863,5.1540848646228,2.8301663670589,0.98474647676997,-2.8376164864675,1.4715558387276,2.6288431429784,-0.38825274318839,1.8387138569713,-5.3160498506864,1.665096334656,-1.1142470869504,1.8998221036476,-3.6576167597917,1.5584772078582,4.2547733368147,-1.0191357871129,-4.4376558533519,1.9038073074982,2.1343445233587,0.031344328078208,-4.5026060402828,3.2008474438803,-2.8598939213038,1.2098840811931,0.98701458320596,-1.2963874101586,0.92428390721134,1.1329945630819,-0.097171148316294,0.79250019700776,-3.6206570980217,-1.3939845027094,-3.1578024212451,5.3793914212464,-2.2018878971517,3.0938181384476,-0.36279984851303,-1.2068541093157,-6.3824716840057,1.0124657039738,-1.9400286826876,-3.4285853618205,1.7403802306115,3.092028516587,-2.9287953261406,376.630281908,376.630281908,376.630281908,376.630281908,376.630281908,376.630281908,376.630281908,376.630281908,376.630281908,376.630281908,376.630281908,376.630281908,376.630281908,376.630281908,376.630281908,376.630281908,376.630281908,376.630281908,376.630281908,376.630281908,376.630281908,376.630281908,376.630281908,376.630281908,376.630281908,376.630281908,376.630281908,376.630281908,376.630281908,376.630281908,376.630281908,376.630281908,376.630281908,376.630281908,376.630281908,376.630281908,376.630281908,376.630281908,376.630281908,376.630281908,376.630281908,376.630281908,376.630281908,376.630281908,376.630281908,376.630281908,376.630281908,376.630281908,221.10231508433,754.99110553071,-2.9004337624092,659.32848891191,-2.9134138471857,0
0.00068718749999999,3924771981.9376,5.8536697635398e-05,0.00020364697425072,8.9847776148312e-05,1.0649606048011,0,0,0,0,0,0,0,0,0,0,0,0,0,0,0,0,0,0,0,0,0,0,0,0,0,0,0,0,0,0,0,0,0,0,0,0,0,0,0,0,0,0,0,0,0,0,0,0,-0.94655889447563,0.32290809714395,-0.27484528339612,5.1538572720857,2.8296450431288,0.98439377400345,-2.8364092937593,1.4711064717621,2.6283304994197,-0.38793154821091,1.8384030176482,-5.3154970137199,1.6656580405746,-1.1133878077238,1.9000314018405,-3.655254428048,1.5568829061964,4.2538261882751,-1.0189724059915,-4.437512471342,1.9036318120006,2.1351877675358,0.031355362879803,-4.5043713781445,3.2007019922013,-2.861409147908,1.2098479683422,0.98665462013148,-1.2950610688277,0.92352805216842,1.1321545663859,-0.096291601717955,0.79244543737955,-3.6190601624159,-1.3929779934815,-3.1569897972706,5.3790790445779,-2.2000742777491,3.0935109520451,-0.3626811090014,-1.2065437955721,-6.3804301508523,1.0121808319978,-1.9396809743145,-3.4286996843181,1.7418102071429,3.0911678585085,-2.9265761711012,377.07378165243,377.07378165243,377.07378165243,377.07378165243,377.07378165243,377.07378165243,377.07378165243,377.07378165243,377.07378165243,377.07378165243,377.07378165243,377.07378165243,377.07378165243,377.07378165243,377.07378165243,377.07378165243,377.07378165243,377.07378165243,377.07378165243,377.07378165243,377.07378165243,377.07378165243,377.07378165243,377.07378165243,377.07378165243,377.07378165243,377.07378165243,377.07378165243,377.07378165243,377.07378165243,377.07378165243,377.07378165243,377.07378165243,377.07378165243,377.07378165243,377.07378165243,377.07378165243,377.07378165243,377.07378165243,377.07378165243,377.07378165243,377.07378165243,377.07378165243,377.07378165243,377.07378165243,377.07378165243,377.07378165243,377.07378165243,221.07528245794,755.89968175201,-2.9095502158387,660.10362076834,-2.9225302010433,0
0.00068843749999999,3936917899.4959,5.8642887291972e-05,0.00020401748274486,9.0014735597047e-05,1.0650795266624,0,0,0,0,0,0,0,0,0,0,0,0,0,0,0,0,0,0,0,0,0,0,0,0,0,0,0,0,0,0,0,0,0,0,0,0,0,0,0,0,0,0,0,0,0,0,0,0,-0.94638157008956,0.32423162891246,-0.27538875485388,5.153629628936,2.8291238204166,0.9840412909946,-2.8352032337293,1.4706568558378,2.6278174944207,-0.38761060705644,1.8380917135783,-5.3149429526991,1.6662193841772,-1.1125297564132,1.9002400278618,-3.6528921861344,1.5552884226774,4.2528793483976,-1.0188077721779,-4.4373696319885,1.9034557191001,2.136029742107,0.031365840464843,-4.5061364538387,3.2005562560474,-2.8629218385493,1.2098119327666,0.98629394377865,-1.2937362321679,0.92277214551508,1.1313150636346,-0.095411626110482,0.79239097801442,-3.6174640683279,-1.3919717489929,-3.1561766926794,5.3787658090613,-2.1982611764127,3.0932029756589,-0.36256297021498,-1.2062332948064,-6.378387437283,1.0118943847668,-1.9393324658373,-3.4288136573561,1.7432408745159,3.0903074796079,-2.9243575706481,377.51718594462,377.51718594462,377.51718594462,377.51718594462,377.51718594462,377.51718594462,377.51718594462,377.51718594462,377.51718594462,377.51718594462,377.51718594462,377.51718594462,377.51718594462,377.51718594462,377.51718594462,377.51718594462,377.51718594462,377.51718594462,377.51718594462,377.51718594462,377.51718594462,377.51718594462,377.51718594462,377.51718594462,377.51718594462,377.51718594462,377.51718594462,377.51718594462,377.51718594462,377.51718594462,377.51718594462,377.51718594462,377.51718594462,377.51718594462,377.51718594462,377.51718594462,377.51718594462,377.51718594462,377.51718594462,377.51718594462,377.51718594462,377.51718594462,377.51718594462,377.51718594462,377.51718594462,377.51718594462,377.51718594462,377.51718594462,221.04825133896,756.808065745,-2.9186791782974,660.87855744609,-2.9316589739309,0
0.00068968749999999,3949079948.8892,5.8749086399191e-05,0.00020438799128642,9.0181720453555e-05,1.065198445006,0,0,0,0,0,0,0,0,0,0,0,0,0,0,0,0,0,0,0,0,0,0,0,0,0,0,0,0,0,0,0,0,0,0,0,0,0,0,0,0,0,0,0,0,0,0,0,0,-0.94620414267314,0.32555450807343,-0.27593334261565,5.1534019278307,2.8286026980413,0.98368902340129,-2.8339983033095,1.4702069944063,2.627304128375,-0.38728991811989,1.837779948782,-5.314387669892,1.6667803633297,-1.1116729330886,1.9004479847502,-3.6505300463133,1.5536937629065,4.2519328113536,-1.0186418913119,-4.4372273285624,1.9032790403886,2.1368704493829,0.031375757599617,-4.5079012652857,3.2004102409467,-2.8644320008173,1.2097759770422,0.98593255195843,-1.2924129021287,0.92201618718777,1.130476056415,-0.094531215036736,0.79233681676154,-3.6158688139802,-1.3909657647376,-3.1553631076506,5.3784517194896,-2.1964485996902,3.0928942100628,-0.36244543500053,-1.2059226076682,-6.3763435522734,1.0116063677234,-1.938983162304,-3.4289272798771,1.74467222646,3.0894473722411,-2.9221395277913,377.96049479391,377.96049479391,377.96049479391,377.96049479391,377.96049479391,377.96049479391,377.96049479391,377.96049479391,377.96049479391,377.96049479391,377.96049479391,377.96049479391,377.96049479391,377.96049479391,377.96049479391,377.96049479391,377.96049479391,377.96049479391,377.96049479391,377.96049479391,377.96049479391,377.96049479391,377.96049479391,377.96049479391,377.96049479391,377.96049479391,377.96049479391,377.96049479391,377.96049479391,377.96049479391,377.96049479391,377.96049479391,377.96049479391,377.96049479391,377.96049479391,377.96049479391,377.96049479391,377.96049479391,377.96049479391,377.96049479391,377.96049479391,377.96049479391,377.96049479391,377.96049479391,377.96049479391,377.96049479391,377.96049479391,377.96049479391,221.02122176131,757.71625760327,-2.9278206444638,661.65329903083,-2.9408001600135,0
0.00069093749999999,3961258118.3194,5.8855294793774e-05,0.00020475849987557,9.0348730507053e-05,1.0653173598323,0,0,0,0,0,0,0,0,0,0,0,0,0,0,0,0,0,0,0,0,0,0,0,0,0,0,0,0,0,0,0,0,0,0,0,0,0,0,0,0,0,0,0,0,0,0,0,0,-0.94602661303976,0.32687672914251,-0.27647903278643,5.1531741616152,2.8280816751035,0.98333696704871,-2.8327944994452,1.4697568909688,2.6267904015984,-0.38696947989005,1.8374677271842,-5.3138311678414,1.6673409756223,-1.1108173379765,1.9006552754832,-3.648168020779,1.55209893257,4.2509865713749,-1.0184747688879,-4.4370855544153,1.903101787314,2.1377098915513,0.031385111004777,-4.5096658108511,3.2002639522705,-2.8659396423363,1.2097401036669,0.98557044256203,-1.2910910805862,0.92126017721888,1.1296375461639,-0.093650361961132,0.79228295138249,-3.6142743978199,-1.3899600363312,-3.1545490423467,5.3781367804667,-2.1946365541643,3.0925846561311,-0.36232850636878,-1.2056117346402,-6.3742985047284,1.0113167861704,-1.938633068473,-3.4290405507546,1.7461042567035,3.0885875288927,-2.9199220456155,378.40370820974,378.40370820974,378.40370820974,378.40370820974,378.40370820974,378.40370820974,378.40370820974,378.40370820974,378.40370820974,378.40370820974,378.40370820974,378.40370820974,378.40370820974,378.40370820974,378.40370820974,378.40370820974,378.40370820974,378.40370820974,378.40370820974,378.40370820974,378.40370820974,378.40370820974,378.40370820974,378.40370820974,378.40370820974,378.40370820974,378.40370820974,378.40370820974,378.40370820974,378.40370820974,378.40370820974,378.40370820974,378.40370820974,378.40370820974,378.40370820974,378.40370820974,378.40370820974,378.40370820974,378.40370820974,378.40370820974,378.40370820974,378.40370820974,378.40370820974,378.40370820974,378.40370820974,378.40370820974,378.40370820974,378.40370820974,220.99419375848,758.62425742043,-2.936974609006,662.42784560823,-2.9499537534756,0
0.00069218749999999,3973452395.9804,5.8961512594374e-05,0.00020512900851248,9.0515765881792e-05,1.0654362711414,0,0,0,0,0,0,0,0,0,0,0,0,0,0,0,0,0,0,0,0,0,0,0,0,0,0,0,0,0,0,0,0,0,0,0,0,0,0,0,0,0,0,0,0,0,0,0,0,-0.94584898206145,0.32819828609815,-0.27702581170298,5.1529463233509,2.8275607506793,0.982985117928,-2.8315918190681,1.469306549071,2.6262763143775,-0.38664929095639,1.8371550526148,-5.3132734493613,1.6679012183635,-1.1099629714182,1.900861902976,-3.6458061216534,1.5505039374289,4.2500406227485,-1.0183064102629,-4.4369443029609,1.9029239711717,2.1385480707122,0.031393897352224,-4.5114300893515,3.2001173952394,-2.8674447707411,1.2097043150574,0.98520761356369,-1.2897707693196,0.92050411573743,1.1287995342043,-0.092769060283496,0.79222937955105,-3.6126808185222,-1.3889545595077,-3.1537344968688,5.3778209964015,-2.1928250464473,3.0922743148325,-0.36221218747158,-1.2053006760339,-6.3722523034929,1.01102564527,-1.9382821887934,-3.4291534687845,1.7475369589697,3.0877279421696,-2.9177051272828,378.84682620162,378.84682620162,378.84682620162,378.84682620162,378.84682620162,378.84682620162,378.84682620162,378.84682620162,378.84682620162,378.84682620162,378.84682620162,378.84682620162,378.84682620162,378.84682620162,378.84682620162,378.84682620162,378.84682620162,378.84682620162,378.84682620162,378.84682620162,378.84682620162,378.84682620162,378.84682620162,378.84682620162,378.84682620162,378.84682620162,378.84682620162,378.84682620162,378.84682620162,378.84682620162,378.84682620162,378.84682620162,378.84682620162,378.84682620162,378.84682620162,378.84682620162,378.84682620162,378.84682620162,378.84682620162,378.84682620162,378.84682620162,378.84682620162,378.84682620162,378.84682620162,378.84682620162,378.84682620162,378.84682620162,378.84682620162,220.96716736341,759.53206529021,-2.946141066634,663.20219726389,-2.9591197485271,0
0.00069343749999999,3985662770.0584,5.9067739778169e-05,0.00020549951719735,9.0682826534021e-05,1.0655551789336,0,0,0,0,0,0,0,0,0,0,0,0,0,0,0,0,0,0,0,0,0,0,0,0,0,0,0,0,0,0,0,0,0,0,0,0,0,0,0,0,0,0,0,0,0,0,0,0,-0.94567125067866,0.32951917238663,-0.27757366590173,5.1527184063097,2.8270399238259,0.98263347219225,-2.8303902591464,1.4688559723038,2.6257618669138,-0.38632935001396,1.8368419288155,-5.3127145175229,1.6684610885765,-1.1091098339529,1.9010678700952,-3.6434443609612,1.548908783334,4.249094959822,-1.018136820652,-4.4368035677161,1.9027456031127,2.1393849888411,0.031402113263555,-4.5131941000107,3.1999705749202,-2.8689473936611,1.2096686135509,0.984844063018,-1.2884519700476,0.91974800297143,1.1279620217067,-0.091887303353765,0.79217609885793,-3.6110880749893,-1.3879493301188,-3.1529194713446,5.377504371535,-2.1910140831718,3.0919631872384,-0.36209648164952,-1.2049894319831,-6.3702049573062,1.0107329500581,-1.9379305274311,-3.4292660327003,1.7489703269824,3.0868686048001,-2.9154887760193,379.28984877913,379.28984877913,379.28984877913,379.28984877913,379.28984877913,379.28984877913,379.28984877913,379.28984877913,379.28984877913,379.28984877913,379.28984877913,379.28984877913,379.28984877913,379.28984877913,379.28984877913,379.28984877913,379.28984877913,379.28984877913,379.28984877913,379.28984877913,379.28984877913,379.28984877913,379.28984877913,379.28984877913,379.28984877913,379.28984877913,379.28984877913,379.28984877913,379.28984877913,379.28984877913,379.28984877913,379.28984877913,379.28984877913,379.28984877913,379.28984877913,379.28984877913,379.28984877913,379.28984877913,379.28984877913,379.28984877913,379.28984877913,379.28984877913,379.28984877913,379.28984877913,379.28984877913,379.28984877913,379.28984877913,379.28984877913,220.9401426086,760.43968130645,-2.9553200120039,663.97635408345,-2.9682981393548,0
0.00069468749999999,3997889228.7321,5.9173976250642e-05,0.00020587002593033,9.0849912334495e-05,1.0656740832092,0,0,0,0,0,0,0,0,0,0,0,0,0,0,0,0,0,0,0,0,0,0,0,0,0,0,0,0,0,0,0,0,0,0,0,0,0,0,0,0,0,0,0,0,0,0,0,0,-0.94549341990075,0.33083938092754,-0.27812258212666,5.1524904039943,2.8265191935853,0.98228202614993,-2.8291898166664,1.4684051642998,2.625247059365,-0.38600965587091,1.8365283594394,-5.3121543756527,1.6690205829897,-1.1082579262869,1.9012731796608,-3.6410827506275,1.5473134762301,4.2481495770115,-1.0179660051376,-4.4366633422804,1.9025666941393,2.1402206478098,0.031409755308583,-4.5149578424656,3.199823496229,-2.870447518699,1.2096330014097,0.98447978905848,-1.28713468442,0.91899183924722,1.1271250097264,-0.091005084488151,0.79212310680942,-3.609496166356,-1.3869443441318,-3.1521039658958,5.3771869099323,-2.1892036709858,3.091651274537,-0.36198139241449,-1.2046780024338,-6.3681564748171,1.0104387054413,-1.9375780882612,-3.4293782411643,1.750404354474,3.086009509639,-2.9132729951192,379.73277595196,379.73277595196,379.73277595196,379.73277595196,379.73277595196,379.73277595196,379.73277595196,379.73277595196,379.73277595196,379.73277595196,379.73277595196,379.73277595196,379.73277595196,379.73277595196,379.73277595196,379.73277595196,379.73277595196,379.73277595196,379.73277595196,379.73277595196,379.73277595196,379.73277595196,379.73277595196,379.73277595196,379.73277595196,379.73277595196,379.73277595196,379.73277595196,379.73277595196,379.73277595196,379.73277595196,379.73277595196,379.73277595196,379.73277595196,379.73277595196,379.73277595196,379.73277595196,379.73277595196,379.73277595196,379.73277595196,379.73277595196,379.73277595196,379.73277595196,379.73277595196,379.73277595196,379.73277595196,379.73277595196,379.73277595196,220.91311952605,761.34710556319,-2.964511439774,664.75031615254,-2.9774889201703,0
0.00069593749999999,4010131760.1729,5.9280222028347e-05,0.00020624053471162,9.1017023285733e-05,1.0657929839685,0,0,0,0,0,0,0,0,0,0,0,0,0,0,0,0,0,0,0,0,0,0,0,0,0,0,0,0,0,0,0,0,0,0,0,0,0,0,0,0,0,0,0,0,0,0,0,0,-0.94531549080887,0.33215890412062,-0.27867254730072,5.1522623101406,2.8259985589895,0.98193077626816,-2.827990488608,1.4679541287311,2.6247318918217,-0.38569020745502,1.8362143480495,-5.3115930273524,1.6695796980426,-1.1074072492909,1.9014778344442,-3.6387213024686,1.5457180221395,4.2472044688095,-1.0177939686603,-4.4365236203214,1.902387255109,2.1410550493933,0.031416820001739,-4.5167213167526,3.1996761639201,-2.8719451534388,1.2095974808231,0.98411478990063,-1.2858189139869,0.91823562499093,1.1262884991713,-0.090122396984366,0.79207040083036,-3.6079050920039,-1.3859395976206,-3.151287980634,5.3768686154848,-2.1873938165413,3.0913385780049,-0.36186692344904,-1.2043663871514,-6.3661068645822,1.0101429162008,-1.9372248748485,-3.4294900927626,1.7518390351732,3.0851506496672,-2.9110577879213,380.17560772984,380.17560772984,380.17560772984,380.17560772984,380.17560772984,380.17560772984,380.17560772984,380.17560772984,380.17560772984,380.17560772984,380.17560772984,380.17560772984,380.17560772984,380.17560772984,380.17560772984,380.17560772984,380.17560772984,380.17560772984,380.17560772984,380.17560772984,380.17560772984,380.17560772984,380.17560772984,380.17560772984,380.17560772984,380.17560772984,380.17560772984,380.17560772984,380.17560772984,380.17560772984,380.17560772984,380.17560772984,380.17560772984,380.17560772984,380.17560772984,380.17560772984,380.17560772984,380.17560772984,380.17560772984,380.17560772984,380.17560772984,380.17560772984,380.17560772984,380.17560772984,380.17560772984,380.17560772984,380.17560772984,380.17560772984,220.88609814734,762.25433815467,-2.9737153446122,665.52408355682,-2.9866920851921,0
0.00069718749999999,4022390352.5451,5.9386477087828e-05,0.00020661104354138,9.1184159342368e-05,1.0659118812116,0,0,0,0,0,0,0,0,0,0,0,0,0,0,0,0,0,0,0,0,0,0,0,0,0,0,0,0,0,0,0,0,0,0,0,0,0,0,0,0,0,0,0,0,0,0,0,0,-0.94513746455993,0.33347773385441,-0.27922354854699,5.1520341187332,2.8254780190558,0.9815797191641,-2.8267922719571,1.4675028693039,2.624216364355,-0.38537100382031,1.8358998981262,-5.3110304764788,1.6701384298771,-1.106557804,1.9016818371668,-3.6363600281824,1.5441224271689,4.2462596297741,-1.0176207160265,-4.4363843955781,1.9022072967249,2.1418881952864,0.031423303799833,-4.5184845232924,3.1995285826013,-2.8734403054116,1.2095620539062,0.98374906383737,-1.2845046602208,0.91747936072961,1.1254524908528,-0.089239234138531,0.79201797826627,-3.6063148515582,-1.3849350867684,-3.1504715156728,5.376549491896,-2.1855845264897,3.0910250990213,-0.36175307860424,-1.2040545857108,-6.3640561350584,1.0098455869907,-1.9368708904767,-3.4296015859913,1.7532743628164,3.0842920179806,-2.9088431578145,380.61834412259,380.61834412259,380.61834412259,380.61834412259,380.61834412259,380.61834412259,380.61834412259,380.61834412259,380.61834412259,380.61834412259,380.61834412259,380.61834412259,380.61834412259,380.61834412259,380.61834412259,380.61834412259,380.61834412259,380.61834412259,380.61834412259,380.61834412259,380.61834412259,380.61834412259,380.61834412259,380.61834412259,380.61834412259,380.61834412259,380.61834412259,380.61834412259,380.61834412259,380.61834412259,380.61834412259,380.61834412259,380.61834412259,380.61834412259,380.61834412259,380.61834412259,380.61834412259,380.61834412259,380.61834412259,380.61834412259,380.61834412259,380.61834412259,380.61834412259,380.61834412259,380.61834412259,380.61834412259,380.61834412259,380.61834412259,220.85907850367,763.16137917537,-2.9829317211887,666.29765638198,-2.9959076286435,0
0.00069843749999999,4034664994.0055,5.9492741389315e-05,0.0002069815524198,9.1351320440052e-05,1.0660307749389,0,0,0,0,0,0,0,0,0,0,0,0,0,0,0,0,0,0,0,0,0,0,0,0,0,0,0,0,0,0,0,0,0,0,0,0,0,0,0,0,0,0,0,0,0,0,0,0,-0.944959342389,0.33479586151197,-0.27977557315795,5.1518058240158,2.8249575727947,0.98122885160842,-2.8255951637127,1.4670513897586,2.6237004769834,-0.38505204415161,1.8355850130704,-5.3104667271332,1.6706967743396,-1.1057095916326,1.9018851905093,-3.6339989393303,1.5425266975207,4.245315054546,-1.0174462519063,-4.4362456618685,1.9020268295438,2.1427200870898,0.031429203102118,-4.5202474628633,3.1993807567307,-2.8749329820769,1.2095267227047,0.98338260924392,-1.2831919245153,0.91672304709101,1.1246169854566,-0.08835558926019,0.79196583638663,-3.6047254448866,-1.3839308078608,-3.1496545711381,5.3762295427057,-2.183775807473,3.0907108390752,-0.36163986191262,-1.2037425974977,-6.3620042945787,1.0095467223522,-1.936516138132,-3.4297127192692,1.7547103311475,3.083433607801,-2.9066291082279,381.06098514012,381.06098514012,381.06098514012,381.06098514012,381.06098514012,381.06098514012,381.06098514012,381.06098514012,381.06098514012,381.06098514012,381.06098514012,381.06098514012,381.06098514012,381.06098514012,381.06098514012,381.06098514012,381.06098514012,381.06098514012,381.06098514012,381.06098514012,381.06098514012,381.06098514012,381.06098514012,381.06098514012,381.06098514012,381.06098514012,381.06098514012,381.06098514012,381.06098514012,381.06098514012,381.06098514012,381.06098514012,381.06098514012,381.06098514012,381.06098514012,381.06098514012,381.06098514012,381.06098514012,381.06098514012,381.06098514012,381.06098514012,381.06098514012,381.06098514012,381.06098514012,381.06098514012,381.06098514012,381.06098514012,381.06098514012,220.83206062585,764.06822872009,-2.9921605641729,667.07103471374,-3.0051355447693,0
0.00069968749999999,4046955672.7042,5.9599014938865e-05,0.00020735206134705,9.1518506568198e-05,1.0661496651507,0,0,0,0,0,0,0,0,0,0,0,0,0,0,0,0,0,0,0,0,0,0,0,0,0,0,0,0,0,0,0,0,0,0,0,0,0,0,0,0,0,0,0,0,0,0,0,0,-0.9447811256113,0.33611327797848,-0.28032860859704,5.1515774204887,2.8244372192095,0.98087817051084,-2.8243991608764,1.4665996938654,2.6231842296847,-0.38473332777124,1.8352696962005,-5.3099017836737,1.6712547269778,-1.1048626135811,1.9020878971107,-3.6316380473402,1.5409308394809,4.2443707378432,-1.0172705808388,-4.4361074130783,1.9018458639691,2.1435507263205,0.031434514247569,-4.5220101365978,3.19923269061,-2.8764231908252,1.209491489195,0.98301542456908,-1.2818807081783,0.91596668480442,1.1237819835517,-0.0874714556886,0.79191397238543,-3.6031368721096,-1.3829267572839,-3.1488371471644,5.3759087712837,-2.1819676661173,3.0903957997522,-0.3615272775805,-1.2034304217048,-6.3599513513718,1.0092463267073,-1.9361606205083,-3.4298234909318,1.7561469339158,3.0825754124693,-2.9044156426213,381.50353079239,381.50353079239,381.50353079239,381.50353079239,381.50353079239,381.50353079239,381.50353079239,381.50353079239,381.50353079239,381.50353079239,381.50353079239,381.50353079239,381.50353079239,381.50353079239,381.50353079239,381.50353079239,381.50353079239,381.50353079239,381.50353079239,381.50353079239,381.50353079239,381.50353079239,381.50353079239,381.50353079239,381.50353079239,381.50353079239,381.50353079239,381.50353079239,381.50353079239,381.50353079239,381.50353079239,381.50353079239,381.50353079239,381.50353079239,381.50353079239,381.50353079239,381.50353079239,381.50353079239,381.50353079239,381.50353079239,381.50353079239,381.50353079239,381.50353079239,381.50353079239,381.50353079239,381.50353079239,381.50353079239,381.50353079239,220.80504454439,764.97488688391,-3.0014018682221,667.84421863786,-3.0143758278088,0
0.00070093749999999,4059262376.7843,5.9705297773544e-05,0.00020772257032331,9.1685717753325e-05,1.0662685518471,0,0,0,0,0,0,0,0,0,0,0,0,0,0,0,0,0,0,0,0,0,0,0,0,0,0,0,0,0,0,0,0,0,0,0,0,0,0,0,0,0,0,0,0,0,0,0,0,-0.94460281562606,0.33742997364978,-0.28088264249316,5.151348902926,2.8239169572953,0.98052767292402,-2.8232042604585,1.4661477854214,2.6226676224058,-0.38441485414558,1.8349539507624,-5.3093356506975,1.6718122830419,-1.104016871424,1.9022899595694,-3.6292773634858,1.5393348594249,4.2434266744636,-1.0170937072349,-4.4359696431642,1.9016644102524,2.1443801144192,0.031439233511951,-4.5237725459435,3.1990843883969,-2.8779109389507,1.2094563552842,0.98264750834064,-1.2805710124404,0.91521027470078,1.1229474856014,-0.086586826811956,0.79186238338647,-3.6015491335961,-1.3819229315211,-3.1480192439128,5.375587180832,-2.1801601090255,3.0900799827416,-0.36141532999404,-1.2031180573331,-6.3578973135284,1.0089444043663,-1.9358043400194,-3.4299338992238,1.7575841648817,3.0817174254418,-2.9022027644831,381.94598108945,381.94598108945,381.94598108945,381.94598108945,381.94598108945,381.94598108945,381.94598108945,381.94598108945,381.94598108945,381.94598108945,381.94598108945,381.94598108945,381.94598108945,381.94598108945,381.94598108945,381.94598108945,381.94598108945,381.94598108945,381.94598108945,381.94598108945,381.94598108945,381.94598108945,381.94598108945,381.94598108945,381.94598108945,381.94598108945,381.94598108945,381.94598108945,381.94598108945,381.94598108945,381.94598108945,381.94598108945,381.94598108945,381.94598108945,381.94598108945,381.94598108945,381.94598108945,381.94598108945,381.94598108945,381.94598108945,381.94598108945,381.94598108945,381.94598108945,381.94598108945,381.94598108945,381.94598108945,381.94598108945,381.94598108945,220.77803028946,765.8813537623,-3.0106556279952,668.61720824019,-3.0236284720115,0
0.00070218749999999,4071585094.3824,5.9811589844512e-05,0.00020809307934876,9.1852953919901e-05,1.0663874350285,0,0,0,0,0,0,0,0,0,0,0,0,0,0,0,0,0,0,0,0,0,0,0,0,0,0,0,0,0,0,0,0,0,0,0,0,0,0,0,0,0,0,0,0,0,0,0,0,-0.94442441391785,0.33874593844044,-0.28143766262646,5.1511202663798,2.8233967860488,0.98017735603675,-2.8220104594743,1.4656956682497,2.6221506550576,-0.38409662288896,1.8346377799275,-5.3087683330406,1.6723694374871,-1.1031723669235,1.9024913804418,-3.6269168988909,1.5377387638137,4.2424828592957,-1.0169156353753,-4.4358323461488,1.9014824784934,2.1452082527468,0.031443357109105,-4.5255346926689,3.1989358540979,-2.8793962336396,1.2094213228159,0.9822788591604,-1.2792628384522,0.91445381771575,1.12211349196,-0.085701696080188,0.79181106644462,-3.5999622299688,-1.3809193271498,-3.147200861572,5.3752647743826,-2.1783531427716,3.0897633898323,-0.36130402371579,-1.2028055031924,-6.3558421890284,1.0086409595281,-1.9354472987975,-3.430043942296,1.7590220178165,3.0808596402989,-2.8999904773228,382.38833604142,382.38833604142,382.38833604142,382.38833604142,382.38833604142,382.38833604142,382.38833604142,382.38833604142,382.38833604142,382.38833604142,382.38833604142,382.38833604142,382.38833604142,382.38833604142,382.38833604142,382.38833604142,382.38833604142,382.38833604142,382.38833604142,382.38833604142,382.38833604142,382.38833604142,382.38833604142,382.38833604142,382.38833604142,382.38833604142,382.38833604142,382.38833604142,382.38833604142,382.38833604142,382.38833604142,382.38833604142,382.38833604142,382.38833604142,382.38833604142,382.38833604142,382.38833604142,382.38833604142,382.38833604142,382.38833604142,382.38833604142,382.38833604142,382.38833604142,382.38833604142,382.38833604142,382.38833604142,382.38833604142,382.38833604142,220.75101789091,766.7876294511,-3.019921838157,669.39000360662,-3.0328934716433,0
0.00070343749999999,4083923813.6282,5.991789102014e-05,0.00020846358842359,9.2020214893118e-05,1.0665063146951,0,0,0,0,0,0,0,0,0,0,0,0,0,0,0,0,0,0,0,0,0,0,0,0,0,0,0,0,0,0,0,0,0,0,0,0,0,0,0,0,0,0,0,0,0,0,0,0,-0.94424592205869,0.34006116179317,-0.28199365693134,5.1508915061827,2.82287670446,0.97982721716527,-2.8208177549513,1.465243346193,2.6216333275268,-0.38377863376859,1.8343211867987,-5.3081998357658,1.6729261849733,-1.102329102021,1.902692162252,-3.6245566645066,1.5361425591961,4.2415392873099,-1.01673636942,-4.4356955161271,1.9013000786336,2.146035142599,0.031446881189014,-4.527296578808,3.1987870915745,-2.8808790819563,1.2093863935665,0.9819094757024,-1.2779561872869,0.91369731488583,1.1212800028823,-0.084816057024325,0.79176001855099,-3.5983761620996,-1.3799159408389,-3.1463820003472,5.3749415548161,-2.1765467738927,3.0894460229104,-0.3611933634852,-1.2024927578986,-6.353785985693,1.0083359962859,-1.9350894986879,-3.4301536182152,1.7604604865006,3.0800020507353,-2.8977787846614,382.83059565848,382.83059565848,382.83059565848,382.83059565848,382.83059565848,382.83059565848,382.83059565848,382.83059565848,382.83059565848,382.83059565848,382.83059565848,382.83059565848,382.83059565848,382.83059565848,382.83059565848,382.83059565848,382.83059565848,382.83059565848,382.83059565848,382.83059565848,382.83059565848,382.83059565848,382.83059565848,382.83059565848,382.83059565848,382.83059565848,382.83059565848,382.83059565848,382.83059565848,382.83059565848,382.83059565848,382.83059565848,382.83059565848,382.83059565848,382.83059565848,382.83059565848,382.83059565848,382.83059565848,382.83059565848,382.83059565848,382.83059565848,382.83059565848,382.83059565848,382.83059565848,382.83059565848,382.83059565848,382.83059565848,382.83059565848,220.72400737848,767.69371404653,-3.0292004933634,670.1626048231,-3.042170820985,0
0.00070468749999999,4096278522.6453,6.0024201352625e-05,0.00020883409754796,9.2187500717473e-05,1.0666251908472,0,0,0,0,0,0,0,0,0,0,0,0,0,0,0,0,0,0,0,0,0,0,0,0,0,0,0,0,0,0,0,0,0,0,0,0,0,0,0,0,0,0,0,0,0,0,0,0,-0.94406734170832,0.34137563268612,-0.28255061348389,5.1506626179554,2.8223567115204,0.97947725375646,-2.8196261439204,1.4647908231133,2.6211156396705,-0.3834608867116,1.8340041744123,-5.3076301641672,1.6734825198692,-1.1014870788467,1.9028923074842,-3.62219667112,1.5345462522084,4.2405959535677,-1.0165559134025,-4.4355591472541,1.9011172204611,2.1468607851975,0.031449801835436,-4.5290582066717,3.1986381045436,-2.882359490838,1.2093515692501,0.98153935671425,-1.2766510599415,0.91294076735093,1.1204470185227,-0.083929903272489,0.79170923663492,-3.5967909311169,-1.3789127693451,-3.1455626604881,5.3746175248517,-2.1747410088855,3.0891278839639,-0.36108335421532,-1.2021798198796,-6.3517287112233,1.0080295186288,-1.9347309412712,-3.4302629249506,1.76189956473,3.0791446505639,-2.895567690029,383.2727599509,383.2727599509,383.2727599509,383.2727599509,383.2727599509,383.2727599509,383.2727599509,383.2727599509,383.2727599509,383.2727599509,383.2727599509,383.2727599509,383.2727599509,383.2727599509,383.2727599509,383.2727599509,383.2727599509,383.2727599509,383.2727599509,383.2727599509,383.2727599509,383.2727599509,383.2727599509,383.2727599509,383.2727599509,383.2727599509,383.2727599509,383.2727599509,383.2727599509,383.2727599509,383.2727599509,383.2727599509,383.2727599509,383.2727599509,383.2727599509,383.2727599509,383.2727599509,383.2727599509,383.2727599509,383.2727599509,383.2727599509,383.2727599509,383.2727599509,383.2727599509,383.2727599509,383.2727599509,383.2727599509,383.2727599509,220.69699878151,768.59960764529,-3.0384915882605,670.93501197573,-3.0514605142927,0
0.00070593749999999,4108649209.5507,6.0130520891533e-05,0.00020920460672208,9.2354811433536e-05,1.0667440634851,0,0,0,0,0,0,0,0,0,0,0,0,0,0,0,0,0,0,0,0,0,0,0,0,0,0,0,0,0,0,0,0,0,0,0,0,0,0,0,0,0,0,0,0,0,0,0,0,-0.94388867461758,0.34268933964153,-0.28310852050369,5.1504335976134,2.8218368062201,0.97912746337851,-2.8184356234107,1.4643381028876,2.6205975913283,-0.38314338180716,1.8336867457407,-5.3070593237564,1.6740384362547,-1.1006462996954,1.9030918185849,-3.6198369293414,1.5329498495572,4.2396528532197,-1.01637427124,-4.4354232337416,1.9009339136021,2.1476851817112,0.031452115066687,-4.5308195788091,3.1984888965795,-2.8838374670742,1.2093168515178,0.98116850101475,-1.2753474573276,0.9121841763563,1.1196145389384,-0.083043228564679,0.79165871756755,-3.5952065384008,-1.3779098095074,-3.1447428422556,5.3742926870465,-2.1729358541969,3.0888089750622,-0.36097400098448,-1.201866687374,-6.3496703731757,1.0077215304367,-1.9343716278455,-3.4303718603689,1.7633392463096,3.0782874337127,-2.8933571969578,383.71482892902,383.71482892902,383.71482892902,383.71482892902,383.71482892902,383.71482892902,383.71482892902,383.71482892902,383.71482892902,383.71482892902,383.71482892902,383.71482892902,383.71482892902,383.71482892902,383.71482892902,383.71482892902,383.71482892902,383.71482892902,383.71482892902,383.71482892902,383.71482892902,383.71482892902,383.71482892902,383.71482892902,383.71482892902,383.71482892902,383.71482892902,383.71482892902,383.71482892902,383.71482892902,383.71482892902,383.71482892902,383.71482892902,383.71482892902,383.71482892902,383.71482892902,383.71482892902,383.71482892902,383.71482892902,383.71482892902,383.71482892902,383.71482892902,383.71482892902,383.71482892902,383.71482892902,383.71482892902,383.71482892902,383.71482892902,220.66999212929,769.50531034448,-3.0477951175281,671.7072251506,-3.0607625458715,0
0.00070718749999999,4121035862.4554,6.0236849464796e-05,0.0002095751159461,9.2522146818401e-05,1.066862932609,0,0,0,0,0,0,0,0,0,0,0,0,0,0,0,0,0,0,0,0,0,0,0,0,0,0,0,0,0,0,0,0,0,0,0,0,0,0,0,0,0,0,0,0,0,0,0,0,-0.94370992262838,0.34400227073818,-0.28366736634314,5.1502044413701,2.8213169875515,0.97877784371418,-2.8172461904713,1.4638851894057,2.6200791823193,-0.38282611931223,1.8333689036989,-5.3064873202502,1.6745939279261,-1.099806767061,1.9032906979681,-3.6174774495949,1.5313533580415,4.2387099815094,-1.0161914467347,-4.4352877698733,1.9007501675248,2.1485083332424,0.031453816834384,-4.5325806979786,3.1983394711183,-2.8853130172917,1.2092822419594,0.98079690748902,-1.2740453802947,0.91142754324855,1.1187825640999,-0.082156026771395,0.7916084581679,-3.5936229855804,-1.3769070582489,-3.1439225459683,5.3739670438125,-2.1711313162228,3.0884892983806,-0.36086530904839,-1.2015533584336,-6.3476109789503,1.0074120354935,-1.934011559452,-3.4304804222457,1.7647795250644,3.0774303942256,-2.8911473089772,384.15680260324,384.15680260324,384.15680260324,384.15680260324,384.15680260324,384.15680260324,384.15680260324,384.15680260324,384.15680260324,384.15680260324,384.15680260324,384.15680260324,384.15680260324,384.15680260324,384.15680260324,384.15680260324,384.15680260324,384.15680260324,384.15680260324,384.15680260324,384.15680260324,384.15680260324,384.15680260324,384.15680260324,384.15680260324,384.15680260324,384.15680260324,384.15680260324,384.15680260324,384.15680260324,384.15680260324,384.15680260324,384.15680260324,384.15680260324,384.15680260324,384.15680260324,384.15680260324,384.15680260324,384.15680260324,384.15680260324,384.15680260324,384.15680260324,384.15680260324,384.15680260324,384.15680260324,384.15680260324,384.15680260324,384.15680260324,220.64298745093,770.41082224173,-3.0571110758045,672.47924443397,-3.0700769100061,0
0.00070843749999999,4133438469.4644,6.0343186707946e-05,0.00020994562522022,9.2689506420216e-05,1.0669817982192,0,0,0,0,0,0,0,0,0,0,0,0,0,0,0,0,0,0,0,0,0,0,0,0,0,0,0,0,0,0,0,0,0,0,0,0,0,0,0,0,0,0,0,0,0,0,0,0,-0.94353108767543,0.34531441361897,-0.28422713948462,5.1499751457372,2.8207972545094,0.97842839255956,-2.8160578421547,1.463432086567,2.6195604124492,-0.38250909965527,1.8330506511465,-5.3059141595709,1.6751489883993,-1.0989684836038,1.9034889480124,-3.6151182421208,1.5297567845352,4.2377673337723,-1.016007443575,-4.4351527499875,1.9005659915354,2.1493302408452,0.031454903022394,-4.5343415671337,3.1981898314594,-2.8867861479514,1.2092477421049,0.98042457508972,-1.2727448296168,0.91067086947925,1.1179510938878,-0.081268291908733,0.79155845520471,-3.592040274536,-1.3759045125717,-3.1431017719696,5.3736405974095,-2.1693274013004,3.0881688561772,-0.36075728382281,-1.2012398309267,-6.345550535804,1.007101037486,-1.9336507368668,-3.4305886082525,1.7662203948311,3.0765735262569,-2.8889380296047,384.59868098402,384.59868098402,384.59868098402,384.59868098402,384.59868098402,384.59868098402,384.59868098402,384.59868098402,384.59868098402,384.59868098402,384.59868098402,384.59868098402,384.59868098402,384.59868098402,384.59868098402,384.59868098402,384.59868098402,384.59868098402,384.59868098402,384.59868098402,384.59868098402,384.59868098402,384.59868098402,384.59868098402,384.59868098402,384.59868098402,384.59868098402,384.59868098402,384.59868098402,384.59868098402,384.59868098402,384.59868098402,384.59868098402,384.59868098402,384.59868098402,384.59868098402,384.59868098402,384.59868098402,384.59868098402,384.59868098402,384.59868098402,384.59868098402,384.59868098402,384.59868098402,384.59868098402,384.59868098402,384.59868098402,384.59868098402,220.61598477539,771.31614343513,-3.0664394577378,673.25106991216,-3.0794036010205,0
0.00070968749999999,4145857018.6765,6.0449532949664e-05,0.00021031613454463,9.2856890611589e-05,1.067100660316,0,0,0,0,0,0,0,0,0,0,0,0,0,0,0,0,0,0,0,0,0,0,0,0,0,0,0,0,0,0,0,0,0,0,0,0,0,0,0,0,0,0,0,0,0,0,0,0,-0.94335217178605,0.34662575550449,-0.284787828536,5.149745707529,2.8202776060922,0.97807910781324,-2.814870575533,1.4629787982791,2.61904128152,-0.38219232343965,1.8327319908912,-5.3053398478296,1.675703610916,-1.0981314521738,1.9036865710675,-3.6127593169555,1.5281601359917,4.2368249054421,-1.0158222653457,-4.435018168493,1.9003813947778,2.1501509055232,0.031455369447869,-4.5361021893739,3.1980399807678,-2.8882568653302,1.2092133534246,0.98005150283198,-1.2714458060059,0.90991415660453,1.1171201281096,-0.080380018154846,0.79150870540204,-3.5904584073921,-1.3749021695539,-3.1422805206557,5.3733133499624,-2.1675241157033,3.0878476508031,-0.36064993089315,-1.2009261025391,-6.3434890508103,1.0067885400054,-1.9332891606128,-3.4306964159652,1.7676618494676,3.0757168240802,-2.8867293623469,385.04046408193,385.04046408193,385.04046408193,385.04046408193,385.04046408193,385.04046408193,385.04046408193,385.04046408193,385.04046408193,385.04046408193,385.04046408193,385.04046408193,385.04046408193,385.04046408193,385.04046408193,385.04046408193,385.04046408193,385.04046408193,385.04046408193,385.04046408193,385.04046408193,385.04046408193,385.04046408193,385.04046408193,385.04046408193,385.04046408193,385.04046408193,385.04046408193,385.04046408193,385.04046408193,385.04046408193,385.04046408193,385.04046408193,385.04046408193,385.04046408193,385.04046408193,385.04046408193,385.04046408193,385.04046408193,385.04046408193,385.04046408193,385.04046408193,385.04046408193,385.04046408193,385.04046408193,385.04046408193,385.04046408193,385.04046408193,220.58898413158,772.22127402331,-3.075780257984,674.0227016716,-3.0887426132059,0
0.00071093749999999,4158291498.1852,6.0555888099653e-05,0.00021068664391949,9.3024299266682e-05,1.0672195188996,0,0,0,0,0,0,0,0,0,0,0,0,0,0,0,0,0,0,0,0,0,0,0,0,0,0,0,0,0,0,0,0,0,0,0,0,0,0,0,0,0,0,0,0,0,0,0,0,-0.94317317708183,0.34793628319612,-0.28534942222875,5.1495161238644,2.8197580413028,0.97772998747934,-2.8136843876814,1.4625253284521,2.6185217893222,-0.38187579144738,1.8324129256935,-5.3047643913275,1.6762577884507,-1.097295675778,1.9038835694491,-3.6104006839513,1.5265634194302,4.2358826920457,-1.0156359155202,-4.4348840198496,1.9001963862295,2.1509703282396,0.031455211859598,-4.5378625679505,3.1978899220779,-2.8897251755169,1.2091790773316,0.97967768979505,-1.2701483101017,0.90915740628342,1.1162896664858,-0.079491199864547,0.79145920544362,-3.5888773865215,-1.373900026346,-3.1414587924467,5.3729853034501,-2.1657214656387,3.0875256846849,-0.36054325599395,-1.2006121707797,-6.3414265309081,1.0064745465435,-1.9329268309552,-3.4308038428527,1.7691038828448,3.0748602820765,-2.8845213106826,385.48215190758,385.48215190758,385.48215190758,385.48215190758,385.48215190758,385.48215190758,385.48215190758,385.48215190758,385.48215190758,385.48215190758,385.48215190758,385.48215190758,385.48215190758,385.48215190758,385.48215190758,385.48215190758,385.48215190758,385.48215190758,385.48215190758,385.48215190758,385.48215190758,385.48215190758,385.48215190758,385.48215190758,385.48215190758,385.48215190758,385.48215190758,385.48215190758,385.48215190758,385.48215190758,385.48215190758,385.48215190758,385.48215190758,385.48215190758,385.48215190758,385.48215190758,385.48215190758,385.48215190758,385.48215190758,385.48215190758,385.48215190758,385.48215190758,385.48215190758,385.48215190758,385.48215190758,385.48215190758,385.48215190758,385.48215190758,220.56198554832,773.12621410539,-3.0851334711893,674.79413979883,-3.0980939408766,0
0.00071218749999999,4170741896.0779,6.0662252307717e-05,0.00021105715334501,9.3191732544802e-05,1.0673383739703,0,0,0,0,0,0,0,0,0,0,0,0,0,0,0,0,0,0,0,0,0,0,0,0,0,0,0,0,0,0,0,0,0,0,0,0,0,0,0,0,0,0,0,0,0,0,0,0,-0.94299410577702,0.34924598309292,-0.28591190941084,5.1492863921705,2.8192385591505,0.97738102965711,-2.8124992756758,1.4620716809994,2.6180019356277,-0.38155950464193,1.8320934582668,-5.3041877965449,1.6768115137174,-1.0964611575919,1.9040799454375,-3.6080423527663,1.524966641938,4.2349406892121,-1.0154483974734,-4.4347502985641,1.9000109747043,2.1517885099011,0.031454425938769,-4.539622706244,3.1977396582924,-2.8911910844,1.2091449151812,0.97930313511847,-1.2688523424727,0.9084006202789,1.1154597086531,-0.078601831583298,0.79140995197556,-3.58729721454,-1.3728980801696,-3.1406365878088,5.372656459709,-2.1639194572436,3.0872029603324,-0.36043726501027,-1.2002980329867,-6.3393629828902,1.0061590604992,-1.932563747916,-3.4309108862773,1.7705464888543,3.0740038947423,-2.882313878073,385.92374447164,385.92374447164,385.92374447164,385.92374447164,385.92374447164,385.92374447164,385.92374447164,385.92374447164,385.92374447164,385.92374447164,385.92374447164,385.92374447164,385.92374447164,385.92374447164,385.92374447164,385.92374447164,385.92374447164,385.92374447164,385.92374447164,385.92374447164,385.92374447164,385.92374447164,385.92374447164,385.92374447164,385.92374447164,385.92374447164,385.92374447164,385.92374447164,385.92374447164,385.92374447164,385.92374447164,385.92374447164,385.92374447164,385.92374447164,385.92374447164,385.92374447164,385.92374447164,385.92374447164,385.92374447164,385.92374447164,385.92374447164,385.92374447164,385.92374447164,385.92374447164,385.92374447164,385.92374447164,385.92374447164,385.92374447164,220.5349890544,774.03096378108,-3.0944990920227,675.56538438049,-3.1074575783639,0
0.00071343749999999,4183208200.4369,6.0768625322598e-05,0.00021142766282137,9.3359190128257e-05,1.0674572255284,0,0,0,0,0,0,0,0,0,0,0,0,0,0,0,0,0,0,0,0,0,0,0,0,0,0,0,0,0,0,0,0,0,0,0,0,0,0,0,0,0,0,0,0,0,0,0,0,-0.94281496017948,0.35055484120194,-0.2864752790507,5.1490565101761,2.8187191586497,0.9770322325363,-2.8113152366067,1.4616178598311,2.6174817202279,-0.38124346417121,1.8317735912873,-5.3036100701281,1.6773647791774,-1.0956279009493,1.9042757012827,-3.6056843328507,1.5233698106704,4.2339988926647,-1.0152597144836,-4.4346169992036,1.8998251688448,2.1526054513943,0.031453007298771,-4.5413826077006,3.1975891921938,-2.8926545976596,1.2091108682734,0.97892783799904,-1.267557903625,0.90764380045637,1.1146302541904,-0.07771190806525,0.79136094161373,-3.5857178943003,-1.3718963283119,-3.1398139072412,5.3723268204434,-2.1621180965777,3.086879480332,-0.3603319639712,-1.1999836863284,-6.3372984133652,1.0058420851832,-1.9321999112725,-3.4310175434962,1.7719896614073,3.0731476566818,-2.880107067947,386.36524178489,386.36524178489,386.36524178489,386.36524178489,386.36524178489,386.36524178489,386.36524178489,386.36524178489,386.36524178489,386.36524178489,386.36524178489,386.36524178489,386.36524178489,386.36524178489,386.36524178489,386.36524178489,386.36524178489,386.36524178489,386.36524178489,386.36524178489,386.36524178489,386.36524178489,386.36524178489,386.36524178489,386.36524178489,386.36524178489,386.36524178489,386.36524178489,386.36524178489,386.36524178489,386.36524178489,386.36524178489,386.36524178489,386.36524178489,386.36524178489,386.36524178489,386.36524178489,386.36524178489,386.36524178489,386.36524178489,386.36524178489,386.36524178489,386.36524178489,386.36524178489,386.36524178489,386.36524178489,386.36524178489,386.36524178489,220.50799467865,774.93552315061,-3.1038771151262,676.33643550334,-3.1168335199995,0
0.00071468749999999,4195690399.3388,6.0875007362799e-05,0.00021179817234875,9.3526672258241e-05,1.0675760735743,0,0,0,0,0,0,0,0,0,0,0,0,0,0,0,0,0,0,0,0,0,0,0,0,0,0,0,0,0,0,0,0,0,0,0,0,0,0,0,0,0,0,0,0,0,0,0,0,-0.94263574269295,0.35186284314582,-0.28703952022525,5.1488264759192,2.8181998388211,0.97668359438857,-2.8101322675938,1.4611638688561,2.6169611428992,-0.38092767136884,1.831453327394,-5.3030312188753,1.6779175770461,-1.094795909359,1.9044708392084,-3.6033266334483,1.5217729328491,4.2330572982269,-1.0150698697364,-4.4344841164008,1.8996389771278,2.1534211535561,0.031450951485766,-4.5431422758244,3.1974385264413,-2.8941157207491,1.2090769378514,0.97855179768596,-1.2662649940212,0.90688694878602,1.1138013026003,-0.076821424284169,0.79131217094696,-3.5841394288886,-1.3708947681291,-3.1389907513003,5.3719963872349,-2.1603173896239,3.0865552473521,-0.36022735905752,-1.199669127807,-6.3352328287698,1.0055236238155,-1.931835320574,-3.431123811663,1.7734333944406,3.0722915626091,-2.8779008836968,386.80664385814,386.80664385814,386.80664385814,386.80664385814,386.80664385814,386.80664385814,386.80664385814,386.80664385814,386.80664385814,386.80664385814,386.80664385814,386.80664385814,386.80664385814,386.80664385814,386.80664385814,386.80664385814,386.80664385814,386.80664385814,386.80664385814,386.80664385814,386.80664385814,386.80664385814,386.80664385814,386.80664385814,386.80664385814,386.80664385814,386.80664385814,386.80664385814,386.80664385814,386.80664385814,386.80664385814,386.80664385814,386.80664385814,386.80664385814,386.80664385814,386.80664385814,386.80664385814,386.80664385814,386.80664385814,386.80664385814,386.80664385814,386.80664385814,386.80664385814,386.80664385814,386.80664385814,386.80664385814,386.80664385814,386.80664385814,220.48100244989,775.83989231478,-3.1132675351496,677.10729325425,-3.1262217601155,0
0.00071593749999999,4208188480.855,6.0981398215302e-05,0.00021216868192734,9.3694178662275e-05,1.067694918108,0,0,0,0,0,0,0,0,0,0,0,0,0,0,0,0,0,0,0,0,0,0,0,0,0,0,0,0,0,0,0,0,0,0,0,0,0,0,0,0,0,0,0,0,0,0,0,0,-0.94245645581262,0.35316997417651,-0.2876046221235,5.1485962877393,2.8176805986961,0.97633511357096,-2.808950365754,1.4607097119765,2.6164402034326,-0.3806121277576,1.8311326691941,-5.30245124974,1.6784698993019,-1.093965186465,1.9046653614072,-3.6009692636068,1.5201760157474,4.232115901826,-1.0148788663244,-4.4343516448296,1.8994524078578,2.1542356172062,0.031448253978985,-4.5449017141598,3.1972876635764,-2.8955744589031,1.2090431251061,0.9781750134849,-1.264973614051,0.90613006734071,1.1129728533231,-0.07593037544923,0.79126363654221,-3.5825618216237,-1.3698933970377,-3.1381671205656,5.3716651615384,-2.1585173422834,3.0862302641235,-0.36012345657262,-1.1993543542667,-6.3331662353891,1.005203679527,-1.9314699751312,-3.4312296878223,1.7748776819098,3.0714356073496,-2.8756953286748,387.24795070228,387.24795070228,387.24795070228,387.24795070228,387.24795070228,387.24795070228,387.24795070228,387.24795070228,387.24795070228,387.24795070228,387.24795070228,387.24795070228,387.24795070228,387.24795070228,387.24795070228,387.24795070228,387.24795070228,387.24795070228,387.24795070228,387.24795070228,387.24795070228,387.24795070228,387.24795070228,387.24795070228,387.24795070228,387.24795070228,387.24795070228,387.24795070228,387.24795070228,387.24795070228,387.24795070228,387.24795070228,387.24795070228,387.24795070228,387.24795070228,387.24795070228,387.24795070228,387.24795070228,387.24795070228,387.24795070228,387.24795070228,387.24795070228,387.24795070228,387.24795070228,387.24795070228,387.24795070228,387.24795070228,387.24795070228,220.45401239695,776.74407137497,-3.1226703467395,677.87795772019,-3.1356222930665,0
0.00071718749999999,4220702433.0519,6.1087797886583e-05,0.00021253919155734,9.3861709328932e-05,1.0678137591301,0,0,0,0,0,0,0,0,0,0,0,0,0,0,0,0,0,0,0,0,0,0,0,0,0,0,0,0,0,0,0,0,0,0,0,0,0,0,0,0,0,0,0,0,0,0,0,0,-0.94227710212645,0.35447621918814,-0.28817057404462,5.148365944284,2.8171614373135,0.97598678851336,-2.8077695282136,1.4602553930856,2.6159189016314,-0.38029683504961,1.8308116192654,-5.301870169814,1.6790217376992,-1.0931357360536,1.904859270037,-3.5986122321711,1.5185790666905,4.2311746994904,-1.0146867072569,-4.434219579212,1.8992654691687,2.1550488431398,0.031444910191389,-4.5466609262656,3.197136606027,-2.8970308171202,1.2090094311737,0.97779748475067,-1.2636837640467,0.90537315829473,1.1121449057429,-0.075038757015558,0.79121533494946,-3.5809850760498,-1.3688922125141,-3.1373430156525,5.3713331446764,-2.1567179603735,3.0859045334435,-0.36002026294464,-1.1990393624005,-6.3310986393468,1.004882255359,-1.9311038740302,-3.431335168903,1.7763225177938,3.0705797858371,-2.8734904061911,387.6891623283,387.6891623283,387.6891623283,387.6891623283,387.6891623283,387.6891623283,387.6891623283,387.6891623283,387.6891623283,387.6891623283,387.6891623283,387.6891623283,387.6891623283,387.6891623283,387.6891623283,387.6891623283,387.6891623283,387.6891623283,387.6891623283,387.6891623283,387.6891623283,387.6891623283,387.6891623283,387.6891623283,387.6891623283,387.6891623283,387.6891623283,387.6891623283,387.6891623283,387.6891623283,387.6891623283,387.6891623283,387.6891623283,387.6891623283,387.6891623283,387.6891623283,387.6891623283,387.6891623283,387.6891623283,387.6891623283,387.6891623283,387.6891623283,387.6891623283,387.6891623283,387.6891623283,387.6891623283,387.6891623283,387.6891623283,220.4270245488,777.64806043314,-3.1320855445522,678.64842898828,-3.145035113202,0
0.00071843749999999,4233232243.9907,6.1194206279214e-05,0.00021290970123893,9.4029264123022e-05,1.0679325966406,0,0,0,0,0,0,0,0,0,0,0,0,0,0,0,0,0,0,0,0,0,0,0,0,0,0,0,0,0,0,0,0,0,0,0,0,0,0,0,0,0,0,0,0,0,0,0,0,-0.9420976843149,0.35578156272487,-0.28873736539176,5.1481354444968,2.8166423537217,0.97563861771331,-2.806589752121,1.4598009160673,2.6153972372999,-0.37998179514872,1.8304901801621,-5.3012879863164,1.6795730837712,-1.0923075620556,1.9050525672352,-3.5962555477784,1.5169820930584,4.2302336873486,-1.0144933954616,-4.434087914326,1.8990781690222,2.1558608321231,0.031440915469148,-4.5484199156706,3.1969853561107,-2.898484800158,1.2089758571382,0.97741921088354,-1.2623954442933,0.90461622392428,1.1113174591798,-0.074146564699375,0.79116726270659,-3.5794091959321,-1.3678912120947,-3.1365184372185,5.3710003378677,-2.154919249625,3.0855780581774,-0.35991778472431,-1.1987241487478,-6.3290300465875,1.0045593542711,-1.9307370161388,-3.4314402517341,1.7777678960982,3.0697240931072,-2.8712861195052,388.13027874722,388.13027874722,388.13027874722,388.13027874722,388.13027874722,388.13027874722,388.13027874722,388.13027874722,388.13027874722,388.13027874722,388.13027874722,388.13027874722,388.13027874722,388.13027874722,388.13027874722,388.13027874722,388.13027874722,388.13027874722,388.13027874722,388.13027874722,388.13027874722,388.13027874722,388.13027874722,388.13027874722,388.13027874722,388.13027874722,388.13027874722,388.13027874722,388.13027874722,388.13027874722,388.13027874722,388.13027874722,388.13027874722,388.13027874722,388.13027874722,388.13027874722,388.13027874722,388.13027874722,388.13027874722,388.13027874722,388.13027874722,388.13027874722,388.13027874722,388.13027874722,388.13027874722,388.13027874722,388.13027874722,388.13027874722,220.40003893453,778.55185959183,-3.1415131232315,679.41870714571,-3.1544602148868,0
0.00071968749999999,4245777901.7279,6.1300623465992e-05,0.00021328021097231,9.4196843112336e-05,1.06805143064,0,0,0,0,0,0,0,0,0,0,0,0,0,0,0,0,0,0,0,0,0,0,0,0,0,0,0,0,0,0,0,0,0,0,0,0,0,0,0,0,0,0,0,0,0,0,0,0,-0.94191820514965,0.35708598899716,-0.28930498567289,5.147904787623,2.8161233469778,0.97529059973592,-2.8054110346444,1.4593462847936,2.6148752102537,-0.37966701014959,1.830168354418,-5.3007047065827,1.6801239288461,-1.091480668535,1.9052452551065,-3.5938992188639,1.5153851022691,4.2292928616336,-1.0142989337871,-4.4339566450043,1.8988905152071,2.1566715849017,0.031436265095363,-4.5501786858621,3.196833916039,-2.8999364125263,1.2089424040305,0.97704019133111,-1.2611086550272,0.90385926660939,1.1104905128989,-0.073253794486747,0.79111941634441,-3.5778341852491,-1.3668903933699,-3.1356933859548,5.3706667422118,-2.1531212156797,3.0852508412455,-0.35981602857558,-1.1984087097098,-6.326960462892,1.0042349791343,-1.9303694001092,-3.4315449330279,1.7792138108561,3.0688685243092,-2.8690824718265,388.57129997015,388.57129997015,388.57129997015,388.57129997015,388.57129997015,388.57129997015,388.57129997015,388.57129997015,388.57129997015,388.57129997015,388.57129997015,388.57129997015,388.57129997015,388.57129997015,388.57129997015,388.57129997015,388.57129997015,388.57129997015,388.57129997015,388.57129997015,388.57129997015,388.57129997015,388.57129997015,388.57129997015,388.57129997015,388.57129997015,388.57129997015,388.57129997015,388.57129997015,388.57129997015,388.57129997015,388.57129997015,388.57129997015,388.57129997015,388.57129997015,388.57129997015,388.57129997015,388.57129997015,388.57129997015,388.57129997015,388.57129997015,388.57129997015,388.57129997015,388.57129997015,388.57129997015,388.57129997015,388.57129997015,388.57129997015,220.37305558328,779.45546895416,-3.1509530774305,680.18879227983,-3.1638975924802,0
0.00072093749999999,4258339394.3149,6.1407049406489e-05,0.00021365072075768,9.4364446228895e-05,1.0681702611285,0,0,0,0,0,0,0,0,0,0,0,0,0,0,0,0,0,0,0,0,0,0,0,0,0,0,0,0,0,0,0,0,0,0,0,0,0,0,0,0,0,0,0,0,0,0,0,0,-0.94173866749253,0.35838948188981,-0.28987342450179,5.1476739731966,2.8156044161523,0.97494273320467,-2.8042333729595,1.4588915031212,2.6143528203245,-0.3793524823407,1.8298461445497,-5.3001203380665,1.6806742640547,-1.0906550596751,1.9054373357286,-3.591543253662,1.513788101787,4.2283522186848,-1.0141033250068,-4.4338257661198,1.8987025153372,2.157481102212,0.031430954287464,-4.5519372402529,3.1966822879208,-2.9013856584922,1.2089090728317,0.97666042558214,-1.2598233964298,0.90310228882896,1.1096640661109,-0.072360442648079,0.79107179239189,-3.5762600481939,-1.3658897539851,-3.1348678625838,5.3703323586964,-2.1513238640904,3.0849228856289,-0.35971500126247,-1.1980930415497,-6.3248898938728,1.0039091327404,-1.9300010243849,-3.4316492093848,1.7806602561276,3.0680130746956,-2.8668794663017,389.01222600827,389.01222600827,389.01222600827,389.01222600827,389.01222600827,389.01222600827,389.01222600827,389.01222600827,389.01222600827,389.01222600827,389.01222600827,389.01222600827,389.01222600827,389.01222600827,389.01222600827,389.01222600827,389.01222600827,389.01222600827,389.01222600827,389.01222600827,389.01222600827,389.01222600827,389.01222600827,389.01222600827,389.01222600827,389.01222600827,389.01222600827,389.01222600827,389.01222600827,389.01222600827,389.01222600827,389.01222600827,389.01222600827,389.01222600827,389.01222600827,389.01222600827,389.01222600827,389.01222600827,389.01222600827,389.01222600827,389.01222600827,389.01222600827,389.01222600827,389.01222600827,389.01222600827,389.01222600827,389.01222600827,389.01222600827,220.34607452435,780.35888862385,-3.1604054017904,680.95868447807,-3.1733472403556,0
0.00072218749999999,4270916709.7986,6.1513483796339e-05,0.00021402123059522,9.4532073091057e-05,1.0682890881064,0,0,0,0,0,0,0,0,0,0,0,0,0,0,0,0,0,0,0,0,0,0,0,0,0,0,0,0,0,0,0,0,0,0,0,0,0,0,0,0,0,0,0,0,0,0,0,0,-0.94155907429355,0.3596920249781,-0.29044267159505,5.1474430010514,2.8150855603255,0.97459501679918,-2.8030567642531,1.4584365748907,2.6138300673875,-0.37903821420169,1.8295235530613,-5.2995348883144,1.6812240803425,-1.0898307397597,1.905628811151,-3.5891876602068,1.5121910991024,4.227411754942,-1.0139065718253,-4.4336952725899,1.8985141768521,2.158289384792,0.031424978200825,-4.5536955821691,3.1965304737683,-2.9028325420571,1.2088758644717,0.97627991316618,-1.2585396686308,0.90234529316238,1.1088381180007,-0.071466505744677,0.79102438738052,-3.574686789162,-1.3648892916363,-3.1340418678389,5.3699971882023,-2.1495272003165,3.0845941943528,-0.35961470963631,-1.1977771404013,-6.3228183449813,1.003581817792,-1.9296318871977,-3.4317530772924,1.7821072260014,3.0671577396198,-2.8646771060229,389.45305687283,389.45305687283,389.45305687283,389.45305687283,389.45305687283,389.45305687283,389.45305687283,389.45305687283,389.45305687283,389.45305687283,389.45305687283,389.45305687283,389.45305687283,389.45305687283,389.45305687283,389.45305687283,389.45305687283,389.45305687283,389.45305687283,389.45305687283,389.45305687283,389.45305687283,389.45305687283,389.45305687283,389.45305687283,389.45305687283,389.45305687283,389.45305687283,389.45305687283,389.45305687283,389.45305687283,389.45305687283,389.45305687283,389.45305687283,389.45305687283,389.45305687283,389.45305687283,389.45305687283,389.45305687283,389.45305687283,389.45305687283,389.45305687283,389.45305687283,389.45305687283,389.45305687283,389.45305687283,389.45305687283,389.45305687283,220.31909578722,781.26211870522,-3.1698700909585,681.728383828,-3.1828091528988,0
0.00072343749999999,4283509836.2213,6.161992669887e-05,0.00021439174048515,9.46997237548e-05,1.068407911574,0,0,0,0,0,0,0,0,0,0,0,0,0,0,0,0,0,0,0,0,0,0,0,0,0,0,0,0,0,0,0,0,0,0,0,0,0,0,0,0,0,0,0,0,0,0,0,0,-0.94137942859044,0.36099360153923,-0.29101271676645,5.1472118713044,2.8145667785916,0.97424744924674,-2.8018812057356,1.4579815039243,2.6133069513449,-0.37872420840554,1.8292005824489,-5.2989483649605,1.6817733684794,-1.0890077131867,1.9058196833981,-3.5868324463253,1.5105941017515,4.2264714669533,-1.0137086768821,-4.4335651593836,1.8983255070158,2.1590964333776,0.031418331928204,-4.5554537147949,3.1963784754981,-2.9042770669647,1.2088427798328,0.97589865364823,-1.2572574717221,0.90158828228862,1.1080126677131,-0.070571980642303,0.79097719785052,-3.5731144127441,-1.3638890040668,-3.1332154024876,5.3696612315098,-2.1477312297231,3.0842647705073,-0.35951516063837,-1.197461002273,-6.320745821479,1.0032530369204,-1.9292619865872,-3.4318565331257,1.7835547146038,3.0663025145419,-2.8624753940138,389.89379257515,389.89379257515,389.89379257515,389.89379257515,389.89379257515,389.89379257515,389.89379257515,389.89379257515,389.89379257515,389.89379257515,389.89379257515,389.89379257515,389.89379257515,389.89379257515,389.89379257515,389.89379257515,389.89379257515,389.89379257515,389.89379257515,389.89379257515,389.89379257515,389.89379257515,389.89379257515,389.89379257515,389.89379257515,389.89379257515,389.89379257515,389.89379257515,389.89379257515,389.89379257515,389.89379257515,389.89379257515,389.89379257515,389.89379257515,389.89379257515,389.89379257515,389.89379257515,389.89379257515,389.89379257515,389.89379257515,389.89379257515,389.89379257515,389.89379257515,389.89379257515,389.89379257515,389.89379257515,389.89379257515,389.89379257515,220.29211940158,782.16515930317,-3.1793471395908,682.49789041729,-3.1922833244991,0
0.00072468749999999,4296118761.6205,6.1726378175868e-05,0.00021476225042766,9.4867398273833e-05,1.0685267315316,0,0,0,0,0,0,0,0,0,0,0,0,0,0,0,0,0,0,0,0,0,0,0,0,0,0,0,0,0,0,0,0,0,0,0,0,0,0,0,0,0,0,0,0,0,0,0,0,-0.94119973350692,0.36229419455919,-0.29158354993671,5.146980584352,2.8140480700564,0.97390002932046,-2.8007066946336,1.4575262940252,2.6127834720926,-0.37841046781532,1.8288772352034,-5.2983607757184,1.6823221190705,-1.0881859844573,1.9060099544692,-3.5844776196592,1.5089971172842,4.2255313513693,-1.013509642752,-4.4334354215123,1.898136512917,2.1599022486745,0.031411010502688,-4.5572116411945,3.1962262949405,-2.9057192366946,1.2088098197465,0.97551664662717,-1.2559768057501,0.900831258985,1.1071877143324,-0.06967686451426,0.79093022035438,-3.5715429237244,-1.362888889072,-3.132388467327,5.3693244893015,-2.1459359575837,3.0839346172179,-0.35941636128942,-1.1971446230547,-6.3186723284895,1.0029227926669,-1.9288913203977,-3.4319595731471,1.7850027160923,3.065447395022,-2.8602743332371,390.33443312662,390.33443312662,390.33443312662,390.33443312662,390.33443312662,390.33443312662,390.33443312662,390.33443312662,390.33443312662,390.33443312662,390.33443312662,390.33443312662,390.33443312662,390.33443312662,390.33443312662,390.33443312662,390.33443312662,390.33443312662,390.33443312662,390.33443312662,390.33443312662,390.33443312662,390.33443312662,390.33443312662,390.33443312662,390.33443312662,390.33443312662,390.33443312662,390.33443312662,390.33443312662,390.33443312662,390.33443312662,390.33443312662,390.33443312662,390.33443312662,390.33443312662,390.33443312662,390.33443312662,390.33443312662,390.33443312662,390.33443312662,390.33443312662,390.33443312662,390.33443312662,390.33443312662,390.33443312662,390.33443312662,390.33443312662,220.26514539732,783.06801052321,-3.1888365423416,683.26720433373,-3.201769749542,0
0.00072593749999999,4308743474.0297,6.1832838447836e-05,0.00021513276042296,9.5035096890903e-05,1.0686455479795,0,0,0,0,0,0,0,0,0,0,0,0,0,0,0,0,0,0,0,0,0,0,0,0,0,0,0,0,0,0,0,0,0,0,0,0,0,0,0,0,0,0,0,0,0,0,0,0,-0.94101999225232,0.36359378674981,-0.29215516111205,5.1467491408657,2.8135294338416,0.97355275583197,-2.7995332281983,1.4570709489778,2.6122596294964,-0.37809699548515,1.828553513811,-5.2977721283721,1.6828703225747,-1.0873655581726,1.9061996263338,-3.5821231876626,1.5074001532621,4.2245914049579,-1.0133094719525,-4.4333060540389,1.8979472014742,2.1607068313619,0.031403008898268,-4.558969364266,3.1960739338294,-2.9071590544642,1.2087769849953,0.97513389173422,-1.2546976707218,0.90007422612816,1.1063632568525,-0.068781154852617,0.79088345146295,-3.5699723270708,-1.3618889444912,-3.1315610631816,5.368986962165,-2.1441413890778,3.0836037376349,-0.35931831868653,-1.1968279985329,-6.3165978709803,1.0025910874953,-1.9285198862865,-3.4320621935065,1.7864512246488,3.0645923767334,-2.8580739265787,390.7749785387,390.7749785387,390.7749785387,390.7749785387,390.7749785387,390.7749785387,390.7749785387,390.7749785387,390.7749785387,390.7749785387,390.7749785387,390.7749785387,390.7749785387,390.7749785387,390.7749785387,390.7749785387,390.7749785387,390.7749785387,390.7749785387,390.7749785387,390.7749785387,390.7749785387,390.7749785387,390.7749785387,390.7749785387,390.7749785387,390.7749785387,390.7749785387,390.7749785387,390.7749785387,390.7749785387,390.7749785387,390.7749785387,390.7749785387,390.7749785387,390.7749785387,390.7749785387,390.7749785387,390.7749785387,390.7749785387,390.7749785387,390.7749785387,390.7749785387,390.7749785387,390.7749785387,390.7749785387,390.7749785387,390.7749785387,220.23817380447,783.97067247138,-3.1983382938404,684.03632566521,-3.2112684224007,0
0.00072718749999999,4321383961.4777,6.1939306922848e-05,0.00021550327047125,9.5202818881865e-05,1.0687643609179,0,0,0,0,0,0,0,0,0,0,0,0,0,0,0,0,0,0,0,0,0,0,0,0,0,0,0,0,0,0,0,0,0,0,0,0,0,0,0,0,0,0,0,0,0,0,0,0,-0.94084020811626,0.36489236056623,-0.29272754041261,5.14651754179,2.8130108690822,0.97320562763208,-2.7983608036817,1.4566154725411,2.6117354235737,-0.37778379465796,1.8282294207632,-5.2971824307695,1.6834179693072,-1.0865464389741,1.9063887009355,-3.5797691575857,1.5058032172772,4.2236516245824,-1.0131081669445,-4.4331770520558,1.8977575794236,2.1615101821979,0.031394322030704,-4.5607268867091,3.1959213938271,-2.9085965232248,1.2087442763173,0.97475038862951,-1.2534200665941,0.89931718669038,1.1055392943338,-0.067884849475604,0.79083688776961,-3.5684026279338,-1.3608891682053,-3.1307331908511,5.3686486505885,-2.1423475292851,3.0832721349679,-0.3592210399624,-1.1965111243852,-6.314522453734,1.0022579237935,-1.9281476817165,-3.432164390232,1.7879002345033,3.0637374554364,-2.8558741768505,391.21542882294,391.21542882294,391.21542882294,391.21542882294,391.21542882294,391.21542882294,391.21542882294,391.21542882294,391.21542882294,391.21542882294,391.21542882294,391.21542882294,391.21542882294,391.21542882294,391.21542882294,391.21542882294,391.21542882294,391.21542882294,391.21542882294,391.21542882294,391.21542882294,391.21542882294,391.21542882294,391.21542882294,391.21542882294,391.21542882294,391.21542882294,391.21542882294,391.21542882294,391.21542882294,391.21542882294,391.21542882294,391.21542882294,391.21542882294,391.21542882294,391.21542882294,391.21542882294,391.21542882294,391.21542882294,391.21542882294,391.21542882294,391.21542882294,391.21542882294,391.21542882294,391.21542882294,391.21542882294,391.21542882294,391.21542882294,220.21120465326,784.87314525439,-3.2078523887413,684.80525449975,-3.2207793375043,0
0.00072843749999999,4334040211.9892,6.2045783686046e-05,0.00021587378057274,9.537056432784e-05,1.0688831703473,0,0,0,0,0,0,0,0,0,0,0,0,0,0,0,0,0,0,0,0,0,0,0,0,0,0,0,0,0,0,0,0,0,0,0,0,0,0,0,0,0,0,0,0,0,0,0,0,-0.94066038447094,0.3661898982126,-0.29330067805158,5.1462857883331,2.8124923749273,0.97285864360077,-2.7971894183674,1.4561598684516,2.6112108543023,-0.37747086876429,1.8279049585559,-5.2965916908005,1.6839650494564,-1.0857286315974,1.9065771801961,-3.5774155364905,1.5042063169254,4.2227120072162,-1.0129057301381,-4.4330484107082,1.8975676533296,2.1623123018996,0.031384944759089,-4.5624842110017,3.1957686765155,-2.9100316456515,1.2087116944023,0.97436613699851,-1.252143993294,0.89856014374,1.1047158257502,-0.066987946534098,0.79079052589506,-3.5668338316314,-1.3598895581398,-3.1299048511707,5.3683095549804,-2.1405543831909,3.0829398124521,-0.35912453231388,-1.1961939961929,-6.3124460813647,1.0019233038714,-1.9277747039803,-3.4322661592424,1.7893497399213,3.062882626995,-2.8536750867887,391.65578399093,391.65578399093,391.65578399093,391.65578399093,391.65578399093,391.65578399093,391.65578399093,391.65578399093,391.65578399093,391.65578399093,391.65578399093,391.65578399093,391.65578399093,391.65578399093,391.65578399093,391.65578399093,391.65578399093,391.65578399093,391.65578399093,391.65578399093,391.65578399093,391.65578399093,391.65578399093,391.65578399093,391.65578399093,391.65578399093,391.65578399093,391.65578399093,391.65578399093,391.65578399093,391.65578399093,391.65578399093,391.65578399093,391.65578399093,391.65578399093,391.65578399093,391.65578399093,391.65578399093,391.65578399093,391.65578399093,391.65578399093,391.65578399093,391.65578399093,391.65578399093,391.65578399093,391.65578399093,391.65578399093,391.65578399093,220.18423797436,785.77542897947,-3.2173788216834,685.57399092547,-3.2303024892527,0
0.00072968749999999,4346712213.5845,6.2152269167452e-05,0.00021624429072763,9.5538333720751e-05,1.0690019762679,0,0,0,0,0,0,0,0,0,0,0,0,0,0,0,0,0,0,0,0,0,0,0,0,0,0,0,0,0,0,0,0,0,0,0,0,0,0,0,0,0,0,0,0,0,0,0,0,-0.9404805247662,0.36748638165513,-0.29387456433605,5.1460538819564,2.8119739505449,0.97251180264634,-2.7960190695478,1.4557041404214,2.6106859216765,-0.37715822141928,1.8275801296912,-5.2959999163969,1.6845115530971,-1.084912140836,1.9067650660054,-3.5750623312725,1.5026094598024,4.2217725499472,-1.012702163892,-4.4329201251732,1.8973774295832,2.1631131911836,0.031374871889368,-4.564241339428,3.1956157833967,-2.9114644241541,1.208679239894,0.97398113655071,-1.2508694507024,0.89780310043953,1.103892850032,-0.066090444512197,0.79074436249206,-3.5652659436454,-1.3588901122599,-3.1290760449809,5.3679696756565,-2.1387619556857,3.0826067733466,-0.35902880297538,-1.1958766094527,-6.3103687583701,1.0015872299594,-1.9274009501915,-3.4323674963403,1.7907997352051,3.0620278873792,-2.8514766590479,392.09604405437,392.09604405437,392.09604405437,392.09604405437,392.09604405437,392.09604405437,392.09604405437,392.09604405437,392.09604405437,392.09604405437,392.09604405437,392.09604405437,392.09604405437,392.09604405437,392.09604405437,392.09604405437,392.09604405437,392.09604405437,392.09604405437,392.09604405437,392.09604405437,392.09604405437,392.09604405437,392.09604405437,392.09604405437,392.09604405437,392.09604405437,392.09604405437,392.09604405437,392.09604405437,392.09604405437,392.09604405437,392.09604405437,392.09604405437,392.09604405437,392.09604405437,392.09604405437,392.09604405437,392.09604405437,392.09604405437,392.09604405437,392.09604405437,392.09604405437,392.09604405437,392.09604405437,392.09604405437,392.09604405437,392.09604405437,220.15727379851,786.67752375445,-3.2269175873369,686.34253503056,-3.2398378720408,0
0.00073093749999999,4359399954.28,6.2258762773478e-05,0.00021661480093616,9.5706126334224e-05,1.06912077868,0,0,0,0,0,0,0,0,0,0,0,0,0,0,0,0,0,0,0,0,0,0,0,0,0,0,0,0,0,0,0,0,0,0,0,0,0,0,0,0,0,0,0,0,0,0,0,0,-0.94030063252932,0.36878179264022,-0.29444918967846,5.1458218243763,2.8114555951161,0.97216510369941,-2.7948497545395,1.4552482921358,2.6101606257852,-0.37684585642121,1.8272549366881,-5.2954071155198,1.6850574701981,-1.0840969715218,1.9069523602332,-3.5727095486244,1.5010126535141,4.2208332499629,-1.0124974705246,-4.4327921906752,1.8971869143995,2.1639128508188,0.031364098173102,-4.5659982739826,3.1954627159137,-2.9128948608686,1.2086469133918,0.97359538701592,-1.2495964386698,0.89704606004663,1.1030703661321,-0.065192342238296,0.79069839425086,-3.5636989696161,-1.3578908285692,-3.1282467731093,5.3676290128497,-2.1369702515606,3.0822730209466,-0.35893385920639,-1.1955589595723,-6.308290489039,1.0012497042173,-1.9270264172959,-3.4324683972046,1.7922502147028,3.0611732326465,-2.8492788962006,392.53620902501,392.53620902501,392.53620902501,392.53620902501,392.53620902501,392.53620902501,392.53620902501,392.53620902501,392.53620902501,392.53620902501,392.53620902501,392.53620902501,392.53620902501,392.53620902501,392.53620902501,392.53620902501,392.53620902501,392.53620902501,392.53620902501,392.53620902501,392.53620902501,392.53620902501,392.53620902501,392.53620902501,392.53620902501,392.53620902501,392.53620902501,392.53620902501,392.53620902501,392.53620902501,392.53620902501,392.53620902501,392.53620902501,392.53620902501,392.53620902501,392.53620902501,392.53620902501,392.53620902501,392.53620902501,392.53620902501,392.53620902501,392.53620902501,392.53620902501,392.53620902501,392.53620902501,392.53620902501,392.53620902501,392.53620902501,220.13031215677,787.5794296877,-3.2364686803168,687.11088690337,-3.2493854802896,0
0.00073218749999999,4372103422.0878,6.2365264648328e-05,0.00021698531119852,9.587394231944e-05,1.0692395775839,0,0,0,0,0,0,0,0,0,0,0,0,0,0,0,0,0,0,0,0,0,0,0,0,0,0,0,0,0,0,0,0,0,0,0,0,0,0,0,0,0,0,0,0,0,0,0,0,-0.94012071136187,0.37007611270408,-0.29502454458757,5.1455896175545,2.8109373078392,0.97181854570971,-2.7936814706764,1.454792327253,2.6096349667767,-0.37653377774831,1.8269293820798,-5.2948132961493,1.6856027906375,-1.0832831285148,1.9071390647251,-3.5703571950611,1.4994159056619,4.2198941045577,-1.0122916523109,-4.4326646024798,1.8969961138191,2.1647112816038,0.031352618310839,-4.56775501639,3.1953094754417,-2.9143229576589,1.2086147154506,0.9732088881417,-1.248324957008,0.89628902591003,1.1022483729979,-0.064293638885392,0.79065261790294,-3.5621329153329,-1.3568917051099,-3.1274170363646,5.3672875667178,-2.1351792755104,3.0819385585724,-0.35883970828203,-1.1952410418839,-6.3062112775006,1.000910728729,-1.9266511020657,-3.4325688574048,1.7937011728086,3.06031865895,-2.8470818007306,392.97627891468,392.97627891468,392.97627891468,392.97627891468,392.97627891468,392.97627891468,392.97627891468,392.97627891468,392.97627891468,392.97627891468,392.97627891468,392.97627891468,392.97627891468,392.97627891468,392.97627891468,392.97627891468,392.97627891468,392.97627891468,392.97627891468,392.97627891468,392.97627891468,392.97627891468,392.97627891468,392.97627891468,392.97627891468,392.97627891468,392.97627891468,392.97627891468,392.97627891468,392.97627891468,392.97627891468,392.97627891468,392.97627891468,392.97627891468,392.97627891468,392.97627891468,392.97627891468,392.97627891468,392.97627891468,392.97627891468,392.97627891468,392.97627891468,392.97627891468,392.97627891468,392.97627891468,392.97627891468,392.97627891468,392.97627891468,220.10335308051,788.48114688821,-3.2460320953026,687.8790466323,-3.258945308443,0
0.00073343749999999,4384822605.0161,6.2471774803227e-05,0.00021735582151495,9.6041781669383e-05,1.0693583729799,0,0,0,0,0,0,0,0,0,0,0,0,0,0,0,0,0,0,0,0,0,0,0,0,0,0,0,0,0,0,0,0,0,0,0,0,0,0,0,0,0,0,0,0,0,0,0,0,-0.9399407649377,0.3713693231831,-0.2956006196688,5.1453572636879,2.8104190879319,0.97147212764311,-2.7925142153113,1.4543362494031,2.6091089447952,-0.37622198955559,1.8266034684192,-5.2942184662786,1.6861475042147,-1.0824706167217,1.907325181298,-3.5680052769332,1.4978192238395,4.2189551111374,-1.0120847114873,-4.4325373558899,1.8968050337121,2.1655084843274,0.03134042695416,-4.5695115681048,3.1951560632966,-2.9157487161203,1.2085826465823,0.97282163969162,-1.2470550054958,0.89553200146877,1.1014268695213,-0.063394333972524,0.79060703022572,-3.560567786728,-1.3558927399598,-3.1265868355688,5.3669453373369,-2.1333890321351,3.0816033895662,-0.35874635749636,-1.1949228516541,-6.3041311277509,1.0005703055076,-1.9262750011227,-3.4326688723918,1.7951526039637,3.0594641625403,-2.8448853750384,393.41625373528,393.41625373528,393.41625373528,393.41625373528,393.41625373528,393.41625373528,393.41625373528,393.41625373528,393.41625373528,393.41625373528,393.41625373528,393.41625373528,393.41625373528,393.41625373528,393.41625373528,393.41625373528,393.41625373528,393.41625373528,393.41625373528,393.41625373528,393.41625373528,393.41625373528,393.41625373528,393.41625373528,393.41625373528,393.41625373528,393.41625373528,393.41625373528,393.41625373528,393.41625373528,393.41625373528,393.41625373528,393.41625373528,393.41625373528,393.41625373528,393.41625373528,393.41625373528,393.41625373528,393.41625373528,393.41625373528,393.41625373528,393.41625373528,393.41625373528,393.41625373528,393.41625373528,393.41625373528,393.41625373528,393.41625373528,220.07639660141,789.38267546549,-3.2556078269312,688.64701430588,-3.2685173509142,0
0.00073468749999999,4397557491.0688,6.2578293220054e-05,0.00021772633188567,9.6209644342185e-05,1.0694771648685,0,0,0,0,0,0,0,0,0,0,0,0,0,0,0,0,0,0,0,0,0,0,0,0,0,0,0,0,0,0,0,0,0,0,0,0,0,0,0,0,0,0,0,0,0,0,0,0,-0.93976079700219,0.37266140522183,-0.29617740561273,5.1451247651881,2.8099009346325,0.97112584847638,-2.7913479858078,1.4538800621922,2.6085825599043,-0.37591049617208,1.8262771982709,-5.293622633914,1.6866916006667,-1.0816594410844,1.9075107117374,-3.5656538004529,1.4962226155949,4.2180162672279,-1.0118766502518,-4.4324104462344,1.8966136797821,2.1663044597173,0.031327518707745,-4.5712679303362,3.1950024807176,-2.9171721375954,1.2085507072544,0.97243364144282,-1.245786583869,0.8947749902548,1.1006058544811,-0.06249442736365,0.79056162804507,-3.5590035898731,-1.3548939312288,-3.1257561715454,5.3666023247055,-2.1315995259415,3.0812675172503,-0.35865381415399,-1.1946043840963,-6.3020500437068,1.0002284364812,-1.9258981109295,-3.4327684374986,1.796604502642,3.0586097397761,-2.8426896214367,393.85613349881,393.85613349881,393.85613349881,393.85613349881,393.85613349881,393.85613349881,393.85613349881,393.85613349881,393.85613349881,393.85613349881,393.85613349881,393.85613349881,393.85613349881,393.85613349881,393.85613349881,393.85613349881,393.85613349881,393.85613349881,393.85613349881,393.85613349881,393.85613349881,393.85613349881,393.85613349881,393.85613349881,393.85613349881,393.85613349881,393.85613349881,393.85613349881,393.85613349881,393.85613349881,393.85613349881,393.85613349881,393.85613349881,393.85613349881,393.85613349881,393.85613349881,393.85613349881,393.85613349881,393.85613349881,393.85613349881,393.85613349881,393.85613349881,393.85613349881,393.85613349881,393.85613349881,393.85613349881,393.85613349881,393.85613349881,220.04944275143,790.28401552955,-3.2651958698491,689.4147900127,-3.2781016021122,0
0.00073593749999999,4410308068.2462,6.2684819684262e-05,0.0002180968423109,9.637753006234e-05,1.0695959532498,0,0,0,0,0,0,0,0,0,0,0,0,0,0,0,0,0,0,0,0,0,0,0,0,0,0,0,0,0,0,0,0,0,0,0,0,0,0,0,0,0,0,0,0,0,0,0,0,-0.93958081136691,0.37395233980374,-0.29675489322207,5.1448921246969,2.809382847194,0.97077970719361,-2.790182779553,1.4534237691932,2.608055812361,-0.3755993020969,1.8259505742314,-5.2930258070366,1.6872350696724,-1.0808496065307,1.9076956578099,-3.5633027716286,1.4946260884854,4.2170775704502,-1.0116674707738,-4.4322838688887,1.8964220575576,2.1670992086253,0.031313888129427,-4.5730241039133,3.1948487289076,-2.918593223138,1.2085188978925,0.97204489318207,-1.2445196918364,0.89401799588628,1.0997853267626,-0.061593919277011,0.7905164082423,-3.5574403309588,-1.3538952770629,-3.1249250450749,5.3662585287511,-2.1298107613357,3.0809309449907,-0.3585620855385,-1.1942856343617,-6.2999680290475,0.99988512351976,-1.9255204277959,-3.4328675479385,1.7980568633787,3.057755387093,-2.8404945421414,394.29591821732,394.29591821732,394.29591821732,394.29591821732,394.29591821732,394.29591821732,394.29591821732,394.29591821732,394.29591821732,394.29591821732,394.29591821732,394.29591821732,394.29591821732,394.29591821732,394.29591821732,394.29591821732,394.29591821732,394.29591821732,394.29591821732,394.29591821732,394.29591821732,394.29591821732,394.29591821732,394.29591821732,394.29591821732,394.29591821732,394.29591821732,394.29591821732,394.29591821732,394.29591821732,394.29591821732,394.29591821732,394.29591821732,394.29591821732,394.29591821732,394.29591821732,394.29591821732,394.29591821732,394.29591821732,394.29591821732,394.29591821732,394.29591821732,394.29591821732,394.29591821732,394.29591821732,394.29591821732,394.29591821732,394.29591821732,220.02249156266,791.185167191,-3.2747962186876,690.18237384148,-3.2876980564762,0
0.00073718749999999,4423074324.5443,6.2791354255994e-05,0.00021846735279087,9.6545438880489e-05,1.0697147381242,0,0,0,0,0,0,0,0,0,0,0,0,0,0,0,0,0,0,0,0,0,0,0,0,0,0,0,0,0,0,0,0,0,0,0,0,0,0,0,0,0,0,0,0,0,0,0,0,-0.93940081190927,0.37524210775003,-0.29733307339037,5.1446593450685,2.8088648248917,0.97043370278588,-2.7890185939401,1.452967373949,2.6075287024556,-0.37528841199588,1.8256235989199,-5.2924279936265,1.6877779008667,-1.0800411179729,1.9078800212519,-3.5609521963185,1.4930296500393,4.2161390185372,-1.0114571751917,-4.432157619255,1.896230172398,2.1678927319233,0.031299529732981,-4.5747800893594,3.1946948090118,-2.920011973548,1.2084872188826,0.97165539470508,-1.243254329064,0.89326102206812,1.0989652852282,-0.060692810279672,0.7904713677551,-3.5558780163049,-1.3528967756361,-3.124093456896,5.3659139493238,-2.128022742629,3.0805936761609,-0.3584711789094,-1.1939665975554,-6.2978850873321,0.99954036841914,-1.9251419478772,-3.432966198805,1.7995096807627,3.0569011010196,-2.8383001392746,394.73560790293,394.73560790293,394.73560790293,394.73560790293,394.73560790293,394.73560790293,394.73560790293,394.73560790293,394.73560790293,394.73560790293,394.73560790293,394.73560790293,394.73560790293,394.73560790293,394.73560790293,394.73560790293,394.73560790293,394.73560790293,394.73560790293,394.73560790293,394.73560790293,394.73560790293,394.73560790293,394.73560790293,394.73560790293,394.73560790293,394.73560790293,394.73560790293,394.73560790293,394.73560790293,394.73560790293,394.73560790293,394.73560790293,394.73560790293,394.73560790293,394.73560790293,394.73560790293,394.73560790293,394.73560790293,394.73560790293,394.73560790293,394.73560790293,394.73560790293,394.73560790293,394.73560790293,394.73560790293,394.73560790293,394.73560790293,219.99554306768,792.08613056095,-3.2844088681153,690.94976588099,-3.2973067084551,0
0.00073843749999999,4435856247.9554,6.2897896803943e-05,0.00021883786332581,9.6713370619875e-05,1.069833519492,0,0,0,0,0,0,0,0,0,0,0,0,0,0,0,0,0,0,0,0,0,0,0,0,0,0,0,0,0,0,0,0,0,0,0,0,0,0,0,0,0,0,0,0,0,0,0,0,-0.9392208025717,0.37653068973317,-0.29791193710624,5.1444264293543,2.8083468670189,0.97008783424419,-2.7878554263982,1.4525108799749,2.607001230477,-0.37497783069637,1.8252962749878,-5.2918292016316,1.6883200838563,-1.0792339803471,1.9080638037777,-3.5586020802229,1.4914333077534,4.2152006093286,-1.0112457656165,-4.4320316927851,1.8960380294999,2.1686850304774,0.031284437991268,-4.5765358868518,3.1945407221329,-2.9214283893599,1.2084556705679,0.97126514581291,-1.2419904951986,0.89250407259252,1.0981457286967,-0.059791101287625,0.79042650358525,-3.5543166523381,-1.3518984251575,-3.1232614077571,5.3655685862143,-2.1262354740395,3.0802557141335,-0.35838110151874,-1.193647268744,-6.2958012219712,0.99919417290796,-1.9247626672,-3.4330643850777,1.8009629494317,3.0560468781756,-2.836106414864,395.17520256787,395.17520256787,395.17520256787,395.17520256787,395.17520256787,395.17520256787,395.17520256787,395.17520256787,395.17520256787,395.17520256787,395.17520256787,395.17520256787,395.17520256787,395.17520256787,395.17520256787,395.17520256787,395.17520256787,395.17520256787,395.17520256787,395.17520256787,395.17520256787,395.17520256787,395.17520256787,395.17520256787,395.17520256787,395.17520256787,395.17520256787,395.17520256787,395.17520256787,395.17520256787,395.17520256787,395.17520256787,395.17520256787,395.17520256787,395.17520256787,395.17520256787,395.17520256787,395.17520256787,395.17520256787,395.17520256787,395.17520256787,395.17520256787,395.17520256787,395.17520256787,395.17520256787,395.17520256787,395.17520256787,395.17520256787,219.96859729935,792.98690575103,-3.2940338127565,691.71696622012,-3.3069275524688,0
0.00073968749999999,4448653826.4678,6.3004447255179e-05,0.00021920837391597,9.6881325173048e-05,1.0699522973537,0,0,0,0,0,0,0,0,0,0,0,0,0,0,0,0,0,0,0,0,0,0,0,0,0,0,0,0,0,0,0,0,0,0,0,0,0,0,0,0,0,0,0,0,0,0,0,0,-0.93904078735565,0.37781806629164,-0.29849147545526,5.1441933807996,2.8078289728901,0.96974210055964,-2.7866932743576,1.4520542907542,2.6064733967849,-0.37466756318454,1.8249686051148,-5.2912294389745,1.6888616082264,-1.0784281985452,1.9082470070742,-3.5562524288935,1.4898370690929,4.2142623407744,-1.0110332441331,-4.431906084952,1.8958456338927,2.1694761052036,0.031268607336289,-4.5782914962266,3.1943864693261,-2.922842470854,1.2084242532522,0.97087414631057,-1.2407281898409,0.89174715133385,1.0973266559956,-0.058888793564353,0.79038181279799,-3.5527562455933,-1.3509002238623,-3.1224288983418,5.3652224391445,-2.1244489596906,3.0799170622874,-0.35829186057074,-1.1933276429609,-6.2937164362438,0.99884653864715,-1.9243825816358,-3.4331621016193,1.80241666408,3.0551927152698,-2.8339133708356,395.61470222443,395.61470222443,395.61470222443,395.61470222443,395.61470222443,395.61470222443,395.61470222443,395.61470222443,395.61470222443,395.61470222443,395.61470222443,395.61470222443,395.61470222443,395.61470222443,395.61470222443,395.61470222443,395.61470222443,395.61470222443,395.61470222443,395.61470222443,395.61470222443,395.61470222443,395.61470222443,395.61470222443,395.61470222443,395.61470222443,395.61470222443,395.61470222443,395.61470222443,395.61470222443,395.61470222443,395.61470222443,395.61470222443,395.61470222443,395.61470222443,395.61470222443,395.61470222443,395.61470222443,395.61470222443,395.61470222443,395.61470222443,395.61470222443,395.61470222443,395.61470222443,395.61470222443,395.61470222443,395.61470222443,395.61470222443,219.94165429084,793.88749287337,-3.3036710472745,692.4839749478,-3.3165605829805,0
0.00074093749999999,4461467048.0658,6.3111005603171e-05,0.00021957888456159,9.704930251162e-05,1.0700710717094,0,0,0,0,0,0,0,0,0,0,0,0,0,0,0,0,0,0,0,0,0,0,0,0,0,0,0,0,0,0,0,0,0,0,0,0,0,0,0,0,0,0,0,0,0,0,0,0,-0.93886077032169,0.37910421784122,-0.29907167961919,5.1439602028389,2.8073111418413,0.96939650071907,-2.7855321352639,1.4515976097389,2.6059452017734,-0.37435761460035,1.824640592013,-5.2906287135392,1.6894024635549,-1.0776237774379,1.9084296327948,-3.5539032477337,1.4882409414811,4.2133242109309,-1.0108196128057,-4.4317807912621,1.8956529904423,2.1702659570386,0.031252032161798,-4.5800469169657,3.1942320516053,-2.9242542180521,1.208392967201,0.97048239600474,-1.239467412559,0.89099026224943,1.0965080659381,-0.057985888718879,0.79033729252784,-3.5511968027054,-1.3499021700134,-3.1215959293089,5.3648755077554,-2.1226632036114,3.0795777239971,-0.35820346322976,-1.1930077152144,-6.2916307332952,0.99849746723027,-1.9240016869313,-3.4332593431618,1.8038708194587,3.0543386090959,-2.8317210090208,396.05410688496,396.05410688496,396.05410688496,396.05410688496,396.05410688496,396.05410688496,396.05410688496,396.05410688496,396.05410688496,396.05410688496,396.05410688496,396.05410688496,396.05410688496,396.05410688496,396.05410688496,396.05410688496,396.05410688496,396.05410688496,396.05410688496,396.05410688496,396.05410688496,396.05410688496,396.05410688496,396.05410688496,396.05410688496,396.05410688496,396.05410688496,396.05410688496,396.05410688496,396.05410688496,396.05410688496,396.05410688496,396.05410688496,396.05410688496,396.05410688496,396.05410688496,396.05410688496,396.05410688496,396.05410688496,396.05410688496,396.05410688496,396.05410688496,396.05410688496,396.05410688496,396.05410688496,396.05410688496,396.05410688496,396.05410688496,219.91471407563,794.7878920406,-3.3133205663124,693.25079215305,-3.3262057944178,0
0.00074218749999999,4474295900.7299,6.3217571807381e-05,0.00021994939526291,9.7217302566251e-05,1.0701898425596,0,0,0,0,0,0,0,0,0,0,0,0,0,0,0,0,0,0,0,0,0,0,0,0,0,0,0,0,0,0,0,0,0,0,0,0,0,0,0,0,0,0,0,0,0,0,0,0,-0.93868075558649,0.38038912468923,-0.29965254087487,5.1437268990826,2.8067933732276,0.9690510337014,-2.7843720065848,1.4511408403505,2.6054166459034,-0.37404799023219,1.824312238431,-5.2900270331623,1.6899426394219,-1.0768207218513,1.9086116825711,-3.5515545419953,1.4866449323014,4.2123862179603,-1.0106048736788,-4.4316558072616,1.8954601038544,2.1710545869678,0.031234706826061,-4.5818021481721,3.1940774699497,-2.9256636307255,1.2083618126397,0.97008989470028,-1.2382081628908,0.89023340937714,1.0956899573478,-0.057082388702336,0.79029293998127,-3.5496383303991,-1.3489042619007,-3.120762501262,5.3645277916366,-2.1208782097365,3.0792377026353,-0.35811591660645,-1.1926874804924,-6.2895441161184,0.99814696018695,-1.9236199786965,-3.4333561043288,1.8053254103781,3.0534845565334,-2.8295293311462,396.49341656193,396.49341656193,396.49341656193,396.49341656193,396.49341656193,396.49341656193,396.49341656193,396.49341656193,396.49341656193,396.49341656193,396.49341656193,396.49341656193,396.49341656193,396.49341656193,396.49341656193,396.49341656193,396.49341656193,396.49341656193,396.49341656193,396.49341656193,396.49341656193,396.49341656193,396.49341656193,396.49341656193,396.49341656193,396.49341656193,396.49341656193,396.49341656193,396.49341656193,396.49341656193,396.49341656193,396.49341656193,396.49341656193,396.49341656193,396.49341656193,396.49341656193,396.49341656193,396.49341656193,396.49341656193,396.49341656193,396.49341656193,396.49341656193,396.49341656193,396.49341656193,396.49341656193,396.49341656193,396.49341656193,396.49341656193,219.88777668749,795.68810336583,-3.3229823645203,694.01741792498,-3.335863181243,0
0.00074343749999999,4487140372.4365,6.3324145717425e-05,0.00022031990602018,9.7385325137052e-05,1.0703086099046,0,0,0,0,0,0,0,0,0,0,0,0,0,0,0,0,0,0,0,0,0,0,0,0,0,0,0,0,0,0,0,0,0,0,0,0,0,0,0,0,0,0,0,0,0,0,0,0,-0.93850074732053,0.38167276704515,-0.30023405059145,5.1434934733074,2.8062756664294,0.96870569847694,-2.7832128857946,1.450683985979,2.6048877296647,-0.37373869551284,1.8239835471535,-5.2894244056231,1.6904821254228,-1.0760190365723,1.9087931580033,-3.5492063167971,1.4850490488955,4.211448360133,-1.0103890287796,-4.4315311285202,1.8952669786761,2.1718419959964,0.031216625652742,-4.5835571885878,3.1939227253018,-2.927070708394,1.2083307897585,0.96969664219975,-1.2369504403347,0.88947659683427,1.0948723290326,-0.056178295804402,0.79024875244015,-3.5480808354809,-1.3479064978404,-3.1199286147685,5.3641792903062,-2.1190939819095,3.0788970015726,-0.35802922775544,-1.1923669337719,-6.2874565875917,0.99779501898807,-1.923237452417,-3.433452379618,1.8067804317099,3.0526305545435,-2.8273383388403,396.93263126785,396.93263126785,396.93263126785,396.93263126785,396.93263126785,396.93263126785,396.93263126785,396.93263126785,396.93263126785,396.93263126785,396.93263126785,396.93263126785,396.93263126785,396.93263126785,396.93263126785,396.93263126785,396.93263126785,396.93263126785,396.93263126785,396.93263126785,396.93263126785,396.93263126785,396.93263126785,396.93263126785,396.93263126785,396.93263126785,396.93263126785,396.93263126785,396.93263126785,396.93263126785,396.93263126785,396.93263126785,396.93263126785,396.93263126785,396.93263126785,396.93263126785,396.93263126785,396.93263126785,396.93263126785,396.93263126785,396.93263126785,396.93263126785,396.93263126785,396.93263126785,396.93263126785,396.93263126785,396.93263126785,396.93263126785,219.86084216057,796.58812696263,-3.3326564365251,694.78385235276,-3.34553273789,0
0.00074468749999999,4500000451.1582,6.3430727659701e-05,0.00022069041683366,9.7553370591613e-05,1.0704273737447,0,0,0,0,0,0,0,0,0,0,0,0,0,0,0,0,0,0,0,0,0,0,0,0,0,0,0,0,0,0,0,0,0,0,0,0,0,0,0,0,0,0,0,0,0,0,0,0,-0.93832074974513,0.3829551250287,-0.30081620023012,5.143259929445,2.8057580208465,0.96836049400674,-2.7820547703799,1.4502270499835,2.6043584535944,-0.37342973601503,1.8236545210015,-5.2888208386524,1.6910209111748,-1.0752187263233,1.9089740606633,-3.5468585771234,1.4834532985452,4.2105106358254,-1.0101720801139,-4.4314067506351,1.8950736192994,2.1726281851673,0.031197782932541,-4.5853120365831,3.19376781857,-2.9284754503443,1.2082998987082,0.96930263830167,-1.2356942443548,0.88871982881461,1.0940551797974,-0.055273612648569,0.79020472726353,-3.5465243248415,-1.3469088761713,-3.1190942703333,5.363830003221,-2.1173105238822,3.078555624162,-0.35794340365847,-1.1920460700222,-6.28536815047,0.99744164503487,-1.9228541034547,-3.433548163411,1.8082358783865,3.0517766001704,-2.8251480336211,397.37175101534,397.37175101534,397.37175101534,397.37175101534,397.37175101534,397.37175101534,397.37175101534,397.37175101534,397.37175101534,397.37175101534,397.37175101534,397.37175101534,397.37175101534,397.37175101534,397.37175101534,397.37175101534,397.37175101534,397.37175101534,397.37175101534,397.37175101534,397.37175101534,397.37175101534,397.37175101534,397.37175101534,397.37175101534,397.37175101534,397.37175101534,397.37175101534,397.37175101534,397.37175101534,397.37175101534,397.37175101534,397.37175101534,397.37175101534,397.37175101534,397.37175101534,397.37175101534,397.37175101534,397.37175101534,397.37175101534,397.37175101534,397.37175101534,397.37175101534,397.37175101534,397.37175101534,397.37175101534,397.37175101534,397.37175101534,219.8339105293,797.48796294505,-3.3423427770059,695.5500955256,-3.3552144588158,0
0.00074593749999999,4512876124.8635,6.3537316957112e-05,0.00022106092770361,9.7721438102534e-05,1.0705461340804,0,0,0,0,0,0,0,0,0,0,0,0,0,0,0,0,0,0,0,0,0,0,0,0,0,0,0,0,0,0,0,0,0,0,0,0,0,0,0,0,0,0,0,0,0,0,0,0,-0.93814076713049,0.38423617868922,-0.3013989813524,5.1430262715843,2.8052404359003,0.96801541923782,-2.7808976578431,1.4497700356901,2.6038288182922,-0.37312111744488,1.823325162839,-5.2882163399034,1.6915589863305,-1.0744197957693,1.9091543920916,-3.5445113278158,1.4818576884849,4.2095730435157,-1.0099540296793,-4.4312826692418,1.8948800299584,2.1734131555677,0.031178172926337,-4.5870666901273,3.1936127506388,-2.929877855614,1.2082691396034,0.96890788279898,-1.2344395743797,0.88796310958797,1.0932385084597,-0.05436834218807,0.79016086189205,-3.544968805435,-1.3459113952579,-3.1182594684123,5.363479929771,-2.1155278393134,3.0782135737493,-0.35785845122631,-1.1917248842141,-6.2832788073585,0.99708683967556,-1.9224699270538,-3.433643449965,1.8096917454047,3.0509226905353,-2.8229584169103,397.81077581708,397.81077581708,397.81077581708,397.81077581708,397.81077581708,397.81077581708,397.81077581708,397.81077581708,397.81077581708,397.81077581708,397.81077581708,397.81077581708,397.81077581708,397.81077581708,397.81077581708,397.81077581708,397.81077581708,397.81077581708,397.81077581708,397.81077581708,397.81077581708,397.81077581708,397.81077581708,397.81077581708,397.81077581708,397.81077581708,397.81077581708,397.81077581708,397.81077581708,397.81077581708,397.81077581708,397.81077581708,397.81077581708,397.81077581708,397.81077581708,397.81077581708,397.81077581708,397.81077581708,397.81077581708,397.81077581708,397.81077581708,397.81077581708,397.81077581708,397.81077581708,397.81077581708,397.81077581708,397.81077581708,397.81077581708,219.80698182845,798.38761142754,-3.3520413805813,696.31614753281,-3.3649083384853,0
0.00074718749999999,4525767381.517,6.3643913764179e-05,0.00022143143863029,9.7889527832895e-05,1.0706648909119,0,0,0,0,0,0,0,0,0,0,0,0,0,0,0,0,0,0,0,0,0,0,0,0,0,0,0,0,0,0,0,0,0,0,0,0,0,0,0,0,0,0,0,0,0,0,0,0,-0.93796080379287,0.38551590801147,-0.30198238560123,5.1427925039486,2.8047229110368,0.96767047309944,-2.7797415456861,1.4493129463949,2.6032988243991,-0.37281284563802,1.8229954755668,-5.2876109169595,1.6920963405875,-1.0736222494939,1.9093341538005,-3.5421645735974,1.4802622258909,4.2086355817893,-1.0097348794578,-4.4311588799873,1.8946862147408,2.1741969083184,0.031157789865917,-4.588821146828,3.1934575223579,-2.9312779230095,1.2082385125249,0.96851237547338,-1.2331864297958,0.88720644349743,1.0924223138347,-0.053462487698664,0.79011715384888,-3.5434142842801,-1.3449140534836,-3.1174242093897,5.3631290692864,-2.1137459317712,3.0778708536668,-0.3577743772826,-1.1914033713241,-6.2811885607682,0.99673060419798,-1.9220849183383,-3.4337382334178,1.8111480278283,3.0500688228386,-2.8207694900172,398.24970568585,398.24970568585,398.24970568585,398.24970568585,398.24970568585,398.24970568585,398.24970568585,398.24970568585,398.24970568585,398.24970568585,398.24970568585,398.24970568585,398.24970568585,398.24970568585,398.24970568585,398.24970568585,398.24970568585,398.24970568585,398.24970568585,398.24970568585,398.24970568585,398.24970568585,398.24970568585,398.24970568585,398.24970568585,398.24970568585,398.24970568585,398.24970568585,398.24970568585,398.24970568585,398.24970568585,398.24970568585,398.24970568585,398.24970568585,398.24970568585,398.24970568585,398.24970568585,398.24970568585,398.24970568585,398.24970568585,398.24970568585,398.24970568585,398.24970568585,398.24970568585,398.24970568585,398.24970568585,398.24970568585,398.24970568585,219.78005609309,799.28707252504,-3.3617522418979,697.08200846372,-3.3746143713476,0
0.00074843749999999,4538674209.0791,6.3750518166339e-05,0.00022180194961396,9.8057639862845e-05,1.0707836442395,0,0,0,0,0,0,0,0,0,0,0,0,0,0,0,0,0,0,0,0,0,0,0,0,0,0,0,0,0,0,0,0,0,0,0,0,0,0,0,0,0,0,0,0,0,0,0,0,-0.93778086409328,0.38679429292941,-0.30256640471757,5.1425586309006,2.8042054457224,0.96732565450523,-2.778586431429,1.4488557853617,2.6027684726107,-0.37250492655432,1.8226654621303,-5.2870045773289,1.6926329636952,-1.0728260920079,1.9095133472667,-3.539818319061,1.4786669178813,4.2076982493311,-1.0095146314237,-4.4310353785598,1.8944921775826,2.1749794445851,0.031136627955954,-4.5905754038976,3.1933021345581,-2.9326756511102,1.2082080175169,0.96811611609856,-1.2319348099563,0.88644983495818,1.091606594745,-0.052556052773738,0.79007360074284,-3.5418607684553,-1.3439168492542,-3.116588493594,5.3627774210294,-2.1119648047337,3.0775274672327,-0.35769118856528,-1.1910815263423,-6.2790974130763,0.99637293983534,-1.9216990723271,-3.433832507786,1.8126047207892,3.0492149943535,-2.8185812541496,398.68854063449,398.68854063449,398.68854063449,398.68854063449,398.68854063449,398.68854063449,398.68854063449,398.68854063449,398.68854063449,398.68854063449,398.68854063449,398.68854063449,398.68854063449,398.68854063449,398.68854063449,398.68854063449,398.68854063449,398.68854063449,398.68854063449,398.68854063449,398.68854063449,398.68854063449,398.68854063449,398.68854063449,398.68854063449,398.68854063449,398.68854063449,398.68854063449,398.68854063449,398.68854063449,398.68854063449,398.68854063449,398.68854063449,398.68854063449,398.68854063449,398.68854063449,398.68854063449,398.68854063449,398.68854063449,398.68854063449,398.68854063449,398.68854063449,398.68854063449,398.68854063449,398.68854063449,398.68854063449,398.68854063449,398.68854063449,219.75313335862,800.18634635286,-3.3714753556218,697.84767840773,-3.3843325518679,0
0.00074968749999999,4551596595.5062,6.3857130030107e-05,0.00022217246065491,9.8225774012358e-05,1.0709023940638,0,0,0,0,0,0,0,0,0,0,0,0,0,0,0,0,0,0,0,0,0,0,0,0,0,0,0,0,0,0,0,0,0,0,0,0,0,0,0,0,0,0,0,0,0,0,0,0,-0.93760095243348,0.38807131333536,-0.30315103052878,5.1423246569164,2.8036880394471,0.96698096235113,-2.7774323125918,1.4483985558227,2.6022377636697,-0.37219736627118,1.8223351255157,-5.2863973284342,1.6931688454669,-1.0720313277262,1.9096919739372,-3.5374725686763,1.4770717715035,4.206761044929,-1.0092932875367,-4.430912160661,1.8942979222744,2.1757607655716,0.031114681376602,-4.5923294581624,3.1931465880431,-2.9340710382724,1.2081776545902,0.96771910443634,-1.2306847141714,0.88569328845547,1.0907913500169,-0.051649041316304,0.79003020027024,-3.5403082650868,-1.3429197809947,-3.1157523212733,5.3624249842014,-2.1101844615874,3.0771834177366,-0.35760889171273,-1.1907593442761,-6.2770053665448,0.99601384776446,-1.9213123839244,-3.4339262669622,1.8140618194837,3.0483612024275,-2.8163937104021,399.12728067594,399.12728067594,399.12728067594,399.12728067594,399.12728067594,399.12728067594,399.12728067594,399.12728067594,399.12728067594,399.12728067594,399.12728067594,399.12728067594,399.12728067594,399.12728067594,399.12728067594,399.12728067594,399.12728067594,399.12728067594,399.12728067594,399.12728067594,399.12728067594,399.12728067594,399.12728067594,399.12728067594,399.12728067594,399.12728067594,399.12728067594,399.12728067594,399.12728067594,399.12728067594,399.12728067594,399.12728067594,399.12728067594,399.12728067594,399.12728067594,399.12728067594,399.12728067594,399.12728067594,399.12728067594,399.12728067594,399.12728067594,399.12728067594,399.12728067594,399.12728067594,399.12728067594,399.12728067594,399.12728067594,399.12728067594,219.72621366083,801.08543302674,-3.3812107163798,698.61315745431,-3.3940628744925,0
0.00075093749999999,4564534528.7507,6.3963749251427e-05,0.00022254297175342,9.8393930136178e-05,1.071021140385,0,0,0,0,0,0,0,0,0,0,0,0,0,0,0,0,0,0,0,0,0,0,0,0,0,0,0,0,0,0,0,0,0,0,0,0,0,0,0,0,0,0,0,0,0,0,0,0,-0.93742107325496,0.38934694909279,-0.30373625494696,5.1420905865948,2.8031706917236,0.96663639551094,-2.7762791867042,1.4479412609797,2.6017066983686,-0.37189017097945,1.8220044687539,-5.2857891776068,1.6937039757871,-1.0712379609758,1.9098700352244,-3.5351273267943,1.4754767937449,4.2058239674718,-1.0090708497532,-4.4307892220237,1.8941034524665,2.1765408725229,0.031091944284861,-4.5940833060619,3.1929908835965,-2.9354640826305,1.208147423722,0.96732134023499,-1.229436141712,0.88493680854163,1.0899765784853,-0.050741457532762,0.78998695021716,-3.5387567813445,-1.3419228471493,-3.1149156926135,5.3620717579439,-2.1084049056304,3.0768387084564,-0.35752749326421,-1.1904368201592,-6.274912423319,0.99565332911194,-1.9209248479369,-3.4340195047239,1.8155193191828,3.0475074444807,-2.8142068597658,399.56592582322,399.56592582322,399.56592582322,399.56592582322,399.56592582322,399.56592582322,399.56592582322,399.56592582322,399.56592582322,399.56592582322,399.56592582322,399.56592582322,399.56592582322,399.56592582322,399.56592582322,399.56592582322,399.56592582322,399.56592582322,399.56592582322,399.56592582322,399.56592582322,399.56592582322,399.56592582322,399.56592582322,399.56592582322,399.56592582322,399.56592582322,399.56592582322,399.56592582322,399.56592582322,399.56592582322,399.56592582322,399.56592582322,399.56592582322,399.56592582322,399.56592582322,399.56592582322,399.56592582322,399.56592582322,399.56592582322,399.56592582322,399.56592582322,399.56592582322,399.56592582322,399.56592582322,399.56592582322,399.56592582322,399.56592582322,219.69929703569,801.9843326628,-3.3909583188266,699.37844569292,-3.4038053336901,0
0.00075218749999999,4577487996.7605,6.4070375763399e-05,0.00022291348290976,9.8562108132671e-05,1.0711398832035,0,0,0,0,0,0,0,0,0,0,0,0,0,0,0,0,0,0,0,0,0,0,0,0,0,0,0,0,0,0,0,0,0,0,0,0,0,0,0,0,0,0,0,0,0,0,0,0,-0.93724123103591,0.39062118004578,-0.30432206997782,5.1418564246373,2.8026534020866,0.96629195283792,-2.7751270512959,1.4474839040015,2.6011752775555,-0.37158334697815,1.8216734949202,-5.2851801320847,1.6942383446183,-1.0704459959761,1.9100475325071,-3.5327825976512,1.4738819915213,4.2048870159446,-1.0088473200189,-4.4306665583994,1.8939087716665,2.177319766731,0.031068410814532,-4.595836943658,3.1928350219858,-2.9368547821081,1.2081173248565,0.96692282322794,-1.2281890918045,0.88418039983498,1.0891622789974,-0.049833305924322,0.78994384846085,-3.5372063244358,-1.3409260461789,-3.1140786077161,5.3617177413286,-2.1066261400711,3.0764933426442,-0.35744699964779,-1.1901139490513,-6.2728185854394,0.99529138495284,-1.9205364590656,-3.4341122147191,1.8169772152277,3.0466537179963,-2.8120207031174,400.00447608944,400.00447608944,400.00447608944,400.00447608944,400.00447608944,400.00447608944,400.00447608944,400.00447608944,400.00447608944,400.00447608944,400.00447608944,400.00447608944,400.00447608944,400.00447608944,400.00447608944,400.00447608944,400.00447608944,400.00447608944,400.00447608944,400.00447608944,400.00447608944,400.00447608944,400.00447608944,400.00447608944,400.00447608944,400.00447608944,400.00447608944,400.00447608944,400.00447608944,400.00447608944,400.00447608944,400.00447608944,400.00447608944,400.00447608944,400.00447608944,400.00447608944,400.00447608944,400.00447608944,400.00447608944,400.00447608944,400.00447608944,400.00447608944,400.00447608944,400.00447608944,400.00447608944,400.00447608944,400.00447608944,400.00447608944,219.67238351961,802.88304537754,-3.400718157597,700.14354321313,-3.4135599239202,0
0.00075343749999999,4590456987.4795,6.4177009581292e-05,0.00022328399412422,9.8730307998687e-05,1.0712586225197,0,0,0,0,0,0,0,0,0,0,0,0,0,0,0,0,0,0,0,0,0,0,0,0,0,0,0,0,0,0,0,0,0,0,0,0,0,0,0,0,0,0,0,0,0,0,0,0,-0.93706143028873,0.39189398602935,-0.30490846770478,5.1416221758421,2.8021361700922,0.96594763316261,-2.7739759038942,1.4470264880284,2.6006435021183,-0.37127690066814,1.8213422071314,-5.284570199012,1.6947719420132,-1.0696554368382,1.9102244671227,-3.5304383853716,1.472287371674,4.2039501894299,-1.0086227002752,-4.4305441655551,1.8937138832474,2.1780974495247,0.031044075081032,-4.5975903666341,3.1926790039531,-2.9382431344251,1.2080873579058,0.96652355313339,-1.2269435636291,0.88342406701999,1.0883484504024,-0.048924591278912,0.7899008929708,-3.5356569016016,-1.3399293765604,-3.1132410666029,5.3613629333596,-2.1048481680279,3.0761473235215,-0.35736741717837,-1.1897907260526,-6.2707238548425,0.99492801631539,-1.9201472119157,-3.434204390474,1.8184355030299,3.0458000205294,-2.8098352412281,400.44293148777,400.44293148777,400.44293148777,400.44293148777,400.44293148777,400.44293148777,400.44293148777,400.44293148777,400.44293148777,400.44293148777,400.44293148777,400.44293148777,400.44293148777,400.44293148777,400.44293148777,400.44293148777,400.44293148777,400.44293148777,400.44293148777,400.44293148777,400.44293148777,400.44293148777,400.44293148777,400.44293148777,400.44293148777,400.44293148777,400.44293148777,400.44293148777,400.44293148777,400.44293148777,400.44293148777,400.44293148777,400.44293148777,400.44293148777,400.44293148777,400.44293148777,400.44293148777,400.44293148777,400.44293148777,400.44293148777,400.44293148777,400.44293148777,400.44293148777,400.44293148777,400.44293148777,400.44293148777,400.44293148777,400.44293148777,219.64547314925,803.78157128782,-3.4104902273541,700.90845010446,-3.4233266396487,0
0.00075468749999999,4603441488.8472,6.4283650609833e-05,0.00022365450539711,9.8898529599338e-05,1.071377358334,0,0,0,0,0,0,0,0,0,0,0,0,0,0,0,0,0,0,0,0,0,0,0,0,0,0,0,0,0,0,0,0,0,0,0,0,0,0,0,0,0,0,0,0,0,0,0,0,-0.93688167555824,0.39316534687855,-0.30549544029994,5.1413878450984,2.80161899532,0.96560343529296,-2.77282574203,1.4465690161676,2.6001113730049,-0.37097083854684,1.8210106085522,-5.2839593854196,1.6953047581174,-1.068866287562,1.9104008403791,-3.5280946939669,1.4706929409714,4.2030134871054,-1.0083969924569,-4.4304220392832,1.8935187904478,2.1788739222816,0.031018931180475,-4.5993435702926,3.1925228302317,-2.9396291370911,1.2080575227508,0.96612352965248,-1.2256995563227,0.88266781484005,1.0875350915698,-0.048015318662405,0.78985808181131,-3.5341085201029,-1.3389328367862,-3.1124030692199,5.3610073329851,-2.1030709925309,3.0758006542888,-0.3572887520521,-1.1894671462987,-6.2686282333516,0.99456322417838,-1.9197571010031,-3.4342960253972,1.8198941780783,3.0449463496942,-2.8076504747566,400.88129203151,400.88129203151,400.88129203151,400.88129203151,400.88129203151,400.88129203151,400.88129203151,400.88129203151,400.88129203151,400.88129203151,400.88129203151,400.88129203151,400.88129203151,400.88129203151,400.88129203151,400.88129203151,400.88129203151,400.88129203151,400.88129203151,400.88129203151,400.88129203151,400.88129203151,400.88129203151,400.88129203151,400.88129203151,400.88129203151,400.88129203151,400.88129203151,400.88129203151,400.88129203151,400.88129203151,400.88129203151,400.88129203151,400.88129203151,400.88129203151,400.88129203151,400.88129203151,400.88129203151,400.88129203151,400.88129203151,400.88129203151,400.88129203151,400.88129203151,400.88129203151,400.88129203151,400.88129203151,400.88129203151,400.88129203151,219.61856596159,804.67991051087,-3.4202745227389,701.67316645654,-3.4331054753376,0
0.00075593749999999,4616441488.7986,6.4390298775614e-05,0.00022402501672872,9.9066772825159e-05,1.0714960906468,0,0,0,0,0,0,0,0,0,0,0,0,0,0,0,0,0,0,0,0,0,0,0,0,0,0,0,0,0,0,0,0,0,0,0,0,0,0,0,0,0,0,0,0,0,0,0,0,-0.93670197141932,0.39443524244151,-0.30608298000945,5.141153437374,2.8011018773719,0.96525935801019,-2.7716765632309,1.4461114914978,2.5995788912088,-0.37066516720286,1.820678702391,-5.2833476982368,1.6958367831792,-1.0680785520243,1.9105766535412,-3.5257515273402,1.4690987061085,4.2020769082441,-1.0081701984955,-4.4303001753915,1.8933234963789,2.1796491864229,0.030992973192328,-4.6010965495632,3.1923665015351,-2.9410127874246,1.2080278192409,0.96572275246674,-1.2244570689742,0.8819116481012,1.0867222013784,-0.0471054934095,0.78981541314187,-3.5325611872234,-1.3379364253633,-3.1115646154192,5.3606509390786,-2.1012946165212,3.075453338115,-0.35721101034183,-1.1891432049727,-6.2665317226876,0.99419700948351,-1.9193661207486,-3.4343871127675,1.8213532359345,3.0440927031695,-2.8054664042488,401.31955773399,401.31955773399,401.31955773399,401.31955773399,401.31955773399,401.31955773399,401.31955773399,401.31955773399,401.31955773399,401.31955773399,401.31955773399,401.31955773399,401.31955773399,401.31955773399,401.31955773399,401.31955773399,401.31955773399,401.31955773399,401.31955773399,401.31955773399,401.31955773399,401.31955773399,401.31955773399,401.31955773399,401.31955773399,401.31955773399,401.31955773399,401.31955773399,401.31955773399,401.31955773399,401.31955773399,401.31955773399,401.31955773399,401.31955773399,401.31955773399,401.31955773399,401.31955773399,401.31955773399,401.31955773399,401.31955773399,401.31955773399,401.31955773399,401.31955773399,401.31955773399,401.31955773399,401.31955773399,401.31955773399,401.31955773399,219.59166199395,805.57806316422,-3.430071038387,702.43769235899,-3.4428964254462,0
0.00075718749999999,4629456975.2643,6.4496954038211e-05,0.00022439552811936,9.9235037606147e-05,1.0716148194584,0,0,0,0,0,0,0,0,0,0,0,0,0,0,0,0,0,0,0,0,0,0,0,0,0,0,0,0,0,0,0,0,0,0,0,0,0,0,0,0,0,0,0,0,0,0,0,0,-0.93652232247452,0.39570365258215,-0.30667107916344,5.1409189577135,2.8005848158677,0.96491540007216,-2.7705283650143,1.4456539170667,2.5990460577684,-0.37035989331117,1.8203464919005,-5.2827351442849,1.6963680075552,-1.0672922339758,1.9107519078358,-3.5234088892943,1.4675046736939,4.2011404522044,-1.007942320319,-4.4301785697008,1.8931280040228,2.1804232434098,0.030966195180034,-4.6028492990208,3.1922100185625,-2.9423940825554,1.207998247195,0.96532122123977,-1.2232161006179,0.88115557166675,1.0859097787157,-0.046195121114769,0.78977288521818,-3.531014910262,-1.33694014081,-3.110725704969,5.360293750448,-2.0995190428511,3.0751053781367,-0.35713419798996,-1.1888188973066,-6.2644343244853,0.99382937312082,-1.9189742654902,-3.4344776457428,1.8228126722374,3.0432390786881,-2.8032830301436,401.75772860867,401.75772860867,401.75772860867,401.75772860867,401.75772860867,401.75772860867,401.75772860867,401.75772860867,401.75772860867,401.75772860867,401.75772860867,401.75772860867,401.75772860867,401.75772860867,401.75772860867,401.75772860867,401.75772860867,401.75772860867,401.75772860867,401.75772860867,401.75772860867,401.75772860867,401.75772860867,401.75772860867,401.75772860867,401.75772860867,401.75772860867,401.75772860867,401.75772860867,401.75772860867,401.75772860867,401.75772860867,401.75772860867,401.75772860867,401.75772860867,401.75772860867,401.75772860867,401.75772860867,401.75772860867,401.75772860867,401.75772860867,401.75772860867,401.75772860867,401.75772860867,401.75772860867,401.75772860867,401.75772860867,401.75772860867,219.5647612839,806.47602936577,-3.4398797689469,703.20202790145,-3.4526994844371,0
0.00075843749999999,4642487936.1704,6.4603616244037e-05,0.00022476603956934,9.9403323737748e-05,1.0717335447692,0,0,0,0,0,0,0,0,0,0,0,0,0,0,0,0,0,0,0,0,0,0,0,0,0,0,0,0,0,0,0,0,0,0,0,0,0,0,0,0,0,0,0,0,0,0,0,0,-0.93634273335184,0.396970557199,-0.30725973016469,5.1406844112214,2.8000678104523,0.96457156021082,-2.7693811448927,1.4451962958925,2.5985128737692,-0.37005502362641,1.8200139803775,-5.2821217302628,1.6968984217197,-1.0665073370402,1.9109266044459,-3.5210667835263,1.4659108502616,4.2002041184386,-1.0077133598494,-4.4300572180463,1.8929323162403,2.1811960947493,0.030938591193475,-4.6046018128759,3.1920533819981,-2.9437730194242,1.2079688064039,0.96491893561443,-1.2219766502403,0.88039959045613,1.0850978224832,-0.045284207621863,0.78973049639322,-3.529469696521,-1.3359439816571,-3.1098863375486,5.3599357658316,-2.0977442742836,3.0747567774583,-0.35705832080926,-1.1884942185911,-6.2623360402763,0.99346031595057,-1.9185815294836,-3.4345676173572,1.8242724827007,3.042385474042,-2.8011003527615,402.19580466909,402.19580466909,402.19580466909,402.19580466909,402.19580466909,402.19580466909,402.19580466909,402.19580466909,402.19580466909,402.19580466909,402.19580466909,402.19580466909,402.19580466909,402.19580466909,402.19580466909,402.19580466909,402.19580466909,402.19580466909,402.19580466909,402.19580466909,402.19580466909,402.19580466909,402.19580466909,402.19580466909,402.19580466909,402.19580466909,402.19580466909,402.19580466909,402.19580466909,402.19580466909,402.19580466909,402.19580466909,402.19580466909,402.19580466909,402.19580466909,402.19580466909,402.19580466909,402.19580466909,402.19580466909,402.19580466909,402.19580466909,402.19580466909,402.19580466909,402.19580466909,402.19580466909,402.19580466909,402.19580466909,402.19580466909,219.53786386938,807.37380923367,-3.4497007090707,703.96617317358,-3.4625146467836,0
0.00075968749999999,4655534359.4384,6.4710285478983e-05,0.00022513655107899,9.9571631299563e-05,1.0718522665797,0,0,0,0,0,0,0,0,0,0,0,0,0,0,0,0,0,0,0,0,0,0,0,0,0,0,0,0,0,0,0,0,0,0,0,0,0,0,0,0,0,0,0,0,0,0,0,0,-0.93616320870252,0.39823593622513,-0.30784892549219,5.1404498030631,2.7995508607876,0.96422783712922,-2.7682349003708,1.4447386309631,2.5979793403631,-0.36975056497795,1.8196811711637,-5.2815074627542,1.697428016264,-1.0657238647022,1.9111007445166,-3.5187252136269,1.4643172422671,4.1992679064802,-1.007483319011,-4.4299361162797,1.8927364357719,2.1819677420022,0.030910155270225,-4.6063540849782,3.1918965925151,-2.9451495947929,1.2079394966279,0.96451589521073,-1.2207387167729,0.87964370944234,1.084286331612,-0.044372759015149,0.78968824511749,-3.5279255533076,-1.334947946445,-3.1090465127405,5.3595769838979,-2.0959703134926,3.0744075391571,-0.35698338447408,-1.1881691641694,-6.2602368714861,0.99308983879307,-1.9181879069039,-3.4346570205196,1.8257326631197,3.0415318870735,-2.7989183723159,402.63378592886,402.63378592886,402.63378592886,402.63378592886,402.63378592886,402.63378592886,402.63378592886,402.63378592886,402.63378592886,402.63378592886,402.63378592886,402.63378592886,402.63378592886,402.63378592886,402.63378592886,402.63378592886,402.63378592886,402.63378592886,402.63378592886,402.63378592886,402.63378592886,402.63378592886,402.63378592886,402.63378592886,402.63378592886,402.63378592886,402.63378592886,402.63378592886,402.63378592886,402.63378592886,402.63378592886,402.63378592886,402.63378592886,402.63378592886,402.63378592886,402.63378592886,402.63378592886,402.63378592886,402.63378592886,402.63378592886,402.63378592886,402.63378592886,402.63378592886,402.63378592886,402.63378592886,402.63378592886,402.63378592886,402.63378592886,219.51096978858,808.2714028864,-3.4595338533992,704.73012826506,-3.4723419069424,0
0.00076093749999999,4668596232.9849,6.4816961582478e-05,0.00022550706264862,9.9739960078508e-05,1.0719709848903,0,0,0,0,0,0,0,0,0,0,0,0,0,0,0,0,0,0,0,0,0,0,0,0,0,0,0,0,0,0,0,0,0,0,0,0,0,0,0,0,0,0,0,0,0,0,0,0,-0.93598375319857,0.39949976964023,-0.30843865769139,5.1402151384489,2.7990339665571,0.96388422950608,-2.7670896289364,1.4442809252392,2.5974454587255,-0.36944652426506,1.8193480676445,-5.2808923482241,1.6979567819085,-1.0649418203118,1.9112743291447,-3.5163841830969,1.4627238560742,4.1983318159516,-1.0072521997202,-4.4298152602573,1.8925403652446,2.1827381867611,0.030880881435888,-4.6081061088525,3.191739650772,-2.9465238052545,1.2079103175991,0.96411209962771,-1.2195022990899,0.87888793365198,1.0834753050294,-0.043460781607062,0.78964612994008,-3.5263824879267,-1.3339520337241,-3.1082062300404,5.3592174032392,-2.0941971630637,3.0740576662659,-0.35690939452069,-1.1878437294532,-6.2581368194725,0.99271794243191,-1.9177933918541,-3.4347458480117,1.8271932093647,3.0406783156784,-2.796737088902,403.07167240168,403.07167240168,403.07167240168,403.07167240168,403.07167240168,403.07167240168,403.07167240168,403.07167240168,403.07167240168,403.07167240168,403.07167240168,403.07167240168,403.07167240168,403.07167240168,403.07167240168,403.07167240168,403.07167240168,403.07167240168,403.07167240168,403.07167240168,403.07167240168,403.07167240168,403.07167240168,403.07167240168,403.07167240168,403.07167240168,403.07167240168,403.07167240168,403.07167240168,403.07167240168,403.07167240168,403.07167240168,403.07167240168,403.07167240168,403.07167240168,403.07167240168,403.07167240168,403.07167240168,403.07167240168,403.07167240168,403.07167240168,403.07167240168,403.07167240168,403.07167240168,403.07167240168,403.07167240168,403.07167240168,403.07167240168,219.48407907997,809.16881044273,-3.4693791965738,705.49389326558,-3.4821812593752,0
0.00076218749999999,4681673544.722,6.4923644596533e-05,0.00022587757427857,9.9908310102553e-05,1.0720896997013,0,0,0,0,0,0,0,0,0,0,0,0,0,0,0,0,0,0,0,0,0,0,0,0,0,0,0,0,0,0,0,0,0,0,0,0,0,0,0,0,0,0,0,0,0,0,0,0,-0.93580437153196,0.40076203747633,-0.30902891937417,5.1399804226332,2.7985171274649,0.96354073599421,-2.7659453280548,1.4438231816533,2.5969112300057,-0.36914290845108,1.8190146732455,-5.2802763930116,1.6984847095075,-1.064161207085,1.9114473593812,-3.5140436953551,1.4611306979513,4.197395846561,-1.0070200038922,-4.4296946458361,1.8923441071754,2.1835074306156,0.030850763706215,-4.6098578777129,3.1915825574092,-2.9478956472317,1.2078812690208,0.96370754844316,-1.2182673959986,0.87813226816107,1.0826647416191,-0.042548281927418,0.78960414950878,-3.5248405076743,-1.3329562420523,-3.1073654888544,5.3588570223783,-2.0924248254948,3.0737071617666,-0.35683635634874,-1.1875179099246,-6.2560358855397,0.9923446276162,-1.9173979783611,-3.4348340924951,1.8286541173779,3.0398247578048,-2.7945565025094,403.50946410137,403.50946410137,403.50946410137,403.50946410137,403.50946410137,403.50946410137,403.50946410137,403.50946410137,403.50946410137,403.50946410137,403.50946410137,403.50946410137,403.50946410137,403.50946410137,403.50946410137,403.50946410137,403.50946410137,403.50946410137,403.50946410137,403.50946410137,403.50946410137,403.50946410137,403.50946410137,403.50946410137,403.50946410137,403.50946410137,403.50946410137,403.50946410137,403.50946410137,403.50946410137,403.50946410137,403.50946410137,403.50946410137,403.50946410137,403.50946410137,403.50946410137,403.50946410137,403.50946410137,403.50946410137,403.50946410137,403.50946410137,403.50946410137,403.50946410137,403.50946410137,403.50946410137,403.50946410137,403.50946410137,403.50946410137,219.4571917824,810.06603202164,-3.4792367332407,706.25746826482,-3.4920326985384,0
0.00076343749999999,4694766282.5565,6.503033410649e-05,0.00022624808596918,0.00010007668085548,1.0722084110132,0,0,0,0,0,0,0,0,0,0,0,0,0,0,0,0,0,0,0,0,0,0,0,0,0,0,0,0,0,0,0,0,0,0,0,0,0,0,0,0,0,0,0,0,0,0,0,0,-0.93562506841012,0.40202271984001,-0.30961970322933,5.139745660916,2.7980003432258,0.96319735521409,-2.764801995195,1.4433654031046,2.5963766556531,-0.36883972455817,1.8186809914428,-5.2796596033181,1.6990117900425,-1.0633820280574,1.9116198362407,-3.5117037536575,1.4595377741304,4.1964599980708,-1.0067867334473,-4.4295742689078,1.8921476639641,2.1842754753619,0.030819796086876,-4.6116093843391,3.1914253130719,-2.9492651169717,1.2078523505707,0.96330224120627,-1.2170340062661,0.87737671809215,1.0818546404892,-0.041635266721994,0.78956230257024,-3.5232996198301,-1.331960569995,-3.1065242884598,5.3584958397632,-2.0906533031853,3.0733560286641,-0.35676427519243,-1.1871917011215,-6.2539340707538,0.99196989508071,-1.9170016603897,-3.4349217465012,1.8301153832079,3.0389712114207,-2.7923766130038,403.94716104179,403.94716104179,403.94716104179,403.94716104179,403.94716104179,403.94716104179,403.94716104179,403.94716104179,403.94716104179,403.94716104179,403.94716104179,403.94716104179,403.94716104179,403.94716104179,403.94716104179,403.94716104179,403.94716104179,403.94716104179,403.94716104179,403.94716104179,403.94716104179,403.94716104179,403.94716104179,403.94716104179,403.94716104179,403.94716104179,403.94716104179,403.94716104179,403.94716104179,403.94716104179,403.94716104179,403.94716104179,403.94716104179,403.94716104179,403.94716104179,403.94716104179,403.94716104179,403.94716104179,403.94716104179,403.94716104179,403.94716104179,403.94716104179,403.94716104179,403.94716104179,403.94716104179,403.94716104179,403.94716104179,403.94716104179,219.43030793488,810.96306774244,-3.4891064580337,707.02085335248,-3.5018962189139,0
0.00076468749999999,4707874434.3906,6.5137030279605e-05,0.00022661859772079,0.00010024507251384,1.0723271188265,0,0,0,0,0,0,0,0,0,0,0,0,0,0,0,0,0,0,0,0,0,0,0,0,0,0,0,0,0,0,0,0,0,0,0,0,0,0,0,0,0,0,0,0,0,0,0,0,-0.9354458485554,0.40328179689313,-0.31021100199717,5.1395108586098,2.7974836135807,0.96285408576635,-2.7636596277699,1.4429075924694,2.595841736887,-0.36853697966217,1.8183470257454,-5.2790419852369,1.6995380146449,-1.0626042861453,1.9117917606747,-3.5093643612461,1.4579450906996,4.1955242703459,-1.0065523902908,-4.4294541253256,1.8919510379151,2.1850423226662,0.030787972577278,-4.6133606213326,3.1912679183755,-2.9506322105869,1.2078235618988,0.96289617744768,-1.2158021285661,0.8766212886152,1.0810450005401,-0.04072174292487,0.78952058796941,-3.521759831664,-1.3309650161197,-3.1056826280669,5.3581338537534,-2.0888825984546,3.0730042698539,-0.35669315615493,-1.186865098673,-6.2518313762844,0.99159374551347,-1.9166044318348,-3.4350088024328,1.8315770029527,3.0381176745631,-2.7901974201427,404.38476323694,404.38476323694,404.38476323694,404.38476323694,404.38476323694,404.38476323694,404.38476323694,404.38476323694,404.38476323694,404.38476323694,404.38476323694,404.38476323694,404.38476323694,404.38476323694,404.38476323694,404.38476323694,404.38476323694,404.38476323694,404.38476323694,404.38476323694,404.38476323694,404.38476323694,404.38476323694,404.38476323694,404.38476323694,404.38476323694,404.38476323694,404.38476323694,404.38476323694,404.38476323694,404.38476323694,404.38476323694,404.38476323694,404.38476323694,404.38476323694,404.38476323694,404.38476323694,404.38476323694,404.38476323694,404.38476323694,404.38476323694,404.38476323694,404.38476323694,404.38476323694,404.38476323694,404.38476323694,404.38476323694,404.38476323694,219.40342757691,811.85991772462,-3.4989883656207,707.78404861821,-3.5117718149591,0
0.00076593749999999,4720997988.1211,6.5243733265325e-05,0.00022698910953376,0.0001004134852329,1.0724458231414,0,0,0,0,0,0,0,0,0,0,0,0,0,0,0,0,0,0,0,0,0,0,0,0,0,0,0,0,0,0,0,0,0,0,0,0,0,0,0,0,0,0,0,0,0,0,0,0,-0.93526671670388,0.40453924888276,-0.31080280847968,5.1392760210624,2.7969669382787,0.96251092621624,-2.7625182232061,1.4424497525944,2.5953064751361,-0.36823468088736,1.8180127797109,-5.2784235447054,1.7000633745834,-1.0618279841073,1.9119631335993,-3.5070255212106,1.4563526537049,4.1945886633011,-1.0063169763398,-4.4293342109881,1.891754231228,2.1858079743423,0.030755287168206,-4.6151115808862,3.1911103739356,-2.9519969240144,1.2077949026276,0.96248935666768,-1.2145717615342,0.87586598494446,1.0802358208249,-0.039807717662827,0.78947900465108,-3.5202211504128,-1.3299695790033,-3.1048405067766,5.3577710626433,-2.0871127135251,3.0726518882459,-0.35662300418787,-1.1865380982734,-6.2497278030811,0.99121617959461,-1.9162062865317,-3.4350952525726,1.8330389728141,3.0372641452854,-2.7880189235684,404.82227070088,404.82227070088,404.82227070088,404.82227070088,404.82227070088,404.82227070088,404.82227070088,404.82227070088,404.82227070088,404.82227070088,404.82227070088,404.82227070088,404.82227070088,404.82227070088,404.82227070088,404.82227070088,404.82227070088,404.82227070088,404.82227070088,404.82227070088,404.82227070088,404.82227070088,404.82227070088,404.82227070088,404.82227070088,404.82227070088,404.82227070088,404.82227070088,404.82227070088,404.82227070088,404.82227070088,404.82227070088,404.82227070088,404.82227070088,404.82227070088,404.82227070088,404.82227070088,404.82227070088,404.82227070088,404.82227070088,404.82227070088,404.82227070088,404.82227070088,404.82227070088,404.82227070088,404.82227070088,404.82227070088,404.82227070088,219.37655074808,812.75658208791,-3.5088824506256,708.5470541517,-3.5216594811193,0
0.00076718749999999,4734136931.6397,6.5350442610503e-05,0.00022735962140843,0.00010058191845016,1.0725645239585,0,0,0,0,0,0,0,0,0,0,0,0,0,0,0,0,0,0,0,0,0,0,0,0,0,0,0,0,0,0,0,0,0,0,0,0,0,0,0,0,0,0,0,0,0,0,0,0,-0.93508767760053,0.40579505613108,-0.31139511552418,5.1390411536163,2.7964503170954,0.9621678751107,-2.7613777788465,1.4419918863029,2.5947708716738,-0.36793283540174,1.8176782569239,-5.2778042875602,1.7005878612851,-1.0610531245485,1.9121339558569,-3.5046872366245,1.4547604690432,4.1936531769483,-1.0060804934952,-4.4292145217284,1.891557246013,2.1865724321224,0.030721733846829,-4.6168622550434,3.1909526803325,-2.9533592530751,1.2077663723556,0.96208177834827,-1.2133429036968,0.87511081233643,1.0794271002515,-0.038893198229131,0.78943755165697,-3.5186835833013,-1.3289742572175,-3.1039979236011,5.3574074646192,-2.0853436505334,3.0722988866408,-0.35655382408871,-1.1862106957173,-6.2476233522018,0.99083719795718,-1.9158072182575,-3.4351810890647,1.8345012890463,3.0364106217035,-2.7858411228132,405.25968344777,405.25968344777,405.25968344777,405.25968344777,405.25968344777,405.25968344777,405.25968344777,405.25968344777,405.25968344777,405.25968344777,405.25968344777,405.25968344777,405.25968344777,405.25968344777,405.25968344777,405.25968344777,405.25968344777,405.25968344777,405.25968344777,405.25968344777,405.25968344777,405.25968344777,405.25968344777,405.25968344777,405.25968344777,405.25968344777,405.25968344777,405.25968344777,405.25968344777,405.25968344777,405.25968344777,405.25968344777,405.25968344777,405.25968344777,405.25968344777,405.25968344777,405.25968344777,405.25968344777,405.25968344777,405.25968344777,405.25968344777,405.25968344777,405.25968344777,405.25968344777,405.25968344777,405.25968344777,405.25968344777,405.25968344777,219.34967748836,813.65306095223,-3.5187887077107,709.30987004257,-3.5315592118685,0
0.00076843749999999,4747291252.8328,6.5457158488809e-05,0.00022773013334519,0.00010075037234993,1.0726832212782,0,0,0,0,0,0,0,0,0,0,0,0,0,0,0,0,0,0,0,0,0,0,0,0,0,0,0,0,0,0,0,0,0,0,0,0,0,0,0,0,0,0,0,0,0,0,0,0,-0.93490873600146,0.40704919906041,-0.31198791603601,5.138806261635,2.7959337498099,0.96182493096335,-2.7602382920688,1.4415339963898,2.5942349279863,-0.36763145041098,1.817343461018,-5.2771842194645,1.7011114663182,-1.0602797099355,1.9123042282596,-3.50234951039,1.4531685425862,4.1927178113404,-1.0058429436637,-4.4290950534489,1.8913600842821,2.1873356978877,0.030687306594105,-4.6186126354086,3.1907948381506,-2.954719193417,1.2077379706532,0.96167344193969,-1.2121155535539,0.87435577608781,1.0786188378872,-0.037978192090509,0.78939622812826,-3.517147137504,-1.3279790493438,-3.1031548774644,5.3570430578151,-2.0835754115177,3.0719452678611,-0.35648562051422,-1.1858828868665,-6.2455180244306,0.99045680124378,-1.9154072207438,-3.4352663039445,1.8359639480076,3.0355571019428,-2.7836640172873,405.69700149185,405.69700149185,405.69700149185,405.69700149185,405.69700149185,405.69700149185,405.69700149185,405.69700149185,405.69700149185,405.69700149185,405.69700149185,405.69700149185,405.69700149185,405.69700149185,405.69700149185,405.69700149185,405.69700149185,405.69700149185,405.69700149185,405.69700149185,405.69700149185,405.69700149185,405.69700149185,405.69700149185,405.69700149185,405.69700149185,405.69700149185,405.69700149185,405.69700149185,405.69700149185,405.69700149185,405.69700149185,405.69700149185,405.69700149185,405.69700149185,405.69700149185,405.69700149185,405.69700149185,405.69700149185,405.69700149185,405.69700149185,405.69700149185,405.69700149185,405.69700149185,405.69700149185,405.69700149185,405.69700149185,405.69700149185,219.32280783792,814.5493544377,-3.5287071314962,710.07249638045,-3.5414710016472,0
0.00076968749999999,4760460939.5815,6.5563880871641e-05,0.00022810064534439,0.0001009188468751,1.072801915101,0,0,0,0,0,0,0,0,0,0,0,0,0,0,0,0,0,0,0,0,0,0,0,0,0,0,0,0,0,0,0,0,0,0,0,0,0,0,0,0,0,0,0,0,0,0,0,0,-0.93472989666728,0.40830165818795,-0.3125812029666,5.1385713504858,2.7954172362173,0.96148209226304,-2.7590997601738,1.4410760856227,2.5936986455725,-0.36733053315488,1.8170083956603,-5.2765633459632,1.7016341814092,-1.0595077425471,1.9124739515526,-3.5000123453517,1.4515768800874,4.1917825665992,-1.0056043287486,-4.4289758020023,1.8911627479594,2.1880977735482,0.030651999386776,-4.6203627133961,3.1906368479533,-2.9560767405628,1.2077096970668,0.9612643468691,-1.2108897095017,0.87360088153306,1.0778110327909,-0.037062706862124,0.78935503330332,-3.5156118201702,-1.3269839539578,-3.1023113671649,5.3566778402554,-2.0818079984234,3.0715910346621,-0.35641839794854,-1.1855546676764,-6.2434118205696,0.99007499006259,-1.9150062876615,-3.4353508891029,1.8374269461298,3.0347035841623,-2.7814876062856,406.13422484746,406.13422484746,406.13422484746,406.13422484746,406.13422484746,406.13422484746,406.13422484746,406.13422484746,406.13422484746,406.13422484746,406.13422484746,406.13422484746,406.13422484746,406.13422484746,406.13422484746,406.13422484746,406.13422484746,406.13422484746,406.13422484746,406.13422484746,406.13422484746,406.13422484746,406.13422484746,406.13422484746,406.13422484746,406.13422484746,406.13422484746,406.13422484746,406.13422484746,406.13422484746,406.13422484746,406.13422484746,406.13422484746,406.13422484746,406.13422484746,406.13422484746,406.13422484746,406.13422484746,406.13422484746,406.13422484746,406.13422484746,406.13422484746,406.13422484746,406.13422484746,406.13422484746,406.13422484746,406.13422484746,406.13422484746,219.29594183721,815.44546266463,-3.5386377166396,710.83493325494,-3.5513948449161,0
0.00077093749999998,4773645979.7614,6.5670609603581e-05,0.00022847115740642,0.0001010873418178,1.0729206054272,0,0,0,0,0,0,0,0,0,0,0,0,0,0,0,0,0,0,0,0,0,0,0,0,0,0,0,0,0,0,0,0,0,0,0,0,0,0,0,0,0,0,0,0,0,0,0,0,-0.93455116436312,0.40955241413226,-0.31317496931307,5.1383364255251,2.7949007761241,0.96113935747367,-2.7579621804322,1.4406181567445,2.5931620259495,-0.36703009090228,1.8166730645543,-5.2759416724635,1.70215599844,-1.0587372245173,1.9126431264279,-3.4976757442636,1.4499854872215,4.1908474429049,-1.0053646506487,-4.428856763238,1.8909652388853,2.1888586610376,0.030615806198745,-4.6221124801527,3.1904787102919,-2.957431889907,1.2076815511174,0.96085449253697,-1.2096653698648,0.87284613404171,1.0770036840237,-0.036146750301695,0.78931396651735,-3.5140776384081,-1.3259889696364,-3.1014673914162,5.3563118098796,-2.0800414131041,3.0712361897629,-0.3563521607288,-1.1852260341909,-6.2413047413428,0.98969176501358,-1.9146044126421,-3.4354348363068,1.8388902799267,3.0338500665486,-2.7793118889945,406.57135352905,406.57135352905,406.57135352905,406.57135352905,406.57135352905,406.57135352905,406.57135352905,406.57135352905,406.57135352905,406.57135352905,406.57135352905,406.57135352905,406.57135352905,406.57135352905,406.57135352905,406.57135352905,406.57135352905,406.57135352905,406.57135352905,406.57135352905,406.57135352905,406.57135352905,406.57135352905,406.57135352905,406.57135352905,406.57135352905,406.57135352905,406.57135352905,406.57135352905,406.57135352905,406.57135352905,406.57135352905,406.57135352905,406.57135352905,406.57135352905,406.57135352905,406.57135352905,406.57135352905,406.57135352905,406.57135352905,406.57135352905,406.57135352905,406.57135352905,406.57135352905,406.57135352905,406.57135352905,406.57135352905,406.57135352905,219.26907952705,816.34138575349,-3.5485804577817,711.5971807556,-3.561330736128,0
0.00077218749999998,4786846361.2423,6.5777344682405e-05,0.00022884166953166,0.00010125585715173,1.0730392922574,0,0,0,0,0,0,0,0,0,0,0,0,0,0,0,0,0,0,0,0,0,0,0,0,0,0,0,0,0,0,0,0,0,0,0,0,0,0,0,0,0,0,0,0,0,0,0,0,-0.93437254385715,0.41080144762123,-0.31376920810514,5.1381014921051,2.7943843693493,0.9607967250326,-2.756825550073,1.4401602124741,2.5926250706745,-0.36673013094553,1.8163374714363,-5.2753192042237,1.7026769094526,-1.0579681578163,1.9128117535175,-3.4953397097869,1.448394369571,4.1899124404938,-1.0051239112591,-4.4287379329952,1.8907675588207,2.1896183623372,0.030578721001721,-4.623861926579,3.1903204256955,-2.9587846367076,1.2076535323044,0.96044387831749,-1.208442532886,0.87209153901939,1.0761967906635,-0.035230330297199,0.78927302720199,-3.5125445992783,-1.3249940949511,-3.1006229488305,5.3559449645335,-2.0782756573155,3.0708807358358,-0.35628691303424,-1.1848969825474,-6.2391967874032,0.98930712668227,-1.9142015892714,-3.4355181371941,1.8403539459921,3.0329965473101,-2.7771368644768,407.00838755114,407.00838755114,407.00838755114,407.00838755114,407.00838755114,407.00838755114,407.00838755114,407.00838755114,407.00838755114,407.00838755114,407.00838755114,407.00838755114,407.00838755114,407.00838755114,407.00838755114,407.00838755114,407.00838755114,407.00838755114,407.00838755114,407.00838755114,407.00838755114,407.00838755114,407.00838755114,407.00838755114,407.00838755114,407.00838755114,407.00838755114,407.00838755114,407.00838755114,407.00838755114,407.00838755114,407.00838755114,407.00838755114,407.00838755114,407.00838755114,407.00838755114,407.00838755114,407.00838755114,407.00838755114,407.00838755114,407.00838755114,407.00838755114,407.00838755114,407.00838755114,407.00838755114,407.00838755114,407.00838755114,407.00838755114,219.24222094846,817.23712382489,-3.5585353495629,712.35923897193,-3.5712786697369,0
0.00077343749999998,4800062071.8885,6.5884085996666e-05,0.00022921218172051,0.00010142439272118,1.073157975592,0,0,0,0,0,0,0,0,0,0,0,0,0,0,0,0,0,0,0,0,0,0,0,0,0,0,0,0,0,0,0,0,0,0,0,0,0,0,0,0,0,0,0,0,0,0,0,0,-0.93419403991818,0.4120487394946,-0.31436391241663,5.1378665555593,2.7938680157167,0.96045419335031,-2.7556898662839,1.4397022555055,2.5920877813326,-0.36643066059656,1.8160016200778,-5.2746959463662,1.703196906649,-1.0572005442618,1.9129798333962,-3.4930042444958,1.4468035326303,4.1889775596488,-1.004882112473,-4.4286193071015,1.8905697094482,2.1903768794579,0.030540737765313,-4.6256110433482,3.1901619946825,-2.9601349761062,1.2076256400991,0.96003250355727,-1.2072211967253,0.87133710190407,1.0753903517999,-0.034313454854995,0.78923221488493,-3.5110127097954,-1.3239993284711,-3.0997780379307,5.3555773019725,-2.0765107327192,3.0705246755078,-0.35622265889233,-1.1845675089778,-6.2370879593407,0.98892107564455,-1.9137978110977,-3.4356007832753,1.8418179409989,3.0321430246716,-2.7749625316852,407.44532692835,407.44532692835,407.44532692835,407.44532692835,407.44532692835,407.44532692835,407.44532692835,407.44532692835,407.44532692835,407.44532692835,407.44532692835,407.44532692835,407.44532692835,407.44532692835,407.44532692835,407.44532692835,407.44532692835,407.44532692835,407.44532692835,407.44532692835,407.44532692835,407.44532692835,407.44532692835,407.44532692835,407.44532692835,407.44532692835,407.44532692835,407.44532692835,407.44532692835,407.44532692835,407.44532692835,407.44532692835,407.44532692835,407.44532692835,407.44532692835,407.44532692835,407.44532692835,407.44532692835,407.44532692835,407.44532692835,407.44532692835,407.44532692835,407.44532692835,407.44532692835,407.44532692835,407.44532692835,407.44532692835,407.44532692835,219.21536614275,818.13267699958,-3.5685023866259,713.12110799343,-3.5812386401848,0
0.00077468749999998,4813293099.5584,6.5990833370688e-05,0.00022958269397338,0.00010159294829348,1.0732766554315,0,0,0,0,0,0,0,0,0,0,0,0,0,0,0,0,0,0,0,0,0,0,0,0,0,0,0,0,0,0,0,0,0,0,0,0,0,0,0,0,0,0,0,0,0,0,0,0,-0.93401565731304,0.4132942707116,-0.31495907534187,5.1376316211982,2.7933517150587,0.96011176081543,-2.754555126197,1.439244288509,2.5915501595445,-0.36613168718213,1.8156655142789,-5.2740719038675,1.7037159823937,-1.0564343855071,1.9131473665745,-3.4906693508752,1.4452129818082,4.1880428007026,-1.0046392561763,-4.4285008813575,1.8903716923816,2.1911342144518,0.030501850458692,-4.6273598209152,3.1900034177458,-2.9614829031217,1.2075978739506,0.95962036757787,-1.2060013594551,0.87058282816292,1.0745843665381,-0.033396132089674,0.78919152918756,-3.5094819769205,-1.3230046687588,-3.0989326571418,5.3552088198498,-2.0747466408779,3.0701680113646,-0.35615940217145,-1.1842376098111,-6.2349782576848,0.98853361247074,-1.9133930716351,-3.4356827659301,1.8432822617023,3.0312894968779,-2.7727888894542,407.8821716754,407.8821716754,407.8821716754,407.8821716754,407.8821716754,407.8821716754,407.8821716754,407.8821716754,407.8821716754,407.8821716754,407.8821716754,407.8821716754,407.8821716754,407.8821716754,407.8821716754,407.8821716754,407.8821716754,407.8821716754,407.8821716754,407.8821716754,407.8821716754,407.8821716754,407.8821716754,407.8821716754,407.8821716754,407.8821716754,407.8821716754,407.8821716754,407.8821716754,407.8821716754,407.8821716754,407.8821716754,407.8821716754,407.8821716754,407.8821716754,407.8821716754,407.8821716754,407.8821716754,407.8821716754,407.8821716754,407.8821716754,407.8821716754,407.8821716754,407.8821716754,407.8821716754,407.8821716754,407.8821716754,407.8821716754,219.18851515149,819.02804539843,-3.5784815636113,713.88278790949,-3.5912106419272,0
0.00077593749999998,4826539432.1044,6.6097586868378e-05,0.00022995320629066,0.00010176152392095,1.0733953317763,0,0,0,0,0,0,0,0,0,0,0,0,0,0,0,0,0,0,0,0,0,0,0,0,0,0,0,0,0,0,0,0,0,0,0,0,0,0,0,0,0,0,0,0,0,0,0,0,-0.93383740080547,0.41453802235401,-0.31555469000572,5.1373966943076,2.7928354672138,0.95976942579114,-2.7534213268959,1.4387863141298,2.5910122069631,-0.36583321803931,1.8153291578707,-5.2734470815605,1.7042341292147,-1.0556696830466,1.9133143535008,-3.4883350313214,1.4436227224252,4.1871081640282,-1.0043953442512,-4.4283826515483,1.8901735091625,2.191890369408,0.030462053050432,-4.6291082495318,3.1898446953607,-2.9628284126589,1.2075702332857,0.95920746967366,-1.2047830190572,0.8698287232915,1.0737788339991,-0.032478370212118,0.7891509698257,-3.5079524075586,-1.3220101143685,-3.0980868047946,5.3548395157196,-2.0729833832559,3.0698107459449,-0.35609714658599,-1.1839072814756,-6.2328676829039,0.98814473772476,-1.912987364365,-3.4357640764085,1.844746904934,3.0304359621823,-2.7706159365023,408.3189218071,408.3189218071,408.3189218071,408.3189218071,408.3189218071,408.3189218071,408.3189218071,408.3189218071,408.3189218071,408.3189218071,408.3189218071,408.3189218071,408.3189218071,408.3189218071,408.3189218071,408.3189218071,408.3189218071,408.3189218071,408.3189218071,408.3189218071,408.3189218071,408.3189218071,408.3189218071,408.3189218071,408.3189218071,408.3189218071,408.3189218071,408.3189218071,408.3189218071,408.3189218071,408.3189218071,408.3189218071,408.3189218071,408.3189218071,408.3189218071,408.3189218071,408.3189218071,408.3189218071,408.3189218071,408.3189218071,408.3189218071,408.3189218071,408.3189218071,408.3189218071,408.3189218071,408.3189218071,408.3189218071,408.3189218071,219.1616680165,819.92322914242,-3.5884728751735,714.64427880947,-3.6011946694109,0
0.00077718749999998,4839801057.3732,6.6204346176013e-05,0.00023032371867277,0.00010193011920625,1.0735140046269,0,0,0,0,0,0,0,0,0,0,0,0,0,0,0,0,0,0,0,0,0,0,0,0,0,0,0,0,0,0,0,0,0,0,0,0,0,0,0,0,0,0,0,0,0,0,0,0,-0.93365927515444,0.41577997563241,-0.31615074955251,5.137161780141,2.7923192720244,0.95942718661522,-2.7522884654064,1.4383283349934,2.5904739252692,-0.3655352605114,1.8149925547111,-5.2728214841314,1.7047513398058,-1.054906438215,1.9134807945582,-3.4860012881368,1.4420327597145,4.1861736500394,-1.0041503785751,-4.4282646134321,1.8899751612729,2.1926453464521,0.030421339509638,-4.6308563192529,3.1896858279798,-2.9641714995103,1.2075427175066,0.95879380911054,-1.2035661734222,0.86907479281512,1.0729737533147,-0.031560177519068,0.78911053660747,-3.5064240085549,-1.3210156638472,-3.0972404791286,5.3544693870308,-2.0712209612157,3.0694528817421,-0.35603589569425,-1.1835765205001,-6.2307562354005,0.98775445196971,-1.9125806827427,-3.4358447058262,1.8462118676074,3.0295824188498,-2.76844367143,408.75557733834,408.75557733834,408.75557733834,408.75557733834,408.75557733834,408.75557733834,408.75557733834,408.75557733834,408.75557733834,408.75557733834,408.75557733834,408.75557733834,408.75557733834,408.75557733834,408.75557733834,408.75557733834,408.75557733834,408.75557733834,408.75557733834,408.75557733834,408.75557733834,408.75557733834,408.75557733834,408.75557733834,408.75557733834,408.75557733834,408.75557733834,408.75557733834,408.75557733834,408.75557733834,408.75557733834,408.75557733834,408.75557733834,408.75557733834,408.75557733834,408.75557733834,408.75557733834,408.75557733834,408.75557733834,408.75557733834,408.75557733834,408.75557733834,408.75557733834,408.75557733834,408.75557733834,408.75557733834,408.75557733834,408.75557733834,219.13482477988,820.8182283526,-3.5984763159276,715.40558078268,-3.6111907170719,0
0.00077843749999998,4853077963.2049,6.6311111125029e-05,0.00023069423112015,0.00010209873392482,1.0736326739838,0,0,0,0,0,0,0,0,0,0,0,0,0,0,0,0,0,0,0,0,0,0,0,0,0,0,0,0,0,0,0,0,0,0,0,0,0,0,0,0,0,0,0,0,0,0,0,0,-0.93348128511062,0.4170201118859,-0.31674724714404,5.1369268839144,2.7918031293336,0.95908504160702,-2.751156538695,1.4378703536996,2.5899353161732,-0.36523782194372,1.8146557086852,-5.2721951161209,1.7052676070238,-1.0541446521849,1.9136466900654,-3.4836681235411,1.4404430988267,4.1852392591811,-1.0039043610161,-4.4281467627389,1.8897766501314,2.1933991477437,0.030379703806082,-4.6326040199642,3.1895268160331,-2.9655121583613,1.2075153259932,0.95837938513124,-1.2023508203454,0.86832104227941,1.0721691236307,-0.030641562381433,0.78907022943234,-3.5048967866908,-1.3200213157287,-3.0963936782896,5.3540984311309,-2.0694593760198,3.0690944212081,-0.35597565289806,-1.183245323514,-6.2286439155326,0.987362755768,-1.9121730201988,-3.4359246451759,1.8476771467133,3.0287288651498,-2.7662720927219,409.19213828414,409.19213828414,409.19213828414,409.19213828414,409.19213828414,409.19213828414,409.19213828414,409.19213828414,409.19213828414,409.19213828414,409.19213828414,409.19213828414,409.19213828414,409.19213828414,409.19213828414,409.19213828414,409.19213828414,409.19213828414,409.19213828414,409.19213828414,409.19213828414,409.19213828414,409.19213828414,409.19213828414,409.19213828414,409.19213828414,409.19213828414,409.19213828414,409.19213828414,409.19213828414,409.19213828414,409.19213828414,409.19213828414,409.19213828414,409.19213828414,409.19213828414,409.19213828414,409.19213828414,409.19213828414,409.19213828414,409.19213828414,409.19213828414,409.19213828414,409.19213828414,409.19213828414,409.19213828414,409.19213828414,409.19213828414,219.10798548396,821.71304315012,-3.6084918805185,716.16669391833,-3.6211987793573,0
0.00077968749999998,4866370137.4339,6.641788217065e-05,0.00023106474363322,0.00010226736859492,1.0737513398475,0,0,0,0,0,0,0,0,0,0,0,0,0,0,0,0,0,0,0,0,0,0,0,0,0,0,0,0,0,0,0,0,0,0,0,0,0,0,0,0,0,0,0,0,0,0,0,0,-0.93330343541625,0.4182584125919,-0.31734417595188,5.1366920108051,2.7912870389856,0.95874298905826,-2.7500255436719,1.4374123728282,2.5893963814089,-0.36494090967885,1.8143186237015,-5.2715679819185,1.7057829238942,-1.0533843259826,1.9138120402736,-3.4813355396535,1.4388537448257,4.184304991929,-1.0036572934411,-4.4280290951765,1.889577977102,2.1941517754746,0.03033713991172,-4.6343513413703,3.1893676599239,-2.9668503837905,1.2074880581023,0.95796419694848,-1.2011369575285,0.86756747725638,1.071364944103,-0.02972253323415,0.7890300482907,-3.5033707486785,-1.3190270685378,-3.0955464003502,5.3537266452618,-2.0676986288252,3.0687353667446,-0.35591642145093,-1.1829136872524,-6.226530723582,0.98696964968704,-1.9117643701504,-3.4360038853183,1.8491427393198,3.0278752993552,-2.7641011987477,409.62860465958,409.62860465958,409.62860465958,409.62860465958,409.62860465958,409.62860465958,409.62860465958,409.62860465958,409.62860465958,409.62860465958,409.62860465958,409.62860465958,409.62860465958,409.62860465958,409.62860465958,409.62860465958,409.62860465958,409.62860465958,409.62860465958,409.62860465958,409.62860465958,409.62860465958,409.62860465958,409.62860465958,409.62860465958,409.62860465958,409.62860465958,409.62860465958,409.62860465958,409.62860465958,409.62860465958,409.62860465958,409.62860465958,409.62860465958,409.62860465958,409.62860465958,409.62860465958,409.62860465958,409.62860465958,409.62860465958,409.62860465958,409.62860465958,409.62860465958,409.62860465958,409.62860465958,409.62860465958,409.62860465958,409.62860465958,219.08115017134,822.60767365616,-3.6185195636109,716.92761830557,-3.6312188506845,0
0.00078093749999998,4879677567.8881,6.6524659164036e-05,0.00023143525621242,0.00010243602301466,1.0738700022185,0,0,0,0,0,0,0,0,0,0,0,0,0,0,0,0,0,0,0,0,0,0,0,0,0,0,0,0,0,0,0,0,0,0,0,0,0,0,0,0,0,0,0,0,0,0,0,0,-0.93312573080166,0.41949485936398,-0.31794152915703,5.1364571659369,2.7907710008224,0.95840102724151,-2.7488954771605,1.4369543949359,2.5888571227345,-0.36464453105331,1.813981303688,-5.2709400857712,1.7062972836074,-1.0526254604549,1.9139768453609,-3.4790035385195,1.4372647026857,4.183370848782,-1.0034091777057,-4.4279116063945,1.8893791434961,2.1949032318705,0.030293641799466,-4.6360982730581,3.1892083600266,-2.9681861702809,1.2074609131687,0.95754824374952,-1.1999245825602,0.86681410333791,1.0705612138968,-0.028803098562987,0.78898999325992,-3.501845901163,-1.3180329207817,-3.0946986432694,5.3533540265439,-2.0659387206855,3.0683757207061,-0.35585820444227,-1.1825816085552,-6.2244166598187,0.98657513429329,-1.9113547259868,-3.4360824169756,1.8506086425714,3.0270217197342,-2.7619309877576,410.06497647987,410.06497647987,410.06497647987,410.06497647987,410.06497647987,410.06497647987,410.06497647987,410.06497647987,410.06497647987,410.06497647987,410.06497647987,410.06497647987,410.06497647987,410.06497647987,410.06497647987,410.06497647987,410.06497647987,410.06497647987,410.06497647987,410.06497647987,410.06497647987,410.06497647987,410.06497647987,410.06497647987,410.06497647987,410.06497647987,410.06497647987,410.06497647987,410.06497647987,410.06497647987,410.06497647987,410.06497647987,410.06497647987,410.06497647987,410.06497647987,410.06497647987,410.06497647987,410.06497647987,410.06497647987,410.06497647987,410.06497647987,410.06497647987,410.06497647987,410.06497647987,410.06497647987,410.06497647987,410.06497647987,410.06497647987,219.05431888489,823.50211999195,-3.628559359835,717.68835403345,-3.6412509254877,0
0.00078218749999998,4893000242.3888,6.6631441807832e-05,0.0002318057688582,0.00010260469680601,1.0739886610973,0,0,0,0,0,0,0,0,0,0,0,0,0,0,0,0,0,0,0,0,0,0,0,0,0,0,0,0,0,0,0,0,0,0,0,0,0,0,0,0,0,0,0,0,0,0,0,0,-0.93294817598457,0.42072943395903,-0.31853929994439,5.1362223543893,2.7902550146845,0.95805915441179,-2.7477663359299,1.4364964225599,2.588317541937,-0.36434869339354,1.8136437525987,-5.2703114317755,1.7068106795208,-1.0518680563104,1.9141411054357,-3.4766721220808,1.4356759773054,4.1824368302642,-1.0031600156572,-4.427794292023,1.8891801505776,2.1956535191902,0.030249203446404,-4.6378448044491,3.1890489166942,-2.9695195122142,1.2074338905054,0.95713152469803,-1.1987136929376,0.86606092613602,1.0697579321939,-0.027883266898465,0.78895006450788,-3.5003222507147,-1.3170388709561,-3.0938504049473,5.3529805719868,-2.0641796525478,3.0680154854082,-0.35580100481704,-1.1822490843673,-6.2223017244294,0.9861792101653,-1.9109440810999,-3.4361602307431,1.8520748536911,3.0261681245587,-2.759761457888,410.5012537603,410.5012537603,410.5012537603,410.5012537603,410.5012537603,410.5012537603,410.5012537603,410.5012537603,410.5012537603,410.5012537603,410.5012537603,410.5012537603,410.5012537603,410.5012537603,410.5012537603,410.5012537603,410.5012537603,410.5012537603,410.5012537603,410.5012537603,410.5012537603,410.5012537603,410.5012537603,410.5012537603,410.5012537603,410.5012537603,410.5012537603,410.5012537603,410.5012537603,410.5012537603,410.5012537603,410.5012537603,410.5012537603,410.5012537603,410.5012537603,410.5012537603,410.5012537603,410.5012537603,410.5012537603,410.5012537603,410.5012537603,410.5012537603,410.5012537603,410.5012537603,410.5012537603,410.5012537603,410.5012537603,410.5012537603,219.02749166768,824.39638227878,-3.6386112638355,718.44890119094,-3.6512949982018,0
0.00078343749999998,4906338148.751,6.6738229754775e-05,0.00023217628157102,0.00010277338953088,1.0741073164843,0,0,0,0,0,0,0,0,0,0,0,0,0,0,0,0,0,0,0,0,0,0,0,0,0,0,0,0,0,0,0,0,0,0,0,0,0,0,0,0,0,0,0,0,0,0,0,0,-0.93277077567022,0.42196211828122,-0.31913748148852,5.1359875811923,2.7897390804007,0.9577173687928,-2.746638116737,1.436038458217,2.5877776408458,-0.36405340401033,1.8133059744105,-5.269682023859,1.7073231051527,-1.0511121141263,1.9143048205519,-3.4743412921368,1.4340875735256,4.1815029369055,-1.0029098091422,-4.4276771477197,1.8889809995677,2.1964026397396,0.030203818832206,-4.6395909247312,3.1888893302534,-2.970850403869,1.2074069893987,0.95671403892392,-1.1975042860901,0.86530795128045,1.0689550982018,-0.026963046807754,0.78891026228908,-3.4987998038158,-1.3160449175458,-3.093001683213,5.3526062785189,-2.0624214252469,3.0676546631373,-0.35574482538757,-1.1819161117334,-6.220185917419,0.98578187790691,-1.9105324288733,-3.4362373171059,1.853541369981,3.0253145120817,-2.7575926071492,410.93743651624,410.93743651624,410.93743651624,410.93743651624,410.93743651624,410.93743651624,410.93743651624,410.93743651624,410.93743651624,410.93743651624,410.93743651624,410.93743651624,410.93743651624,410.93743651624,410.93743651624,410.93743651624,410.93743651624,410.93743651624,410.93743651624,410.93743651624,410.93743651624,410.93743651624,410.93743651624,410.93743651624,410.93743651624,410.93743651624,410.93743651624,410.93743651624,410.93743651624,410.93743651624,410.93743651624,410.93743651624,410.93743651624,410.93743651624,410.93743651624,410.93743651624,410.93743651624,410.93743651624,410.93743651624,410.93743651624,410.93743651624,410.93743651624,410.93743651624,410.93743651624,410.93743651624,410.93743651624,410.93743651624,410.93743651624,219.00066856315,825.29046063789,-3.6486752701682,719.20925986695,-3.6613510632475,0
0.00078468749999998,4919691274.7834,6.6845023499007e-05,0.00023254679435134,0.00010294210175255,1.0742259683801,0,0,0,0,0,0,0,0,0,0,0,0,0,0,0,0,0,0,0,0,0,0,0,0,0,0,0,0,0,0,0,0,0,0,0,0,0,0,0,0,0,0,0,0,0,0,0,0,-0.93259353453898,0.42319289437155,-0.31973606696199,5.1357528512901,2.789223197805,0.95737566860602,-2.7455108160746,1.435580504399,2.5872374212473,-0.36375867020062,1.8129679730917,-5.2690518658467,1.7078345541983,-1.0503576342427,1.9144679906459,-3.4720110505519,1.4324994960297,4.1805691692622,-1.0026585599847,-4.4275601688869,1.8887816916431,2.1971505958102,0.030157481937747,-4.6413366233208,3.1887296009655,-2.9721788394586,1.2073802091251,0.95629578554244,-1.1962963592232,0.86455518441367,1.068152711083,-0.026042446861313,0.78887058693591,-3.4972785668929,-1.3150510589939,-3.0921524757549,5.352231142862,-2.0606640395173,3.0672932560761,-0.35568966875864,-1.1815826878239,-6.2180692391582,0.98538313808404,-1.9101197626647,-3.4363136663611,1.8550081888037,3.0244608805565,-2.7554244334528,411.3735247632,411.3735247632,411.3735247632,411.3735247632,411.3735247632,411.3735247632,411.3735247632,411.3735247632,411.3735247632,411.3735247632,411.3735247632,411.3735247632,411.3735247632,411.3735247632,411.3735247632,411.3735247632,411.3735247632,411.3735247632,411.3735247632,411.3735247632,411.3735247632,411.3735247632,411.3735247632,411.3735247632,411.3735247632,411.3735247632,411.3735247632,411.3735247632,411.3735247632,411.3735247632,411.3735247632,411.3735247632,411.3735247632,411.3735247632,411.3735247632,411.3735247632,411.3735247632,411.3735247632,411.3735247632,411.3735247632,411.3735247632,411.3735247632,411.3735247632,411.3735247632,411.3735247632,411.3735247632,411.3735247632,411.3735247632,218.97384961475,826.18435519061,-3.6587513736316,719.96943015018,-3.6714191150641,0
0.00078593749999998,4933059608.2876,6.6951822775586e-05,0.00023291730719962,0.00010311083313111,1.0743446167853,0,0,0,0,0,0,0,0,0,0,0,0,0,0,0,0,0,0,0,0,0,0,0,0,0,0,0,0,0,0,0,0,0,0,0,0,0,0,0,0,0,0,0,0,0,0,0,0,-0.9324164572597,0.42442174443328,-0.32033504952879,5.1355181695816,2.7887073667118,0.95703405204083,-2.7443844305398,1.435122563583,2.586696884998,-0.36346449923543,1.8126297526531,-5.2684209613642,1.7083450205093,-1.0496046169334,1.9146306156248,-3.4696813989334,1.4309117494965,4.1796355278864,-1.002406270011,-4.4274433510805,1.8885822279469,2.197897389756,0.030110186752083,-4.6430818891815,3.1885697290972,-2.9735048130791,1.2073535489291,0.95587676363448,-1.1950899095495,0.86380263119549,1.0673507700543,-0.025121475660165,0.78883103887268,-3.4957585462643,-1.3140572937465,-3.0913027802526,5.3518551617093,-2.0589074959712,3.0669312664205,-0.35563553744368,-1.1812488099003,-6.2159516895431,0.98498299132618,-1.9097060758598,-3.4363892687358,1.8564753076096,3.0236072282175,-2.7532569345804,411.80951851674,411.80951851674,411.80951851674,411.80951851674,411.80951851674,411.80951851674,411.80951851674,411.80951851674,411.80951851674,411.80951851674,411.80951851674,411.80951851674,411.80951851674,411.80951851674,411.80951851674,411.80951851674,411.80951851674,411.80951851674,411.80951851674,411.80951851674,411.80951851674,411.80951851674,411.80951851674,411.80951851674,411.80951851674,411.80951851674,411.80951851674,411.80951851674,411.80951851674,411.80951851674,411.80951851674,411.80951851674,411.80951851674,411.80951851674,411.80951851674,411.80951851674,411.80951851674,411.80951851674,411.80951851674,411.80951851674,411.80951851674,411.80951851674,411.80951851674,411.80951851674,411.80951851674,411.80951851674,411.80951851674,411.80951851674,218.94703486656,827.07806605814,-3.6688395687777,720.72941212933,-3.6814991480467,0
0.00078718749999998,4946443137.0585,6.7058627886064e-05,0.00023328782011636,0.00010327958400027,1.0744632617003,0,0,0,0,0,0,0,0,0,0,0,0,0,0,0,0,0,0,0,0,0,0,0,0,0,0,0,0,0,0,0,0,0,0,0,0,0,0,0,0,0,0,0,0,0,0,0,0,-0.93223954847639,0.42564865081318,-0.32093442233156,5.1352835408841,2.7881915869272,0.95669251727609,-2.7432589565367,1.4346646382218,2.5861560339539,-0.363170898364,1.8122913171005,-5.2677893139106,1.7088544981051,-1.0488530622756,1.9147926952922,-3.4673523388902,1.4293243384845,4.1787020133348,-1.00215294103,-4.4273266896822,1.8883826095871,2.1986430239464,0.030061927265698,-4.6448267114033,3.1884097148532,-2.9748283187532,1.2073270080376,0.9554569722603,-1.1938849341034,0.86305029729521,1.0665492743221,-0.024200141795883,0.78879161859992,-3.4942397481746,-1.3130636202148,-3.0904525942766,5.3514783315711,-2.0571517951123,3.0665686962869,-0.35558243377686,-1.1809144753407,-6.2138332686806,0.98458143824993,-1.9092913618352,-3.4364641142855,1.8579427239113,3.0227535532816,-2.751090108202,412.24541779257,412.24541779257,412.24541779257,412.24541779257,412.24541779257,412.24541779257,412.24541779257,412.24541779257,412.24541779257,412.24541779257,412.24541779257,412.24541779257,412.24541779257,412.24541779257,412.24541779257,412.24541779257,412.24541779257,412.24541779257,412.24541779257,412.24541779257,412.24541779257,412.24541779257,412.24541779257,412.24541779257,412.24541779257,412.24541779257,412.24541779257,412.24541779257,412.24541779257,412.24541779257,412.24541779257,412.24541779257,412.24541779257,412.24541779257,412.24541779257,412.24541779257,412.24541779257,412.24541779257,412.24541779257,412.24541779257,412.24541779257,412.24541779257,412.24541779257,412.24541779257,412.24541779257,412.24541779257,412.24541779257,412.24541779257,218.92022436252,827.97159336172,-3.6789398503083,721.48920589291,-3.6915911566036,0
0.00078843749999998,4959841848.8845,6.7165438381757e-05,0.00023365833310204,0.0001034483538006,1.0745819031257,0,0,0,0,0,0,0,0,0,0,0,0,0,0,0,0,0,0,0,0,0,0,0,0,0,0,0,0,0,0,0,0,0,0,0,0,0,0,0,0,0,0,0,0,0,0,0,0,-0.93206281281553,0.42687359601863,-0.32153417848942,5.1350489699623,2.7876758582421,0.95635106246362,-2.7421343905143,1.4342067307545,2.5856148699989,-0.36287787480431,1.8119526704675,-5.2671569268117,1.7093629811643,-1.0481029702519,1.9149542294033,-3.4650238718359,1.4277372675155,4.1777686261593,-1.0018985748482,-4.4272101801667,1.888182837646,2.1993875007902,0.030012697477152,-4.6465710787768,3.1882495584228,-2.9761493504123,1.2073005856533,0.9550364104485,-1.1926814298865,0.86229818839598,1.0657482231097,-0.023278453863571,0.78875232670443,-3.4927221787663,-1.3120700368024,-3.0896019153651,5.3511006488967,-2.0553969373256,3.0662055477783,-0.35553035998489,-1.1805796816231,-6.2117139763652,0.98417847951745,-1.9088756139913,-3.4365381929813,1.8594104353016,3.0218998539472,-2.7489239518613,412.68122260645,412.68122260645,412.68122260645,412.68122260645,412.68122260645,412.68122260645,412.68122260645,412.68122260645,412.68122260645,412.68122260645,412.68122260645,412.68122260645,412.68122260645,412.68122260645,412.68122260645,412.68122260645,412.68122260645,412.68122260645,412.68122260645,412.68122260645,412.68122260645,412.68122260645,412.68122260645,412.68122260645,412.68122260645,412.68122260645,412.68122260645,412.68122260645,412.68122260645,412.68122260645,412.68122260645,412.68122260645,412.68122260645,412.68122260645,412.68122260645,412.68122260645,412.68122260645,412.68122260645,412.68122260645,412.68122260645,412.68122260645,412.68122260645,412.68122260645,412.68122260645,412.68122260645,412.68122260645,412.68122260645,412.68122260645,218.89341814699,828.86493722249,-3.6890522127779,722.24881152936,-3.7016951351533,0
0.00078968749999998,4973255731.5469,6.7272254474432e-05,0.00023402884615716,0.00010361714275916,1.074700541062,0,0,0,0,0,0,0,0,0,0,0,0,0,0,0,0,0,0,0,0,0,0,0,0,0,0,0,0,0,0,0,0,0,0,0,0,0,0,0,0,0,0,0,0,0,0,0,0,-0.93188625487396,0.42809656270695,-0.32213431109381,5.1348144614896,2.7871601804354,0.95600968574629,-2.7410107287321,1.4337488435979,2.5850733950161,-0.36258543574453,1.8116138167833,-5.2665238032576,1.7098704640293,-1.0473543406594,1.9151152176168,-3.4626959991743,1.4261505409987,4.1768353669085,-1.0016431732569,-4.4270938178361,1.8879829131794,2.2001308227079,0.029962491388474,-4.6483149802185,3.1880892599368,-2.9774679019135,1.2072742809615,0.95461507720851,-1.1914793937235,0.86154631018789,1.0649476156315,-0.022356420431046,0.78871316384763,-3.4912058440981,-1.3110765418749,-3.0887507409623,5.3507221099592,-2.0536429228831,3.0658418229216,-0.3554793181211,-1.1802444263369,-6.2095938125778,0.98377411578662,-1.9084588257291,-3.4366114946255,1.8608784394341,3.0210461283883,-2.7467584629973,413.11693297428,413.11693297428,413.11693297428,413.11693297428,413.11693297428,413.11693297428,413.11693297428,413.11693297428,413.11693297428,413.11693297428,413.11693297428,413.11693297428,413.11693297428,413.11693297428,413.11693297428,413.11693297428,413.11693297428,413.11693297428,413.11693297428,413.11693297428,413.11693297428,413.11693297428,413.11693297428,413.11693297428,413.11693297428,413.11693297428,413.11693297428,413.11693297428,413.11693297428,413.11693297428,413.11693297428,413.11693297428,413.11693297428,413.11693297428,413.11693297428,413.11693297428,413.11693297428,413.11693297428,413.11693297428,413.11693297428,413.11693297428,413.11693297428,413.11693297428,413.11693297428,413.11693297428,413.11693297428,413.11693297428,413.11693297428,218.86661626443,829.75809776156,-3.6991766508611,723.00822912696,-3.7118110780827,0
0.00079093749999998,4986684772.8202,6.7379075808854e-05,0.00023439935928222,0.00010378595042696,1.0748191755097,0,0,0,0,0,0,0,0,0,0,0,0,0,0,0,0,0,0,0,0,0,0,0,0,0,0,0,0,0,0,0,0,0,0,0,0,0,0,0,0,0,0,0,0,0,0,0,0,-0.93170987922352,0.42931753369368,-0.32273481320956,5.1345800200597,2.78664455327,0.95566838524782,-2.7398879673824,1.4332909791494,2.5845316109028,-0.36229358833795,1.8112747600856,-5.2658899462825,1.710376941204,-1.0466071731594,1.9152756595159,-3.4603687221922,1.4245641632778,4.1759022361192,-1.0013867380382,-4.4269775979502,1.8877828372186,2.2008729921484,0.029911303008238,-4.6500584045553,3.1879288194884,-2.9787839670322,1.2072480931271,0.95419297152244,-1.1902788223429,0.8607946683679,1.0641474511075,-0.021434050042079,0.78867413076864,-3.4896907501316,-1.3100831337763,-3.0878990684513,5.3503427109158,-2.0518897519376,3.0654775237098,-0.35542931010358,-1.179908707181,-6.2074727772098,0.98336834774206,-1.9080409904699,-3.4366840089038,1.8623467340365,3.0201923747547,-2.7445936389294,413.55254891204,413.55254891204,413.55254891204,413.55254891204,413.55254891204,413.55254891204,413.55254891204,413.55254891204,413.55254891204,413.55254891204,413.55254891204,413.55254891204,413.55254891204,413.55254891204,413.55254891204,413.55254891204,413.55254891204,413.55254891204,413.55254891204,413.55254891204,413.55254891204,413.55254891204,413.55254891204,413.55254891204,413.55254891204,413.55254891204,413.55254891204,413.55254891204,413.55254891204,413.55254891204,413.55254891204,413.55254891204,413.55254891204,413.55254891204,413.55254891204,413.55254891204,413.55254891204,413.55254891204,413.55254891204,413.55254891204,413.55254891204,413.55254891204,413.55254891204,413.55254891204,413.55254891204,413.55254891204,413.55254891204,413.55254891204,218.83981875968,830.65107509993,-3.709313159184,723.76745877387,-3.7219389798099,0
0.00079218749999998,5000128960.4717,6.7485901918153e-05,0.00023476987247773,0.00010395477622222,1.0749378064695,0,0,0,0,0,0,0,0,0,0,0,0,0,0,0,0,0,0,0,0,0,0,0,0,0,0,0,0,0,0,0,0,0,0,0,0,0,0,0,0,0,0,0,0,0,0,0,0,-0.93153369040765,0.43053649195299,-0.32333567786116,5.1343456501814,2.786128976488,0.95532715907662,-2.7387661025702,1.4328331397879,2.5839895195625,-0.36200233969932,1.810935504418,-5.2652553587636,1.7108824073508,-1.0458614672784,1.9154355546109,-3.4580420420725,1.4229781386273,4.1749692343109,-1.0011292709638,-4.4268615157116,1.8875826107773,2.2016140115774,0.029859126351992,-4.6518013405632,3.1877682371258,-2.9800975394655,1.2072220212938,0.95377009234843,-1.1890797123589,0.86004326863719,1.0633477287577,-0.020511351205435,0.78863522828338,-3.4881769027271,-1.3090898108212,-3.0870468951579,5.3499624478002,-2.0501374245198,3.0651126520917,-0.35538033771496,-1.179572521958,-6.2053508700984,0.98296117609616,-1.9076221016555,-3.4367557253764,1.8638153169023,3.0193385911661,-2.7424294768652,413.9880704358,413.9880704358,413.9880704358,413.9880704358,413.9880704358,413.9880704358,413.9880704358,413.9880704358,413.9880704358,413.9880704358,413.9880704358,413.9880704358,413.9880704358,413.9880704358,413.9880704358,413.9880704358,413.9880704358,413.9880704358,413.9880704358,413.9880704358,413.9880704358,413.9880704358,413.9880704358,413.9880704358,413.9880704358,413.9880704358,413.9880704358,413.9880704358,413.9880704358,413.9880704358,413.9880704358,413.9880704358,413.9880704358,413.9880704358,413.9880704358,413.9880704358,413.9880704358,413.9880704358,413.9880704358,413.9880704358,413.9880704358,413.9880704358,413.9880704358,413.9880704358,413.9880704358,413.9880704358,413.9880704358,413.9880704358,218.81302567781,831.54386935851,-3.7194617323741,724.52650055809,-3.7320788347409,0
0.00079343749999998,5013588282.2619,6.7592733099714e-05,0.00023514038574423,0.00010412362047273,1.0750564339418,0,0,0,0,0,0,0,0,0,0,0,0,0,0,0,0,0,0,0,0,0,0,0,0,0,0,0,0,0,0,0,0,0,0,0,0,0,0,0,0,0,0,0,0,0,0,0,0,-0.93135769293822,0.4317534206165,-0.32393689803611,5.1341113562668,2.7856134498137,0.95498600532727,-2.7376451303021,1.4323753278735,2.5834471229161,-0.36171169690304,1.8105960538248,-5.264620043428,1.7113868572885,-1.0451172224017,1.9155949023272,-3.4557159599042,1.4213924712358,4.1740363619852,-1.0008707737923,-4.4267455662433,1.8873822348524,2.2023538834912,0.029805955442157,-4.6535437769967,3.1876075128494,-2.981408612839,1.2071960645873,0.95334643862142,-1.1878820602713,0.85929211670148,1.0625484478079,-0.019588332387026,0.78859645728072,-3.4866643076452,-1.3080965712953,-3.0861942183549,5.3495813165031,-2.0483859405397,3.0647472099597,-0.35533240259528,-1.1792358685779,-6.2032280910549,0.98255260157564,-1.9072021527596,-3.4368266334665,1.865284185888,3.0184847757124,-2.7402659738951,414.42349756177,414.42349756177,414.42349756177,414.42349756177,414.42349756177,414.42349756177,414.42349756177,414.42349756177,414.42349756177,414.42349756177,414.42349756177,414.42349756177,414.42349756177,414.42349756177,414.42349756177,414.42349756177,414.42349756177,414.42349756177,414.42349756177,414.42349756177,414.42349756177,414.42349756177,414.42349756177,414.42349756177,414.42349756177,414.42349756177,414.42349756177,414.42349756177,414.42349756177,414.42349756177,414.42349756177,414.42349756177,414.42349756177,414.42349756177,414.42349756177,414.42349756177,414.42349756177,414.42349756177,414.42349756177,414.42349756177,414.42349756177,414.42349756177,414.42349756177,414.42349756177,414.42349756177,414.42349756177,414.42349756177,414.42349756177,218.78623706404,832.43648065808,-3.7296223650921,725.28535456748,-3.7422306372561,0
0.00079468749999998,5027062725.944,6.7699569257941e-05,0.00023551089908223,0.00010429248303939,1.0751750579272,0,0,0,0,0,0,0,0,0,0,0,0,0,0,0,0,0,0,0,0,0,0,0,0,0,0,0,0,0,0,0,0,0,0,0,0,0,0,0,0,0,0,0,0,0,0,0,0,-0.93118189129598,0.4329683029769,-0.3245384666755,5.1338771426399,2.7850979729474,0.95464492207718,-2.7365250465036,1.4319175457481,2.5829044228823,-0.36142166697971,1.810256412352,-5.2639840028445,1.7118902859916,-1.0443744377849,1.9157537020192,-3.4533904766701,1.4198071652305,4.1731036196158,-1.000611248275,-4.4266297446115,1.8871817104285,2.2030926103982,0.029751784309042,-4.6552857025871,3.187446646612,-2.9827171807006,1.2071702221126,0.95292200925057,-1.1866858624729,0.85854121826759,1.0617496074774,-0.018665002000828,0.78855781872296,-3.485152970541,-1.3071034134544,-3.0853410352602,5.3491993128005,-2.0466352997829,3.0643811991696,-0.35528550625393,-1.1788987450542,-6.2011044398415,0.98214262494138,-1.9067811372804,-3.4368967224843,1.8667533389175,3.0176309264478,-2.7381031270004,414.85883030622,414.85883030622,414.85883030622,414.85883030622,414.85883030622,414.85883030622,414.85883030622,414.85883030622,414.85883030622,414.85883030622,414.85883030622,414.85883030622,414.85883030622,414.85883030622,414.85883030622,414.85883030622,414.85883030622,414.85883030622,414.85883030622,414.85883030622,414.85883030622,414.85883030622,414.85883030622,414.85883030622,414.85883030622,414.85883030622,414.85883030622,414.85883030622,414.85883030622,414.85883030622,414.85883030622,414.85883030622,414.85883030622,414.85883030622,414.85883030622,414.85883030622,414.85883030622,414.85883030622,414.85883030622,414.85883030622,414.85883030622,414.85883030622,414.85883030622,414.85883030622,414.85883030622,414.85883030622,414.85883030622,414.85883030622,218.75945296382,833.32890911928,-3.7397950519621,726.04402088975,-3.7523943817318,0
0.00079593749999998,5040552279.264,6.7806410471184e-05,0.00023588141249229,0.00010446136398822,1.0752936784263,0,0,0,0,0,0,0,0,0,0,0,0,0,0,0,0,0,0,0,0,0,0,0,0,0,0,0,0,0,0,0,0,0,0,0,0,0,0,0,0,0,0,0,0,0,0,0,0,-0.93100628992734,0.4341811224881,-0.32514037667445,5.1336430135252,2.7845825455671,0.95430390739054,-2.7354058470097,1.4314597957344,2.5823614213889,-0.36113225691324,1.8099165840463,-5.2633472394258,1.7123926885865,-1.0436331125552,1.9159119529606,-3.4510655932501,1.4182222246643,4.1721710076505,-1.0003506961516,-4.4265140458087,1.8869810384794,2.2038301948284,0.029696606990965,-4.657027106051,3.1872856383195,-2.9840232365268,1.2071444929559,0.95249680312261,-1.1854911152486,0.85779057904211,1.0609512069874,-0.017741368402084,0.78851931364365,-3.4836428969607,-1.3061103355241,-3.0844873430483,5.3488164323287,-2.0448855019105,3.0640146215259,-0.35523965006897,-1.1785611495029,-6.1989799161786,0.98173124697966,-1.9063590487561,-3.436965981608,1.8682227739734,3.0167770413901,-2.7359409330496,415.29406868554,415.29406868554,415.29406868554,415.29406868554,415.29406868554,415.29406868554,415.29406868554,415.29406868554,415.29406868554,415.29406868554,415.29406868554,415.29406868554,415.29406868554,415.29406868554,415.29406868554,415.29406868554,415.29406868554,415.29406868554,415.29406868554,415.29406868554,415.29406868554,415.29406868554,415.29406868554,415.29406868554,415.29406868554,415.29406868554,415.29406868554,415.29406868554,415.29406868554,415.29406868554,415.29406868554,415.29406868554,415.29406868554,415.29406868554,415.29406868554,415.29406868554,415.29406868554,415.29406868554,415.29406868554,415.29406868554,415.29406868554,415.29406868554,415.29406868554,415.29406868554,415.29406868554,415.29406868554,415.29406868554,415.29406868554,218.73267342284,834.22115486262,-3.749979787639,726.80249961244,-3.7625700625546,0
0.00079718749999998,5054056929.9608,6.7913256555168e-05,0.00023625192597494,0.00010463026307353,1.0754122954398,0,0,0,0,0,0,0,0,0,0,0,0,0,0,0,0,0,0,0,0,0,0,0,0,0,0,0,0,0,0,0,0,0,0,0,0,0,0,0,0,0,0,0,0,0,0,0,0,-0.93083089324203,0.43539186276409,-0.32574262087455,5.133408973039,2.7840671673261,0.95396295931624,-2.7342875275658,1.4310020801366,2.5818181203704,-0.36084347363821,1.8095765729498,-5.2627097554333,1.7128940603495,-1.0428932457079,1.9160696543506,-3.4487413104242,1.416637653522,4.1712385265054,-1.0000891191517,-4.4263984647533,1.8867802199729,2.2045666393334,0.029640417536116,-4.6587679761113,3.1871244878239,-2.9853267737312,1.2071188761856,0.95207081909904,-1.1842978147759,0.85704020472887,1.0601532455568,-0.016817439878774,0.78848094314493,-3.4821340923418,-1.3051173356957,-3.0836331388429,5.3484326705991,-2.0431365464568,3.0636474787904,-0.35519483528566,-1.1782230801402,-6.1968545197567,0.98131846850615,-1.9059358807616,-3.4370343999001,1.8696924891031,3.0159231185212,-2.7337793887998,415.72921271623,415.72921271623,415.72921271623,415.72921271623,415.72921271623,415.72921271623,415.72921271623,415.72921271623,415.72921271623,415.72921271623,415.72921271623,415.72921271623,415.72921271623,415.72921271623,415.72921271623,415.72921271623,415.72921271623,415.72921271623,415.72921271623,415.72921271623,415.72921271623,415.72921271623,415.72921271623,415.72921271623,415.72921271623,415.72921271623,415.72921271623,415.72921271623,415.72921271623,415.72921271623,415.72921271623,415.72921271623,415.72921271623,415.72921271623,415.72921271623,415.72921271623,415.72921271623,415.72921271623,415.72921271623,415.72921271623,415.72921271623,415.72921271623,415.72921271623,415.72921271623,415.72921271623,415.72921271623,415.72921271623,415.72921271623,218.70589848694,835.11321800839,-3.7601765667457,727.56079082295,-3.7727576740939,0
0.00079843749999998,5067576665.766,6.8020107353708e-05,0.00023662243953075,0.00010479918008209,1.075530908968,0,0,0,0,0,0,0,0,0,0,0,0,0,0,0,0,0,0,0,0,0,0,0,0,0,0,0,0,0,0,0,0,0,0,0,0,0,0,0,0,0,0,0,0,0,0,0,0,-0.93065570561348,0.43660050757983,-0.32634519206563,5.1331750251992,2.7835518378518,0.9536220758906,-2.7331700838313,1.4305444012392,2.5812745217578,-0.36055532403817,1.8092363831008,-5.2620715529707,1.7133943967053,-1.0421548361211,1.9162268053132,-3.4464176288691,1.4150534557161,4.1703061765586,-0.99982651899695,-4.4262829962913,1.8865792558688,2.2053019464762,0.029583210001236,-4.6605083015046,3.1869631949253,-2.9866277856537,1.2070933708523,0.95164405602014,-1.1831059571286,0.85629010102865,1.0593557223965,-0.015893224645409,0.78844270839745,-3.4806265620096,-1.304124412128,-3.0827784197371,5.348048022992,-2.0413884328304,3.0632797726749,-0.35515106302517,-1.177884535281,-6.1947282502325,0.980904290364,-1.905511626919,-3.4371019662975,1.8711624824111,3.0150691557789,-2.7316184909025,416.16426241488,416.16426241488,416.16426241488,416.16426241488,416.16426241488,416.16426241488,416.16426241488,416.16426241488,416.16426241488,416.16426241488,416.16426241488,416.16426241488,416.16426241488,416.16426241488,416.16426241488,416.16426241488,416.16426241488,416.16426241488,416.16426241488,416.16426241488,416.16426241488,416.16426241488,416.16426241488,416.16426241488,416.16426241488,416.16426241488,416.16426241488,416.16426241488,416.16426241488,416.16426241488,416.16426241488,416.16426241488,416.16426241488,416.16426241488,416.16426241488,416.16426241488,416.16426241488,416.16426241488,416.16426241488,416.16426241488,416.16426241488,416.16426241488,416.16426241488,416.16426241488,416.16426241488,416.16426241488,416.16426241488,416.16426241488,218.67912820218,836.00509867675,-3.7703853839264,728.31889460848,-3.7829572107307,0
0.00079968749999998,5081111474.4039,6.8126962917332e-05,0.00023699295316028,0.00010496811504738,1.0756495190117,0,0,0,0,0,0,0,0,0,0,0,0,0,0,0,0,0,0,0,0,0,0,0,0,0,0,0,0,0,0,0,0,0,0,0,0,0,0,0,0,0,0,0,0,0,0,0,0,-0.9304807313732,0.43780704087213,-0.32694808297124,5.1329411739031,2.7830365567447,0.95328125513244,-2.7320535113733,1.4300867613086,2.5807306274833,-0.36026781494306,1.808896018528,-5.2614326339845,1.7138936932222,-1.0414178825457,1.9163834048938,-3.444094549157,1.413469635091,4.1693739581524,-0.99956289740077,-4.4261676351827,1.8863781471274,2.206036118837,0.029524978453399,-4.6622480709853,3.1868017593624,-2.9879262655713,1.2070679759892,0.95121651270048,-1.1819155382756,0.85554027363667,1.0585586367112,-0.014968730836835,0.788404610637,-3.4791203111718,-1.3031315629435,-3.0819231827766,5.3476624847522,-2.0396411603095,3.0629115048403,-0.35510833428001,-1.1775455133371,-6.1926011072285,0.98048871342923,-1.9050862808916,-3.4371686696182,1.8726327520566,3.014215151062,-2.729458235899,416.59921779819,416.59921779819,416.59921779819,416.59921779819,416.59921779819,416.59921779819,416.59921779819,416.59921779819,416.59921779819,416.59921779819,416.59921779819,416.59921779819,416.59921779819,416.59921779819,416.59921779819,416.59921779819,416.59921779819,416.59921779819,416.59921779819,416.59921779819,416.59921779819,416.59921779819,416.59921779819,416.59921779819,416.59921779819,416.59921779819,416.59921779819,416.59921779819,416.59921779819,416.59921779819,416.59921779819,416.59921779819,416.59921779819,416.59921779819,416.59921779819,416.59921779819,416.59921779819,416.59921779819,416.59921779819,416.59921779819,416.59921779819,416.59921779819,416.59921779819,416.59921779819,416.59921779819,416.59921779819,416.59921779819,416.59921779819,218.65236261489,836.8967969876,-3.7806062338026,729.07681105609,-3.7931686668109,0
0.00080093749999998,5094661343.5916,6.8233823149022e-05,0.0002373634668641,0.00010513706782603,1.0757681255715,0,0,0,0,0,0,0,0,0,0,0,0,0,0,0,0,0,0,0,0,0,0,0,0,0,0,0,0,0,0,0,0,0,0,0,0,0,0,0,0,0,0,0,0,0,0,0,0,-0.93030597481356,0.43901144673874,-0.3275512862621,5.1327074229394,2.7825213235772,0.95294049505069,-2.7309378056881,1.4296291625909,2.5801864394814,-0.35998095312643,1.8085554832561,-5.2607930002703,1.714391945612,-1.0406823836169,1.9165394520672,-3.4417720717584,1.4118861954213,4.1684418715843,-0.99929825606858,-4.4260523761222,1.8861768947058,2.2067691590116,0.02946571697047,-4.6639872733386,3.1866401808258,-2.9892222067007,1.2070426906128,0.95078818793393,-1.1807265540979,0.85479072823979,1.0577619877014,-0.014043966500902,0.78836665116519,-3.4776153449217,-1.3021387862318,-3.0810674249793,5.3472760510024,-2.0378947280461,3.0625426769033,-0.35506664992121,-1.1772060128145,-6.1904730903381,0.98007173860575,-1.9046598364012,-3.4372344985678,1.8741032962584,3.0133611022222,-2.7272986202313,417.03407888295,417.03407888295,417.03407888295,417.03407888295,417.03407888295,417.03407888295,417.03407888295,417.03407888295,417.03407888295,417.03407888295,417.03407888295,417.03407888295,417.03407888295,417.03407888295,417.03407888295,417.03407888295,417.03407888295,417.03407888295,417.03407888295,417.03407888295,417.03407888295,417.03407888295,417.03407888295,417.03407888295,417.03407888295,417.03407888295,417.03407888295,417.03407888295,417.03407888295,417.03407888295,417.03407888295,417.03407888295,417.03407888295,417.03407888295,417.03407888295,417.03407888295,417.03407888295,417.03407888295,417.03407888295,417.03407888295,417.03407888295,417.03407888295,417.03407888295,417.03407888295,417.03407888295,417.03407888295,417.03407888295,417.03407888295,218.6256017714,837.78831306066,-3.7908391110292,729.83454025264,-3.8033920367093,0
0.00080218749999998,5108226261.0388,6.8340687978488e-05,0.0002377339806428,0.00010530603830728,1.0758867286479,0,0,0,0,0,0,0,0,0,0,0,0,0,0,0,0,0,0,0,0,0,0,0,0,0,0,0,0,0,0,0,0,0,0,0,0,0,0,0,0,0,0,0,0,0,0,0,0,-0.93013144018224,0.44021370943971,-0.32815479454201,5.1324737759685,2.7820061378945,0.95259979363773,-2.729822962183,1.4291716073112,2.5796419596868,-0.35969474530401,1.8082147812964,-5.2601526534633,1.7148891497225,-1.0399483378568,1.9166949457354,-3.439450197036,1.4103031404169,4.1675099171093,-0.99903259669918,-4.425937213713,1.8859754995618,2.2075010696104,0.029405419642027,-4.6657258973839,3.1864784589428,-2.9905156021949,1.2070175137257,0.9503590804897,-1.1795390003784,0.85404147051542,1.0569657745612,-0.01311893959384,0.78832883134509,-3.4761116682298,-1.3011460800429,-3.0802111433347,5.3468887167332,-2.0361491350599,3.0621732904297,-0.35502601069917,-1.1768660323076,-6.1883441991184,0.97965336683403,-1.9042322872241,-3.4372994417341,1.8755741132874,3.0125070070673,-2.7251396402354,417.46884568608,417.46884568608,417.46884568608,417.46884568608,417.46884568608,417.46884568608,417.46884568608,417.46884568608,417.46884568608,417.46884568608,417.46884568608,417.46884568608,417.46884568608,417.46884568608,417.46884568608,417.46884568608,417.46884568608,417.46884568608,417.46884568608,417.46884568608,417.46884568608,417.46884568608,417.46884568608,417.46884568608,417.46884568608,417.46884568608,417.46884568608,417.46884568608,417.46884568608,417.46884568608,417.46884568608,417.46884568608,417.46884568608,417.46884568608,417.46884568608,417.46884568608,417.46884568608,417.46884568608,417.46884568608,417.46884568608,417.46884568608,417.46884568608,417.46884568608,417.46884568608,417.46884568608,417.46884568608,417.46884568608,417.46884568608,218.59884571843,838.67964701535,-3.8010840102341,730.59208228481,-3.8136273147686,0
0.00080343749999998,5121806214.4477,6.8447557391276e-05,0.00023810449449697,0.00010547502644547,1.0760053282416,0,0,0,0,0,0,0,0,0,0,0,0,0,0,0,0,0,0,0,0,0,0,0,0,0,0,0,0,0,0,0,0,0,0,0,0,0,0,0,0,0,0,0,0,0,0,0,0,-0.92995713168257,0.44141381339467,-0.3287586003503,5.132240236532,2.7814909992121,0.9522591488702,-2.7287089762043,1.428714097675,2.5790971900278,-0.35940919813146,1.8078739166516,-5.2595115950451,1.7153853015361,-1.0392157436761,1.9168498847349,-3.4371289252455,1.408720473721,4.1665780949348,-0.99876592099062,-4.4258221424922,1.8857739626558,2.2082318532521,0.029344080570009,-4.6674639319764,3.186316593285,-2.9918064451491,1.2069924443137,0.9499291891143,-1.1783528728235,0.85329250612847,1.0561699964737,-0.012193657975232,0.78829115260227,-3.4746092859448,-1.3001534423939,-3.0793543348042,5.3465004768193,-2.0344043802424,3.061803346938,-0.3549864172474,-1.1765255704966,-6.1862144330897,0.9792335990849,-1.9038036271957,-3.4373634876031,1.8770452014659,3.0116528633591,-2.7229812921547,417.90351822458,417.90351822458,417.90351822458,417.90351822458,417.90351822458,417.90351822458,417.90351822458,417.90351822458,417.90351822458,417.90351822458,417.90351822458,417.90351822458,417.90351822458,417.90351822458,417.90351822458,417.90351822458,417.90351822458,417.90351822458,417.90351822458,417.90351822458,417.90351822458,417.90351822458,417.90351822458,417.90351822458,417.90351822458,417.90351822458,417.90351822458,417.90351822458,417.90351822458,417.90351822458,417.90351822458,417.90351822458,417.90351822458,417.90351822458,417.90351822458,417.90351822458,417.90351822458,417.90351822458,417.90351822458,417.90351822458,417.90351822458,417.90351822458,417.90351822458,417.90351822458,417.90351822458,417.90351822458,417.90351822458,417.90351822458,218.57209450268,839.57079897089,-3.8113409260593,731.34943723913,-3.823874495334,0
0.00080468749999998,5135401191.5133,6.8554431264193e-05,0.00023847500842721,0.00010564403206605,1.0761239243532,0,0,0,0,0,0,0,0,0,0,0,0,0,0,0,0,0,0,0,0,0,0,0,0,0,0,0,0,0,0,0,0,0,0,0,0,0,0,0,0,0,0,0,0,0,0,0,0,-0.92978305347231,0.44261174318341,-0.32936269615881,5.1320068080368,2.7809759070157,0.95191855871115,-2.7275958430307,1.4282566358662,2.5785521324336,-0.35912431820302,1.8075328933106,-5.2588698263427,1.7158803971674,-1.0384845993802,1.9170042678324,-3.4348082565398,1.407138198907,4.1656464052156,-0.99849823063483,-4.4257071569171,1.8855722849514,2.2089615125741,0.029281693868531,-4.669201366026,3.1861545833638,-2.9930947286043,1.2069674813503,0.94949851253102,-1.1771681670624,0.8525438407325,1.0553746526131,-0.011268129402308,0.78825361642141,-3.4731082027918,-1.2991608712622,-3.0784969963311,5.3461113260083,-2.0326604623554,3.0614328478912,-0.35494787008532,-1.1761846261467,-6.1840837917464,0.97881243636304,-1.9033738502186,-3.437426624548,1.8785165591658,3.0107986688066,-2.7208235721297,418.33809651557,418.33809651557,418.33809651557,418.33809651557,418.33809651557,418.33809651557,418.33809651557,418.33809651557,418.33809651557,418.33809651557,418.33809651557,418.33809651557,418.33809651557,418.33809651557,418.33809651557,418.33809651557,418.33809651557,418.33809651557,418.33809651557,418.33809651557,418.33809651557,418.33809651557,418.33809651557,418.33809651557,418.33809651557,418.33809651557,418.33809651557,418.33809651557,418.33809651557,418.33809651557,418.33809651557,418.33809651557,418.33809651557,418.33809651557,418.33809651557,418.33809651557,418.33809651557,418.33809651557,418.33809651557,418.33809651557,418.33809651557,418.33809651557,418.33809651557,418.33809651557,418.33809651557,418.33809651557,418.33809651557,418.33809651557,218.54534817106,840.46176904617,-3.8216098531249,732.10660520191,-3.8341335727457,0
0.00080593749999998,5149011179.9232,6.8661309473208e-05,0.00023884552243413,0.0001058130549928,1.0762425169833,0,0,0,0,0,0,0,0,0,0,0,0,0,0,0,0,0,0,0,0,0,0,0,0,0,0,0,0,0,0,0,0,0,0,0,0,0,0,0,0,0,0,0,0,0,0,0,0,-0.92960920966038,0.44380748354747,-0.3299670743748,5.131773493758,2.7804608607637,0.95157802110671,-2.7264835578775,1.4277992240462,2.5780067888248,-0.35884011204973,1.8071917152475,-5.2582273485238,1.7163744328573,-1.0377549031666,1.9171580937318,-3.4324881909644,1.4055563194825,4.1647148480617,-0.99822952732627,-4.4255922513635,1.8853704674158,2.2096900502169,0.029218253666469,-4.6709381884948,3.1859924286313,-2.9943804455434,1.2069426237954,0.94906704944021,-1.1759848786515,0.85179547996376,1.0545797421427,-0.010342361526906,0.78821622434497,-3.4716084233667,-1.2981683645907,-3.0776391248351,5.3457212589296,-2.0309173800313,3.0610617947031,-0.35491036961739,-1.1758431981006,-6.18195227455,0.97838987970569,-1.9029429502587,-3.4374888408401,1.8799881848072,3.0099444210776,-2.7186664762166,418.77258057625,418.77258057625,418.77258057625,418.77258057625,418.77258057625,418.77258057625,418.77258057625,418.77258057625,418.77258057625,418.77258057625,418.77258057625,418.77258057625,418.77258057625,418.77258057625,418.77258057625,418.77258057625,418.77258057625,418.77258057625,418.77258057625,418.77258057625,418.77258057625,418.77258057625,418.77258057625,418.77258057625,418.77258057625,418.77258057625,418.77258057625,418.77258057625,418.77258057625,418.77258057625,418.77258057625,418.77258057625,418.77258057625,418.77258057625,418.77258057625,418.77258057625,418.77258057625,418.77258057625,418.77258057625,418.77258057625,418.77258057625,418.77258057625,418.77258057625,418.77258057625,418.77258057625,418.77258057625,418.77258057625,418.77258057625,218.51860677064,841.35255735982,-3.8318907860684,732.86358625931,-3.8444045413414,0
0.00080718749999998,5162636167.3575,6.8768192019504e-05,0.00023921603651834,0.00010598209519867,1.0763611061325,0,0,0,0,0,0,0,0,0,0,0,0,0,0,0,0,0,0,0,0,0,0,0,0,0,0,0,0,0,0,0,0,0,0,0,0,0,0,0,0,0,0,0,0,0,0,0,0,-0.92943560430613,0.4450010193856,-0.33057172733472,5.1315402968271,2.779945859886,0.95123753398857,-2.7253721159162,1.427341864353,2.5774611611194,-0.35855658613792,1.8068503864216,-5.257584162608,1.7168674049668,-1.0370266531372,1.9173113610783,-3.4301687284637,1.4039748388906,4.1637834235277,-0.99795981275848,-4.4254774201377,1.8851685110204,2.2104174688354,0.029153754106818,-4.6726743884107,3.1858301284766,-2.9956635889052,1.2069178705988,0.94863479851988,-1.1748030030953,0.8510474294409,1.0537852642134,-0.009416361890216,0.78817897797227,-3.4701099521399,-1.2971759202836,-3.0767807172287,5.3453302701002,-2.0291751317745,3.0606901887358,-0.35487391614077,-1.1755012852722,-6.1798198809394,0.97796593018624,-1.902510921361,-3.4375501246545,1.8814600768576,3.0090901177858,-2.7165100003796,419.20697042397,419.20697042397,419.20697042397,419.20697042397,419.20697042397,419.20697042397,419.20697042397,419.20697042397,419.20697042397,419.20697042397,419.20697042397,419.20697042397,419.20697042397,419.20697042397,419.20697042397,419.20697042397,419.20697042397,419.20697042397,419.20697042397,419.20697042397,419.20697042397,419.20697042397,419.20697042397,419.20697042397,419.20697042397,419.20697042397,419.20697042397,419.20697042397,419.20697042397,419.20697042397,419.20697042397,419.20697042397,419.20697042397,419.20697042397,419.20697042397,419.20697042397,419.20697042397,419.20697042397,419.20697042397,419.20697042397,419.20697042397,419.20697042397,419.20697042397,419.20697042397,419.20697042397,419.20697042397,419.20697042397,419.20697042397,218.49187034854,842.24316403014,-3.8421837195291,733.62038049727,-3.8546873954455,0
0.00080843749999998,5176276141.4892,6.8875078656506e-05,0.00023958655068049,0.00010615115236106,1.0764796918015,0,0,0,0,0,0,0,0,0,0,0,0,0,0,0,0,0,0,0,0,0,0,0,0,0,0,0,0,0,0,0,0,0,0,0,0,0,0,0,0,0,0,0,0,0,0,0,0,-0.92926224141836,0.44619233575665,-0.33117664730913,5.1313072202356,2.7794309037851,0.95089709526792,-2.7242615122748,1.426884558901,2.576915251228,-0.35827374686804,1.8065089107748,-5.2569402694563,1.7173593099766,-1.0362998472906,1.9174640684587,-3.4278498688757,1.4023937605033,4.162852131618,-0.99768908863368,-4.4253626574709,1.8849664167417,2.2111437710899,0.029088189348302,-4.6744099548626,3.1856676822298,-2.9969441515744,1.2068932206994,0.94820175842303,-1.1736225358451,0.85029969476333,1.0529912179645,-0.0084901379212072,0.78814187895671,-3.4686127934492,-1.2961835362086,-3.0759217704036,5.3449383539242,-2.0274337159614,3.0603180312918,-0.35483850984272,-1.1751588866461,-6.1776866103208,0.97754058890861,-1.9020777576381,-3.4376104640689,1.8829322338243,3.0082357564985,-2.7143541405054,419.64126607613,419.64126607613,419.64126607613,419.64126607613,419.64126607613,419.64126607613,419.64126607613,419.64126607613,419.64126607613,419.64126607613,419.64126607613,419.64126607613,419.64126607613,419.64126607613,419.64126607613,419.64126607613,419.64126607613,419.64126607613,419.64126607613,419.64126607613,419.64126607613,419.64126607613,419.64126607613,419.64126607613,419.64126607613,419.64126607613,419.64126607613,419.64126607613,419.64126607613,419.64126607613,419.64126607613,419.64126607613,419.64126607613,419.64126607613,419.64126607613,419.64126607613,419.64126607613,419.64126607613,419.64126607613,419.64126607613,419.64126607613,419.64126607613,419.64126607613,419.64126607613,419.64126607613,419.64126607613,419.64126607613,419.64126607613,218.46513895207,843.13358917508,-3.8524886481326,734.37698800157,-3.86498212939,0
0.00080968749999998,5189931089.9836,6.8981969684055e-05,0.0002399570649212,0.0001063202268077,1.0765982739909,0,0,0,0,0,0,0,0,0,0,0,0,0,0,0,0,0,0,0,0,0,0,0,0,0,0,0,0,0,0,0,0,0,0,0,0,0,0,0,0,0,0,0,0,0,0,0,0,-0.92908912495343,0.44738141787414,-0.33178182650749,5.1310742668183,2.778915991837,0.95055670283968,-2.7231517420571,1.4264273097782,2.5763690610592,-0.35799160057452,1.8061672922338,-5.2562956697779,1.7178501444784,-1.0355744835383,1.9176162144127,-3.4255316119351,1.4008130876263,4.161920972283,-0.99741735665824,-4.4252479575287,1.8847641855579,2.2118689596527,0.029021553565027,-4.6761448770015,3.185505089164,-2.9982221263963,1.2068686730289,0.94776792778009,-1.1724434723215,0.84955228150755,1.0521976025241,-0.0075636969346479,0.78810492900595,-3.4671169514998,-1.2951912101989,-3.0750622812529,5.344545504709,-2.0256931308444,3.0599453236201,-0.35480415080902,-1.1748160012666,-6.1755524620674,0.97711385700943,-1.9016434532895,-3.4376698470795,1.884404654259,3.0073813347318,-2.712198892397,420.07546755028,420.07546755028,420.07546755028,420.07546755028,420.07546755028,420.07546755028,420.07546755028,420.07546755028,420.07546755028,420.07546755028,420.07546755028,420.07546755028,420.07546755028,420.07546755028,420.07546755028,420.07546755028,420.07546755028,420.07546755028,420.07546755028,420.07546755028,420.07546755028,420.07546755028,420.07546755028,420.07546755028,420.07546755028,420.07546755028,420.07546755028,420.07546755028,420.07546755028,420.07546755028,420.07546755028,420.07546755028,420.07546755028,420.07546755028,420.07546755028,420.07546755028,420.07546755028,420.07546755028,420.07546755028,420.07546755028,420.07546755028,420.07546755028,420.07546755028,420.07546755028,420.07546755028,420.07546755028,420.07546755028,420.07546755028,218.43841262854,844.02383291228,-3.862805566523,735.13340885782,-3.8752887374718,0
0.00081093749999998,5203601000.4986,6.9088865231416e-05,0.00024032757924111,0.00010648931866331,1.0767168527014,0,0,0,0,0,0,0,0,0,0,0,0,0,0,0,0,0,0,0,0,0,0,0,0,0,0,0,0,0,0,0,0,0,0,0,0,0,0,0,0,0,0,0,0,0,0,0,0,-0.92891625881411,0.44856825111003,-0.33238725706604,5.1308414392557,2.7784011233947,0.95021635457994,-2.7220428003436,1.4259701190466,2.5758225925031,-0.35771015352282,1.8058255347035,-5.2556503641311,1.7183399051722,-1.034850559696,1.9177677974255,-3.4232139572794,1.3992328234993,4.1609899454261,-0.99714461855076,-4.4251333144033,1.8845618184543,2.2125930371938,0.028953840950288,-4.6778791440674,3.1853423484862,-2.9994975061738,1.2068442265114,0.94733330519833,-1.1712658079164,0.84880519522553,1.0514044169981,-0.0066370461256784,0.78806812987769,-3.465622430364,-1.2941989400512,-3.0742022466575,5.3441517166519,-2.0239533745512,3.0595720669159,-0.35477083902143,-1.1744726282385,-6.1734174355419,0.97668573565971,-1.9012080025914,-3.4377282615919,1.8858773367541,3.0065268499589,-2.7100442517931,420.50957486405,420.50957486405,420.50957486405,420.50957486405,420.50957486405,420.50957486405,420.50957486405,420.50957486405,420.50957486405,420.50957486405,420.50957486405,420.50957486405,420.50957486405,420.50957486405,420.50957486405,420.50957486405,420.50957486405,420.50957486405,420.50957486405,420.50957486405,420.50957486405,420.50957486405,420.50957486405,420.50957486405,420.50957486405,420.50957486405,420.50957486405,420.50957486405,420.50957486405,420.50957486405,420.50957486405,420.50957486405,420.50957486405,420.50957486405,420.50957486405,420.50957486405,420.50957486405,420.50957486405,420.50957486405,420.50957486405,420.50957486405,420.50957486405,420.50957486405,420.50957486405,420.50957486405,420.50957486405,420.50957486405,420.50957486405,218.41169142537,844.91389535896,-3.8731344693483,735.88964315141,-3.8856072139966,0
0.00081218749999998,5217285860.685,6.9195765025358e-05,0.00024069809364089,0.00010665842757303,1.0768354279337,0,0,0,0,0,0,0,0,0,0,0,0,0,0,0,0,0,0,0,0,0,0,0,0,0,0,0,0,0,0,0,0,0,0,0,0,0,0,0,0,0,0,0,0,0,0,0,0,-0.92874364684909,0.44975282099257,-0.33299293106773,5.1306087400695,2.7778862977858,0.9498760483387,-2.7209346822334,1.4255129887393,2.5752758474555,-0.35742941191059,1.8054836420731,-5.2550043529132,1.7188285888579,-1.0341280735085,1.9179188159515,-3.4208969044357,1.3976529712925,4.160059050894,-0.99687087604698,-4.4250187221473,1.8843593164148,2.2133160063965,0.028885045714229,-4.6796127453441,3.185179459351,-3.0007702836652,1.2068198800659,0.94689788925727,-1.1700895380286,0.84805844144341,1.0506116604907,-0.0057101925730746,0.7880314833812,-3.4641292339737,-1.29320672353,-3.0733416635122,5.3437569838745,-2.0222144450897,3.0591982623086,-0.35473857437164,-1.1741287667103,-6.1712815300477,0.97625622606405,-1.9007713999131,-3.4377856954427,1.8873502799376,3.0056722995992,-2.70789021436,420.94358803519,420.94358803519,420.94358803519,420.94358803519,420.94358803519,420.94358803519,420.94358803519,420.94358803519,420.94358803519,420.94358803519,420.94358803519,420.94358803519,420.94358803519,420.94358803519,420.94358803519,420.94358803519,420.94358803519,420.94358803519,420.94358803519,420.94358803519,420.94358803519,420.94358803519,420.94358803519,420.94358803519,420.94358803519,420.94358803519,420.94358803519,420.94358803519,420.94358803519,420.94358803519,420.94358803519,420.94358803519,420.94358803519,420.94358803519,420.94358803519,420.94358803519,420.94358803519,420.94358803519,420.94358803519,420.94358803519,420.94358803519,420.94358803519,420.94358803519,420.94358803519,420.94358803519,420.94358803519,420.94358803519,420.94358803519,218.38497539002,845.803776632,-3.883475351218,736.64569096758,-3.8959375532728,0
0.00081343749999998,5230985658.186,6.9302668255808e-05,0.00024106860812119,0.00010682755254195,1.0769539996883,0,0,0,0,0,0,0,0,0,0,0,0,0,0,0,0,0,0,0,0,0,0,0,0,0,0,0,0,0,0,0,0,0,0,0,0,0,0,0,0,0,0,0,0,0,0,0,0,-0.92857129284981,0.45093511320089,-0.33359884053294,5.1303761716139,2.7773715143207,0.94953578194925,-2.7198273828138,1.4250559208596,2.5747288277934,-0.35714938186719,1.8051416182083,-5.2543576363893,1.7193161924322,-1.0334070226142,1.9180692684001,-3.4185804528477,1.396073534099,4.1591282884917,-0.99659613089932,-4.4249041747371,1.8841566804251,2.2140378699465,0.028815162086848,-4.6813456702246,3.1850164208494,-3.0020404516105,1.2067956326092,0.94646167851659,-1.1689146580435,0.8473120256578,1.0498193320762,-0.00478314323468,0.78799499137224,-3.4626373661318,-1.2922145583651,-3.0724805286906,5.3433613003982,-2.0204763403501,3.0588239108637,-0.35470735664239,-1.1737844158774,-6.1691447449025,0.97582532945101,-1.900333639703,-3.4378421363892,1.8888234824704,3.0048176810338,-2.7057367757111,421.37750708154,421.37750708154,421.37750708154,421.37750708154,421.37750708154,421.37750708154,421.37750708154,421.37750708154,421.37750708154,421.37750708154,421.37750708154,421.37750708154,421.37750708154,421.37750708154,421.37750708154,421.37750708154,421.37750708154,421.37750708154,421.37750708154,421.37750708154,421.37750708154,421.37750708154,421.37750708154,421.37750708154,421.37750708154,421.37750708154,421.37750708154,421.37750708154,421.37750708154,421.37750708154,421.37750708154,421.37750708154,421.37750708154,421.37750708154,421.37750708154,421.37750708154,421.37750708154,421.37750708154,421.37750708154,421.37750708154,421.37750708154,421.37750708154,421.37750708154,421.37750708154,421.37750708154,421.37750708154,421.37750708154,421.37750708154,218.3582645699,846.69347684785,-3.8938282067491,737.40155239142,-3.9062797496199,0
0.00081468749999998,5244700380.6373,6.9409575487782e-05,0.0002414391226827,0.00010699669421274,1.077072567966,0,0,0,0,0,0,0,0,0,0,0,0,0,0,0,0,0,0,0,0,0,0,0,0,0,0,0,0,0,0,0,0,0,0,0,0,0,0,0,0,0,0,0,0,0,0,0,0,-0.92839920055105,0.45211511357151,-0.33420497743116,5.1301437360691,2.776856772292,0.94919555321578,-2.7187208972053,1.4245989173789,2.5741815353978,-0.3568700694521,1.804799466955,-5.2537102146653,1.7198027128823,-1.0326874045754,1.9182191531512,-3.4162646018591,1.3944945149447,4.1581976579745,-0.99632038488526,-4.4247896661002,1.8839539114695,2.2147586305399,0.028744184318043,-4.6830779081655,3.1848532320178,-3.0033080027093,1.2067714830582,0.946024671507,-1.1677411633742,0.84656595333288,1.049027430825,-0.0038559049489823,0.78795865575402,-3.4611468304987,-1.2912224422561,-3.0716188390705,5.3429646601701,-2.018739058109,3.0584490135827,-0.35467718552601,-1.1734395749718,-6.1670070793844,0.97539304708558,-1.8998947164996,-3.4378975721281,1.8902969430472,3.0039629915934,-2.7035839314047,421.81133202105,421.81133202105,421.81133202105,421.81133202105,421.81133202105,421.81133202105,421.81133202105,421.81133202105,421.81133202105,421.81133202105,421.81133202105,421.81133202105,421.81133202105,421.81133202105,421.81133202105,421.81133202105,421.81133202105,421.81133202105,421.81133202105,421.81133202105,421.81133202105,421.81133202105,421.81133202105,421.81133202105,421.81133202105,421.81133202105,421.81133202105,421.81133202105,421.81133202105,421.81133202105,421.81133202105,421.81133202105,421.81133202105,421.81133202105,421.81133202105,421.81133202105,421.81133202105,421.81133202105,421.81133202105,421.81133202105,421.81133202105,421.81133202105,421.81133202105,421.81133202105,421.81133202105,421.81133202105,421.81133202105,421.81133202105,218.33155901253,847.58299612254,-3.9041930305998,738.15722750782,-3.9166337973113,0
0.00081593749999998,5258430015.6676,6.9516486484631e-05,0.00024180963732608,0.00010716585227273,1.0771911327675,0,0,0,0,0,0,0,0,0,0,0,0,0,0,0,0,0,0,0,0,0,0,0,0,0,0,0,0,0,0,0,0,0,0,0,0,0,0,0,0,0,0,0,0,0,0,0,0,-0.92822737363199,0.45329280808964,-0.33481133368869,5.1299114354317,2.7763420709766,0.94885535991882,-2.7176152206072,1.4241419802338,2.5736339721382,-0.35659148065526,1.8044571921444,-5.2530620876967,1.7202881472748,-1.0319692169,1.9183684685713,-3.4139493507131,1.3929159167901,4.1572671590566,-0.99604363980851,-4.4246751901509,1.8837510105259,2.2154782908709,0.028672106680453,-4.6848094486817,3.184689891849,-3.0045729296395,1.2067474303282,0.94558686673502,-1.1665690494995,0.84582022989886,1.0482359557916,-0.0029284844356493,0.78792247847595,-3.4596576305927,-1.2902303728789,-3.0707565915592,5.3425670570828,-2.0170025960361,3.0580735714096,-0.35464806063808,-1.1730942432467,-6.1648685327222,0.9749593802619,-1.8994546249468,-3.4379519903059,1.8917706603974,3.0031082285715,-2.7014316769545,422.24506287179,422.24506287179,422.24506287179,422.24506287179,422.24506287179,422.24506287179,422.24506287179,422.24506287179,422.24506287179,422.24506287179,422.24506287179,422.24506287179,422.24506287179,422.24506287179,422.24506287179,422.24506287179,422.24506287179,422.24506287179,422.24506287179,422.24506287179,422.24506287179,422.24506287179,422.24506287179,422.24506287179,422.24506287179,422.24506287179,422.24506287179,422.24506287179,422.24506287179,422.24506287179,422.24506287179,422.24506287179,422.24506287179,422.24506287179,422.24506287179,422.24506287179,422.24506287179,422.24506287179,422.24506287179,422.24506287179,422.24506287179,422.24506287179,422.24506287179,422.24506287179,422.24506287179,422.24506287179,422.24506287179,422.24506287179,218.30485876533,848.47233457168,-3.9145698173822,738.91271640153,-3.926999690631,0
0.00081718749999998,5272174550.8979,6.9623401136544e-05,0.00024218015205203,0.00010733502656041,1.0773096940935,0,0,0,0,0,0,0,0,0,0,0,0,0,0,0,0,0,0,0,0,0,0,0,0,0,0,0,0,0,0,0,0,0,0,0,0,0,0,0,0,0,0,0,0,0,0,0,0,-0.92805581571161,0.45446818289084,-0.3354179011812,5.1296792715235,2.7758274096428,0.94851519980573,-2.7165103482637,1.4236851113269,2.5730861398677,-0.35631362139757,1.8041147975808,-5.2524132552963,1.7207724927532,-1.0312524570144,1.9185172130048,-3.4116346985755,1.3913377425162,4.156336791414,-0.99576589751157,-4.4245607407507,1.8835479785687,2.2161968536267,0.028598923468873,-4.6865402813847,3.1845263992728,-3.0058352250559,1.2067234733409,0.94514826267845,-1.1653983119421,0.84507486074923,1.047444906009,-0.0020008882952108,0.78788646152902,-3.4581697697931,-1.2892383478785,-3.0698937830653,5.3421684849631,-2.0152669516962,3.057697585217,-0.35461998150075,-1.1727484199774,-6.1627291041501,0.97452433029809,-1.8990133597784,-3.4380053785207,1.8932446332787,3.0022533892212,-2.6992800078476,422.67869965192,422.67869965192,422.67869965192,422.67869965192,422.67869965192,422.67869965192,422.67869965192,422.67869965192,422.67869965192,422.67869965192,422.67869965192,422.67869965192,422.67869965192,422.67869965192,422.67869965192,422.67869965192,422.67869965192,422.67869965192,422.67869965192,422.67869965192,422.67869965192,422.67869965192,422.67869965192,422.67869965192,422.67869965192,422.67869965192,422.67869965192,422.67869965192,422.67869965192,422.67869965192,422.67869965192,422.67869965192,422.67869965192,422.67869965192,422.67869965192,422.67869965192,422.67869965192,422.67869965192,422.67869965192,422.67869965192,422.67869965192,422.67869965192,422.67869965192,422.67869965192,422.67869965192,422.67869965192,422.67869965192,422.67869965192,218.27816387566,849.36149231041,-3.9249585617261,739.66801915714,-3.9373774238602,0
0.00081843749999998,5285933973.942,6.9730319587047e-05,0.00024255066686125,0.00010750421721593,1.0774282519445,0,0,0,0,0,0,0,0,0,0,0,0,0,0,0,0,0,0,0,0,0,0,0,0,0,0,0,0,0,0,0,0,0,0,0,0,0,0,0,0,0,0,0,0,0,0,0,0,-0.92788453035001,0.45564122425978,-0.33602467175439,5.1294472459698,2.7753127875545,0.94817507059599,-2.7154062755109,1.4232283125204,2.5725380404395,-0.35603649753169,1.8037722870508,-5.2517637171379,1.7212557465298,-1.0305371222718,1.9186653847921,-3.4093206445301,1.3897599949283,4.1554065546892,-0.99548715987162,-4.42444631174,1.8833448165583,2.216914321506,0.028524629001189,-4.6882703959628,3.1843627531763,-3.0070948816058,1.206699611025,0.94470885778913,-1.1642289463083,0.8443298512372,1.0466542804965,-0.0010731230122593,0.7878506069471,-3.4566832513395,-1.2882463648798,-3.0690304105034,5.3417689375911,-2.0135321225587,3.0573210558066,-0.35459294755125,-1.1724021044471,-6.1605887928828,0.97408789853781,-1.898570915825,-3.4380577243262,1.8947188604765,3.0013984707583,-2.6971289195396,423.1122423797,423.1122423797,423.1122423797,423.1122423797,423.1122423797,423.1122423797,423.1122423797,423.1122423797,423.1122423797,423.1122423797,423.1122423797,423.1122423797,423.1122423797,423.1122423797,423.1122423797,423.1122423797,423.1122423797,423.1122423797,423.1122423797,423.1122423797,423.1122423797,423.1122423797,423.1122423797,423.1122423797,423.1122423797,423.1122423797,423.1122423797,423.1122423797,423.1122423797,423.1122423797,423.1122423797,423.1122423797,423.1122423797,423.1122423797,423.1122423797,423.1122423797,423.1122423797,423.1122423797,423.1122423797,423.1122423797,423.1122423797,423.1122423797,423.1122423797,423.1122423797,423.1122423797,423.1122423797,423.1122423797,423.1122423797,218.2514743908,850.25046945341,-3.935359258264,740.42313585913,-3.9477669912553,0
0.00081968749999998,5299708272.4064,6.9837241682799e-05,0.00024292118175445,0.00010767342402499,1.0775468063215,0,0,0,0,0,0,0,0,0,0,0,0,0,0,0,0,0,0,0,0,0,0,0,0,0,0,0,0,0,0,0,0,0,0,0,0,0,0,0,0,0,0,0,0,0,0,0,0,-0.92771352104754,0.45681191862867,-0.33663163722979,5.1292153601984,2.7747982039741,0.94783496997624,-2.7143029977934,1.422771585637,2.5719896756981,-0.35576011484082,1.8034296643183,-5.2511134727597,1.7217379058779,-1.0298232099507,1.918812982267,-3.4070071875803,1.3881826767447,4.1544764484998,-0.99520742881088,-4.4243318969445,1.883141525442,2.217630697212,0.028449217621497,-4.6899997821729,3.1841989524,-3.008351891933,1.2066758423172,0.94426865049211,-1.1630609483032,0.84358520667417,1.0458640782534,-0.00014519495570408,0.78781491680299,-3.4551980783326,-1.287254421487,-3.0681664707872,5.3413684087004,-2.0117981060009,3.0569439838911,-0.35456695814232,-1.1720552959436,-6.1584475981082,0.97365008634641,-1.8981272880072,-3.4381090152422,1.896193340792,3.0005434703701,-2.6949784074686,423.5456910735,423.5456910735,423.5456910735,423.5456910735,423.5456910735,423.5456910735,423.5456910735,423.5456910735,423.5456910735,423.5456910735,423.5456910735,423.5456910735,423.5456910735,423.5456910735,423.5456910735,423.5456910735,423.5456910735,423.5456910735,423.5456910735,423.5456910735,423.5456910735,423.5456910735,423.5456910735,423.5456910735,423.5456910735,423.5456910735,423.5456910735,423.5456910735,423.5456910735,423.5456910735,423.5456910735,423.5456910735,423.5456910735,423.5456910735,423.5456910735,423.5456910735,423.5456910735,423.5456910735,423.5456910735,423.5456910735,423.5456910735,423.5456910735,423.5456910735,423.5456910735,423.5456910735,423.5456910735,423.5456910735,423.5456910735,218.22479035795,851.13926611488,-3.9457719016306,741.17806659181,-3.9581683870851,0
0.00082093749999998,5313497433.8901,6.9944167463062e-05,0.00024329169673235,0.00010784264700276,1.0776653572249,0,0,0,0,0,0,0,0,0,0,0,0,0,0,0,0,0,0,0,0,0,0,0,0,0,0,0,0,0,0,0,0,0,0,0,0,0,0,0,0,0,0,0,0,0,0,0,0,-0.92754279124506,0.45798025257643,-0.33723878941019,5.1289836154393,2.7742836581681,0.94749489559118,-2.7132005107074,1.4223149324555,2.5714410474856,-0.35548447904083,1.80308693313,-5.2504625215507,1.7222189681231,-1.0291107172867,1.9189600037834,-3.4046943266532,1.386605790619,4.1535464724382,-0.99492670630929,-4.4242174902008,1.8829381061474,2.2183459834415,0.028372683699713,-4.6917284298338,3.1840349957459,-3.0096062486684,1.2066521661678,0.94382763917984,-1.1618943137742,0.84284093232405,1.0450742982722,0.00078288961569893,0.78777939320924,-3.4537142537244,-1.2862625152897,-3.0673019608673,5.340966892022,-2.0100648993191,3.0565663701259,-0.35454201256012,-1.1717079937422,-6.1563055189864,0.9732108951168,-1.8976824713572,-3.4381592387853,1.8976680730584,2.9996883852111,-2.6928284670738,423.97904575181,423.97904575181,423.97904575181,423.97904575181,423.97904575181,423.97904575181,423.97904575181,423.97904575181,423.97904575181,423.97904575181,423.97904575181,423.97904575181,423.97904575181,423.97904575181,423.97904575181,423.97904575181,423.97904575181,423.97904575181,423.97904575181,423.97904575181,423.97904575181,423.97904575181,423.97904575181,423.97904575181,423.97904575181,423.97904575181,423.97904575181,423.97904575181,423.97904575181,423.97904575181,423.97904575181,423.97904575181,423.97904575181,423.97904575181,423.97904575181,423.97904575181,423.97904575181,423.97904575181,423.97904575181,423.97904575181,423.97904575181,423.97904575181,423.97904575181,423.97904575181,423.97904575181,423.97904575181,423.97904575181,423.97904575181,218.19811182408,852.02788240851,-3.9561964864493,741.93281143941,-3.9685816055991,0
0.00082218749999998,5327301445.9848,7.0051096581055e-05,0.00024366221179567,0.00010801188570418,1.0777839046557,0,0,0,0,0,0,0,0,0,0,0,0,0,0,0,0,0,0,0,0,0,0,0,0,0,0,0,0,0,0,0,0,0,0,0,0,0,0,0,0,0,0,0,0,0,0,0,0,-0.92737234432278,0.4591462128252,-0.33784612009319,5.1287520127078,2.7737691494137,0.94715484505114,-2.7120988099921,1.4218583547085,2.5708921576313,-0.35520959578043,1.8027440972115,-5.249810862778,1.7226989306366,-1.0283996414421,1.919106447705,-3.402382060615,1.3850293391092,4.1526166260855,-0.99464499439755,-4.4241030853399,1.8827345595779,2.2190601828941,0.028295021633849,-4.6934563288431,3.1838708819786,-3.0108579444601,1.2066285815414,0.94338582221734,-1.1607290387029,0.84209703340413,1.0442849395197,0.0017111245531478,0.78774403831411,-3.4522317803317,-1.285270643866,-3.0664368776924,5.3405643812556,-2.0083324997351,3.0561882150734,-0.3545181100091,-1.1713601971026,-6.1541625546725,0.97277032625408,-1.8972364609962,-3.4382083824443,1.8991430561238,2.998833212416,-2.690679093792,424.4123064332,424.4123064332,424.4123064332,424.4123064332,424.4123064332,424.4123064332,424.4123064332,424.4123064332,424.4123064332,424.4123064332,424.4123064332,424.4123064332,424.4123064332,424.4123064332,424.4123064332,424.4123064332,424.4123064332,424.4123064332,424.4123064332,424.4123064332,424.4123064332,424.4123064332,424.4123064332,424.4123064332,424.4123064332,424.4123064332,424.4123064332,424.4123064332,424.4123064332,424.4123064332,424.4123064332,424.4123064332,424.4123064332,424.4123064332,424.4123064332,424.4123064332,424.4123064332,424.4123064332,424.4123064332,424.4123064332,424.4123064332,424.4123064332,424.4123064332,424.4123064332,424.4123064332,424.4123064332,424.4123064332,424.4123064332,218.17143883606,852.91631844748,-3.9666330073388,742.68737048604,-3.9790066410605,0
0.00082343749999998,5341120296.2748,7.0158028967508e-05,0.00024403272694514,0.00010818114001439,1.0779024486144,0,0,0,0,0,0,0,0,0,0,0,0,0,0,0,0,0,0,0,0,0,0,0,0,0,0,0,0,0,0,0,0,0,0,0,0,0,0,0,0,0,0,0,0,0,0,0,0,-0.92720218360205,0.4603097862403,-0.33845362107791,5.1285205528071,2.7732546770037,0.94681481592016,-2.7109978916035,1.4214018540809,2.5703430079634,-0.35493547064098,1.8024011602728,-5.2491584955606,1.7231777908228,-1.0276899795472,1.919252312432,-3.4000703882658,1.3834533247053,4.1516869090131,-0.99436229517627,-4.4239886762422,1.8825308866088,2.2197732982641,0.028216225851511,-4.695183469143,3.1837066098344,-3.0121069719547,1.206605087421,0.9429431979357,-1.1595651192709,0.84135351507945,1.0434960009551,0.0026395038120766,0.78770885430211,-3.4507506608202,-1.2842788047884,-3.0655712182506,5.3401608701194,-2.0066009044076,3.0558095192294,-0.35449524963747,-1.1710119052506,-6.1520187042848,0.97232838118926,-1.8967892521549,-3.4382564337236,1.9006182888618,2.9979779490948,-2.6885302830821,424.84547313635,424.84547313635,424.84547313635,424.84547313635,424.84547313635,424.84547313635,424.84547313635,424.84547313635,424.84547313635,424.84547313635,424.84547313635,424.84547313635,424.84547313635,424.84547313635,424.84547313635,424.84547313635,424.84547313635,424.84547313635,424.84547313635,424.84547313635,424.84547313635,424.84547313635,424.84547313635,424.84547313635,424.84547313635,424.84547313635,424.84547313635,424.84547313635,424.84547313635,424.84547313635,424.84547313635,424.84547313635,424.84547313635,424.84547313635,424.84547313635,424.84547313635,424.84547313635,424.84547313635,424.84547313635,424.84547313635,424.84547313635,424.84547313635,424.84547313635,424.84547313635,424.84547313635,424.84547313635,424.84547313635,424.84547313635,218.14477144047,853.80457434445,-3.9770814589065,743.44174381572,-3.9894434877053,0
0.00082468749999998,5354953972.3373,7.0264964843429e-05,0.00024440324218152,0.00010835041016441,1.0780209891018,0,0,0,0,0,0,0,0,0,0,0,0,0,0,0,0,0,0,0,0,0,0,0,0,0,0,0,0,0,0,0,0,0,0,0,0,0,0,0,0,0,0,0,0,0,0,0,0,-0.92703231233991,0.46147095982794,-0.33906128418913,5.1282892363218,2.7727402402594,0.94647480572157,-2.7098977516597,1.4209454322032,2.5697936003029,-0.35466210914121,1.8020581260014,-5.2485054189271,1.7236555461186,-1.0269817286354,1.9193975963901,-3.3977593083749,1.3818777497834,4.1507573208032,-0.99407861081494,-4.4238742567825,1.8823270880776,2.2204853322488,0.028136290809778,-4.6969098407772,3.1835421780196,-3.0133533238503,1.2065816828152,0.94249976463816,-1.1584025518183,0.84061038245835,1.0427074815146,0.0035680214486826,0.78767384338981,-3.4492708977304,-1.2832869956242,-3.0647049795047,5.3397563523247,-2.0048701104422,3.0554302829811,-0.35447343049994,-1.1706631173811,-6.1498739669818,0.97188506135118,-1.8963408401498,-3.4383033801243,1.902093770153,2.9971225923511,-2.6863820304338,425.27854588006,425.27854588006,425.27854588006,425.27854588006,425.27854588006,425.27854588006,425.27854588006,425.27854588006,425.27854588006,425.27854588006,425.27854588006,425.27854588006,425.27854588006,425.27854588006,425.27854588006,425.27854588006,425.27854588006,425.27854588006,425.27854588006,425.27854588006,425.27854588006,425.27854588006,425.27854588006,425.27854588006,425.27854588006,425.27854588006,425.27854588006,425.27854588006,425.27854588006,425.27854588006,425.27854588006,425.27854588006,425.27854588006,425.27854588006,425.27854588006,425.27854588006,425.27854588006,425.27854588006,425.27854588006,425.27854588006,425.27854588006,425.27854588006,425.27854588006,425.27854588006,425.27854588006,425.27854588006,425.27854588006,425.27854588006,218.11810968364,854.69265021153,-3.9875418358207,744.1959315124,-3.9998921397701,0
0.00082593749999998,5368802461.7416,7.0371904321214e-05,0.00024477375750554,0.00010851969625505,1.0781395261187,0,0,0,0,0,0,0,0,0,0,0,0,0,0,0,0,0,0,0,0,0,0,0,0,0,0,0,0,0,0,0,0,0,0,0,0,0,0,0,0,0,0,0,0,0,0,0,0,-0.92686273373584,0.46262972073462,-0.33966910128115,5.1280580636086,2.7722258385292,0.94613481192671,-2.7087983865447,1.4204890906519,2.5692439364708,-0.35438951673455,1.8017149980705,-5.2478516317572,1.724132193977,-1.0262748857133,1.9195422980552,-3.395448819659,1.3803026166427,4.1498278610448,-0.99379394356428,-4.4237598209058,1.882123164781,2.2211962875441,0.028055210998544,-4.6986354338184,3.1833775852232,-3.0145969928493,1.2065583667556,0.94205552059154,-1.1572413329302,0.83986764059219,1.0419193801238,0.0044966716148452,0.78763900782571,-3.4477924934507,-1.2822952139463,-3.0638381584549,5.3393508216173,-2.0031401149026,3.0550505066376,-0.35445265160156,-1.170313832637,-6.1477283418796,0.971440368189,-1.895891220401,-3.4383492091739,1.9035694988971,2.9962671392756,-2.6842343313758,425.7115246832,425.7115246832,425.7115246832,425.7115246832,425.7115246832,425.7115246832,425.7115246832,425.7115246832,425.7115246832,425.7115246832,425.7115246832,425.7115246832,425.7115246832,425.7115246832,425.7115246832,425.7115246832,425.7115246832,425.7115246832,425.7115246832,425.7115246832,425.7115246832,425.7115246832,425.7115246832,425.7115246832,425.7115246832,425.7115246832,425.7115246832,425.7115246832,425.7115246832,425.7115246832,425.7115246832,425.7115246832,425.7115246832,425.7115246832,425.7115246832,425.7115246832,425.7115246832,425.7115246832,425.7115246832,425.7115246832,425.7115246832,425.7115246832,425.7115246832,425.7115246832,425.7115246832,425.7115246832,425.7115246832,425.7115246832,218.09145361167,855.58054616029,-3.9980141327126,744.94993365997,-4.0103525914891,0
0.00082718749999998,5382665752.0501,7.047884700082e-05,0.00024514427291799,0.00010868899777647,1.0782580596657,0,0,0,0,0,0,0,0,0,0,0,0,0,0,0,0,0,0,0,0,0,0,0,0,0,0,0,0,0,0,0,0,0,0,0,0,0,0,0,0,0,0,0,0,0,0,0,0,-0.92669345093054,0.46378605624414,-0.34027706424888,5.12782703479,2.7717114711985,0.94579483195099,-2.7076997929382,1.4200328309475,2.5686940182776,-0.35411769881113,1.8013717801428,-5.2471971328019,1.724607731858,-1.0255694477802,1.9196864159746,-3.3931389207925,1.3787279275054,4.1488985293479,-0.99350829576633,-4.4236453626438,1.8819191174702,2.2219061668266,0.027972980942143,-4.7003602383719,3.1832128301252,-3.0158379716857,1.2065351383017,0.94161046402555,-1.1560814594671,0.83912529447157,1.0411316956973,0.0054254485529503,0.78760434989024,-3.446315450223,-1.2813034573416,-3.0629707521594,5.3389442718127,-2.0014109148232,3.0546701904356,-0.35443291190751,-1.1699640500956,-6.1455818280638,0.97099430316575,-1.8954403884378,-3.438393908452,1.905045474016,2.9954115869568,-2.682087181496,426.14440956476,426.14440956476,426.14440956476,426.14440956476,426.14440956476,426.14440956476,426.14440956476,426.14440956476,426.14440956476,426.14440956476,426.14440956476,426.14440956476,426.14440956476,426.14440956476,426.14440956476,426.14440956476,426.14440956476,426.14440956476,426.14440956476,426.14440956476,426.14440956476,426.14440956476,426.14440956476,426.14440956476,426.14440956476,426.14440956476,426.14440956476,426.14440956476,426.14440956476,426.14440956476,426.14440956476,426.14440956476,426.14440956476,426.14440956476,426.14440956476,426.14440956476,426.14440956476,426.14440956476,426.14440956476,426.14440956476,426.14440956476,426.14440956476,426.14440956476,426.14440956476,426.14440956476,426.14440956476,426.14440956476,426.14440956476,218.06480327028,856.46826230171,-4.0084983441642,745.70375034232,-4.020824837073,0
0.00082843749999998,5396543830.8174,7.0585792880711e-05,0.00024551478841962,0.00010885831469387,1.0783765897437,0,0,0,0,0,0,0,0,0,0,0,0,0,0,0,0,0,0,0,0,0,0,0,0,0,0,0,0,0,0,0,0,0,0,0,0,0,0,0,0,0,0,0,0,0,0,0,0,-0.92652446700395,0.46493995377577,-0.34088516505715,5.1275961497528,2.7711971377019,0.94545486315936,-2.7066019677952,1.4195766545472,2.568143847546,-0.35384666070138,1.8010284758664,-5.2465419207169,1.7250821572221,-1.0248654117529,1.9198299487533,-3.3908296104401,1.3771536844857,4.1479693253585,-0.99322166985158,-4.4235308760949,1.8817149468387,2.2226149727912,0.027889595199335,-4.702084244597,3.1830479114012,-3.0170762531564,1.2065119965482,0.94116459313701,-1.1549229285464,0.83838334902116,1.0403444271373,0.0063543465892252,0.78756987189119,-3.444839770158,-1.2803117234106,-3.062102757648,5.3385366967684,-1.9996825072254,3.0542893345033,-0.35441421030755,-1.1696137687684,-6.1434344246361,0.97054686774335,-1.8949883398684,-3.4384374655755,1.906521694435,2.9945559324884,-2.6799405764438,426.57720054383,426.57720054383,426.57720054383,426.57720054383,426.57720054383,426.57720054383,426.57720054383,426.57720054383,426.57720054383,426.57720054383,426.57720054383,426.57720054383,426.57720054383,426.57720054383,426.57720054383,426.57720054383,426.57720054383,426.57720054383,426.57720054383,426.57720054383,426.57720054383,426.57720054383,426.57720054383,426.57720054383,426.57720054383,426.57720054383,426.57720054383,426.57720054383,426.57720054383,426.57720054383,426.57720054383,426.57720054383,426.57720054383,426.57720054383,426.57720054383,426.57720054383,426.57720054383,426.57720054383,426.57720054383,426.57720054383,426.57720054383,426.57720054383,426.57720054383,426.57720054383,426.57720054383,426.57720054383,426.57720054383,426.57720054383,218.03815870473,857.35579874624,-4.0189944648027,746.45738164328,-4.0313088707483,0
0.00082968749999998,5410436685.5908,7.0692741910731e-05,0.00024588530401121,0.00010902764691372,1.0784951163533,0,0,0,0,0,0,0,0,0,0,0,0,0,0,0,0,0,0,0,0,0,0,0,0,0,0,0,0,0,0,0,0,0,0,0,0,0,0,0,0,0,0,0,0,0,0,0,0,-0.92635578497633,0.46609140088368,-0.34149339574259,5.1273654081499,2.7706828375297,0.94511490285533,-2.7055049083925,1.4191205628442,2.5675934260885,-0.35357640767629,1.8006850888748,-5.2458859940541,1.7255554675228,-1.0241627745155,1.9199728950738,-3.3885208872563,1.3755798895981,4.14704024877,-0.99293406835909,-4.4234163554543,1.8815106535196,2.2233227081172,0.027805048365896,-4.7038074426943,3.1828828277216,-3.0183118301156,1.2064889406265,0.94071790608499,-1.1537657375841,0.83764180909701,1.0395575733284,0.0072833601293937,0.78753557616278,-3.4433654552305,-1.2793200097774,-3.0612341719748,5.3381280904154,-1.9979548891283,3.0539079388748,-0.35439654564132,-1.1692629875881,-6.1412861306999,0.97009806338347,-1.8945350703929,-3.4384798682215,1.9079981590925,2.993700172978,-2.6777945119584,427.0098976396,427.0098976396,427.0098976396,427.0098976396,427.0098976396,427.0098976396,427.0098976396,427.0098976396,427.0098976396,427.0098976396,427.0098976396,427.0098976396,427.0098976396,427.0098976396,427.0098976396,427.0098976396,427.0098976396,427.0098976396,427.0098976396,427.0098976396,427.0098976396,427.0098976396,427.0098976396,427.0098976396,427.0098976396,427.0098976396,427.0098976396,427.0098976396,427.0098976396,427.0098976396,427.0098976396,427.0098976396,427.0098976396,427.0098976396,427.0098976396,427.0098976396,427.0098976396,427.0098976396,427.0098976396,427.0098976396,427.0098976396,427.0098976396,427.0098976396,427.0098976396,427.0098976396,427.0098976396,427.0098976396,427.0098976396,218.01151995996,858.24315560373,-4.0295024892494,747.21082764671,-4.0418046867173,0
0.00083093749999998,5424344303.91,7.0799694054732e-05,0.00024625581969356,0.00010919699435906,1.0786136394954,0,0,0,0,0,0,0,0,0,0,0,0,0,0,0,0,0,0,0,0,0,0,0,0,0,0,0,0,0,0,0,0,0,0,0,0,0,0,0,0,0,0,0,0,0,0,0,0,-0.92618740781,0.46724038525623,-0.34210174844316,5.1271348093788,2.770168570234,0.9447749482807,-2.7044086123628,1.4186645571648,2.5670427557236,-0.35330694494874,1.8003416227957,-5.2452293512596,1.7260276601931,-1.0234615329182,1.9201152537112,-3.386212749901,1.374006544758,4.146111299329,-0.99264549393411,-4.4233017950291,1.8813062380767,2.2240293754837,0.027719335076277,-4.7055298228938,3.1827175777746,-3.019544695484,1.206465969708,0.9402704009898,-1.1526098843283,0.83690067948351,1.0387711331479,0.0082124836522025,0.78750146506498,-3.4418925072765,-1.2783283140972,-3.0603649922136,5.3377184467832,-1.9962280575686,3.0535260034874,-0.35437991670075,-1.1689117053946,-6.1391369453628,0.96964789154595,-1.8940805758013,-3.4385211041449,1.9094748669362,2.9928443055483,-2.6756489838677,427.44250087135,427.44250087135,427.44250087135,427.44250087135,427.44250087135,427.44250087135,427.44250087135,427.44250087135,427.44250087135,427.44250087135,427.44250087135,427.44250087135,427.44250087135,427.44250087135,427.44250087135,427.44250087135,427.44250087135,427.44250087135,427.44250087135,427.44250087135,427.44250087135,427.44250087135,427.44250087135,427.44250087135,427.44250087135,427.44250087135,427.44250087135,427.44250087135,427.44250087135,427.44250087135,427.44250087135,427.44250087135,427.44250087135,427.44250087135,427.44250087135,427.44250087135,427.44250087135,427.44250087135,427.44250087135,427.44250087135,427.44250087135,427.44250087135,427.44250087135,427.44250087135,427.44250087135,427.44250087135,427.44250087135,427.44250087135,217.98488708046,859.13033298341,-4.0400224121216,747.9640884365,-4.0523122791943,0
0.00083218749999998,5438266673.3072,7.0906649281158e-05,0.00024662633546746,0.00010936635695837,1.0787321591706,0,0,0,0,0,0,0,0,0,0,0,0,0,0,0,0,0,0,0,0,0,0,0,0,0,0,0,0,0,0,0,0,0,0,0,0,0,0,0,0,0,0,0,0,0,0,0,0,-0.92601933840883,0.46838689471217,-0.34271021540829,5.1269043525919,2.7696543354411,0.94443499661216,-2.703313077719,1.4182086387633,2.5664918382726,-0.35303827767591,1.7999980812476,-5.2445719906847,1.7264987326392,-1.0227616837757,1.9202570235359,-3.3839051970467,1.3724336517819,4.1451824768542,-0.99235594934238,-4.4231871892579,1.8811017009955,2.2247349775649,0.027632450004842,-4.7072513754449,3.1825521602618,-3.0207748422576,1.2064430830092,0.93982207593279,-1.1514553668789,0.83615996488903,1.0379851054615,0.0091417117027214,0.78746754098104,-3.4404209279979,-1.2773366340641,-3.0594952154496,5.337307760004,-1.994502009614,3.0531435281815,-0.35436432223157,-1.1685599209303,-6.1369868677309,0.96919635368934,-1.893624851968,-3.4385611611859,1.9109518169225,2.9919883273485,-2.6735039881159,427.87501025847,427.87501025847,427.87501025847,427.87501025847,427.87501025847,427.87501025847,427.87501025847,427.87501025847,427.87501025847,427.87501025847,427.87501025847,427.87501025847,427.87501025847,427.87501025847,427.87501025847,427.87501025847,427.87501025847,427.87501025847,427.87501025847,427.87501025847,427.87501025847,427.87501025847,427.87501025847,427.87501025847,427.87501025847,427.87501025847,427.87501025847,427.87501025847,427.87501025847,427.87501025847,427.87501025847,427.87501025847,427.87501025847,427.87501025847,427.87501025847,427.87501025847,427.87501025847,427.87501025847,427.87501025847,427.87501025847,427.87501025847,427.87501025847,427.87501025847,427.87501025847,427.87501025847,427.87501025847,427.87501025847,427.87501025847,217.95826011016,860.01733099396,-4.0505542280348,748.71716409657,-4.0628316423629,0
0.00083343749999998,5452203781.3069,7.1013607257624e-05,0.00024699685133372,0.00010953573428125,1.0788506753798,0,0,0,0,0,0,0,0,0,0,0,0,0,0,0,0,0,0,0,0,0,0,0,0,0,0,0,0,0,0,0,0,0,0,0,0,0,0,0,0,0,0,0,0,0,0,0,0,-0.92585157961992,0.46953091720081,-0.34331878902382,5.1266740366858,2.769140132859,0.94409504495885,-2.7022183028814,1.4177528088214,2.5659406755629,-0.35277041095993,1.7996544678458,-5.2439139105947,1.7269686822303,-1.0220632238707,1.9203982035286,-3.3815982274009,1.3708612123736,4.1442537812479,-0.9920654374716,-4.4230725327262,1.8808970426778,2.2254395170338,0.027544387868814,-4.708972090614,3.1823865739171,-3.0220022635269,1.2064202797952,0.93937292895498,-1.1503021837099,0.83541966994328,1.0371994891271,0.010071038886516,0.78743380631653,-3.4389507189648,-1.2763449674166,-3.0586248387762,5.3368960243389,-1.9927767423831,3.0527605126911,-0.35434976093817,-1.1682076328287,-6.134835896928,0.96874345125651,-1.8931678948404,-3.4386000272912,1.9124290080134,2.9911322355637,-2.6713595207652,428.30742582044,428.30742582044,428.30742582044,428.30742582044,428.30742582044,428.30742582044,428.30742582044,428.30742582044,428.30742582044,428.30742582044,428.30742582044,428.30742582044,428.30742582044,428.30742582044,428.30742582044,428.30742582044,428.30742582044,428.30742582044,428.30742582044,428.30742582044,428.30742582044,428.30742582044,428.30742582044,428.30742582044,428.30742582044,428.30742582044,428.30742582044,428.30742582044,428.30742582044,428.30742582044,428.30742582044,428.30742582044,428.30742582044,428.30742582044,428.30742582044,428.30742582044,428.30742582044,428.30742582044,428.30742582044,428.30742582044,428.30742582044,428.30742582044,428.30742582044,428.30742582044,428.30742582044,428.30742582044,428.30742582044,428.30742582044,217.93163909246,860.90414974341,-4.0610979316017,749.47005471092,-4.073362770439,0
0.00083468749999998,5466155615.4258,7.1120568338958e-05,0.00024736736729315,0.0001097051267157,1.0789691881236,0,0,0,0,0,0,0,0,0,0,0,0,0,0,0,0,0,0,0,0,0,0,0,0,0,0,0,0,0,0,0,0,0,0,0,0,0,0,0,0,0,0,0,0,0,0,0,0,-0.92568413423443,0.4706724407995,-0.34392746182389,5.1264438603048,2.7686259622828,0.94375509035744,-2.7011242867059,1.4172970684434,2.5653892694232,-0.35250334985024,1.799310786203,-5.2432551091702,1.7274375062874,-1.0213661499683,1.9205387927903,-3.3792918397166,1.3692892281413,4.1433252125037,-0.99177396134521,-4.422957820187,1.8806922634343,2.2261429965481,0.027455143429811,-4.7106919586771,3.1822208175083,-3.0232269524768,1.2063975593805,0.93892295805502,-1.1491503336959,0.83467979919274,1.0364142829945,0.011000459862416,0.78740026349712,-3.4374818816165,-1.2753533119515,-3.0577538593128,5.3364832341909,-1.9910522530651,3.0523769566615,-0.35433623149115,-1.1678548396038,-6.1326840320914,0.96828918568396,-1.8927097004477,-3.4386376905213,1.9139064391839,2.990276027419,-2.6692155780236,428.73974757682,428.73974757682,428.73974757682,428.73974757682,428.73974757682,428.73974757682,428.73974757682,428.73974757682,428.73974757682,428.73974757682,428.73974757682,428.73974757682,428.73974757682,428.73974757682,428.73974757682,428.73974757682,428.73974757682,428.73974757682,428.73974757682,428.73974757682,428.73974757682,428.73974757682,428.73974757682,428.73974757682,428.73974757682,428.73974757682,428.73974757682,428.73974757682,428.73974757682,428.73974757682,428.73974757682,428.73974757682,428.73974757682,428.73974757682,428.73974757682,428.73974757682,428.73974757682,428.73974757682,428.73974757682,428.73974757682,428.73974757682,428.73974757682,428.73974757682,428.73974757682,428.73974757682,428.73974757682,428.73974757682,428.73974757682,217.90502407015,861.79078933921,-4.0716535174461,750.22276036364,-4.0839056575885,0
0.00083593749999998,5480122163.1728,7.1227532227968e-05,0.00024773788334657,0.0001098745338727,1.079087697403,0,0,0,0,0,0,0,0,0,0,0,0,0,0,0,0,0,0,0,0,0,0,0,0,0,0,0,0,0,0,0,0,0,0,0,0,0,0,0,0,0,0,0,0,0,0,0,0,-0.92551700498846,0.47181145371302,-0.34453622651933,5.1262138218333,2.7681118236122,0.94341512977117,-2.7000310285084,1.4168414186554,2.5648376216935,-0.35223709934545,1.798967039934,-5.2425955845197,1.7279052020785,-1.0206704587979,1.9206787905487,-3.3769860328079,1.3677177005757,4.142396770728,-0.99148152412268,-4.4228430465753,1.8804873634753,2.2268454187711,0.027364711494297,-4.7124109699024,3.1820548898547,-3.0244489024079,1.2063749211386,0.93847216118891,-1.1479998161314,0.83394035709958,1.0356294859048,0.011929969335758,0.78736691496787,-3.4360144172646,-1.2743616655286,-3.0568822741698,5.3360693841214,-1.9893285389389,3.051992859626,-0.35432373252398,-1.1675015396463,-6.1305312723722,0.96783355838851,-1.8922502648781,-3.4386741390694,1.9153841094111,2.9894197001874,-2.6670721562433,429.17197554728,429.17197554728,429.17197554728,429.17197554728,429.17197554728,429.17197554728,429.17197554728,429.17197554728,429.17197554728,429.17197554728,429.17197554728,429.17197554728,429.17197554728,429.17197554728,429.17197554728,429.17197554728,429.17197554728,429.17197554728,429.17197554728,429.17197554728,429.17197554728,429.17197554728,429.17197554728,429.17197554728,429.17197554728,429.17197554728,429.17197554728,429.17197554728,429.17197554728,429.17197554728,429.17197554728,429.17197554728,429.17197554728,429.17197554728,429.17197554728,429.17197554728,429.17197554728,429.17197554728,429.17197554728,429.17197554728,429.17197554728,429.17197554728,429.17197554728,429.17197554728,429.17197554728,429.17197554728,429.17197554728,429.17197554728,217.87841508539,862.67724988819,-4.0822209801674,750.97528113897,-4.0944602980037,0
0.00083718749999998,5494103412.0489,7.1334498963645e-05,0.00024810839949482,0.00011004395576373,1.0792062032186,0,0,0,0,0,0,0,0,0,0,0,0,0,0,0,0,0,0,0,0,0,0,0,0,0,0,0,0,0,0,0,0,0,0,0,0,0,0,0,0,0,0,0,0,0,0,0,0,-0.92535019456355,0.47294794427084,-0.34514507601194,5.1259839194001,2.7675977168519,0.94307516008597,-2.698938528087,1.4163858604018,2.5642857342208,-0.35197166439395,1.7986232326569,-5.241935334681,1.7283717668046,-1.0199761470859,1.9208181961729,-3.3746808055695,1.3661466310689,4.1414684561483,-0.99118812911177,-4.422728207025,1.8802823429067,2.2275467863472,0.027273086918054,-4.7141291145558,3.1818887898307,-3.0256681067387,1.2063523644988,0.93802053626877,-1.1468506307512,0.83320134803483,1.0348450966996,0.012859562052953,0.78733376319102,-3.4345483270949,-1.2733700260816,-3.0560100804931,5.3356544688725,-1.9876055973941,3.051608221032,-0.35431226264612,-1.1671477312103,-6.1283776169505,0.96737657077073,-1.8917895842936,-3.4387093612779,1.9168620176866,2.9885632512028,-2.6649292519508,429.60410975158,429.60410975158,429.60410975158,429.60410975158,429.60410975158,429.60410975158,429.60410975158,429.60410975158,429.60410975158,429.60410975158,429.60410975158,429.60410975158,429.60410975158,429.60410975158,429.60410975158,429.60410975158,429.60410975158,429.60410975158,429.60410975158,429.60410975158,429.60410975158,429.60410975158,429.60410975158,429.60410975158,429.60410975158,429.60410975158,429.60410975158,429.60410975158,429.60410975158,429.60410975158,429.60410975158,429.60410975158,429.60410975158,429.60410975158,429.60410975158,429.60410975158,429.60410975158,429.60410975158,429.60410975158,429.60410975158,429.60410975158,429.60410975158,429.60410975158,429.60410975158,429.60410975158,429.60410975158,429.60410975158,429.60410975158,217.85181217965,863.56353149656,-4.0928003143674,751.72761712127,-4.1050266858481,0
0.00083843749999998,5508099349.5471,7.1441468441347e-05,0.00024847891573873,0.0001102133922291,1.0793247055713,0,0,0,0,0,0,0,0,0,0,0,0,0,0,0,0,0,0,0,0,0,0,0,0,0,0,0,0,0,0,0,0,0,0,0,0,0,0,0,0,0,0,0,0,0,0,0,0,-0.92518370558775,0.47408190092709,-0.34575400341515,5.1257541508752,2.7670836421268,0.94273517811067,-2.6978467857288,1.4159303945416,2.5637336088716,-0.35170704989623,1.7982793679942,-5.2412743576405,1.7288371975982,-1.0192832115173,1.9209570091721,-3.3723761569971,1.3645760208966,4.1405402691287,-0.99089377977015,-4.4226132968742,1.8800772017193,2.2282471019321,0.027180264605989,-4.7158463828986,3.1817225163748,-3.0268845590302,1.2063298889556,0.93756808116356,-1.1457027777333,0.83246277627669,1.0340611142161,0.013789232795475,0.7873008106442,-3.4330836121735,-1.272378391624,-3.0551372754011,5.3352384833654,-1.9858834259516,3.0512230402193,-0.35430182043246,-1.1667934124143,-6.1262230650485,0.96691822420633,-1.8913276548945,-3.4387433456391,1.9183401630043,2.9877066778633,-2.6627868618465,430.03615020957,430.03615020957,430.03615020957,430.03615020957,430.03615020957,430.03615020957,430.03615020957,430.03615020957,430.03615020957,430.03615020957,430.03615020957,430.03615020957,430.03615020957,430.03615020957,430.03615020957,430.03615020957,430.03615020957,430.03615020957,430.03615020957,430.03615020957,430.03615020957,430.03615020957,430.03615020957,430.03615020957,430.03615020957,430.03615020957,430.03615020957,430.03615020957,430.03615020957,430.03615020957,430.03615020957,430.03615020957,430.03615020957,430.03615020957,430.03615020957,430.03615020957,430.03615020957,430.03615020957,430.03615020957,430.03615020957,430.03615020957,430.03615020957,430.03615020957,430.03615020957,430.03615020957,430.03615020957,430.03615020957,430.03615020957,217.82521539371,864.44963426991,-4.1033915146646,752.47976839507,-4.115604815304,0
0.00083968749999998,5522109963.1522,7.154844054282e-05,0.00024884943207916,0.00011038284309197,1.0794432044618,0,0,0,0,0,0,0,0,0,0,0,0,0,0,0,0,0,0,0,0,0,0,0,0,0,0,0,0,0,0,0,0,0,0,0,0,0,0,0,0,0,0,0,0,0,0,0,0,-0.92501754063706,0.47521331225909,-0.34636300208088,5.1255245138684,2.766569599686,0.94239518057553,-2.6967558022489,1.4154750218496,2.5631812475185,-0.35144326070562,1.7979354495807,-5.2406126513343,1.7293014915112,-1.0185916487702,1.9210952292095,-3.370072086202,1.363005871224,4.1396122101792,-0.99059847970923,-4.4224983116975,1.8798719397845,2.2289463681677,0.02708623951546,-4.717562765161,3.1815560685082,-3.0280982529915,1.206307494068,0.93711479369783,-1.1445562577317,0.83172464600853,1.0332775372867,0.014718976372404,0.7872680598202,-3.4316202734485,-1.2713867602639,-3.0542638560281,5.3348214227329,-1.9841620222895,3.0508373164302,-0.35429240443828,-1.166438581233,-6.1240676159184,0.96645852004541,-1.8908644729356,-3.438776080823,1.9198185443673,2.9868499776388,-2.6606449828213,430.46809694119,430.46809694119,430.46809694119,430.46809694119,430.46809694119,430.46809694119,430.46809694119,430.46809694119,430.46809694119,430.46809694119,430.46809694119,430.46809694119,430.46809694119,430.46809694119,430.46809694119,430.46809694119,430.46809694119,430.46809694119,430.46809694119,430.46809694119,430.46809694119,430.46809694119,430.46809694119,430.46809694119,430.46809694119,430.46809694119,430.46809694119,430.46809694119,430.46809694119,430.46809694119,430.46809694119,430.46809694119,430.46809694119,430.46809694119,430.46809694119,430.46809694119,430.46809694119,430.46809694119,430.46809694119,430.46809694119,430.46809694119,430.46809694119,430.46809694119,430.46809694119,430.46809694119,430.46809694119,430.46809694119,430.46809694119,217.79862476753,865.33555831323,-4.1139945756496,753.23173504511,-4.1261946805355,0
0.00084093749999998,5536135240.3406,7.1655415267229e-05,0.00024921994851695,0.00011055230831601,1.0795616998909,0,0,0,0,0,0,0,0,0,0,0,0,0,0,0,0,0,0,0,0,0,0,0,0,0,0,0,0,0,0,0,0,0,0,0,0,0,0,0,0,0,0,0,0,0,0,0,0,-0.92485170223665,0.47634216696565,-0.34697206561264,5.1252950057408,2.7660555899143,0.9420551641292,-2.6956655789957,1.415019743012,2.5626286520504,-0.3511803016293,1.7975914810631,-5.2399502136521,1.7297646455092,-1.0179014555118,1.9212328561104,-3.3677685924278,1.3614361831036,4.138684279975,-0.9903022327014,-4.4223832473135,1.8796665568478,2.2296445876923,0.026991006658644,-4.719278251544,3.1813894453386,-3.0293091824844,1.2062851794634,0.93666067165069,-1.1434110718777,0.83098696131334,1.0324943647441,0.015648787616123,0.78723551322499,-3.4301583117504,-1.2703951302094,-3.0533898195085,5.3344032823325,-1.9824413842624,3.0504510488086,-0.35428401320208,-1.1660832354919,-6.1219112688511,0.96599745960788,-1.8904000347058,-3.43880755569,1.9212971607861,2.9859931480847,-2.6585036119716,430.89994996645,430.89994996645,430.89994996645,430.89994996645,430.89994996645,430.89994996645,430.89994996645,430.89994996645,430.89994996645,430.89994996645,430.89994996645,430.89994996645,430.89994996645,430.89994996645,430.89994996645,430.89994996645,430.89994996645,430.89994996645,430.89994996645,430.89994996645,430.89994996645,430.89994996645,430.89994996645,430.89994996645,430.89994996645,430.89994996645,430.89994996645,430.89994996645,430.89994996645,430.89994996645,430.89994996645,430.89994996645,430.89994996645,430.89994996645,430.89994996645,430.89994996645,430.89994996645,430.89994996645,430.89994996645,430.89994996645,430.89994996645,430.89994996645,430.89994996645,430.89994996645,430.89994996645,430.89994996645,430.89994996645,430.89994996645,217.77204034032,866.22130373086,-4.1246094919267,753.98351715634,-4.136796275694,0
0.00084218749999998,5550175168.5804,7.1762392495471e-05,0.00024959046505298,0.00011072178772341,1.0796801918594,0,0,0,0,0,0,0,0,0,0,0,0,0,0,0,0,0,0,0,0,0,0,0,0,0,0,0,0,0,0,0,0,0,0,0,0,0,0,0,0,0,0,0,0,0,0,0,0,-0.92468619286022,0.47746845386662,-0.34758118788653,5.1250656235976,2.765541613336,0.94171512533822,-2.69457611786,1.4145645586272,2.5620758243767,-0.35091817742998,1.7972474661038,-5.2392870424535,1.7302266564645,-1.0172126283915,1.9213698898628,-3.3654656750794,1.3598669574842,4.1377564793594,-0.9900050426827,-4.4222680997933,1.8794610525245,2.2303417631426,0.026894561102968,-4.7209928322233,3.1812226460706,-3.0305173415457,1.2062629448393,0.93620571275607,-1.1422672217881,0.83024972617191,1.031711595425,0.016578661376954,0.78720317337587,-3.4286977277984,-1.269403499781,-3.0525151629678,5.3339840577506,-1.9807215099282,3.0500642364145,-0.3542766452428,-1.165727372866,-6.1197540232014,0.9655350441842,-1.8899343365249,-3.4388377592967,1.922776011284,2.9851361868399,-2.6563627466051,431.33170930548,431.33170930548,431.33170930548,431.33170930548,431.33170930548,431.33170930548,431.33170930548,431.33170930548,431.33170930548,431.33170930548,431.33170930548,431.33170930548,431.33170930548,431.33170930548,431.33170930548,431.33170930548,431.33170930548,431.33170930548,431.33170930548,431.33170930548,431.33170930548,431.33170930548,431.33170930548,431.33170930548,431.33170930548,431.33170930548,431.33170930548,431.33170930548,431.33170930548,431.33170930548,431.33170930548,431.33170930548,431.33170930548,431.33170930548,431.33170930548,431.33170930548,431.33170930548,431.33170930548,431.33170930548,431.33170930548,431.33170930548,431.33170930548,431.33170930548,431.33170930548,431.33170930548,431.33170930548,431.33170930548,431.33170930548,217.74546215037,867.10687062656,-4.135236258096,754.73511481394,-4.1474095949461,0
0.00084343749999998,5564229735.3311,7.1869372088834e-05,0.00024996098168812,0.00011089128111306,1.079798680368,0,0,0,0,0,0,0,0,0,0,0,0,0,0,0,0,0,0,0,0,0,0,0,0,0,0,0,0,0,0,0,0,0,0,0,0,0,0,0,0,0,0,0,0,0,0,0,0,-0.92452101493326,0.47859216190102,-0.34819036307129,5.1248363642987,2.7650276706258,0.94137506069222,-2.693487421292,1.4141094692047,2.5615227664199,-0.35065689282531,1.7969034083852,-5.2386231355795,1.7306875211522,-1.0165251640532,1.9215063306276,-3.3631633337369,1.3582981952052,4.1368288093653,-0.98970691374916,-4.4221528654826,1.8792554262954,2.2310378971477,0.02679689797645,-4.7227064973333,3.1810556700203,-3.0317227244001,1.2062407899673,0.93574991470503,-1.1411247095727,0.82951294446132,1.0309292281646,0.017508592518956,0.7871710428015,-3.4272385222067,-1.2684118674199,-3.0516398835252,5.3335637448282,-1.9790023975715,3.0496768782209,-0.35427029906937,-1.1653709908783,-6.1175958783789,0.96507127502913,-1.8894673747276,-3.4388666809155,1.9242550948959,2.984279091647,-2.6542223842516,431.76337497844,431.76337497844,431.76337497844,431.76337497844,431.76337497844,431.76337497844,431.76337497844,431.76337497844,431.76337497844,431.76337497844,431.76337497844,431.76337497844,431.76337497844,431.76337497844,431.76337497844,431.76337497844,431.76337497844,431.76337497844,431.76337497844,431.76337497844,431.76337497844,431.76337497844,431.76337497844,431.76337497844,431.76337497844,431.76337497844,431.76337497844,431.76337497844,431.76337497844,431.76337497844,431.76337497844,431.76337497844,431.76337497844,431.76337497844,431.76337497844,431.76337497844,431.76337497844,431.76337497844,431.76337497844,431.76337497844,431.76337497844,431.76337497844,431.76337497844,431.76337497844,431.76337497844,431.76337497844,431.76337497844,431.76337497844,217.7188902351,867.99225910348,-4.1458748687349,755.4865281034,-4.1580346324443,0
0.00084468749999998,5578298928.0432,7.1976354293925e-05,0.00025033149842324,0.00011106078874214,1.0799171654177,0,0,0,0,0,0,0,0,0,0,0,0,0,0,0,0,0,0,0,0,0,0,0,0,0,0,0,0,0,0,0,0,0,0,0,0,0,0,0,0,0,0,0,0,0,0,0,0,-0.92435617083165,0.47971328012671,-0.34879958564918,5.1246072244684,2.7645137626138,0.94103496659735,-2.6923994922982,1.4136544751633,2.5609694801291,-0.35039645248957,1.7965593116108,-5.2379584908515,1.7311472362433,-1.0158390591296,1.9216421787373,-3.3608615681801,1.3567298969945,4.1359012712178,-0.98940785017003,-4.4220375410036,1.8790496774991,2.2317329923373,0.0266980124667,-4.7244192369705,3.1808885166195,-3.032925325459,1.2062187146946,0.93529327514373,-1.1399835378334,0.8287766199491,1.0301472618066,0.018438575915417,0.7871391240395,-3.4257806954826,-1.2674202316973,-3.0507639782877,5.333142339662,-1.9772840457274,3.0492889731103,-0.35426497317854,-1.1650140869,-6.115436833867,0.96460615335856,-1.8889991456621,-3.4388943100442,1.9257344106673,2.9834218603455,-2.6520825226806,432.19494700563,432.19494700563,432.19494700563,432.19494700563,432.19494700563,432.19494700563,432.19494700563,432.19494700563,432.19494700563,432.19494700563,432.19494700563,432.19494700563,432.19494700563,432.19494700563,432.19494700563,432.19494700563,432.19494700563,432.19494700563,432.19494700563,432.19494700563,432.19494700563,432.19494700563,432.19494700563,432.19494700563,432.19494700563,432.19494700563,432.19494700563,432.19494700563,432.19494700563,432.19494700563,432.19494700563,432.19494700563,432.19494700563,432.19494700563,432.19494700563,432.19494700563,432.19494700563,432.19494700563,432.19494700563,432.19494700563,432.19494700563,432.19494700563,432.19494700563,432.19494700563,432.19494700563,432.19494700563,432.19494700563,432.19494700563,217.69232463104,868.87746926414,-4.1565253184597,756.23775711047,-4.1686713823212,0
0.00084593749999998,5592382734.1584,7.2083338978492e-05,0.00025070201525924,0.00011123031041706,1.0800356470092,0,0,0,0,0,0,0,0,0,0,0,0,0,0,0,0,0,0,0,0,0,0,0,0,0,0,0,0,0,0,0,0,0,0,0,0,0,0,0,0,0,0,0,0,0,0,0,0,-0.92419166288457,0.4808317977198,-0.34940885042905,5.1243782004964,2.763999890289,0.94069483938298,-2.6913123344539,1.4131995768348,2.560415967468,-0.35013686105241,1.7962151795112,-5.2372931060867,1.7316057983015,-1.0151543102534,1.9217774347033,-3.3585603784028,1.3551620634857,4.1349738663481,-0.98910785637416,-4.4219221232775,1.8788438053352,2.2324270513335,0.026597899826359,-4.7261310411685,3.180721185432,-3.0341251393418,1.2061967189431,0.93483579167511,-1.1388437096645,0.82804075629481,1.0293656951958,0.019368606445186,0.78710741963616,-3.4243242480342,-1.2664285913243,-3.0498874443504,5.332719838627,-1.9755664532061,3.0489005199003,-0.35426066606482,-1.1646566581511,-6.1132768892087,0.96413968035404,-1.8885296456724,-3.4389206364225,1.9272139576622,2.9825644908899,-2.6499431598935,432.62642540739,432.62642540739,432.62642540739,432.62642540739,432.62642540739,432.62642540739,432.62642540739,432.62642540739,432.62642540739,432.62642540739,432.62642540739,432.62642540739,432.62642540739,432.62642540739,432.62642540739,432.62642540739,432.62642540739,432.62642540739,432.62642540739,432.62642540739,432.62642540739,432.62642540739,432.62642540739,432.62642540739,432.62642540739,432.62642540739,432.62642540739,432.62642540739,432.62642540739,432.62642540739,432.62642540739,432.62642540739,432.62642540739,432.62642540739,432.62642540739,432.62642540739,432.62642540739,432.62642540739,432.62642540739,432.62642540739,432.62642540739,432.62642540739,432.62642540739,432.62642540739,432.62642540739,432.62642540739,432.62642540739,432.62642540739,217.66576537373,869.76250121048,-4.1671876018413,756.98880192122,-4.1793198387269,0
0.00084718749999998,5606481141.1093,7.2190325959192e-05,0.00025107253219701,0.00011139984588334,1.0801541251432,0,0,0,0,0,0,0,0,0,0,0,0,0,0,0,0,0,0,0,0,0,0,0,0,0,0,0,0,0,0,0,0,0,0,0,0,0,0,0,0,0,0,0,0,0,0,0,0,-0.9240274933727,0.48194770397375,-0.35001815256489,5.1241492885483,2.7634860548077,0.94035467530177,-2.6902259518841,1.4127447744617,2.5598622304317,-0.34987812310059,1.7958710158426,-5.2366269791095,1.732063203781,-1.0144709140472,1.9219120992132,-3.3562597646496,1.3535946952015,4.1340465964008,-0.98880693695679,-4.4218066095124,1.8786378088584,2.2331200767612,0.026496555372889,-4.7278418999383,3.1805536761548,-3.0353221608862,1.2061748027148,0.93437746186031,-1.1377052286396,0.82730535704517,1.0285845271906,0.020298678991304,0.78707593214484,-3.4228691801734,-1.265436945161,-3.0490102787849,5.3322962383729,-1.9738496191196,3.0485115173271,-0.3542573762144,-1.1642987017038,-6.1111160440607,0.96367185715101,-1.8880588710903,-3.4389456500325,1.9286937349582,2.9817069813492,-2.6478042941418,433.05781020414,433.05781020414,433.05781020414,433.05781020414,433.05781020414,433.05781020414,433.05781020414,433.05781020414,433.05781020414,433.05781020414,433.05781020414,433.05781020414,433.05781020414,433.05781020414,433.05781020414,433.05781020414,433.05781020414,433.05781020414,433.05781020414,433.05781020414,433.05781020414,433.05781020414,433.05781020414,433.05781020414,433.05781020414,433.05781020414,433.05781020414,433.05781020414,433.05781020414,433.05781020414,433.05781020414,433.05781020414,433.05781020414,433.05781020414,433.05781020414,433.05781020414,433.05781020414,433.05781020414,433.05781020414,433.05781020414,433.05781020414,433.05781020414,433.05781020414,433.05781020414,433.05781020414,433.05781020414,433.05781020414,433.05781020414,217.63921249766,870.64735504388,-4.1778617134612,757.73966262205,-4.1899799957967,0
0.00084843749999998,5620594136.3189,7.2297314636133e-05,0.00025144304923746,0.00011156939438935,1.0802725998206,0,0,0,0,0,0,0,0,0,0,0,0,0,0,0,0,0,0,0,0,0,0,0,0,0,0,0,0,0,0,0,0,0,0,0,0,0,0,0,0,0,0,0,0,0,0,0,0,-0.92386366453097,0.4830609882978,-0.35062748757319,5.1239204845798,2.7629722574938,0.94001447053754,-2.6891403492794,1.4122900682007,2.5593082710399,-0.34962024317506,1.7955268243979,-5.2359601077585,1.7325194490228,-1.0137888671349,1.9220461731348,-3.3539597274158,1.3520277925782,4.1331194632409,-0.98850509666892,-4.4216909972374,1.878431686979,2.2338120712483,0.026393974493305,-4.7295518032091,3.1803859886404,-3.036516385155,1.2061529660875,0.93391828322244,-1.1365680988131,0.8265704256336,1.0278037566547,0.021228788437696,0.78704466412637,-3.4214154921225,-1.2644452922276,-3.0481324786443,5.331871535849,-1.9721335429039,3.0481219640765,-0.35425510211429,-1.1639402144878,-6.1089542981406,0.9632026848467,-1.8875868182285,-3.4389693411254,1.930173741656,2.9808493299146,-2.6456659239207,433.48910141639,433.48910141639,433.48910141639,433.48910141639,433.48910141639,433.48910141639,433.48910141639,433.48910141639,433.48910141639,433.48910141639,433.48910141639,433.48910141639,433.48910141639,433.48910141639,433.48910141639,433.48910141639,433.48910141639,433.48910141639,433.48910141639,433.48910141639,433.48910141639,433.48910141639,433.48910141639,433.48910141639,433.48910141639,433.48910141639,433.48910141639,433.48910141639,433.48910141639,433.48910141639,433.48910141639,433.48910141639,433.48910141639,433.48910141639,433.48910141639,433.48910141639,433.48910141639,433.48910141639,433.48910141639,433.48910141639,433.48910141639,433.48910141639,433.48910141639,433.48910141639,433.48910141639,433.48910141639,433.48910141639,433.48910141639,217.61266603636,871.53203086511,-4.1885476478794,758.49033929973,-4.2006518476966,0
0.00084968749999998,5634721707.201,7.2404306073991e-05,0.00025181356638151,0.00011173895716665,1.0803910710422,0,0,0,0,0,0,0,0,0,0,0,0,0,0,0,0,0,0,0,0,0,0,0,0,0,0,0,0,0,0,0,0,0,0,0,0,0,0,0,0,0,0,0,0,0,0,0,0,-0.92370017854824,0.48417164021908,-0.35123685133965,5.123691784353,2.7624584998431,0.93967422120026,-2.6880555318796,1.4118354581238,2.5587540913397,-0.34936322577209,1.7951826090008,-5.2352924898945,1.7329745302548,-1.0131081661412,1.9221796575132,-3.3516602674831,1.3504613559578,4.132192468959,-0.98820234042457,-4.4215752843005,1.8782254384645,2.234503037421,0.026290152644992,-4.7312607408617,3.1802181228905,-3.0377078074463,1.2061312092185,0.93345825324389,-1.1354323247033,0.82583596537778,1.0270233824651,0.022158929668226,0.78701361814676,-3.4199631840139,-1.2634536317079,-3.0472540409544,5.3314457283012,-1.9704182243422,3.0477318587774,-0.35425384225545,-1.1635811932946,-6.1067916512751,0.9627321644951,-1.8871134833651,-3.4389917002192,1.9316539768771,2.9799915349015,-2.6435280479827,433.92029906472,433.92029906472,433.92029906472,433.92029906472,433.92029906472,433.92029906472,433.92029906472,433.92029906472,433.92029906472,433.92029906472,433.92029906472,433.92029906472,433.92029906472,433.92029906472,433.92029906472,433.92029906472,433.92029906472,433.92029906472,433.92029906472,433.92029906472,433.92029906472,433.92029906472,433.92029906472,433.92029906472,433.92029906472,433.92029906472,433.92029906472,433.92029906472,433.92029906472,433.92029906472,433.92029906472,433.92029906472,433.92029906472,433.92029906472,433.92029906472,433.92029906472,433.92029906472,433.92029906472,433.92029906472,433.92029906472,433.92029906472,433.92029906472,433.92029906472,433.92029906472,433.92029906472,433.92029906472,433.92029906472,433.92029906472,217.58612602227,872.41652877439,-4.1992453997012,759.24083204138,-4.2113353885159,0
0.00085093749999998,5648863841.1592,7.2511300091837e-05,0.00025218408363006,0.00011190853396386,1.0805095388088,0,0,0,0,0,0,0,0,0,0,0,0,0,0,0,0,0,0,0,0,0,0,0,0,0,0,0,0,0,0,0,0,0,0,0,0,0,0,0,0,0,0,0,0,0,0,0,0,-0.92353703756569,0.48527964937942,-0.35184624013791,5.1234631834382,2.7619447835276,0.93933392334123,-2.6869715054218,1.4113809442225,2.5581996933851,-0.34910707534142,1.7948383735101,-5.2346241234141,1.7334284435946,-1.0124288076811,1.9223125535619,-3.3493613859606,1.3488953855845,4.1312656158841,-0.98789867328126,-4.4214594688304,1.878019061941,2.2351929778924,0.026185085359973,-4.7329687027757,3.1800500790687,-3.0388964233028,1.2061095323438,0.93299736937481,-1.1342979112479,0.82510197947907,1.0262434034932,0.023089097570947,0.78698279677667,-3.4185122558989,-1.2624619629602,-3.046374962706,5.3310188132708,-1.9687036635934,3.0473412000039,-0.35425359512309,-1.1632216347916,-6.104628103463,0.9622602970997,-1.8866388627288,-3.4390127181068,1.9331344397644,2.979133594766,-2.6413906653343,434.35140316976,434.35140316976,434.35140316976,434.35140316976,434.35140316976,434.35140316976,434.35140316976,434.35140316976,434.35140316976,434.35140316976,434.35140316976,434.35140316976,434.35140316976,434.35140316976,434.35140316976,434.35140316976,434.35140316976,434.35140316976,434.35140316976,434.35140316976,434.35140316976,434.35140316976,434.35140316976,434.35140316976,434.35140316976,434.35140316976,434.35140316976,434.35140316976,434.35140316976,434.35140316976,434.35140316976,434.35140316976,434.35140316976,434.35140316976,434.35140316976,434.35140316976,434.35140316976,434.35140316976,434.35140316976,434.35140316976,434.35140316976,434.35140316976,434.35140316976,434.35140316976,434.35140316976,434.35140316976,434.35140316976,434.35140316976,217.55959248674,873.30084887141,-4.209954963518,759.99114093452,-4.2220306123882,0
0.00085218749999998,5663020525.5874,7.2618296132476e-05,0.00025255460098405,0.00011207812407985,1.0806280031212,0,0,0,0,0,0,0,0,0,0,0,0,0,0,0,0,0,0,0,0,0,0,0,0,0,0,0,0,0,0,0,0,0,0,0,0,0,0,0,0,0,0,0,0,0,0,0,0,-0.92337424367975,0.48638500553709,-0.35245565063505,5.1232346772415,2.7614311103867,0.93899357295102,-2.6858882761889,1.4109265264095,2.5576450792917,-0.34885179628438,1.7944941218278,-5.2339550062547,1.7338811850437,-1.011750788381,1.9224448626735,-3.3470630842516,1.3473298816407,4.1303389065682,-0.98759410044258,-4.4213435493111,1.8778125558942,2.2358818953033,0.026078768245823,-4.7346756787106,3.1798818575138,-3.0400822285192,1.2060879357731,0.9325356290306,-1.1331648638297,0.82436847102289,1.0254638186479,0.024019287030146,0.78695220259155,-3.4170627077494,-1.2614702855273,-3.0454952408612,5.3305907886203,-1.9669898612061,3.0469499863151,-0.35425435921536,-1.1628615355195,-6.1024636547453,0.96178708362859,-1.8861629524973,-3.4390323858732,1.9346151294944,2.9782755080873,-2.6392537752306,434.78241375223,434.78241375223,434.78241375223,434.78241375223,434.78241375223,434.78241375223,434.78241375223,434.78241375223,434.78241375223,434.78241375223,434.78241375223,434.78241375223,434.78241375223,434.78241375223,434.78241375223,434.78241375223,434.78241375223,434.78241375223,434.78241375223,434.78241375223,434.78241375223,434.78241375223,434.78241375223,434.78241375223,434.78241375223,434.78241375223,434.78241375223,434.78241375223,434.78241375223,434.78241375223,434.78241375223,434.78241375223,434.78241375223,434.78241375223,434.78241375223,434.78241375223,434.78241375223,434.78241375223,434.78241375223,434.78241375223,434.78241375223,434.78241375223,434.78241375223,434.78241375223,434.78241375223,434.78241375223,434.78241375223,434.78241375223,217.53306546001,874.1849912553,-4.2206763338602,760.74126606707,-4.2327375134641,0
0.00085343749999998,5677191747.8691,7.2725294239477e-05,0.00025292511844441,0.00011224772752982,1.0807464639803,0,0,0,0,0,0,0,0,0,0,0,0,0,0,0,0,0,0,0,0,0,0,0,0,0,0,0,0,0,0,0,0,0,0,0,0,0,0,0,0,0,0,0,0,0,0,0,0,-0.92321179894054,0.48748769856751,-0.35306507990123,5.1230062610198,2.7609174824391,0.93865316597054,-2.6848058509463,1.4104722045252,2.5570902511834,-0.34859739295179,1.7941498578972,-5.2332851364015,1.7343327504966,-1.0110741048716,1.9225765864023,-3.3447653641201,1.3457648442322,4.1294123438088,-0.98728862724364,-4.4212275245381,1.8776059186786,2.2365697922791,0.025971196990432,-4.7363816584086,3.1797134587413,-3.0412652191447,1.206066419895,0.93207302959832,-1.1320331882229,0.82363544297626,1.024684626838,0.024949492935721,0.78692183817146,-3.4156145394608,-1.2604785991389,-3.0446148723518,5.3301616525209,-1.965276818147,3.0465582162441,-0.35425613303695,-1.162500891915,-6.1002983053323,0.96131252500593,-1.8856857487874,-3.4390506948978,1.9360960452754,2.9774172735908,-2.6371173771806,435.21333083291,435.21333083291,435.21333083291,435.21333083291,435.21333083291,435.21333083291,435.21333083291,435.21333083291,435.21333083291,435.21333083291,435.21333083291,435.21333083291,435.21333083291,435.21333083291,435.21333083291,435.21333083291,435.21333083291,435.21333083291,435.21333083291,435.21333083291,435.21333083291,435.21333083291,435.21333083291,435.21333083291,435.21333083291,435.21333083291,435.21333083291,435.21333083291,435.21333083291,435.21333083291,435.21333083291,435.21333083291,435.21333083291,435.21333083291,435.21333083291,435.21333083291,435.21333083291,435.21333083291,435.21333083291,435.21333083291,435.21333083291,435.21333083291,435.21333083291,435.21333083291,435.21333083291,435.21333083291,435.21333083291,435.21333083291,217.50654497116,875.06895602469,-4.2314095053001,761.49120752737,-4.2434560858702,0
0.00085468749999998,5691377495.3775,7.2832294241875e-05,0.00025329563601209,0.00011241734407337,1.0808649213867,0,0,0,0,0,0,0,0,0,0,0,0,0,0,0,0,0,0,0,0,0,0,0,0,0,0,0,0,0,0,0,0,0,0,0,0,0,0,0,0,0,0,0,0,0,0,0,0,-0.92304970535103,0.48858771845836,-0.35367452541253,5.122777929897,2.7604039018702,0.93831269829872,-2.6837242369131,1.41001797834,2.5565352112162,-0.348343869643,1.7938055857029,-5.2326145119056,1.73478313574,-1.0103987537787,1.9227077264605,-3.342468227698,1.34420027339,4.1284859306341,-0.9869822591404,-4.4211113936158,1.8773991485184,2.2372566714567,0.025862367362887,-4.7380866315734,3.1795448834446,-3.0424453914982,1.2060449851689,0.9316095684409,-1.1309028905584,0.82290289818939,1.0239058269849,0.025879710181763,0.78689170609858,-3.4141677508616,-1.2594869037197,-3.0437338540557,5.3297314034515,-1.9635645358178,3.0461658883082,-0.35425891509611,-1.1621397003156,-6.0981320555862,0.96083662210346,-1.8852072476273,-3.4390676368544,1.9375771863473,2.9765588901396,-2.634981470935,435.64415443264,435.64415443264,435.64415443264,435.64415443264,435.64415443264,435.64415443264,435.64415443264,435.64415443264,435.64415443264,435.64415443264,435.64415443264,435.64415443264,435.64415443264,435.64415443264,435.64415443264,435.64415443264,435.64415443264,435.64415443264,435.64415443264,435.64415443264,435.64415443264,435.64415443264,435.64415443264,435.64415443264,435.64415443264,435.64415443264,435.64415443264,435.64415443264,435.64415443264,435.64415443264,435.64415443264,435.64415443264,435.64415443264,435.64415443264,435.64415443264,435.64415443264,435.64415443264,435.64415443264,435.64415443264,435.64415443264,435.64415443264,435.64415443264,435.64415443264,435.64415443264,435.64415443264,435.64415443264,435.64415443264,435.64415443264,217.48003104816,875.95274327772,-4.2421544723815,762.2409654042,-4.2541863237277,0
0.00085593749999998,5705577755.475,7.2939296226004e-05,0.00025366615368803,0.0001125869737766,1.0809833753413,0,0,0,0,0,0,0,0,0,0,0,0,0,0,0,0,0,0,0,0,0,0,0,0,0,0,0,0,0,0,0,0,0,0,0,0,0,0,0,0,0,0,0,0,0,0,0,0,-0.9228879648685,0.48968505531834,-0.35428398505772,5.1225496788946,2.7598903710337,0.93797216579445,-2.6826434417715,1.4095638475624,2.5559799615956,-0.34809123060132,1.7934613092797,-5.2319431308805,1.7352323364574,-1.0097247317443,1.9228382847171,-3.3401716774766,1.342636169109,4.1275596703066,-0.98667500170426,-4.4209951559969,1.8771922435188,2.2379425354943,0.025752275217786,-4.7397905878201,3.1793761325105,-3.0436227421621,1.2060236321251,0.9311452428972,-1.1297739773217,0.82217083939578,1.0231274180395,0.026809933668938,0.78686180896025,-3.4127223417111,-1.2584951993967,-3.0428521828232,5.3293000402183,-1.9618530160713,3.0457730010416,-0.35426270391738,-1.1617779569754,-6.0959649059631,0.96035937576741,-1.8847274449719,-3.4390832037315,1.9390585519911,2.9757003567373,-2.6328460564816,436.07488457231,436.07488457231,436.07488457231,436.07488457231,436.07488457231,436.07488457231,436.07488457231,436.07488457231,436.07488457231,436.07488457231,436.07488457231,436.07488457231,436.07488457231,436.07488457231,436.07488457231,436.07488457231,436.07488457231,436.07488457231,436.07488457231,436.07488457231,436.07488457231,436.07488457231,436.07488457231,436.07488457231,436.07488457231,436.07488457231,436.07488457231,436.07488457231,436.07488457231,436.07488457231,436.07488457231,436.07488457231,436.07488457231,436.07488457231,436.07488457231,436.07488457231,436.07488457231,436.07488457231,436.07488457231,436.07488457231,436.07488457231,436.07488457231,436.07488457231,436.07488457231,436.07488457231,436.07488457231,436.07488457231,436.07488457231,217.45352371776,876.83635311205,-4.2529112296608,762.99053978676,-4.2649282211661,0
0.00085718749999998,5719792515.5132,7.3046300119706e-05,0.00025403667147319,0.0001127566165167,1.081101825845,0,0,0,0,0,0,0,0,0,0,0,0,0,0,0,0,0,0,0,0,0,0,0,0,0,0,0,0,0,0,0,0,0,0,0,0,0,0,0,0,0,0,0,0,0,0,0,0,-0.92272657940047,0.49077969936892,-0.35489345713452,5.1223215029411,2.7593768924479,0.9376315642983,-2.6815634735835,1.4091098118424,2.5554245045376,-0.34783948001282,1.793117032705,-5.2312709915221,1.7356803482369,-1.0090520354023,1.9229682631798,-3.3378757163686,1.3410725313157,4.1266335663183,-0.98636686059639,-4.4208788114208,1.8769852016716,2.2386273870424,0.025640916496773,-4.7414935167784,3.1792072070092,-3.0447972679961,1.2060023613635,0.9306800502947,-1.1286464552815,0.82143926921191,1.0223493989537,0.027740158312705,0.78683214934532,-3.4112783117097,-1.2575034864988,-3.04196985544,5.3288675619261,-1.9601422612328,3.0453795529768,-0.35426749802753,-1.1614156580797,-6.0937968571387,0.95988078678919,-1.8842463366647,-3.4390973878161,1.9405401415227,2.9748416725289,-2.6307111340405,436.50552127288,436.50552127288,436.50552127288,436.50552127288,436.50552127288,436.50552127288,436.50552127288,436.50552127288,436.50552127288,436.50552127288,436.50552127288,436.50552127288,436.50552127288,436.50552127288,436.50552127288,436.50552127288,436.50552127288,436.50552127288,436.50552127288,436.50552127288,436.50552127288,436.50552127288,436.50552127288,436.50552127288,436.50552127288,436.50552127288,436.50552127288,436.50552127288,436.50552127288,436.50552127288,436.50552127288,436.50552127288,436.50552127288,436.50552127288,436.50552127288,436.50552127288,436.50552127288,436.50552127288,436.50552127288,436.50552127288,436.50552127288,436.50552127288,436.50552127288,436.50552127288,436.50552127288,436.50552127288,436.50552127288,436.50552127288,217.42702300555,877.71978562489,-4.2636797716755,763.73993076471,-4.2756817722973,0
0.00085843749999998,5734021762.8326,7.3153305889723e-05,0.00025440718936854,0.00011292627221705,1.0812202728985,0,0,0,0,0,0,0,0,0,0,0,0,0,0,0,0,0,0,0,0,0,0,0,0,0,0,0,0,0,0,0,0,0,0,0,0,0,0,0,0,0,0,0,0,0,0,0,0,-0.92256555080657,0.49187164095178,-0.35550294035532,5.1220933969081,2.7588634687872,0.93729088963041,-2.6804843407865,1.4086558707814,2.5548688422983,-0.34758862200237,1.7927727601061,-5.2305980921046,1.7361271665769,-1.0083806613959,1.9230976639879,-3.3355803476906,1.3395093599066,4.1257076223887,-0.98605784156428,-4.4207623599435,1.8767780208678,2.2393112287692,0.025528287232849,-4.7431954080281,3.1790381082084,-3.0459689661284,1.2059811735459,0.93021398794665,-1.1275203314756,0.82070819014164,1.0215717687017,0.028670379044204,0.786802729846,-3.4098356604967,-1.2565117655648,-3.0410868686519,5.3284339679909,-1.9584322741104,3.044985542686,-0.35427329596523,-1.1610527997643,-6.091627909935,0.95940085592801,-1.8837639184522,-3.4391101817082,1.9420219543077,2.9739828368063,-2.628576704052,436.93606455536,436.93606455536,436.93606455536,436.93606455536,436.93606455536,436.93606455536,436.93606455536,436.93606455536,436.93606455536,436.93606455536,436.93606455536,436.93606455536,436.93606455536,436.93606455536,436.93606455536,436.93606455536,436.93606455536,436.93606455536,436.93606455536,436.93606455536,436.93606455536,436.93606455536,436.93606455536,436.93606455536,436.93606455536,436.93606455536,436.93606455536,436.93606455536,436.93606455536,436.93606455536,436.93606455536,436.93606455536,436.93606455536,436.93606455536,436.93606455536,436.93606455536,436.93606455536,436.93606455536,436.93606455536,436.93606455536,436.93606455536,436.93606455536,436.93606455536,436.93606455536,436.93606455536,436.93606455536,436.93606455536,436.93606455536,217.40052893592,878.60304091302,-4.2744600929779,764.48913842815,-4.2864469712544,0
0.00085968749999998,5748265484.7623,7.3260313492115e-05,0.00025477770737505,0.0001130959407886,1.0813387165027,0,0,0,0,0,0,0,0,0,0,0,0,0,0,0,0,0,0,0,0,0,0,0,0,0,0,0,0,0,0,0,0,0,0,0,0,0,0,0,0,0,0,0,0,0,0,0,0,-0.92240488089614,0.49296087052356,-0.35611243383303,5.1218653556273,2.7583501028763,0.9369501376089,-2.6794060521522,1.4082020239357,2.5543129771643,-0.3473386606296,1.7924284956573,-5.2299244309962,1.7365727868906,-1.0077106063744,1.9232264894056,-3.333285575181,1.3379466547527,4.1247818424494,-0.98574795041732,-4.4206458019265,1.8765706989058,2.2399940633536,0.025414383551713,-4.7448962511233,3.1788688375637,-3.0471378339646,1.2059600693955,0.92974705316179,-1.1263956131651,0.8199776045739,1.0207945262744,0.029600590817669,0.78677355305703,-3.4083943876598,-1.2555200373433,-3.0402032191493,5.3279992581317,-1.9567230580068,3.0445909687866,-0.35428009628014,-1.1606893781244,-6.0894580653441,0.95891958390799,-1.8832801859599,-3.439121578318,1.9435039897584,2.9731238489937,-2.6264427671628,437.36651444081,437.36651444081,437.36651444081,437.36651444081,437.36651444081,437.36651444081,437.36651444081,437.36651444081,437.36651444081,437.36651444081,437.36651444081,437.36651444081,437.36651444081,437.36651444081,437.36651444081,437.36651444081,437.36651444081,437.36651444081,437.36651444081,437.36651444081,437.36651444081,437.36651444081,437.36651444081,437.36651444081,437.36651444081,437.36651444081,437.36651444081,437.36651444081,437.36651444081,437.36651444081,437.36651444081,437.36651444081,437.36651444081,437.36651444081,437.36651444081,437.36651444081,437.36651444081,437.36651444081,437.36651444081,437.36651444081,437.36651444081,437.36651444081,437.36651444081,437.36651444081,437.36651444081,437.36651444081,437.36651444081,437.36651444081,217.37404153212,879.48611907281,-4.2852521880797,765.23816286764,-4.2972238121527,0
0.00086093749999998,5762523668.6199,7.3367322903892e-05,0.00025514822549368,0.0001132656221671,1.0814571566583,0,0,0,0,0,0,0,0,0,0,0,0,0,0,0,0,0,0,0,0,0,0,0,0,0,0,0,0,0,0,0,0,0,0,0,0,0,0,0,0,0,0,0,0,0,0,0,0,-0.92224457142774,0.49404737866057,-0.35672193708177,5.1216373739214,2.7578367976842,0.93660930405929,-2.6783286167445,1.4077482708274,2.5537569114573,-0.34708959988603,1.7920842435837,-5.2292500066646,1.737017204517,-1.007041866989,1.9233547418048,-3.3309914030181,1.3363844156992,4.123856230647,-0.98543719301257,-4.4205291380257,1.8763632335067,2.2406758934936,0.025299201676385,-4.746596035609,3.1786993967281,-3.0483038691861,1.2059390496916,0.92927924325058,-1.1252723077962,0.81924751478769,1.0200176706821,0.03053078861579,0.78674462157628,-3.4069544927375,-1.2545283027937,-3.0393189035688,5.3275634323641,-1.9550146167308,3.0441958299487,-0.35428789752943,-1.1603253892397,-6.0872873245504,0.95843697141496,-1.8827951346964,-3.439131570868,1.9449862473368,2.9722647086625,-2.6243093242122,437.79687095036,437.79687095036,437.79687095036,437.79687095036,437.79687095036,437.79687095036,437.79687095036,437.79687095036,437.79687095036,437.79687095036,437.79687095036,437.79687095036,437.79687095036,437.79687095036,437.79687095036,437.79687095036,437.79687095036,437.79687095036,437.79687095036,437.79687095036,437.79687095036,437.79687095036,437.79687095036,437.79687095036,437.79687095036,437.79687095036,437.79687095036,437.79687095036,437.79687095036,437.79687095036,437.79687095036,437.79687095036,437.79687095036,437.79687095036,437.79687095036,437.79687095036,437.79687095036,437.79687095036,437.79687095036,437.79687095036,437.79687095036,437.79687095036,437.79687095036,437.79687095036,437.79687095036,437.79687095036,437.79687095036,437.79687095036,217.34756081607,880.36902020029,-4.2960560515315,765.98700417419,-4.3080122891191,0
0.00086218749999998,5776796301.7113,7.3474334052048e-05,0.00025551874372544,0.00011343531622862,1.0815755933662,0,0,0,0,0,0,0,0,0,0,0,0,0,0,0,0,0,0,0,0,0,0,0,0,0,0,0,0,0,0,0,0,0,0,0,0,0,0,0,0,0,0,0,0,0,0,0,0,-0.92208462410616,0.49513115605998,-0.35733145000778,5.1214094466352,2.7573235563099,0.93626838482554,-2.6772520438766,1.4072946109509,2.5532006475261,-0.34684144369004,1.7917400081599,-5.2285748176736,1.7374604147289,-1.0063744398991,1.9234824236551,-3.3286978358205,1.334822642593,4.1229307913202,-0.9851255752379,-4.4204123691854,1.8761556223254,2.2413567218993,0.025182737929143,-4.7482947510232,3.1785297875486,-3.0494670697396,1.2059181152623,0.92881055552976,-1.1241504229503,0.81851792295418,1.0192412009495,0.031460967457057,0.78671593800473,-3.4055159752177,-1.2535365630915,-3.0384339184911,5.3271264909896,-1.9533069546024,3.0438001249218,-0.35429669828149,-1.1599608291893,-6.0851156889229,0.95795301911303,-1.8823087600344,-3.4391401528856,1.9464687265597,2.9714054155149,-2.6221763762223,438.22713410516,438.22713410516,438.22713410516,438.22713410516,438.22713410516,438.22713410516,438.22713410516,438.22713410516,438.22713410516,438.22713410516,438.22713410516,438.22713410516,438.22713410516,438.22713410516,438.22713410516,438.22713410516,438.22713410516,438.22713410516,438.22713410516,438.22713410516,438.22713410516,438.22713410516,438.22713410516,438.22713410516,438.22713410516,438.22713410516,438.22713410516,438.22713410516,438.22713410516,438.22713410516,438.22713410516,438.22713410516,438.22713410516,438.22713410516,438.22713410516,438.22713410516,438.22713410516,438.22713410516,438.22713410516,438.22713410516,438.22713410516,438.22713410516,438.22713410516,438.22713410516,438.22713410516,438.22713410516,438.22713410516,438.22713410516,217.32108680864,881.2517443911,-4.3068716778459,766.73566243929,-4.3188123962851,0
0.00086343749999998,5791083371.3304,7.3581346906059e-05,0.0002558892620713,0.00011360502290086,1.0816940266271,0,0,0,0,0,0,0,0,0,0,0,0,0,0,0,0,0,0,0,0,0,0,0,0,0,0,0,0,0,0,0,0,0,0,0,0,0,0,0,0,0,0,0,0,0,0,0,0,-0.92192504058263,0.49621219353813,-0.35794097289623,5.121181568657,2.7568103819771,0.93592737578026,-2.6761763430722,1.406841043781,2.5526441877534,-0.34659419588339,1.7913957937062,-5.2278988626998,1.7379024127414,-1.0057083217623,1.9236095375118,-3.3264048786558,1.3332613352768,4.1220055289966,-0.9848131029918,-4.4202954966261,1.8759478629641,2.2420365513014,0.025064988734504,-4.7499923869052,3.1783600120578,-3.0506274338443,1.2058972669824,0.92834098732756,-1.1230299663089,0.81778883113816,1.0184651161213,0.032391122402136,0.78668750494546,-3.404078834548,-1.2525448196211,-3.0375482604311,5.3266884345934,-1.9516000764556,3.0434038525369,-0.35430649711002,-1.1595956940678,-6.082943160025,0.95746772763407,-1.8818210572098,-3.4391473182116,1.9479514269997,2.9705459693871,-2.6200439243756,438.65730392642,438.65730392642,438.65730392642,438.65730392642,438.65730392642,438.65730392642,438.65730392642,438.65730392642,438.65730392642,438.65730392642,438.65730392642,438.65730392642,438.65730392642,438.65730392642,438.65730392642,438.65730392642,438.65730392642,438.65730392642,438.65730392642,438.65730392642,438.65730392642,438.65730392642,438.65730392642,438.65730392642,438.65730392642,438.65730392642,438.65730392642,438.65730392642,438.65730392642,438.65730392642,438.65730392642,438.65730392642,438.65730392642,438.65730392642,438.65730392642,438.65730392642,438.65730392642,438.65730392642,438.65730392642,438.65730392642,438.65730392642,438.65730392642,438.65730392642,438.65730392642,438.65730392642,438.65730392642,438.65730392642,438.65730392642,217.29461952944,882.13429174058,-4.317699061536,767.48413775484,-4.3296241277756,0
0.00086468749999998,5805384864.7591,7.368836140271e-05,0.00025625978053227,0.00011377474207101,1.081812456442,0,0,0,0,0,0,0,0,0,0,0,0,0,0,0,0,0,0,0,0,0,0,0,0,0,0,0,0,0,0,0,0,0,0,0,0,0,0,0,0,0,0,0,0,0,0,0,0,-0.92176582245094,0.4972904820342,-0.358550506392,5.1209537349559,2.7562972780232,0.93558627284768,-2.6751015240194,1.4063875687833,2.5520875345526,-0.34634786022602,1.7910516045934,-5.2272221405298,1.7383431937247,-1.0050435092425,1.9237360859965,-3.3241125370439,1.3317004936064,4.1210804483789,-0.98449978215542,-4.4201785218386,1.8757399529915,2.2427153844526,0.024945950623238,-4.7516889328121,3.1781900724771,-3.0517849599794,1.2058765057673,0.92787053599693,-1.1219109456025,0.81706024130348,1.0176894152602,0.03332124856239,0.78665932500584,-3.4026430701341,-1.2515530739784,-3.0366619258465,5.3262492640212,-1.9498939876398,3.0430070117241,-0.35431729259662,-1.1592299800109,-6.0807697396229,0.95698109758801,-1.8813320213157,-3.4391530609815,1.9494343482866,2.9696863702462,-2.6179119699945,439.08738043538,439.08738043538,439.08738043538,439.08738043538,439.08738043538,439.08738043538,439.08738043538,439.08738043538,439.08738043538,439.08738043538,439.08738043538,439.08738043538,439.08738043538,439.08738043538,439.08738043538,439.08738043538,439.08738043538,439.08738043538,439.08738043538,439.08738043538,439.08738043538,439.08738043538,439.08738043538,439.08738043538,439.08738043538,439.08738043538,439.08738043538,439.08738043538,439.08738043538,439.08738043538,439.08738043538,439.08738043538,439.08738043538,439.08738043538,439.08738043538,439.08738043538,439.08738043538,439.08738043538,439.08738043538,439.08738043538,439.08738043538,439.08738043538,439.08738043538,439.08738043538,439.08738043538,439.08738043538,439.08738043538,439.08738043538,217.26815899689,883.01666234379,-4.3285381971009,768.23243021324,-4.340447477715,0
0.00086593749999998,5819700769.267,7.3795377513276e-05,0.00025663029910936,0.0001139444736689,1.0819308828115,0,0,0,0,0,0,0,0,0,0,0,0,0,0,0,0,0,0,0,0,0,0,0,0,0,0,0,0,0,0,0,0,0,0,0,0,0,0,0,0,0,0,0,0,0,0,0,0,-0.92160697124638,0.49836601260968,-0.35916005149791,5.1207259406056,2.7557842478812,0.93524507200522,-2.6740275965269,1.4059341854206,2.5515306903642,-0.3461024403921,1.7907074452384,-5.2265446500667,1.7387827528112,-1.0043799990083,1.9238620717915,-3.3218208169578,1.3301401174684,4.1201555543235,-0.98418561858473,-4.4200614465678,1.8755318899526,2.2433932241249,0.024825620234032,-4.7533843783251,3.1780199712127,-3.0529396468816,1.2058558325637,0.92739919891562,-1.1207933685697,0.81633215531413,1.0169140974444,0.034251341107113,0.78663140079627,-3.4012086813449,-1.2505613279655,-3.0357749111378,5.3258089803855,-1.9481886940169,3.0426096015366,-0.35432908332828,-1.1588636832059,-6.0785954296859,0.95649312956994,-1.8808416472999,-3.4391573756375,1.9509174901143,2.9688266181802,-2.6157805145328,439.51736365333,439.51736365333,439.51736365333,439.51736365333,439.51736365333,439.51736365333,439.51736365333,439.51736365333,439.51736365333,439.51736365333,439.51736365333,439.51736365333,439.51736365333,439.51736365333,439.51736365333,439.51736365333,439.51736365333,439.51736365333,439.51736365333,439.51736365333,439.51736365333,439.51736365333,439.51736365333,439.51736365333,439.51736365333,439.51736365333,439.51736365333,439.51736365333,439.51736365333,439.51736365333,439.51736365333,439.51736365333,439.51736365333,439.51736365333,439.51736365333,439.51736365333,439.51736365333,439.51736365333,439.51736365333,439.51736365333,439.51736365333,439.51736365333,439.51736365333,439.51736365333,439.51736365333,439.51736365333,439.51736365333,439.51736365333,217.24170522827,883.89885629551,-4.3393890790466,768.98053990729,-4.3512824402355,0
0.00086718749999998,5834031072.1113,7.3902395139832e-05,0.00025700081780356,0.00011411421754126,1.0820493057366,0,0,0,0,0,0,0,0,0,0,0,0,0,0,0,0,0,0,0,0,0,0,0,0,0,0,0,0,0,0,0,0,0,0,0,0,0,0,0,0,0,0,0,0,0,0,0,0,-0.92144848844467,0.49943877645114,-0.35976960953872,5.120498180819,2.7552712950768,0.93490376930458,-2.6729545704822,1.405480893165,2.5509736576597,-0.34585793996463,1.7903633201033,-5.2258663903312,1.7392210851098,-1.0037177877243,1.923987497612,-3.3195297248184,1.3285802067763,4.1192308518363,-0.9838706180774,-4.4199442728056,1.8753236713914,2.2440700731181,0.024703994318029,-4.7550787130637,3.1778497108437,-3.0540914935335,1.2058352483495,0.92692697349761,-1.1196772429134,0.81560457494171,1.0161391617701,0.035181395272696,0.78660373493117,-3.3997756675154,-1.2495695835878,-3.0348872126313,5.3253675850271,-1.9464842019544,3.0422116211456,-0.3543418678942,-1.1584967999193,-6.0764202323899,0.95600382415674,-1.8803499299541,-3.4391602569017,1.9524008522359,2.9679667134015,-2.6136495595418,439.94725360161,439.94725360161,439.94725360161,439.94725360161,439.94725360161,439.94725360161,439.94725360161,439.94725360161,439.94725360161,439.94725360161,439.94725360161,439.94725360161,439.94725360161,439.94725360161,439.94725360161,439.94725360161,439.94725360161,439.94725360161,439.94725360161,439.94725360161,439.94725360161,439.94725360161,439.94725360161,439.94725360161,439.94725360161,439.94725360161,439.94725360161,439.94725360161,439.94725360161,439.94725360161,439.94725360161,439.94725360161,439.94725360161,439.94725360161,439.94725360161,439.94725360161,439.94725360161,439.94725360161,439.94725360161,439.94725360161,439.94725360161,439.94725360161,439.94725360161,439.94725360161,439.94725360161,439.94725360161,439.94725360161,439.94725360161,217.21525823968,884.7808736903,-4.3502517018674,769.72846693025,-4.3621290094809,0
0.00086843749999998,5848375760.5368,7.4009414253221e-05,0.0002573713366159,0.00011428397361727,1.082167725218,0,0,0,0,0,0,0,0,0,0,0,0,0,0,0,0,0,0,0,0,0,0,0,0,0,0,0,0,0,0,0,0,0,0,0,0,0,0,0,0,0,0,0,0,0,0,0,0,-0.9212903754572,0.50050876487182,-0.3603791821573,5.1202704509779,2.7547584232064,0.93456236088117,-2.6718824558052,1.4050276915037,2.5504164389373,-0.34561436243158,1.7900192336934,-5.2251873604644,1.7396581857147,-1.0030568720595,1.9241123662068,-3.317239267494,1.3270207614919,4.118306346044,-0.98355478636082,-4.4198270027761,1.8751152948616,2.244745934256,0.024581069739841,-4.756771926696,3.1776792941222,-3.0552404991575,1.205814754122,0.92645385719866,-1.1185625762553,0.81487750186646,1.0153646073511,0.036111406369066,0.78657633002871,-3.3983440279473,-1.248577843049,-3.0339988265993,5.3249250795275,-1.9447805183171,3.0418130698682,-0.35435564488428,-1.1581293265064,-6.0742441501226,0.9555131819175,-1.8798568639206,-3.4391616997877,1.9538844344713,2.9671066562294,-2.6115191066632,440.37705030155,440.37705030155,440.37705030155,440.37705030155,440.37705030155,440.37705030155,440.37705030155,440.37705030155,440.37705030155,440.37705030155,440.37705030155,440.37705030155,440.37705030155,440.37705030155,440.37705030155,440.37705030155,440.37705030155,440.37705030155,440.37705030155,440.37705030155,440.37705030155,440.37705030155,440.37705030155,440.37705030155,440.37705030155,440.37705030155,440.37705030155,440.37705030155,440.37705030155,440.37705030155,440.37705030155,440.37705030155,440.37705030155,440.37705030155,440.37705030155,440.37705030155,440.37705030155,440.37705030155,440.37705030155,440.37705030155,440.37705030155,440.37705030155,440.37705030155,440.37705030155,440.37705030155,440.37705030155,440.37705030155,440.37705030155,217.18881804612,885.66271462255,-4.3611260600428,770.4762113758,-4.3729871795818,0
0.00086968749999998,5862734821.7754,7.4116434805259e-05,0.00025774185554741,0.00011445374180306,1.0822861412565,0,0,0,0,0,0,0,0,0,0,0,0,0,0,0,0,0,0,0,0,0,0,0,0,0,0,0,0,0,0,0,0,0,0,0,0,0,0,0,0,0,0,0,0,0,0,0,0,-0.92113263363035,0.50157596931127,-0.36098877128572,5.1200427466643,2.7542456359265,0.93422084297022,-2.6708112624083,1.4045745799497,2.5498590367193,-0.34537171117995,1.7896751905553,-5.2245075597255,1.7400940497177,-1.0023972486809,1.9242366803333,-3.3149494522852,1.3254617816285,4.1173820421832,-0.98323812906537,-4.4197096389247,1.8749067579453,2.2454208103895,0.024456843483131,-4.7584640089509,3.1775087239617,-3.0563866631999,1.2057943508936,0.92597984752554,-1.1174493760977,0.81415093768374,1.0145904333145,0.037041369790115,0.78654918871157,-3.3969137619112,-1.2475861087443,-3.033109749246,5.32448146568,-1.9430776504526,3.0414139471692,-0.35437041288743,-1.1577612594351,-6.0720671854779,0.95502120341407,-1.8793624436854,-3.4391616995823,1.9553682367028,2.9662464470955,-2.6093891575997,440.80675377457,440.80675377457,440.80675377457,440.80675377457,440.80675377457,440.80675377457,440.80675377457,440.80675377457,440.80675377457,440.80675377457,440.80675377457,440.80675377457,440.80675377457,440.80675377457,440.80675377457,440.80675377457,440.80675377457,440.80675377457,440.80675377457,440.80675377457,440.80675377457,440.80675377457,440.80675377457,440.80675377457,440.80675377457,440.80675377457,440.80675377457,440.80675377457,440.80675377457,440.80675377457,440.80675377457,440.80675377457,440.80675377457,440.80675377457,440.80675377457,440.80675377457,440.80675377457,440.80675377457,440.80675377457,440.80675377457,440.80675377457,440.80675377457,440.80675377457,440.80675377457,440.80675377457,440.80675377457,440.80675377457,440.80675377457,217.16238466149,886.54437918646,-4.3720121480454,771.22377333803,-4.3838569446804,0
0.00087093749999998,5877108243.0466,7.4223456714995e-05,0.00025811237459911,0.00011462352196613,1.082404553853,0,0,0,0,0,0,0,0,0,0,0,0,0,0,0,0,0,0,0,0,0,0,0,0,0,0,0,0,0,0,0,0,0,0,0,0,0,0,0,0,0,0,0,0,0,0,0,0,-0.92097526424348,0.50264038134038,-0.36159837911914,5.1198150636846,2.7537329369423,0.93387921191904,-2.6697410001532,1.40412155805,2.549301453553,-0.3451299894922,1.7893311952731,-5.2238269874982,1.7405286722216,-1.0017389142521,1.9243604427434,-3.3126602869183,1.3239032672686,4.116457945582,-0.98292065170308,-4.4195921839057,1.8746980582712,2.2460947043999,0.024331312650819,-4.7601549496333,3.1773380034285,-3.057529985326,1.2057740396871,0.92550494204178,-1.116337649779,0.81342488390836,1.0138166388033,0.037971281020829,0.78652231360698,-3.3954848686518,-1.2465943832516,-3.0322199767076,5.3240367454723,-1.9413756061743,3.0410142526825,-0.35438617048924,-1.1573925953033,-6.0698893412621,0.9545278892128,-1.8788666635743,-3.4391602518364,1.9568522588816,2.9653860865287,-2.6072597140922,441.23636404208,441.23636404208,441.23636404208,441.23636404208,441.23636404208,441.23636404208,441.23636404208,441.23636404208,441.23636404208,441.23636404208,441.23636404208,441.23636404208,441.23636404208,441.23636404208,441.23636404208,441.23636404208,441.23636404208,441.23636404208,441.23636404208,441.23636404208,441.23636404208,441.23636404208,441.23636404208,441.23636404208,441.23636404208,441.23636404208,441.23636404208,441.23636404208,441.23636404208,441.23636404208,441.23636404208,441.23636404208,441.23636404208,441.23636404208,441.23636404208,441.23636404208,441.23636404208,441.23636404208,441.23636404208,441.23636404208,441.23636404208,441.23636404208,441.23636404208,441.23636404208,441.23636404208,441.23636404208,441.23636404208,441.23636404208,217.1359580986,887.42586747609,-4.3829099603457,771.97115291145,-4.3947382989254,0
0.00087218749999998,5891496011.5568,7.433048004267e-05,0.00025848289377203,0.00011479331414231,1.0825229630083,0,0,0,0,0,0,0,0,0,0,0,0,0,0,0,0,0,0,0,0,0,0,0,0,0,0,0,0,0,0,0,0,0,0,0,0,0,0,0,0,0,0,0,0,0,0,0,0,-0.92081826850476,0.50370199266036,-0.36220800809806,5.119587398108,2.7532203299904,0.93353746420071,-2.6686716788114,1.4036686253936,2.5487436920097,-0.34488920054059,1.7889872524682,-5.223145643285,1.7409620483486,-1.0010818654382,1.9244836561729,-3.3103717795298,1.3223452185617,4.1155340616416,-0.98260235964776,-4.4194746405684,1.8744891935292,2.2467676191981,0.024204474470222,-4.7618447386325,3.1771671357357,-3.0586704654012,1.2057538215267,0.92502913837636,-1.115227404439,0.8126993419786,1.0130432229767,0.038901135645021,0.78649570734746,-3.394057347386,-1.2456026693261,-3.0313295050689,5.3235909210793,-1.939674393744,3.0406139862094,-0.35440291626829,-1.1570233308522,-6.0677106204896,0.95403323988003,-1.8783695177665,-3.4391573523603,1.958336501022,2.9645255751549,-2.6051307779034,441.66588112552,441.66588112552,441.66588112552,441.66588112552,441.66588112552,441.66588112552,441.66588112552,441.66588112552,441.66588112552,441.66588112552,441.66588112552,441.66588112552,441.66588112552,441.66588112552,441.66588112552,441.66588112552,441.66588112552,441.66588112552,441.66588112552,441.66588112552,441.66588112552,441.66588112552,441.66588112552,441.66588112552,441.66588112552,441.66588112552,441.66588112552,441.66588112552,441.66588112552,441.66588112552,441.66588112552,441.66588112552,441.66588112552,441.66588112552,441.66588112552,441.66588112552,441.66588112552,441.66588112552,441.66588112552,441.66588112552,441.66588112552,441.66588112552,441.66588112552,441.66588112552,441.66588112552,441.66588112552,441.66588112552,441.66588112552,217.10953836922,888.30717958543,-4.3938194914172,772.71835019093,-4.4056312364715,0
0.00087343749999998,5905898114.4998,7.4437504745054e-05,0.00025885341306723,0.00011496311824415,1.0826413687231,0,0,0,0,0,0,0,0,0,0,0,0,0,0,0,0,0,0,0,0,0,0,0,0,0,0,0,0,0,0,0,0,0,0,0,0,0,0,0,0,0,0,0,0,0,0,0,0,-0.92066164754963,0.50476079510495,-0.36281766087876,5.11935974629,2.7527078188234,0.93319559642525,-2.6676033080268,1.4032157816202,2.5481857546775,-0.34464934738283,1.7886433667932,-5.2224635267042,1.7413941732543,-1.0004260988934,1.9246063233239,-3.3080839386445,1.3207876357377,4.1146103958139,-0.98228325811744,-4.4193570119474,1.8742801614871,2.2474395577275,0.024076326294905,-4.7635333659334,3.1769961242291,-3.0598081034755,1.2057336974318,0.92455243423045,-1.1141186469789,0.81197431326312,1.0122701850021,0.03983092935453,0.7864693725707,-3.3926311973045,-1.2446109698879,-3.030438330339,5.3231439948382,-1.9379740218454,3.0402131477315,-0.35442064879218,-1.1566534629851,-6.0655310263729,0.95353725599131,-1.8778710002792,-3.439152997205,1.9598209632034,2.9636649136853,-2.6030023507919,442.09530504639,442.09530504639,442.09530504639,442.09530504639,442.09530504639,442.09530504639,442.09530504639,442.09530504639,442.09530504639,442.09530504639,442.09530504639,442.09530504639,442.09530504639,442.09530504639,442.09530504639,442.09530504639,442.09530504639,442.09530504639,442.09530504639,442.09530504639,442.09530504639,442.09530504639,442.09530504639,442.09530504639,442.09530504639,442.09530504639,442.09530504639,442.09530504639,442.09530504639,442.09530504639,442.09530504639,442.09530504639,442.09530504639,442.09530504639,442.09530504639,442.09530504639,442.09530504639,442.09530504639,442.09530504639,442.09530504639,442.09530504639,442.09530504639,442.09530504639,442.09530504639,442.09530504639,442.09530504639,442.09530504639,442.09530504639,217.08312548416,889.18831560837,-4.4047407357025,773.46536527173,-4.4165357514636,0
0.00087468749999998,5920314539.0566,7.4544530730919e-05,0.00025922393248574,0.00011513293412686,1.0827597709983,0,0,0,0,0,0,0,0,0,0,0,0,0,0,0,0,0,0,0,0,0,0,0,0,0,0,0,0,0,0,0,0,0,0,0,0,0,0,0,0,0,0,0,0,0,0,0,0,-0.92050540243838,0.50581678064501,-0.36342734030654,5.1191321048933,2.7521954071989,0.93285360535359,-2.6665358972793,1.4027630264272,2.5476276441673,-0.34441043295739,1.7882995429297,-5.2217806374943,1.7418250421369,-0.99977161126765,1.924728446853,-3.3057967731621,1.3192305191224,4.1136869535853,-0.98196335214962,-4.4192393012457,1.8740709600059,2.2481105229654,0.023946865607963,-4.765220821637,3.1768249723775,-3.0609428997771,1.2057136684127,0.92407482738445,-1.1130113840316,0.8112497990654,1.0114975240636,0.040760657956322,0.78644331191963,-3.3912064175759,-1.2436192880136,-3.0295464484695,5.3226959692367,-1.9362744995601,3.0398117374311,-0.35443936661606,-1.1562829887804,-6.0633505623334,0.9530399381408,-1.8773711049822,-3.439147182656,1.9613056455747,2.9628041029114,-2.6008744344913,442.52463582616,442.52463582616,442.52463582616,442.52463582616,442.52463582616,442.52463582616,442.52463582616,442.52463582616,442.52463582616,442.52463582616,442.52463582616,442.52463582616,442.52463582616,442.52463582616,442.52463582616,442.52463582616,442.52463582616,442.52463582616,442.52463582616,442.52463582616,442.52463582616,442.52463582616,442.52463582616,442.52463582616,442.52463582616,442.52463582616,442.52463582616,442.52463582616,442.52463582616,442.52463582616,442.52463582616,442.52463582616,442.52463582616,442.52463582616,442.52463582616,442.52463582616,442.52463582616,442.52463582616,442.52463582616,442.52463582616,442.52463582616,442.52463582616,442.52463582616,442.52463582616,442.52463582616,442.52463582616,442.52463582616,442.52463582616,217.05671945322,890.06927563879,-4.4156736876496,774.21219824948,-4.427451838078,0
0.00087593749999998,5934745272.3949,7.4651557971361e-05,0.00025959445202863,0.0001153027617208,1.0828781698348,0,0,0,0,0,0,0,0,0,0,0,0,0,0,0,0,0,0,0,0,0,0,0,0,0,0,0,0,0,0,0,0,0,0,0,0,0,0,0,0,0,0,0,0,0,0,0,0,-0.92034953415301,0.50686994138579,-0.36403704939061,5.1189044709303,2.7516830988621,0.93251148790744,-2.6654694558524,1.4023103595761,2.5470693631031,-0.34417246007973,1.7879557855846,-5.2210969755009,1.7422546502502,-0.99911839920786,1.9248500293598,-3.3035102923256,1.3176738691321,4.112763740457,-0.98164264659014,-4.4191215118278,1.8738615870544,2.2487805179198,0.023816090024265,-4.7669070959543,3.1766536837618,-3.0620748546801,1.2056937354621,0.92359631570618,-1.1119056219296,0.81052580062778,1.0107252393531,0.041690317377565,0.7864175280437,-3.3897830073433,-1.2426276269242,-3.0286538553597,5.3222468468978,-1.9345758363369,3.0394097556786,-0.35445906828069,-1.1559119055046,-6.061169231976,0.95254128693834,-1.8768698256015,-3.4391399052215,1.9627905483443,2.9619431436971,-2.5987470306958,442.95387348638,442.95387348638,442.95387348638,442.95387348638,442.95387348638,442.95387348638,442.95387348638,442.95387348638,442.95387348638,442.95387348638,442.95387348638,442.95387348638,442.95387348638,442.95387348638,442.95387348638,442.95387348638,442.95387348638,442.95387348638,442.95387348638,442.95387348638,442.95387348638,442.95387348638,442.95387348638,442.95387348638,442.95387348638,442.95387348638,442.95387348638,442.95387348638,442.95387348638,442.95387348638,442.95387348638,442.95387348638,442.95387348638,442.95387348638,442.95387348638,442.95387348638,442.95387348638,442.95387348638,442.95387348638,442.95387348638,442.95387348638,442.95387348638,442.95387348638,442.95387348638,442.95387348638,442.95387348638,442.95387348638,442.95387348638,217.03032028533,890.95005977054,-4.4266183416955,774.95884922013,-4.4383794904735,0
0.00087718749999998,5949190301.6701,7.475858641641e-05,0.00025996497169694,0.00011547260093106,1.0829965652332,0,0,0,0,0,0,0,0,0,0,0,0,0,0,0,0,0,0,0,0,0,0,0,0,0,0,0,0,0,0,0,0,0,0,0,0,0,0,0,0,0,0,0,0,0,0,0,0,-0.92019404359541,0.507920269574,-0.36464679127464,5.1186768417687,2.7511708975327,0.93216924118218,-2.6644039928009,1.4018577809011,2.5465109141261,-0.34393543143741,1.7876120994867,-5.2204125406771,1.7426829929126,-0.99846645935069,1.9249710733679,-3.3012245057017,1.3161176862879,4.1118407619236,-0.98132114606673,-4.4190036472025,1.8736520407248,2.2494495456355,0.023683997293216,-4.7685921792385,3.1764822620637,-3.0632039687012,1.2056738995501,0.92311689715585,-1.1108013666761,0.80980231914022,1.0099533300751,0.042619903676021,0.78639202359802,-3.3883609657261,-1.2416359899738,-3.0277605468498,5.3217966305532,-1.9328780419597,3.0390072030532,-0.35447975230685,-1.1555402106282,-6.0589870390999,0.95204130301985,-1.876367155722,-3.4391311616132,1.9642756717872,2.9610820369695,-2.5966201410287,443.38301804857,443.38301804857,443.38301804857,443.38301804857,443.38301804857,443.38301804857,443.38301804857,443.38301804857,443.38301804857,443.38301804857,443.38301804857,443.38301804857,443.38301804857,443.38301804857,443.38301804857,443.38301804857,443.38301804857,443.38301804857,443.38301804857,443.38301804857,443.38301804857,443.38301804857,443.38301804857,443.38301804857,443.38301804857,443.38301804857,443.38301804857,443.38301804857,443.38301804857,443.38301804857,443.38301804857,443.38301804857,443.38301804857,443.38301804857,443.38301804857,443.38301804857,443.38301804857,443.38301804857,443.38301804857,443.38301804857,443.38301804857,443.38301804857,443.38301804857,443.38301804857,443.38301804857,443.38301804857,443.38301804857,443.38301804857,217.00392798855,891.83066809749,-4.4375746922656,775.70531827998,-4.4493187028322,0
0.00087843749999998,5963649614.0245,7.4865616040706e-05,0.00026033549149175,0.00011564245169109,1.0831149571945,0,0,0,0,0,0,0,0,0,0,0,0,0,0,0,0,0,0,0,0,0,0,0,0,0,0,0,0,0,0,0,0,0,0,0,0,0,0,0,0,0,0,0,0,0,0,0,0,-0.92003893158439,0.50896775759702,-0.36525656921068,5.1184492151639,2.7506588068924,0.93182686245319,-2.6633395169213,1.4014052903118,2.5459522998851,-0.34369934958612,1.7872684893808,-5.2197273330819,1.7431100655167,-0.99781578832151,1.9250915813198,-3.2989394231479,1.3145619712162,4.1109180234576,-0.98099885498157,-4.4188857110118,1.8734423192434,2.2501176091897,0.023550585302253,-4.7702760619783,3.1763107110512,-3.0643302424781,1.2056541616194,0.92263656979255,-1.1096986239188,0.809079355742,1.0091817954385,0.043549413043549,0.78636680124348,-3.386940291823,-1.2406443806361,-3.0268665187217,5.3213453230324,-1.9311811265124,3.0386040803376,-0.35450141719235,-1.1551679018318,-6.0568039876782,0.95153998704848,-1.8758630887901,-3.4391209487361,1.9657610162362,2.9602207837157,-2.5944937670323,443.8120695343,443.8120695343,443.8120695343,443.8120695343,443.8120695343,443.8120695343,443.8120695343,443.8120695343,443.8120695343,443.8120695343,443.8120695343,443.8120695343,443.8120695343,443.8120695343,443.8120695343,443.8120695343,443.8120695343,443.8120695343,443.8120695343,443.8120695343,443.8120695343,443.8120695343,443.8120695343,443.8120695343,443.8120695343,443.8120695343,443.8120695343,443.8120695343,443.8120695343,443.8120695343,443.8120695343,443.8120695343,443.8120695343,443.8120695343,443.8120695343,443.8120695343,443.8120695343,443.8120695343,443.8120695343,443.8120695343,443.8120695343,443.8120695343,443.8120695343,443.8120695343,443.8120695343,443.8120695343,443.8120695343,443.8120695343,216.97754257013,892.71110071356,-4.4485427337773,776.45160552559,-4.4602694693306,0
0.00087968749999998,5978123196.5877,7.4972646766873e-05,0.00026070601141412,0.00011581231387423,1.0832333457195,0,0,0,0,0,0,0,0,0,0,0,0,0,0,0,0,0,0,0,0,0,0,0,0,0,0,0,0,0,0,0,0,0,0,0,0,0,0,0,0,0,0,0,0,0,0,0,0,-0.91988419885364,0.51001239798541,-0.36586638653015,5.1182215892794,2.7501468305694,0.93148434918999,-2.6622760367291,1.4009528878003,2.5453935230436,-0.3434642169465,1.7869249600259,-5.2190413528682,1.7435358635425,-0.99716638273442,1.9252115555638,-3.2966550547867,1.3130067246573,4.1099955304891,-0.98067577749036,-4.4187677070219,1.8732324209848,2.2507847116995,0.023415852078118,-4.771958734819,3.1761390345682,-3.0654536767481,1.2056345225781,0.92215533178255,-1.1085973989312,0.80835691152885,1.0084106346621,0.044478841812676,0.78634186364834,-3.3855209847076,-1.2396528024915,-3.0259717667082,5.3208929272494,-1.9294851003427,3.0382003885259,-0.35452406140868,-1.1547949770204,-6.0546200818589,0.95103733972241,-1.8753576181273,-3.4391092636784,1.9672465820831,2.9593593849721,-2.5923679101433,444.24102796514,444.24102796514,444.24102796514,444.24102796514,444.24102796514,444.24102796514,444.24102796514,444.24102796514,444.24102796514,444.24102796514,444.24102796514,444.24102796514,444.24102796514,444.24102796514,444.24102796514,444.24102796514,444.24102796514,444.24102796514,444.24102796514,444.24102796514,444.24102796514,444.24102796514,444.24102796514,444.24102796514,444.24102796514,444.24102796514,444.24102796514,444.24102796514,444.24102796514,444.24102796514,444.24102796514,444.24102796514,444.24102796514,444.24102796514,444.24102796514,444.24102796514,444.24102796514,444.24102796514,444.24102796514,444.24102796514,444.24102796514,444.24102796514,444.24102796514,444.24102796514,444.24102796514,444.24102796514,444.24102796514,444.24102796514,216.95116403654,893.59135771274,-4.4595224606442,777.19771105385,-4.4712317841666,0
0.00088093749999998,5992611036.4767,7.5079678605824e-05,0.00026107653146514,0.00011598218745788,1.0833517308089,0,0,0,0,0,0,0,0,0,0,0,0,0,0,0,0,0,0,0,0,0,0,0,0,0,0,0,0,0,0,0,0,0,0,0,0,0,0,0,0,0,0,0,0,0,0,0,0,-0.9197298460488,0.51105418341579,-0.36647624661573,5.1179939627039,2.749634972127,0.93114169905851,-2.6612135604337,1.4005005734455,2.5448345862612,-0.34323003580046,1.7865815161881,-5.2183546002819,1.7439603825628,-0.9965182391952,1.9253309983401,-3.2943714109688,1.3114519474642,4.1090732883882,-0.98035191749462,-4.4186496391093,1.873022344482,2.2514508563089,0.023279795790074,-4.7736401885658,3.175967236519,-3.0665742723327,1.2056149832953,0.92167318140151,-1.1074976965902,0.80763498755886,1.0076398469624,0.045408186461276,0.78631721348648,-3.3841030434333,-1.2386612592144,-3.0250762864989,5.3204394461762,-1.9277899740225,3.0377961288214,-0.35454768339868,-1.1544214343316,-6.0524353259476,0.950533361776,-1.8748507369341,-3.439096103691,1.9687323697737,2.9584978418198,-2.5902425716818,444.66989336268,444.66989336268,444.66989336268,444.66989336268,444.66989336268,444.66989336268,444.66989336268,444.66989336268,444.66989336268,444.66989336268,444.66989336268,444.66989336268,444.66989336268,444.66989336268,444.66989336268,444.66989336268,444.66989336268,444.66989336268,444.66989336268,444.66989336268,444.66989336268,444.66989336268,444.66989336268,444.66989336268,444.66989336268,444.66989336268,444.66989336268,444.66989336268,444.66989336268,444.66989336268,444.66989336268,444.66989336268,444.66989336268,444.66989336268,444.66989336268,444.66989336268,444.66989336268,444.66989336268,444.66989336268,444.66989336268,444.66989336268,444.66989336268,444.66989336268,444.66989336268,444.66989336268,444.66989336268,444.66989336268,444.66989336268,216.9247923936,894.47143918911,-4.4705138672733,777.9436349619,-4.4822056415374,0
0.00088218749999998,6007113120.796,7.5186711493781e-05,0.00026144705164589,0.00011615207233075,1.0834701124637,0,0,0,0,0,0,0,0,0,0,0,0,0,0,0,0,0,0,0,0,0,0,0,0,0,0,0,0,0,0,0,0,0,0,0,0,0,0,0,0,0,0,0,0,0,0,0,0,-0.91957587372582,0.51209310671247,-0.36708615287862,5.1177663344584,2.749123235051,0.93079890993212,-2.6601520959209,1.4000483474137,2.5442754922307,-0.34299680828694,1.7862381626398,-5.2176670756467,1.7443836182521,-0.99587135428984,1.9254499117795,-3.292088502233,1.3098976406157,4.1081513024471,-0.98002727862474,-4.4185315112477,1.8728120884341,2.252116046216,0.023142414752093,-4.7753204141826,3.1757953208608,-3.0676920301164,1.2055955445967,0.92119011703999,-1.1063995213671,0.80691358485476,1.0068694315819,0.046337443617191,0.78629285343866,-3.3826864670254,-1.2376697545575,-3.0241800737305,5.3199848828337,-1.9260957583043,3.0373913026475,-0.35457228157038,-1.1540472721358,-6.050249724383,0.95002805398872,-1.8743424383006,-3.4390814661761,1.970218379811,2.9576361553736,-2.588117752828,445.09866574854,445.09866574854,445.09866574854,445.09866574854,445.09866574854,445.09866574854,445.09866574854,445.09866574854,445.09866574854,445.09866574854,445.09866574854,445.09866574854,445.09866574854,445.09866574854,445.09866574854,445.09866574854,445.09866574854,445.09866574854,445.09866574854,445.09866574854,445.09866574854,445.09866574854,445.09866574854,445.09866574854,445.09866574854,445.09866574854,445.09866574854,445.09866574854,445.09866574854,445.09866574854,445.09866574854,445.09866574854,445.09866574854,445.09866574854,445.09866574854,445.09866574854,445.09866574854,445.09866574854,445.09866574854,445.09866574854,445.09866574854,445.09866574854,445.09866574854,445.09866574854,445.09866574854,445.09866574854,445.09866574854,445.09866574854,216.89842764647,895.35134523685,-4.4815169480539,778.68937734711,-4.493191035641,0
0.00088343749999998,6021629436.6375,7.5293745270277e-05,0.00026181757195745,0.00011632196826724,1.0835884906846,0,0,0,0,0,0,0,0,0,0,0,0,0,0,0,0,0,0,0,0,0,0,0,0,0,0,0,0,0,0,0,0,0,0,0,0,0,0,0,0,0,0,0,0,0,0,0,0,-0.91942228234865,0.51312916084753,-0.36769610872096,5.1175387040195,2.748611622738,0.93045597989706,-2.6590916507295,1.3995962099673,2.5437162435748,-0.34276453640063,1.7858949041482,-5.2169787793669,1.7448055663982,-0.99522572460309,1.9255682978817,-3.2898063392973,1.3083438051945,4.1072295778653,-0.9797018642332,-4.4184133274958,1.8726016517203,2.2527802846074,0.023003707424806,-4.7769994028452,3.175623291577,-3.0688069510329,1.2055762072595,0.92070613721137,-1.1053028773035,0.80619270441403,1.0060993877084,0.047266610064077,0.78626878619173,-3.3812712544878,-1.2366782923371,-3.0232831240169,5.3195292402676,-1.9244024640855,3.0369859116201,-0.35459785430086,-1.1536724890563,-6.0480632817849,0.94952141718023,-1.8738327152157,-3.4390653486701,1.9717046127373,2.9567743267823,-2.5859934546162,445.52734514431,445.52734514431,445.52734514431,445.52734514431,445.52734514431,445.52734514431,445.52734514431,445.52734514431,445.52734514431,445.52734514431,445.52734514431,445.52734514431,445.52734514431,445.52734514431,445.52734514431,445.52734514431,445.52734514431,445.52734514431,445.52734514431,445.52734514431,445.52734514431,445.52734514431,445.52734514431,445.52734514431,445.52734514431,445.52734514431,445.52734514431,445.52734514431,445.52734514431,445.52734514431,445.52734514431,445.52734514431,445.52734514431,445.52734514431,445.52734514431,445.52734514431,445.52734514431,445.52734514431,445.52734514431,445.52734514431,445.52734514431,445.52734514431,445.52734514431,445.52734514431,445.52734514431,445.52734514431,445.52734514431,445.52734514431,216.87206979974,896.23107595027,-4.4925316973624,779.4349383071,-4.5041879606954,0
0.00088468749999998,6036159971.0813,7.5400779893209e-05,0.00026218809240091,0.00011649187518242,1.0837068654724,0,0,0,0,0,0,0,0,0,0,0,0,0,0,0,0,0,0,0,0,0,0,0,0,0,0,0,0,0,0,0,0,0,0,0,0,0,0,0,0,0,0,0,0,0,0,0,0,-0.91926907228787,0.51416233894932,-0.36830611752702,5.1173110713286,2.7481001384845,0.9301129072559,-2.6580322320482,1.3991441614592,2.5431568430054,-0.34253322198778,1.7855517454808,-5.2162897119071,1.7452262229061,-0.9945813466917,1.9256861585219,-3.2875249329764,1.3067904424251,4.1063081197316,-0.97937567738679,-4.4182950919955,1.8723910333993,2.2534435747625,0.022863672417875,-4.778677145868,3.1754511526856,-3.0699190360347,1.205556972008,0.92022124055117,-1.1042077680168,0.80547234720797,1.0053297146017,0.048195682739529,0.78624501443965,-3.3798574047967,-1.2356868764215,-3.0223854329197,5.3190725215406,-1.9227101023575,3.0365799575862,-0.35462439992243,-1.1532970839591,-6.0458760028374,0.94901345222858,-1.8733215605762,-3.439047748831,1.9731910691502,2.9559123572145,-2.5838696779117,445.95593157164,445.95593157164,445.95593157164,445.95593157164,445.95593157164,445.95593157164,445.95593157164,445.95593157164,445.95593157164,445.95593157164,445.95593157164,445.95593157164,445.95593157164,445.95593157164,445.95593157164,445.95593157164,445.95593157164,445.95593157164,445.95593157164,445.95593157164,445.95593157164,445.95593157164,445.95593157164,445.95593157164,445.95593157164,445.95593157164,445.95593157164,445.95593157164,445.95593157164,445.95593157164,445.95593157164,445.95593157164,445.95593157164,445.95593157164,445.95593157164,445.95593157164,445.95593157164,445.95593157164,445.95593157164,445.95593157164,445.95593157164,445.95593157164,445.95593157164,445.95593157164,445.95593157164,445.95593157164,445.95593157164,445.95593157164,216.84571885744,897.11063142384,-4.5035581095852,780.18031793966,-4.5151964109343,0
0.00088593749999998,6050704711.195,7.55078153434e-05,0.00026255861297738,0.00011666179301827,1.0838252368281,0,0,0,0,0,0,0,0,0,0,0,0,0,0,0,0,0,0,0,0,0,0,0,0,0,0,0,0,0,0,0,0,0,0,0,0,0,0,0,0,0,0,0,0,0,0,0,0,-0.9191162438175,0.51519263430088,-0.36891618262936,5.1170834368011,2.7475887854745,0.92976969052934,-2.6569738467,1.3986922023371,2.5425972932543,-0.34230286674507,1.785208691397,-5.2155998737877,1.7456455838014,-0.99393821709441,1.9258034954441,-3.285244294166,1.305237553661,4.1053869330038,-0.97904872086312,-4.4181768089598,1.8721802327179,2.2541059200081,0.022722308491005,-4.7803536347439,3.1752789082171,-3.0710282860814,1.2055378395108,0.91973542582042,-1.1031141966885,0.8047525141885,1.0045604115393,0.049124658739006,0.78622154088285,-3.3784449168997,-1.2346955107144,-3.0214869959695,5.3186147297226,-1.9210186841655,3.036173442609,-0.35465191672193,-1.1529210559565,-6.0436878923228,0.94850416006812,-1.8728089671996,-3.4390286644289,1.9746777496943,2.9550502478501,-2.5817464234059,446.38442505215,446.38442505215,446.38442505215,446.38442505215,446.38442505215,446.38442505215,446.38442505215,446.38442505215,446.38442505215,446.38442505215,446.38442505215,446.38442505215,446.38442505215,446.38442505215,446.38442505215,446.38442505215,446.38442505215,446.38442505215,446.38442505215,446.38442505215,446.38442505215,446.38442505215,446.38442505215,446.38442505215,446.38442505215,446.38442505215,446.38442505215,446.38442505215,446.38442505215,446.38442505215,446.38442505215,446.38442505215,446.38442505215,446.38442505215,446.38442505215,446.38442505215,446.38442505215,446.38442505215,446.38442505215,446.38442505215,446.38442505215,446.38442505215,446.38442505215,446.38442505215,446.38442505215,446.38442505215,446.38442505215,446.38442505215,216.81937482323,897.99001175221,-4.5145961790782,780.92551634281,-4.5262163805851,0
0.00088718749999998,6065263644.0346,7.5614851667831e-05,0.00026292913368796,0.00011683172179601,1.0839436047523,0,0,0,0,0,0,0,0,0,0,0,0,0,0,0,0,0,0,0,0,0,0,0,0,0,0,0,0,0,0,0,0,0,0,0,0,0,0,0,0,0,0,0,0,0,0,0,0,-0.91896379711498,0.51622004033532,-0.36952630727837,5.1168558013181,2.747077566777,0.92942632846441,-2.6559165011237,1.3982403331466,2.5420375969286,-0.34207347221717,1.7848657466365,-5.2149092655905,1.7460636452476,-0.99329633235167,1.9259203102376,-3.2829644338386,1.3036851403557,4.1044660225134,-0.97872099713655,-4.4180584826461,1.8719692491198,2.2547673236288,0.022579614556623,-4.782028861216,3.1751065621894,-3.0721347021366,1.2055188103771,0.91924869191325,-1.1020221660513,0.80403320629453,1.0037914777003,0.05005353532306,0.78619836822735,-3.3770337897213,-1.2337041991389,-3.0205878086906,5.3181558678546,-1.9193282205688,3.0357663689263,-0.35468040295093,-1.1525444044267,-6.0414989551902,0.94799354168409,-1.8722949278352,-3.4390080933193,1.9761646550383,2.9541879998914,-2.5796236916067,446.81282560751,446.81282560751,446.81282560751,446.81282560751,446.81282560751,446.81282560751,446.81282560751,446.81282560751,446.81282560751,446.81282560751,446.81282560751,446.81282560751,446.81282560751,446.81282560751,446.81282560751,446.81282560751,446.81282560751,446.81282560751,446.81282560751,446.81282560751,446.81282560751,446.81282560751,446.81282560751,446.81282560751,446.81282560751,446.81282560751,446.81282560751,446.81282560751,446.81282560751,446.81282560751,446.81282560751,446.81282560751,446.81282560751,446.81282560751,446.81282560751,446.81282560751,446.81282560751,446.81282560751,446.81282560751,446.81282560751,446.81282560751,446.81282560751,446.81282560751,446.81282560751,446.81282560751,446.81282560751,446.81282560751,446.81282560751,216.79303770039,898.86921703016,-4.5256459002192,781.67053361469,-4.5372478638897,0
0.00088843749999998,6079836756.6442,7.5721889197509e-05,0.00026329965453376,0.00011700166187586,1.084061969246,0,0,0,0,0,0,0,0,0,0,0,0,0,0,0,0,0,0,0,0,0,0,0,0,0,0,0,0,0,0,0,0,0,0,0,0,0,0,0,0,0,0,0,0,0,0,0,0,-0.91881173225793,0.51724455065049,-0.37013649463494,5.1166281662465,2.7465664853293,0.92908282003126,-2.6548602013812,1.3977885545261,2.5414777567608,-0.34184503979445,1.7845229159283,-5.2142178879212,1.7464804035386,-0.99265568896961,1.9260366043534,-3.2806853629424,1.3021332041033,4.1035453929295,-0.97839250838588,-4.4179401173671,1.8717580822418,2.2554277890274,0.022435589681202,-4.7837028171624,3.1749341186205,-3.0732382851187,1.2054998851533,0.91876103785409,-1.1009316784042,0.80331442445414,1.0030229123666,0.0509823099101,0.78617549918642,-3.3756240221497,-1.2327129456267,-3.0196878665685,5.3176959389538,-1.91763872259,3.0353587389971,-0.35470985680183,-1.1521671289919,-6.0393091963898,0.94748159812811,-1.871779435175,-3.438986033435,1.9776517858961,2.9533256145357,-2.577501482824,447.24113325936,447.24113325936,447.24113325936,447.24113325936,447.24113325936,447.24113325936,447.24113325936,447.24113325936,447.24113325936,447.24113325936,447.24113325936,447.24113325936,447.24113325936,447.24113325936,447.24113325936,447.24113325936,447.24113325936,447.24113325936,447.24113325936,447.24113325936,447.24113325936,447.24113325936,447.24113325936,447.24113325936,447.24113325936,447.24113325936,447.24113325936,447.24113325936,447.24113325936,447.24113325936,447.24113325936,447.24113325936,447.24113325936,447.24113325936,447.24113325936,447.24113325936,447.24113325936,447.24113325936,447.24113325936,447.24113325936,447.24113325936,447.24113325936,447.24113325936,447.24113325936,447.24113325936,447.24113325936,447.24113325936,447.24113325936,216.76670749184,899.74824735267,-4.5367072673727,782.4153698536,-4.5482908550884,0
0.00088968749999998,6094424036.0569,7.5828927542617e-05,0.0002636701755159,0.00011717161275883,1.08418033031,0,0,0,0,0,0,0,0,0,0,0,0,0,0,0,0,0,0,0,0,0,0,0,0,0,0,0,0,0,0,0,0,0,0,0,0,0,0,0,0,0,0,0,0,0,0,0,0,-0.91866004922434,0.5182661589953,-0.37074674772688,5.1164005334139,2.7460555439376,0.92873916442335,-2.6538049531323,1.3973368672102,2.5409177752694,-0.34161757071237,1.7841802039667,-5.2135257414338,1.7468958551169,-0.99201628346343,1.9261523790787,-3.2784070924469,1.300581746584,4.1026250487737,-0.97806325648706,-4.4178217174496,1.8715467319238,2.2560873195035,0.022290233087104,-4.7853754947629,3.1747615814798,-3.0743390359238,1.2054810643207,0.91827246280247,-1.0998427355925,0.80259616958834,1.0022547146538,0.051910980088513,0.78615293647687,-3.374215613049,-1.2317217540977,-3.0187871651031,5.3172349459859,-1.9159502011787,3.0349505554317,-0.35474027642913,-1.1517892295416,-6.0371186210628,0.94696833050639,-1.8712624818672,-3.4389624827742,1.9791391429921,2.9524630929973,-2.5753797971747,447.66934802936,447.66934802936,447.66934802936,447.66934802936,447.66934802936,447.66934802936,447.66934802936,447.66934802936,447.66934802936,447.66934802936,447.66934802936,447.66934802936,447.66934802936,447.66934802936,447.66934802936,447.66934802936,447.66934802936,447.66934802936,447.66934802936,447.66934802936,447.66934802936,447.66934802936,447.66934802936,447.66934802936,447.66934802936,447.66934802936,447.66934802936,447.66934802936,447.66934802936,447.66934802936,447.66934802936,447.66934802936,447.66934802936,447.66934802936,447.66934802936,447.66934802936,447.66934802936,447.66934802936,447.66934802936,447.66934802936,447.66934802936,447.66934802936,447.66934802936,447.66934802936,447.66934802936,447.66934802936,447.66934802936,447.66934802936,216.74038420032,900.62710281488,-4.5477802748599,783.16002515791,-4.5593453484438,0
0.00089093749999998,6109025469.2942,7.5935966635943e-05,0.00026404069663548,0.00011734157433057,1.0842986879451,0,0,0,0,0,0,0,0,0,0,0,0,0,0,0,0,0,0,0,0,0,0,0,0,0,0,0,0,0,0,0,0,0,0,0,0,0,0,0,0,0,0,0,0,0,0,0,0,-0.91850874789018,0.51928485929003,-0.37135706945567,5.1161729051291,2.745544745264,0.92839536105996,-2.6527507616554,1.3968852720229,2.5403576551381,-0.34139106605061,1.7838376154274,-5.2128328267881,1.7473099965677,-0.99137811231235,1.9262676355534,-3.276129633213,1.2990307696215,4.1017049943845,-0.97773324301624,-4.4177032872562,1.8713351981994,2.2567459185019,0.022143544152373,-4.7870468863166,3.1745889547156,-3.0754369553706,1.2054623482947,0.91778296605188,-1.098755339036,0.80187844261474,1.0014868838111,0.052839543601712,0.78613068282317,-3.3728085612435,-1.2307306284513,-3.0178856997681,5.3167728918645,-1.91426266716,3.0345418210559,-0.35477165992252,-1.151410706211,-6.0349272343,0.9464537400012,-1.870744060531,-3.4389374393823,1.9806267270895,2.9516004364748,-2.5732586345631,448.09746993921,448.09746993921,448.09746993921,448.09746993921,448.09746993921,448.09746993921,448.09746993921,448.09746993921,448.09746993921,448.09746993921,448.09746993921,448.09746993921,448.09746993921,448.09746993921,448.09746993921,448.09746993921,448.09746993921,448.09746993921,448.09746993921,448.09746993921,448.09746993921,448.09746993921,448.09746993921,448.09746993921,448.09746993921,448.09746993921,448.09746993921,448.09746993921,448.09746993921,448.09746993921,448.09746993921,448.09746993921,448.09746993921,448.09746993921,448.09746993921,448.09746993921,448.09746993921,448.09746993921,448.09746993921,448.09746993921,448.09746993921,448.09746993921,448.09746993921,448.09746993921,448.09746993921,448.09746993921,448.09746993921,448.09746993921,216.71406782815,901.50578351213,-4.5588649170195,783.90449962615,-4.5704113382233,0
0.00089218749999998,6123641043.3671,7.6043006400478e-05,0.00026441121789365,0.00011751154646511,1.0844170421522,0,0,0,0,0,0,0,0,0,0,0,0,0,0,0,0,0,0,0,0,0,0,0,0,0,0,0,0,0,0,0,0,0,0,0,0,0,0,0,0,0,0,0,0,0,0,0,0,-0.91835782802908,0.5203006456166,-0.37196746256519,5.1159452841645,2.7450340918228,0.92805140958206,-2.651697631839,1.3964337698773,2.5397973990098,-0.34116552673144,1.7834951549559,-5.212139144656,1.7477228246225,-0.9907411719816,1.9263823747615,-3.273852996005,1.297480275157,4.1007852339186,-0.97740246925223,-4.4175848311663,1.8711234813003,2.2574035894805,0.021995522412816,-4.7887169843375,3.1744162422312,-3.0765320442057,1.2054437374211,0.91729254703064,-1.0976694897224,0.80116124445198,1.0007194190595,0.053767998355517,0.78610874095425,-3.3714028655235,-1.2297395725534,-3.0169834660375,5.3163097794343,-1.9125761312014,3.0341325388763,-0.35480400531579,-1.1510315593826,-6.0327350412416,0.94593782786711,-1.8702241637642,-3.4389109013398,1.9821145389746,2.9507376461578,-2.5711379946833,448.52549901056,448.52549901056,448.52549901056,448.52549901056,448.52549901056,448.52549901056,448.52549901056,448.52549901056,448.52549901056,448.52549901056,448.52549901056,448.52549901056,448.52549901056,448.52549901056,448.52549901056,448.52549901056,448.52549901056,448.52549901056,448.52549901056,448.52549901056,448.52549901056,448.52549901056,448.52549901056,448.52549901056,448.52549901056,448.52549901056,448.52549901056,448.52549901056,448.52549901056,448.52549901056,448.52549901056,448.52549901056,448.52549901056,448.52549901056,448.52549901056,448.52549901056,448.52549901056,448.52549901056,448.52549901056,448.52549901056,448.52549901056,448.52549901056,448.52549901056,448.52549901056,448.52549901056,448.52549901056,448.52549901056,448.52549901056,216.68775837776,902.38428953996,-4.5699611881747,784.64879335691,-4.5814888187206,0
0.00089343749999998,6138270745.2756,7.6150046872407e-05,0.00026478173929152,0.00011768152917097,1.0845353929321,0,0,0,0,0,0,0,0,0,0,0,0,0,0,0,0,0,0,0,0,0,0,0,0,0,0,0,0,0,0,0,0,0,0,0,0,0,0,0,0,0,0,0,0,0,0,0,0,-0.91820728931095,0.52131351222311,-0.37257792962485,5.1157176737495,2.7445235859742,0.92770730984826,-2.6506455681809,1.395982361772,2.53923700949,-0.3409409535204,1.7831528271614,-5.211444695719,1.7481343361695,-0.99010545892166,1.9264965975259,-3.2715771914584,1.2959302652326,4.0998657713422,-0.97707093618123,-4.4174663535603,1.8709115816544,2.258060335908,0.021846167562768,-4.7903857815591,3.1742434478677,-3.0776243030938,1.205425231975,0.9168012053014,-1.0965851882178,0.80044457601987,0.99995231959461,0.054696342415971,0.7860871136048,-3.3699985246455,-1.228748590219,-3.0160804593912,5.3158456114586,-1.9108906037698,3.0337227120547,-0.35483731058466,-1.1506517896908,-6.0305420470722,0.9454205954285,-1.8697027841596,-3.4388828667499,1.9836025794433,2.9498747232271,-2.5690178770194,448.95343526511,448.95343526511,448.95343526511,448.95343526511,448.95343526511,448.95343526511,448.95343526511,448.95343526511,448.95343526511,448.95343526511,448.95343526511,448.95343526511,448.95343526511,448.95343526511,448.95343526511,448.95343526511,448.95343526511,448.95343526511,448.95343526511,448.95343526511,448.95343526511,448.95343526511,448.95343526511,448.95343526511,448.95343526511,448.95343526511,448.95343526511,448.95343526511,448.95343526511,448.95343526511,448.95343526511,448.95343526511,448.95343526511,448.95343526511,448.95343526511,448.95343526511,448.95343526511,448.95343526511,448.95343526511,448.95343526511,448.95343526511,448.95343526511,448.95343526511,448.95343526511,448.95343526511,448.95343526511,448.95343526511,448.95343526511,216.66145585147,903.2626209941,-4.5810690826572,785.3929064488,-4.5925777842207,0
0.00089468749999998,6152914562.0099,7.6257087998779e-05,0.00026515226083024,0.0001178515223514,1.0846537402857,0,0,0,0,0,0,0,0,0,0,0,0,0,0,0,0,0,0,0,0,0,0,0,0,0,0,0,0,0,0,0,0,0,0,0,0,0,0,0,0,0,0,0,0,0,0,0,0,-0.91805713130185,0.52232345352382,-0.37318847302022,5.1154900775563,2.7440132299231,0.92736306193434,-2.6495945747917,1.3955310487878,2.5386764891688,-0.34071734702539,1.782810636616,-5.2107494806402,1.7485445282521,-0.98947096956721,1.9266103045105,-3.2693022300356,1.2943807420007,4.0989466104241,-0.97673864449845,-4.4173478588094,1.8706994998811,2.2587161612839,0.021695479455714,-4.7920532709138,3.1740705754044,-3.0787137325891,1.2054068321617,0.91630894056142,-1.0955024346754,0.79972843824534,0.99918558460207,0.055624574006005,0.78606580351356,-3.3685955373217,-1.227757685203,-3.0151766753202,5.3153803906107,-1.9092060950952,3.0333123439165,-0.35487157364375,-1.1502713980132,-6.0283482569803,0.94490204408639,-1.8691799143155,-3.4388533337258,1.9850908493042,2.9490116688467,-2.56689828084,449.38127872456,449.38127872456,449.38127872456,449.38127872456,449.38127872456,449.38127872456,449.38127872456,449.38127872456,449.38127872456,449.38127872456,449.38127872456,449.38127872456,449.38127872456,449.38127872456,449.38127872456,449.38127872456,449.38127872456,449.38127872456,449.38127872456,449.38127872456,449.38127872456,449.38127872456,449.38127872456,449.38127872456,449.38127872456,449.38127872456,449.38127872456,449.38127872456,449.38127872456,449.38127872456,449.38127872456,449.38127872456,449.38127872456,449.38127872456,449.38127872456,449.38127872456,449.38127872456,449.38127872456,449.38127872456,449.38127872456,449.38127872456,449.38127872456,449.38127872456,449.38127872456,449.38127872456,449.38127872456,449.38127872456,449.38127872456,216.63516025157,904.14077797044,-4.5921885947705,786.1368390005,-4.603678229024,0
0.00089593749999998,6167572480.5497,7.6364129712358e-05,0.00026552278251094,0.00011802152589197,1.0847720842138,0,0,0,0,0,0,0,0,0,0,0,0,0,0,0,0,0,0,0,0,0,0,0,0,0,0,0,0,0,0,0,0,0,0,0,0,0,0,0,0,0,0,0,0,0,0,0,0,-0.91790735346311,0.52333046410288,-0.37379909492888,5.1152624996835,2.7435030257119,0.92701866612272,-2.6485446554019,1.3950798320824,2.5381158406128,-0.34049470769762,1.7824685878475,-5.2100535000727,1.7489533980701,-0.98883770034542,1.9267234962184,-3.2670281219983,1.292831707714,4.098027754727,-0.97640559462156,-4.4172293512694,1.8704872367884,2.2593710691262,0.021543458103931,-4.7937194455449,3.1738976285372,-3.0798003331397,1.2053885381136,0.91581575263847,-1.0944212288504,0.79901283206229,0.99841921325658,0.056552691503943,0.78604481342351,-3.3671939022268,-1.2267668611856,-3.0142721093439,5.3149141194597,-1.9075226151322,3.0329014379346,-0.35490679234727,-1.1498903854649,-6.026153676158,0.94438217531862,-1.8686555468559,-3.4388223003758,1.9865793493731,2.9481484841598,-2.5647792052028,449.8090294106,449.8090294106,449.8090294106,449.8090294106,449.8090294106,449.8090294106,449.8090294106,449.8090294106,449.8090294106,449.8090294106,449.8090294106,449.8090294106,449.8090294106,449.8090294106,449.8090294106,449.8090294106,449.8090294106,449.8090294106,449.8090294106,449.8090294106,449.8090294106,449.8090294106,449.8090294106,449.8090294106,449.8090294106,449.8090294106,449.8090294106,449.8090294106,449.8090294106,449.8090294106,449.8090294106,449.8090294106,449.8090294106,449.8090294106,449.8090294106,449.8090294106,449.8090294106,449.8090294106,449.8090294106,449.8090294106,449.8090294106,449.8090294106,449.8090294106,449.8090294106,449.8090294106,449.8090294106,449.8090294106,449.8090294106,216.6088715804,905.01876056504,-4.6033197188153,786.88059111068,-4.614790147435,0
0.00089718749999998,6182244487.8653,7.6471172045157e-05,0.00026589330433477,0.00011819153979737,1.0848904247172,0,0,0,0,0,0,0,0,0,0,0,0,0,0,0,0,0,0,0,0,0,0,0,0,0,0,0,0,0,0,0,0,0,0,0,0,0,0,0,0,0,0,0,0,0,0,0,0,-0.91775795515064,0.52433453871491,-0.37440979731736,5.1150349446459,2.7429929752238,0.92667412290442,-2.6474958133642,1.394628712888,2.537555066368,-0.34027303583184,1.7821266853418,-5.2093567546409,1.7493609429836,-0.98820564766296,1.9268361729952,-3.2647548773773,1.2912831647253,4.0971092076089,-0.97607178669067,-4.41711083527,1.8702747933708,2.260025062979,0.021390103680003,-4.7953842987965,3.173724610885,-3.0808841050683,1.2053703498928,0.91532164149272,-1.0933415701056,0.79829775841473,0.99765320471867,0.057480693439044,0.78602414608241,-3.3657936179908,-1.2257761217636,-3.0133667569982,5.3144468004661,-1.9058401735296,3.032489997722,-0.3549429644813,-1.1495087533944,-6.0239583097838,0.94386099068467,-1.8681296744318,-3.4387897647944,1.9880680804677,2.9472851702914,-2.5626606489528,450.23668734496,450.23668734496,450.23668734496,450.23668734496,450.23668734496,450.23668734496,450.23668734496,450.23668734496,450.23668734496,450.23668734496,450.23668734496,450.23668734496,450.23668734496,450.23668734496,450.23668734496,450.23668734496,450.23668734496,450.23668734496,450.23668734496,450.23668734496,450.23668734496,450.23668734496,450.23668734496,450.23668734496,450.23668734496,450.23668734496,450.23668734496,450.23668734496,450.23668734496,450.23668734496,450.23668734496,450.23668734496,450.23668734496,450.23668734496,450.23668734496,450.23668734496,450.23668734496,450.23668734496,450.23668734496,450.23668734496,450.23668734496,450.23668734496,450.23668734496,450.23668734496,450.23668734496,450.23668734496,450.23668734496,450.23668734496,216.58258984036,905.89656887415,-4.6144624491022,787.62416287802,-4.6259135337788,0
0.00089843749999998,6196930570.9176,7.6578214966279e-05,0.00026626382630288,0.00011836156399635,1.0850087617969,0,0,0,0,0,0,0,0,0,0,0,0,0,0,0,0,0,0,0,0,0,0,0,0,0,0,0,0,0,0,0,0,0,0,0,0,0,0,0,0,0,0,0,0,0,0,0,0,-0.9176089356152,0.52533567228425,-0.37502058193459,5.1148074173508,2.7424830801728,0.92632943296654,-2.6464480516631,1.394177692503,2.5369941689577,-0.34005233156721,1.7817849335356,-5.2086592449368,1.7497671605125,-0.98757480791349,1.9269483350268,-3.2624825059453,1.2897351154732,4.0961909722076,-0.97573722058464,-4.4169923151017,1.8700621707964,2.2606781464071,0.021235416515779,-4.7970478242132,3.1735515259755,-3.0819650485661,1.2053522674883,0.91482660721128,-1.0922634574339,0.79758321825838,0.99688755813667,0.058408578488335,0.78600380424059,-3.3643946832005,-1.2247854704368,-3.0124606138524,5.3139784359709,-1.9041587795978,3.0320780270185,-0.35498008776469,-1.1491265033777,-6.0217621630123,0.94333849181873,-1.867602289745,-3.4387557250503,1.9895570434052,2.946421728338,-2.5605426107263,450.66425254933,450.66425254933,450.66425254933,450.66425254933,450.66425254933,450.66425254933,450.66425254933,450.66425254933,450.66425254933,450.66425254933,450.66425254933,450.66425254933,450.66425254933,450.66425254933,450.66425254933,450.66425254933,450.66425254933,450.66425254933,450.66425254933,450.66425254933,450.66425254933,450.66425254933,450.66425254933,450.66425254933,450.66425254933,450.66425254933,450.66425254933,450.66425254933,450.66425254933,450.66425254933,450.66425254933,450.66425254933,450.66425254933,450.66425254933,450.66425254933,450.66425254933,450.66425254933,450.66425254933,450.66425254933,450.66425254933,450.66425254933,450.66425254933,450.66425254933,450.66425254933,450.66425254933,450.66425254933,450.66425254933,450.66425254933,216.55631503407,906.77420299415,-4.6256167799164,788.36755440117,-4.637048382385,0
0.00089968749999998,6211630716.6585,7.6685258467807e-05,0.00026663434841642,0.0001185315984459,1.0851270954536,0,0,0,0,0,0,0,0,0,0,0,0,0,0,0,0,0,0,0,0,0,0,0,0,0,0,0,0,0,0,0,0,0,0,0,0,0,0,0,0,0,0,0,0,0,0,0,0,-0.91746029400288,0.52633385991108,-0.37563145029133,5.1145799230774,2.7419733421104,0.92598459719109,-2.6454013729198,1.3937267722899,2.5364331508745,-0.33983259488906,1.781443336815,-5.2079609715093,1.7501720483408,-0.98694517748192,1.9270599823455,-3.2602110171904,1.2881875624911,4.0952730514497,-0.97540189592469,-4.4168737950085,1.8698493704092,2.2613303229887,0.021079397102544,-4.7987100155395,3.1733783772373,-3.0830431636855,1.205334290818,0.91433065000831,-1.0911868894645,0.79686921256202,0.99612227264164,0.059336345472298,0.78598379065238,-3.3629970963946,-1.2237949106016,-3.0115536755188,5.3135090281905,-1.9024784422809,3.0316655296858,-0.35501815985036,-1.1487436372118,-6.0195652409619,0.94281468044573,-1.867073385554,-3.4387201791767,1.9910462389966,2.9455581593726,-2.5584250889579,451.09172504546,451.09172504546,451.09172504546,451.09172504546,451.09172504546,451.09172504546,451.09172504546,451.09172504546,451.09172504546,451.09172504546,451.09172504546,451.09172504546,451.09172504546,451.09172504546,451.09172504546,451.09172504546,451.09172504546,451.09172504546,451.09172504546,451.09172504546,451.09172504546,451.09172504546,451.09172504546,451.09172504546,451.09172504546,451.09172504546,451.09172504546,451.09172504546,451.09172504546,451.09172504546,451.09172504546,451.09172504546,451.09172504546,451.09172504546,451.09172504546,451.09172504546,451.09172504546,451.09172504546,451.09172504546,451.09172504546,451.09172504546,451.09172504546,451.09172504546,451.09172504546,451.09172504546,451.09172504546,451.09172504546,451.09172504546,216.53004716426,907.65166302157,-4.6367827055461,789.11076577871,-4.6481946875922,0
0.00090093749999998,6226344912.0311,7.6792302408128e-05,0.00026700487067655,0.00011870164294324,1.0852454256884,0,0,0,0,0,0,0,0,0,0,0,0,0,0,0,0,0,0,0,0,0,0,0,0,0,0,0,0,0,0,0,0,0,0,0,0,0,0,0,0,0,0,0,0,0,0,0,0,-0.91731202935344,0.52732909686745,-0.37624240365881,5.1143524674578,2.7414637624203,0.92563961664033,-2.6443557794065,1.3932759536681,2.5358720145792,-0.33961382562961,1.7811018995122,-5.2072619348564,1.7505756043121,-0.98631675274394,1.9271711148286,-3.2579404202963,1.2866405083907,4.0943554480415,-0.97506581209383,-4.4167552791804,1.8696363937172,2.2619815963179,0.020922046090663,-4.8003708667162,3.1732051679939,-3.084118450332,1.2053164197286,0.91383377021876,-1.0901118644866,0.79615574230822,0.99535734734292,0.060263993350444,0.78596410807444,-3.3616008560629,-1.2228044455381,-3.0106459376568,5.3130385792065,-1.900799170131,3.0312525096913,-0.35505717832118,-1.1483601569058,-6.017367548711,0.94228955837213,-1.8665429546896,-3.438683125161,1.9925356680418,2.9446944644396,-2.5563080818822,451.51910485507,451.51910485507,451.51910485507,451.51910485507,451.51910485507,451.51910485507,451.51910485507,451.51910485507,451.51910485507,451.51910485507,451.51910485507,451.51910485507,451.51910485507,451.51910485507,451.51910485507,451.51910485507,451.51910485507,451.51910485507,451.51910485507,451.51910485507,451.51910485507,451.51910485507,451.51910485507,451.51910485507,451.51910485507,451.51910485507,451.51910485507,451.51910485507,451.51910485507,451.51910485507,451.51910485507,451.51910485507,451.51910485507,451.51910485507,451.51910485507,451.51910485507,451.51910485507,451.51910485507,451.51910485507,451.51910485507,451.51910485507,451.51910485507,451.51910485507,451.51910485507,451.51910485507,451.51910485507,451.51910485507,451.51910485507,216.50378623397,908.52894905306,-4.6479602202658,789.8537971092,-4.6593524437505,0
0.00090218749999998,6241073143.9704,7.689934681163e-05,0.00026737539308444,0.00011887169748369,1.0853637525019,0,0,0,0,0,0,0,0,0,0,0,0,0,0,0,0,0,0,0,0,0,0,0,0,0,0,0,0,0,0,0,0,0,0,0,0,0,0,0,0,0,0,0,0,0,0,0,0,-0.9171641406026,0.52832137860313,-0.37685344306803,5.1141250564459,2.7409543423202,0.92529449255587,-2.6433112730434,1.3928252381074,2.5353107625303,-0.33939602347093,1.780760625905,-5.2065621354191,1.7509778264338,-0.98568953005472,1.9272817322029,-3.2556707241144,1.285093955861,4.0934381644664,-0.97472896823872,-4.4166367717329,1.8694232423852,2.2626319700216,0.020763364287984,-4.802030371866,3.1730319014642,-3.0851909082601,1.2052986539983,0.91333596829645,-1.0890383804548,0.79544280849382,0.99459278135489,0.061191521214,0.78594475926589,-3.3602059606457,-1.2218140784032,-3.0097373959661,5.3125670909617,-1.8991209712836,3.0308389711031,-0.35509714068504,-1.1479760646766,-6.0151690912735,0.94176312748884,-1.8660109900618,-3.4386445609345,1.994025331331,2.9438306445495,-2.5541915875372,451.94639199991,451.94639199991,451.94639199991,451.94639199991,451.94639199991,451.94639199991,451.94639199991,451.94639199991,451.94639199991,451.94639199991,451.94639199991,451.94639199991,451.94639199991,451.94639199991,451.94639199991,451.94639199991,451.94639199991,451.94639199991,451.94639199991,451.94639199991,451.94639199991,451.94639199991,451.94639199991,451.94639199991,451.94639199991,451.94639199991,451.94639199991,451.94639199991,451.94639199991,451.94639199991,451.94639199991,451.94639199991,451.94639199991,451.94639199991,451.94639199991,451.94639199991,451.94639199991,451.94639199991,451.94639199991,451.94639199991,451.94639199991,451.94639199991,451.94639199991,451.94639199991,451.94639199991,451.94639199991,451.94639199991,451.94639199991,216.47753224648,909.40606118539,-4.6591493183489,790.59664849109,-4.6705216452222,0
0.00090343749999998,6255815399.4034,7.7006391666708e-05,0.00026774591564125,0.00011904176201951,1.0854820758952,0,0,0,0,0,0,0,0,0,0,0,0,0,0,0,0,0,0,0,0,0,0,0,0,0,0,0,0,0,0,0,0,0,0,0,0,0,0,0,0,0,0,0,0,0,0,0,0,-0.91701662658101,0.52931070074096,-0.37746456929781,5.1138976962999,2.7404450828632,0.92494922634643,-2.6422678554231,1.3923746271257,2.5347493971273,-0.33917918794589,1.7804195202134,-5.2058615735755,1.7513787128756,-0.98506350576942,1.9273918340475,-3.2534019371579,1.2835479076599,4.0925212029908,-0.97439136328989,-4.4165182767131,1.8692099182311,2.2632814477218,0.020603352660803,-4.8036885253071,3.1728585807522,-3.0862605370712,1.2052809933354,0.91283724481105,-1.0879664350155,0.79473041213221,0.99382857375013,0.062118928283882,0.78592574698795,-3.3588124085311,-1.2208238122244,-3.0088280462146,5.3120945652551,-1.8974438534419,3.0304249180721,-0.35513804438116,-1.1475913629394,-6.0129698736136,0.94123538977374,-1.8654774846762,-3.4386044843675,1.9955152296334,2.9429667006873,-2.5520756037757,452.37358650174,452.37358650174,452.37358650174,452.37358650174,452.37358650174,452.37358650174,452.37358650174,452.37358650174,452.37358650174,452.37358650174,452.37358650174,452.37358650174,452.37358650174,452.37358650174,452.37358650174,452.37358650174,452.37358650174,452.37358650174,452.37358650174,452.37358650174,452.37358650174,452.37358650174,452.37358650174,452.37358650174,452.37358650174,452.37358650174,452.37358650174,452.37358650174,452.37358650174,452.37358650174,452.37358650174,452.37358650174,452.37358650174,452.37358650174,452.37358650174,452.37358650174,452.37358650174,452.37358650174,452.37358650174,452.37358650174,452.37358650174,452.37358650174,452.37358650174,452.37358650174,452.37358650174,452.37358650174,452.37358650174,452.37358650174,216.45128520536,910.28299951541,-4.6703499940611,791.33932002274,-4.6817022863732,0
0.00090468749999998,6270571665.2494,7.7113437020494e-05,0.00026811643834816,0.00011921183657326,1.085600395869,0,0,0,0,0,0,0,0,0,0,0,0,0,0,0,0,0,0,0,0,0,0,0,0,0,0,0,0,0,0,0,0,0,0,0,0,0,0,0,0,0,0,0,0,0,0,0,0,-0.91686948601624,0.53029705908078,-0.37807578287406,5.1136703935515,2.7399359849362,0.92460381957801,-2.6412255278105,1.3919241222794,2.5341879207556,-0.33896331844103,1.7800785865968,-5.2051602496347,1.7517782619686,-0.98443867623202,1.9275014197981,-3.2511340675772,1.2820023666138,4.0916045656557,-0.97405299597273,-4.4163997980786,1.8689964232132,2.2639300330615,0.020442012330711,-4.8053453215374,3.1726852088425,-3.0873273362095,1.2052634373806,0.9123376004404,-1.0868960255181,0.7940185542517,0.99306472359738,0.063046213902921,0.78590707400327,-3.3574201980554,-1.2198336498903,-3.0079178842308,5.3116210037335,-1.895767823855,3.030010354832,-0.35517988677534,-1.147206054299,-6.0107699006234,0.94070634729263,-1.8649424316452,-3.4385628932563,1.9970053637028,2.9421026337999,-2.5499601282728,452.80068838231,452.80068838231,452.80068838231,452.80068838231,452.80068838231,452.80068838231,452.80068838231,452.80068838231,452.80068838231,452.80068838231,452.80068838231,452.80068838231,452.80068838231,452.80068838231,452.80068838231,452.80068838231,452.80068838231,452.80068838231,452.80068838231,452.80068838231,452.80068838231,452.80068838231,452.80068838231,452.80068838231,452.80068838231,452.80068838231,452.80068838231,452.80068838231,452.80068838231,452.80068838231,452.80068838231,452.80068838231,452.80068838231,452.80068838231,452.80068838231,452.80068838231,452.80068838231,452.80068838231,452.80068838231,452.80068838231,452.80068838231,452.80068838231,452.80068838231,452.80068838231,452.80068838231,452.80068838231,452.80068838231,452.80068838231,216.42504511456,911.15976414005,-4.6815622416647,792.08181180239,-4.692894361579,0
0.00090593749999998,6285341928.4206,7.722048276492e-05,0.00026848696120634,0.00011938192098223,1.0857187124243,0,0,0,0,0,0,0,0,0,0,0,0,0,0,0,0,0,0,0,0,0,0,0,0,0,0,0,0,0,0,0,0,0,0,0,0,0,0,0,0,0,0,0,0,0,0,0,0,-0.9167227175322,0.53128044959959,-0.378687084069,5.1134431549795,2.7394270492662,0.92425827396932,-2.6401842911566,1.3914737251617,2.5336263357489,-0.33874841419988,1.7797378291553,-5.2044581638304,1.7521764722062,-0.98381503778351,1.9276104887512,-3.2488671231523,1.2804573356001,4.0906882542889,-0.97371386481907,-4.4162813396943,1.8687827594275,2.2645777296829,0.020279344575161,-4.8070007552275,3.1725117886021,-3.0883913049631,1.2052459857086,0.91183703597123,-1.0858271490306,0.79330723589772,0.99230122992989,0.063973377528251,0.78588874307622,-3.356029327499,-1.2188435941463,-3.0070069059189,5.3111464078954,-1.8940928893076,3.0295952856729,-0.35522266515952,-1.1468201415446,-6.0085691771215,0.94017600219621,-1.8644058241946,-3.4385197853228,1.9984957342649,2.941238444809,-2.5478451585312,453.22769766341,453.22769766341,453.22769766341,453.22769766341,453.22769766341,453.22769766341,453.22769766341,453.22769766341,453.22769766341,453.22769766341,453.22769766341,453.22769766341,453.22769766341,453.22769766341,453.22769766341,453.22769766341,453.22769766341,453.22769766341,453.22769766341,453.22769766341,453.22769766341,453.22769766341,453.22769766341,453.22769766341,453.22769766341,453.22769766341,453.22769766341,453.22769766341,453.22769766341,453.22769766341,453.22769766341,453.22769766341,453.22769766341,453.22769766341,453.22769766341,453.22769766341,453.22769766341,453.22769766341,453.22769766341,453.22769766341,453.22769766341,453.22769766341,453.22769766341,453.22769766341,453.22769766341,453.22769766341,453.22769766341,453.22769766341,216.39881197833,912.03635515629,-4.6927860554247,792.82412392815,-4.7040978652327,0
0.00090718749999998,6300126175.8222,7.732752890137e-05,0.00026885748421698,0.00011955201521439,1.0858370255619,0,0,0,0,0,0,0,0,0,0,0,0,0,0,0,0,0,0,0,0,0,0,0,0,0,0,0,0,0,0,0,0,0,0,0,0,0,0,0,0,0,0,0,0,0,0,0,0,-0.91657631965065,0.53226086845231,-0.37929847290098,5.113215987578,2.7389182764178,0.92391259137931,-2.6391441461083,1.3910234373937,2.5330646444254,-0.33853447432464,1.7793972519252,-5.2037553163139,1.752573342242,-0.98319258675695,1.9277190400642,-3.2466011112805,1.2789128175592,4.0897722704935,-0.97337396818148,-4.416162905319,1.8685689290952,2.2652245412483,0.020115350824288,-4.8086548212233,3.1723383227741,-3.0894524424597,1.2052286378305,0.91133555229088,-1.0847598023597,0.79259645813083,0.99153809177522,0.064900418728032,0.78587075697099,-3.3546397950863,-1.2178536475884,-3.0060951072555,5.3106707790762,-1.892419056106,3.0291797149498,-0.35526637675143,-1.1464336276411,-6.0063677078486,0.93964435672842,-1.8638676556784,-3.4384751582013,1.9999863420208,2.9403741345963,-2.5457306918886,453.65461436682,453.65461436682,453.65461436682,453.65461436682,453.65461436682,453.65461436682,453.65461436682,453.65461436682,453.65461436682,453.65461436682,453.65461436682,453.65461436682,453.65461436682,453.65461436682,453.65461436682,453.65461436682,453.65461436682,453.65461436682,453.65461436682,453.65461436682,453.65461436682,453.65461436682,453.65461436682,453.65461436682,453.65461436682,453.65461436682,453.65461436682,453.65461436682,453.65461436682,453.65461436682,453.65461436682,453.65461436682,453.65461436682,453.65461436682,453.65461436682,453.65461436682,453.65461436682,453.65461436682,453.65461436682,453.65461436682,453.65461436682,453.65461436682,453.65461436682,453.65461436682,453.65461436682,453.65461436682,453.65461436682,453.65461436682,216.37258580136,912.91277266115,-4.7040214295855,793.56625649801,-4.7153127917276,0
0.00090843749999998,6314924394.3532,7.7434575269452e-05,0.00026922800738126,0.0001197221190451,1.0859553352828,0,0,0,0,0,0,0,0,0,0,0,0,0,0,0,0,0,0,0,0,0,0,0,0,0,0,0,0,0,0,0,0,0,0,0,0,0,0,0,0,0,0,0,0,0,0,0,0,-0.91643029079257,0.53323831197076,-0.37990994912902,5.1129888985326,2.7384096667997,0.92356677379677,-2.6381050930163,1.390573260621,2.5325028490674,-0.33832149778088,1.7790568588794,-5.2030517071561,1.7529688708891,-0.98257131947864,1.9278270727698,-3.2443360389689,1.2773688154771,4.0888566156603,-0.97303330425052,-4.4160444985985,1.8683549345582,2.2658704714277,0.019950032659805,-4.8103075145282,3.1721648139734,-3.0905107476744,1.2052113931947,0.91083315038188,-1.0836939820619,0.79188622202723,0.99077530813839,0.065827337170765,0.78585311845311,-3.353251598987,-1.2168638126584,-3.0051824842955,5.3101941184591,-1.890746330071,3.0287636470653,-0.35531101869236,-1.1460465157166,-6.0041654974593,0.93911141321926,-1.8633279195814,-3.4384290094397,2.0014771876474,2.939509704012,-2.5436167255287,454.08143851434,454.08143851434,454.08143851434,454.08143851434,454.08143851434,454.08143851434,454.08143851434,454.08143851434,454.08143851434,454.08143851434,454.08143851434,454.08143851434,454.08143851434,454.08143851434,454.08143851434,454.08143851434,454.08143851434,454.08143851434,454.08143851434,454.08143851434,454.08143851434,454.08143851434,454.08143851434,454.08143851434,454.08143851434,454.08143851434,454.08143851434,454.08143851434,454.08143851434,454.08143851434,454.08143851434,454.08143851434,454.08143851434,454.08143851434,454.08143851434,454.08143851434,454.08143851434,454.08143851434,454.08143851434,454.08143851434,454.08143851434,454.08143851434,454.08143851434,454.08143851434,454.08143851434,454.08143851434,454.08143851434,454.08143851434,216.3463665887,913.78901675164,-4.7152683583801,794.30820960978,-4.7265391354724,0
0.00090968749999998,6329736570.9062,7.7541622006892e-05,0.00026959853070037,0.0001198922326045,1.0860736415878,0,0,0,0,0,0,0,0,0,0,0,0,0,0,0,0,0,0,0,0,0,0,0,0,0,0,0,0,0,0,0,0,0,0,0,0,0,0,0,0,0,0,0,0,0,0,0,0,-0.91628462927828,0.53421277666523,-0.38052151226784,5.1127618951912,2.7379012206646,0.92322082333506,-2.6370671319505,1.390123196508,2.5319409519207,-0.33810948339985,1.7787166539273,-5.2023473363379,1.7533630571187,-0.98195123227384,1.9279345857703,-3.2420719128327,1.2758253323796,4.0879412909637,-0.97269187106488,-4.4159261230595,1.8681407782684,2.2665155238949,0.019783391813189,-4.8119588303086,3.1719912646947,-3.0915662194258,1.2051942511897,0.91032983132076,-1.0826296844652,0.79117652867821,0.99001287800249,0.066754132620775,0.78583583028762,-3.3518647373123,-1.2158740916413,-3.0042690331846,5.3097164270616,-1.8890747165332,3.0283470864507,-0.35535658804859,-1.1456588090595,-6.001962550528,0.93857717408821,-1.862786609536,-3.4383813364909,2.0029682717835,2.9386451538718,-2.5415032564914,454.50817012779,454.50817012779,454.50817012779,454.50817012779,454.50817012779,454.50817012779,454.50817012779,454.50817012779,454.50817012779,454.50817012779,454.50817012779,454.50817012779,454.50817012779,454.50817012779,454.50817012779,454.50817012779,454.50817012779,454.50817012779,454.50817012779,454.50817012779,454.50817012779,454.50817012779,454.50817012779,454.50817012779,454.50817012779,454.50817012779,454.50817012779,454.50817012779,454.50817012779,454.50817012779,454.50817012779,454.50817012779,454.50817012779,454.50817012779,454.50817012779,454.50817012779,454.50817012779,454.50817012779,454.50817012779,454.50817012779,454.50817012779,454.50817012779,454.50817012779,454.50817012779,454.50817012779,454.50817012779,454.50817012779,454.50817012779,216.32015434584,914.66508752481,-4.7265268360683,795.04998336109,-4.7377768908811,0
0.00091093749999998,6344562692.3683,7.7648668890223e-05,0.0002699690541755,0.00012006235559253,1.0861919444779,0,0,0,0,0,0,0,0,0,0,0,0,0,0,0,0,0,0,0,0,0,0,0,0,0,0,0,0,0,0,0,0,0,0,0,0,0,0,0,0,0,0,0,0,0,0,0,0,-0.91613933332994,0.53518425922236,-0.38113316157494,5.1125349850271,2.7373929381145,0.92287474222131,-2.6360302627047,1.3896732467336,2.5313789551951,-0.33789842988291,1.778376640913,-5.2016422037486,1.7537559000597,-0.98133232146536,1.9280415778483,-3.2398087390893,1.2742823713345,4.0870262973712,-0.97234966652167,-4.4158077820964,1.8679264627828,2.2671597023297,0.019615430163636,-4.8136087638795,3.1718176773013,-3.0926188563829,1.2051772111446,0.90982559627015,-1.081566905679,0.79046737919126,0.98925080032789,0.067680804929503,0.78581889523971,-3.3504792081153,-1.2148844866613,-3.0033547501584,5.3092377057379,-1.8874042203271,3.0279300375729,-0.35540308181086,-1.145270511108,-5.9997588715402,0.93804164184519,-1.8622437193241,-3.4383321367047,2.0044595950388,2.9377804849608,-2.5393902816735,454.934809229,454.934809229,454.934809229,454.934809229,454.934809229,454.934809229,454.934809229,454.934809229,454.934809229,454.934809229,454.934809229,454.934809229,454.934809229,454.934809229,454.934809229,454.934809229,454.934809229,454.934809229,454.934809229,454.934809229,454.934809229,454.934809229,454.934809229,454.934809229,454.934809229,454.934809229,454.934809229,454.934809229,454.934809229,454.934809229,454.934809229,454.934809229,454.934809229,454.934809229,454.934809229,454.934809229,454.934809229,454.934809229,454.934809229,454.934809229,454.934809229,454.934809229,454.934809229,454.934809229,454.934809229,454.934809229,454.934809229,454.934809229,216.29394907866,915.54098507764,-4.7377968568784,795.79157784941,-4.7490260523839,0
0.00091218749999998,6359402745.6209,7.7755716346899e-05,0.00027033957780786,0.00012023248848435,1.0863102439539,0,0,0,0,0,0,0,0,0,0,0,0,0,0,0,0,0,0,0,0,0,0,0,0,0,0,0,0,0,0,0,0,0,0,0,0,0,0,0,0,0,0,0,0,0,0,0,0,-0.91599440106683,0.53615275648368,-0.38174489594163,5.1123081757003,2.7368848191034,0.92252853278852,-2.634994484744,1.3892234130213,2.530816861012,-0.3376883358074,1.778036823577,-5.2009363090871,1.7541473989544,-0.98071458338713,1.9281480476218,-3.2375465235918,1.2727399354389,4.0861116356578,-0.97200668843101,-4.4156894789351,1.8677119907852,2.2678030103344,0.019446149740626,-4.8152573107095,3.1716440539274,-3.0936686569619,1.2051602723365,0.90932044649108,-1.0805056415416,0.78975877474722,0.98848907403058,0.068607354025797,0.78580231606187,-3.3490950093338,-1.2138949996658,-3.0024396315431,5.3087579549836,-1.8857348458047,3.0275125049035,-0.35545049689232,-1.1448816253863,-5.9975544649313,0.93750481906525,-1.8616992428073,-3.4382814071664,2.0059511579529,2.9369156980685,-2.5372777979274,455.36135583981,455.36135583981,455.36135583981,455.36135583981,455.36135583981,455.36135583981,455.36135583981,455.36135583981,455.36135583981,455.36135583981,455.36135583981,455.36135583981,455.36135583981,455.36135583981,455.36135583981,455.36135583981,455.36135583981,455.36135583981,455.36135583981,455.36135583981,455.36135583981,455.36135583981,455.36135583981,455.36135583981,455.36135583981,455.36135583981,455.36135583981,455.36135583981,455.36135583981,455.36135583981,455.36135583981,455.36135583981,455.36135583981,455.36135583981,455.36135583981,455.36135583981,455.36135583981,455.36135583981,455.36135583981,455.36135583981,455.36135583981,455.36135583981,455.36135583981,455.36135583981,455.36135583981,455.36135583981,455.36135583981,455.36135583981,216.26775079349,916.416709507,-4.7490784148045,796.53299317218,-4.7602866141999,0
0.00091343749999998,6374256717.541,7.7862764059612e-05,0.00027071010159864,0.00012040263086872,1.0864285400168,0,0,0,0,0,0,0,0,0,0,0,0,0,0,0,0,0,0,0,0,0,0,0,0,0,0,0,0,0,0,0,0,0,0,0,0,0,0,0,0,0,0,0,0,0,0,0,0,-0.91584983053051,0.53711826554131,-0.38235671436857,5.1120814747069,2.7363768634463,0.922182197454,-2.6339597974887,1.388773696994,2.5302546716274,-0.33747919962273,1.7776972057066,-5.2002296522913,1.7545375533292,-0.98009801433754,1.9282539937509,-3.2352852717004,1.2711980278203,4.0851973063512,-0.97166293440139,-4.415571216768,1.8674973649614,2.2684454517659,0.019275552698629,-4.8169044663868,3.1714703968839,-3.0947156197933,1.2051434339832,0.90881438327051,-1.079445887924,0.78905071635487,0.98772769808372,0.069533779918662,0.78578609554107,-3.3477121390408,-1.2129056324761,-3.0015236737849,5.3082771757433,-1.8840665967887,3.0270944929644,-0.35549883013615,-1.1444921557255,-5.9953493349394,0.93696670848141,-1.8611531742568,-3.4382291453806,2.0074429611338,2.9360507938314,-2.5351658017572,455.78780998208,455.78780998208,455.78780998208,455.78780998208,455.78780998208,455.78780998208,455.78780998208,455.78780998208,455.78780998208,455.78780998208,455.78780998208,455.78780998208,455.78780998208,455.78780998208,455.78780998208,455.78780998208,455.78780998208,455.78780998208,455.78780998208,455.78780998208,455.78780998208,455.78780998208,455.78780998208,455.78780998208,455.78780998208,455.78780998208,455.78780998208,455.78780998208,455.78780998208,455.78780998208,455.78780998208,455.78780998208,455.78780998208,455.78780998208,455.78780998208,455.78780998208,455.78780998208,455.78780998208,455.78780998208,455.78780998208,455.78780998208,455.78780998208,455.78780998208,455.78780998208,455.78780998208,455.78780998208,455.78780998208,455.78780998208,216.24155949653,917.29226090999,-4.7603715045813,797.27422942616,-4.7715585711605,0
0.00091468749999998,6389124595.0003,7.796981194048e-05,0.00027108062554905,0.00012057278260708,1.0865468326674,0,0,0,0,0,0,0,0,0,0,0,0,0,0,0,0,0,0,0,0,0,0,0,0,0,0,0,0,0,0,0,0,0,0,0,0,0,0,0,0,0,0,0,0,0,0,0,0,-0.91570561964953,0.53808078358509,-0.38296861527917,5.1118548898167,2.735869070804,0.92183573873301,-2.6329261998982,1.3883241003799,2.5296923890903,-0.33727101966711,1.7773577909105,-5.1995222328279,1.7549263627255,-0.97948261064574,1.9283594146342,-3.2330249884811,1.2696566516221,4.0842833098179,-0.97131840203198,-4.4154529985117,1.8672825881605,2.2690870302325,0.019103641349238,-4.8185502266391,3.1712967080545,-3.0957597429804,1.20512669525,0.90830740801801,-1.0783876403024,0.78834320522481,0.98696667135947,0.070460082671051,0.78577023642662,-3.3463305950366,-1.2119163867081,-3.0006068734064,5.3077953681562,-1.882399476648,3.0266760062294,-0.35554807830043,-1.1441021058992,-5.9931434858186,0.9364273128423,-1.8606055078713,-3.4381753481895,2.0089350050378,2.9351857729709,-2.5330542897805,456.2141716777,456.2141716777,456.2141716777,456.2141716777,456.2141716777,456.2141716777,456.2141716777,456.2141716777,456.2141716777,456.2141716777,456.2141716777,456.2141716777,456.2141716777,456.2141716777,456.2141716777,456.2141716777,456.2141716777,456.2141716777,456.2141716777,456.2141716777,456.2141716777,456.2141716777,456.2141716777,456.2141716777,456.2141716777,456.2141716777,456.2141716777,456.2141716777,456.2141716777,456.2141716777,456.2141716777,456.2141716777,456.2141716777,456.2141716777,456.2141716777,456.2141716777,456.2141716777,456.2141716777,456.2141716777,456.2141716777,456.2141716777,456.2141716777,456.2141716777,456.2141716777,456.2141716777,456.2141716777,456.2141716777,456.2141716777,216.21537519637,918.16763938325,-4.7716761201799,798.0152867083,-4.7828419175284,0
0.00091593749999998,6404006364.8664,7.8076859747634e-05,0.00027145114966029,0.00012074294337697,1.0866651219067,0,0,0,0,0,0,0,0,0,0,0,0,0,0,0,0,0,0,0,0,0,0,0,0,0,0,0,0,0,0,0,0,0,0,0,0,0,0,0,0,0,0,0,0,0,0,0,0,-0.91556176626695,0.53904030800788,-0.38358059696763,5.1116284287451,2.7353614407094,0.92148915921162,-2.6318936907744,1.3878746248727,2.5291300154703,-0.33706379416484,1.7770185827692,-5.198814050211,1.7553138268826,-0.97886836863407,1.9284643086251,-3.2307656785835,1.2681158100113,4.0833696462202,-0.97097308881373,-4.415334826972,1.8670676632853,2.2697277494268,0.018930418133766,-4.8201945873182,3.1711229892949,-3.0968010246467,1.2051100552561,0.90779952219164,-1.0773308940708,0.78763624251609,0.98620599273374,0.071386262404158,0.78575474147853,-3.3449503751446,-1.2109272638227,-2.9996892270488,5.3073125324208,-1.8807334882553,3.0262570491896,-0.35559823807115,-1.1437114798624,-5.9909369217093,0.9358866350112,-1.8600562381108,-3.438120012522,2.0104272901213,2.9343206361368,-2.5309432584459,456.64044094855,456.64044094855,456.64044094855,456.64044094855,456.64044094855,456.64044094855,456.64044094855,456.64044094855,456.64044094855,456.64044094855,456.64044094855,456.64044094855,456.64044094855,456.64044094855,456.64044094855,456.64044094855,456.64044094855,456.64044094855,456.64044094855,456.64044094855,456.64044094855,456.64044094855,456.64044094855,456.64044094855,456.64044094855,456.64044094855,456.64044094855,456.64044094855,456.64044094855,456.64044094855,456.64044094855,456.64044094855,456.64044094855,456.64044094855,456.64044094855,456.64044094855,456.64044094855,456.64044094855,456.64044094855,456.64044094855,456.64044094855,456.64044094855,456.64044094855,456.64044094855,456.64044094855,456.64044094855,456.64044094855,456.64044094855,216.18919789963,919.04284502349,-4.7829922558133,798.75616511523,-4.7941366477662,0
0.00091718749999998,6418902014.0033,7.8183907721514e-05,0.00027182167393359,0.00012091311343136,1.0867834077356,0,0,0,0,0,0,0,0,0,0,0,0,0,0,0,0,0,0,0,0,0,0,0,0,0,0,0,0,0,0,0,0,0,0,0,0,0,0,0,0,0,0,0,0,0,0,0,0,-0.91541826813647,0.53999683638007,-0.38419265750133,5.1114020991955,2.7348539725642,0.92114246154643,-2.6308622686914,1.38742527216,2.5285675528061,-0.33685752123266,1.7766795847958,-5.1981051038622,1.7556999456898,-0.97825528462543,1.9285686739843,-3.2285073462794,1.266575506164,4.0824563155361,-0.97062699216516,-4.4152167047879,1.8668525933091,2.2703676130476,0.018755885627946,-4.8218375443948,3.1709492423346,-3.0978394627978,1.2050935130738,0.90729072731197,-1.0762756444753,0.78692982939867,0.98544566106507,0.072312319285758,0.78573961345451,-3.3435714771337,-1.2099382651149,-2.9987707314637,5.3068286685724,-1.8790686340078,3.0258376263177,-0.35564930605694,-1.1433202816797,-5.9887296466704,0.93534467793664,-1.8595053596187,-3.4380631351926,2.0119198167967,2.9334553839545,-2.5288327041097,457.06661781657,457.06661781657,457.06661781657,457.06661781657,457.06661781657,457.06661781657,457.06661781657,457.06661781657,457.06661781657,457.06661781657,457.06661781657,457.06661781657,457.06661781657,457.06661781657,457.06661781657,457.06661781657,457.06661781657,457.06661781657,457.06661781657,457.06661781657,457.06661781657,457.06661781657,457.06661781657,457.06661781657,457.06661781657,457.06661781657,457.06661781657,457.06661781657,457.06661781657,457.06661781657,457.06661781657,457.06661781657,457.06661781657,457.06661781657,457.06661781657,457.06661781657,457.06661781657,457.06661781657,457.06661781657,457.06661781657,457.06661781657,457.06661781657,457.06661781657,457.06661781657,457.06661781657,457.06661781657,457.06661781657,457.06661781657,216.16302761434,919.9178779273,-4.7943199057184,799.49686474334,-4.8054427563196,0
0.00091843749999998,6433811529.2711,7.8290955805772e-05,0.00027219219837014,0.00012108329266868,1.086901690155,0,0,0,0,0,0,0,0,0,0,0,0,0,0,0,0,0,0,0,0,0,0,0,0,0,0,0,0,0,0,0,0,0,0,0,0,0,0,0,0,0,0,0,0,0,0,0,0,-0.91527512292355,0.54095036644273,-0.3848047947253,5.1111759088367,2.7343466656424,0.92079564845362,-2.6298319320142,1.3869760439213,2.5280050030878,-0.33665219888502,1.7763408004393,-5.1973953930982,1.7560847191815,-0.97764335495268,1.9286725088881,-3.2262499954724,1.2650357432715,4.0815433175573,-0.97028010944659,-4.4150986344339,1.8666373812691,2.2710066247834,0.018580046535973,-4.8234790939497,3.1707754687816,-3.0988750553174,1.2050770677305,0.90678102495532,-1.0752218866324,0.78622396705167,0.98468567518085,0.073238253522536,0.78572485511024,-3.3421938987118,-1.2089493917135,-2.9978513835225,5.3063437764936,-1.8774049158376,3.0254177420762,-0.355701278795,-1.1429285155165,-5.9865216646821,0.93480144465464,-1.8589528672278,-3.4380047129146,2.0134125854377,2.9325900170142,-2.5267226230471,457.49270230367,457.49270230367,457.49270230367,457.49270230367,457.49270230367,457.49270230367,457.49270230367,457.49270230367,457.49270230367,457.49270230367,457.49270230367,457.49270230367,457.49270230367,457.49270230367,457.49270230367,457.49270230367,457.49270230367,457.49270230367,457.49270230367,457.49270230367,457.49270230367,457.49270230367,457.49270230367,457.49270230367,457.49270230367,457.49270230367,457.49270230367,457.49270230367,457.49270230367,457.49270230367,457.49270230367,457.49270230367,457.49270230367,457.49270230367,457.49270230367,457.49270230367,457.49270230367,457.49270230367,457.49270230367,457.49270230367,457.49270230367,457.49270230367,457.49270230367,457.49270230367,457.49270230367,457.49270230367,457.49270230367,457.49270230367,216.13686434898,920.79273819111,-4.8056590641097,800.23738568879,-4.8167602376607,0
0.00091968749999998,6448734897.5266,7.8398003986143e-05,0.00027256272297119,0.00012125348103801,1.0870199691659,0,0,0,0,0,0,0,0,0,0,0,0,0,0,0,0,0,0,0,0,0,0,0,0,0,0,0,0,0,0,0,0,0,0,0,0,0,0,0,0,0,0,0,0,0,0,0,0,-0.91513232820806,0.54190089611247,-0.38541700627076,5.1109498652718,2.7338395190942,0.9204487227028,-2.6288026789001,1.3865269418253,2.5274423682848,-0.33644782504016,1.7760022330836,-5.1966849171456,1.7564681475366,-0.97703257594519,1.9287758114288,-3.2239936297035,1.2634965245261,4.0806306518948,-0.96993243797094,-4.4149806182076,1.8664220302616,2.2716447883362,0.018402903688417,-4.8251192321562,3.1706016701226,-3.0999077999903,1.2050607182131,0.90627041675018,-1.0741696155386,0.78551865666414,0.98392603389761,0.074164065347878,0.78571046919876,-3.3408176375342,-1.2079606445801,-2.9969311802036,5.3058578559011,-1.87574233522,3.0249974008915,-0.35575415274341,-1.1425361856328,-5.9843129796402,0.93425693828738,-1.8583987559612,-3.4379447422825,2.0149055963701,2.9317245358759,-2.5246130114575,457.91869443182,457.91869443182,457.91869443182,457.91869443182,457.91869443182,457.91869443182,457.91869443182,457.91869443182,457.91869443182,457.91869443182,457.91869443182,457.91869443182,457.91869443182,457.91869443182,457.91869443182,457.91869443182,457.91869443182,457.91869443182,457.91869443182,457.91869443182,457.91869443182,457.91869443182,457.91869443182,457.91869443182,457.91869443182,457.91869443182,457.91869443182,457.91869443182,457.91869443182,457.91869443182,457.91869443182,457.91869443182,457.91869443182,457.91869443182,457.91869443182,457.91869443182,457.91869443182,457.91869443182,457.91869443182,457.91869443182,457.91869443182,457.91869443182,457.91869443182,457.91869443182,457.91869443182,457.91869443182,457.91869443182,457.91869443182,216.11070811234,921.66742591121,-4.817009725218,800.97772804749,-4.8280890862677,0
0.00092093749999998,6463672105.6242,7.8505052261351e-05,0.00027293324773793,0.00012142367850435,1.0871382447692,0,0,0,0,0,0,0,0,0,0,0,0,0,0,0,0,0,0,0,0,0,0,0,0,0,0,0,0,0,0,0,0,0,0,0,0,0,0,0,0,0,0,0,0,0,0,0,0,-0.91498988148668,0.54284842347779,-0.38602928956638,5.1107239760173,2.7333325319492,0.92010168710816,-2.6277745073114,1.3860779675276,2.5268796503288,-0.33624439752496,1.7756638860482,-5.1959736751383,1.7568502310755,-0.97642294393604,1.9288785796231,-3.2217382521681,1.2619578531252,4.0797183179874,-0.96958397501365,-4.4148626582309,1.8662065434366,2.2722821074052,0.018224460037644,-4.8267579552896,3.1704278477287,-3.1009376945054,1.205044463466,0.90575890437108,-1.0731188260809,0.78481389943305,0.98316673600981,0.07508975501706,0.78569645846929,-3.3394426912024,-1.2069720245133,-2.9960101186025,5.3053709063538,-1.8740808931882,3.0245766071634,-0.355807924286,-1.1421432963738,-5.982103595374,0.93371116204254,-1.8578430210375,-3.4378832197811,2.0163988498762,2.9308589410724,-2.5225038654726,458.34459422299,458.34459422299,458.34459422299,458.34459422299,458.34459422299,458.34459422299,458.34459422299,458.34459422299,458.34459422299,458.34459422299,458.34459422299,458.34459422299,458.34459422299,458.34459422299,458.34459422299,458.34459422299,458.34459422299,458.34459422299,458.34459422299,458.34459422299,458.34459422299,458.34459422299,458.34459422299,458.34459422299,458.34459422299,458.34459422299,458.34459422299,458.34459422299,458.34459422299,458.34459422299,458.34459422299,458.34459422299,458.34459422299,458.34459422299,458.34459422299,458.34459422299,458.34459422299,458.34459422299,458.34459422299,458.34459422299,458.34459422299,458.34459422299,458.34459422299,458.34459422299,458.34459422299,458.34459422299,458.34459422299,458.34459422299,216.08455891363,922.54194118371,-4.8283718832537,801.71789191509,-4.8394292966188,0
0.00092218749999998,6478623140.4152,7.8612100606197e-05,0.00027330377267161,0.00012159388500314,1.0872565169659,0,0,0,0,0,0,0,0,0,0,0,0,0,0,0,0,0,0,0,0,0,0,0,0,0,0,0,0,0,0,0,0,0,0,0,0,0,0,0,0,0,0,0,0,0,0,0,0,-0.91484778017471,0.54379294679658,-0.38664164183174,5.110498248484,2.7328257031235,0.91975454452099,-2.6267474150211,1.38562912267,2.5263168511173,-0.33604191408224,1.7753257625877,-5.1952616661108,1.7572309702577,-0.97581445526407,1.9289808114224,-3.2194838657273,1.2604197322592,4.0788063151044,-0.96923471783012,-4.4147447564405,1.8659909239957,2.2729185856911,0.01804471865356,-4.8283952597075,3.170254002849,-3.1019647364564,1.2050283023979,0.90524648953549,-1.0720695130482,0.7841096965626,0.98240778029048,0.076015322793813,0.78568282566818,-3.3380690572611,-1.2059835321482,-2.9950881959359,5.3048829272631,-1.8724205903471,3.0241553652486,-0.35586258973221,-1.1417498521621,-5.9798935156439,0.93316411920806,-1.857285657874,-3.4378201417877,2.0178923461926,2.9299932331061,-2.5203951811727,458.7704016992,458.7704016992,458.7704016992,458.7704016992,458.7704016992,458.7704016992,458.7704016992,458.7704016992,458.7704016992,458.7704016992,458.7704016992,458.7704016992,458.7704016992,458.7704016992,458.7704016992,458.7704016992,458.7704016992,458.7704016992,458.7704016992,458.7704016992,458.7704016992,458.7704016992,458.7704016992,458.7704016992,458.7704016992,458.7704016992,458.7704016992,458.7704016992,458.7704016992,458.7704016992,458.7704016992,458.7704016992,458.7704016992,458.7704016992,458.7704016992,458.7704016992,458.7704016992,458.7704016992,458.7704016992,458.7704016992,458.7704016992,458.7704016992,458.7704016992,458.7704016992,458.7704016992,458.7704016992,458.7704016992,458.7704016992,216.05841676236,923.41628410457,-4.8397455324328,802.45787738701,-4.8507808631948,0
0.00092343749999998,6493587988.7489,7.8719148980772e-05,0.00027367429777344,0.00012176410045319,1.0873747857569,0,0,0,0,0,0,0,0,0,0,0,0,0,0,0,0,0,0,0,0,0,0,0,0,0,0,0,0,0,0,0,0,0,0,0,0,0,0,0,0,0,0,0,0,0,0,0,0,-0.91470602160928,0.54473446449775,-0.3872540600982,5.1102726899481,2.7323190314248,0.91940729782319,-2.6257213996287,1.3851804088787,2.5257539725123,-0.33584037237525,1.7749878658943,-5.1945488890153,1.7576103656812,-0.97520710627185,1.9290825047075,-3.2172304729224,1.2588821651167,4.0778946423586,-0.96888466365688,-4.414626914594,1.865775175186,2.2735542268939,0.017863682720616,-4.8300311418547,3.1700801366222,-3.102988923365,1.2050122338822,0.90473317399774,-1.0710216711455,0.78340604926436,0.98164916549265,0.076940768945169,0.78566957353786,-3.336696733208,-1.2049951679608,-2.99416540954,5.3043939178746,-1.8707614268877,3.0237336794627,-0.35591814531673,-1.1413558574939,-5.9776827441536,0.93261581315728,-1.8567266620893,-3.4377555045625,2.0193860855093,2.9291274124585,-2.518286954583,459.19611688245,459.19611688245,459.19611688245,459.19611688245,459.19611688245,459.19611688245,459.19611688245,459.19611688245,459.19611688245,459.19611688245,459.19611688245,459.19611688245,459.19611688245,459.19611688245,459.19611688245,459.19611688245,459.19611688245,459.19611688245,459.19611688245,459.19611688245,459.19611688245,459.19611688245,459.19611688245,459.19611688245,459.19611688245,459.19611688245,459.19611688245,459.19611688245,459.19611688245,459.19611688245,459.19611688245,459.19611688245,459.19611688245,459.19611688245,459.19611688245,459.19611688245,459.19611688245,459.19611688245,459.19611688245,459.19611688245,459.19611688245,459.19611688245,459.19611688245,459.19611688245,459.19611688245,459.19611688245,459.19611688245,459.19611688245,216.03228166841,924.29045476953,-4.8511306669723,803.19768455838,-4.8621437804957,0
0.00092468749999998,6508566637.4728,7.8826197372247e-05,0.00027404482304466,0.00012193432480442,1.0874930511431,0,0,0,0,0,0,0,0,0,0,0,0,0,0,0,0,0,0,0,0,0,0,0,0,0,0,0,0,0,0,0,0,0,0,0,0,0,0,0,0,0,0,0,0,0,0,0,0,-0.91456460305289,0.54567297517704,-0.38786654121231,5.1100473075313,2.7318125155509,0.91905994992215,-2.6246964585585,1.3847318277637,2.5251910163427,-0.33563976999605,1.7746501990988,-5.1938353427139,1.7579884180779,-0.97460089330758,1.9291836573119,-3.2149780759872,1.2573451548713,4.0769832986967,-0.96853380972628,-4.4145091342558,1.8655593002968,2.2741890347129,0.017681355530929,-4.8316655982392,3.1699062500773,-3.1040102526813,1.2049962567591,0.90421895954675,-1.0699752949953,0.78270295875602,0.98089089035022,0.077866093727549,0.78565670481691,-3.3353257164897,-1.2040069322688,-2.9932417568706,5.3039038773046,-1.8691034026044,3.0233115540656,-0.35597458720279,-1.1409613169259,-5.9754712845428,0.93206624734139,-1.8561660294993,-3.4376893042688,2.0208800679683,2.928261479577,-2.5161791816891,459.62173979479,459.62173979479,459.62173979479,459.62173979479,459.62173979479,459.62173979479,459.62173979479,459.62173979479,459.62173979479,459.62173979479,459.62173979479,459.62173979479,459.62173979479,459.62173979479,459.62173979479,459.62173979479,459.62173979479,459.62173979479,459.62173979479,459.62173979479,459.62173979479,459.62173979479,459.62173979479,459.62173979479,459.62173979479,459.62173979479,459.62173979479,459.62173979479,459.62173979479,459.62173979479,459.62173979479,459.62173979479,459.62173979479,459.62173979479,459.62173979479,459.62173979479,459.62173979479,459.62173979479,459.62173979479,459.62173979479,459.62173979479,459.62173979479,459.62173979479,459.62173979479,459.62173979479,459.62173979479,459.62173979479,459.62173979479,216.00615364195,925.16445327414,-4.8625272810892,803.93731352409,-4.8735180430231,0
0.00092593749999998,6523559073.4326,7.8933245750628e-05,0.0002744153484865,0.0001221045579865,1.0876113131255,0,0,0,0,0,0,0,0,0,0,0,0,0,0,0,0,0,0,0,0,0,0,0,0,0,0,0,0,0,0,0,0,0,0,0,0,0,0,0,0,0,0,0,0,0,0,0,0,-0.91442352169464,0.54660847759661,-0.38847908183901,5.1098221081863,2.731306154105,0.91871250373849,-2.6236725890808,1.3842833809165,2.5246279844045,-0.33544010447093,1.7743127652695,-5.1931210259856,1.758365128312,-0.97399581272332,1.92928426701,-3.2127266768654,1.2558087046887,4.0760722829268,-0.96818215327866,-4.4143914168078,1.8653433026568,2.2748230128486,0.017497740481713,-4.8332986254395,3.1697323441324,-3.1050287217942,1.2049803698397,0.90370384799814,-1.0689303791586,0.78200042625938,0.98013295357796,0.078791297380237,0.78564422223898,-3.3339560045065,-1.2030188252358,-2.9923172355064,5.3034128045103,-1.8674465169101,3.0228889932682,-0.35603191147924,-1.1405662350741,-5.9732591404051,0.93151542529252,-1.8556037561274,-3.4376215369581,2.0223742936651,2.9273954348921,-2.5140718584412,460.04727045831,460.04727045831,460.04727045831,460.04727045831,460.04727045831,460.04727045831,460.04727045831,460.04727045831,460.04727045831,460.04727045831,460.04727045831,460.04727045831,460.04727045831,460.04727045831,460.04727045831,460.04727045831,460.04727045831,460.04727045831,460.04727045831,460.04727045831,460.04727045831,460.04727045831,460.04727045831,460.04727045831,460.04727045831,460.04727045831,460.04727045831,460.04727045831,460.04727045831,460.04727045831,460.04727045831,460.04727045831,460.04727045831,460.04727045831,460.04727045831,460.04727045831,460.04727045831,460.04727045831,460.04727045831,460.04727045831,460.04727045831,460.04727045831,460.04727045831,460.04727045831,460.04727045831,460.04727045831,460.04727045831,460.04727045831,215.98003269349,926.03827971375,-4.8739353689909,804.67676437877,-4.8849036452747,0
0.00092718749999998,6538565283.4729,7.9040294094149e-05,0.0002747858741002,0.00012227479993968,1.0877295717051,0,0,0,0,0,0,0,0,0,0,0,0,0,0,0,0,0,0,0,0,0,0,0,0,0,0,0,0,0,0,0,0,0,0,0,0,0,0,0,0,0,0,0,0,0,0,0,0,-0.91428277465466,0.54754097068359,-0.38909167847629,5.1095970986736,2.7307999455876,0.91836496220704,-2.6226497883105,1.3838350699131,2.5240648784668,-0.33524137326756,1.7739755674147,-5.1924059375263,1.7587404973771,-0.97339186087299,1.929384331538,-3.2104762772241,1.2542728177127,4.0751615937021,-0.96782969156502,-4.4142737634399,1.8651271856307,2.2754561650056,0.017312841069181,-4.8349302200922,3.1695584196016,-3.1060443280412,1.2049645719056,0.90318784119413,-1.0678869181342,0.78129845300299,0.97937535387645,0.079716380114791,0.78563212853337,-3.3325875946116,-1.2020308468735,-2.9913918431415,5.3029206983154,-1.8657907688545,3.0224660012125,-0.35609011416286,-1.1401706165996,-5.9710463152872,0.93096335061915,-1.8550398381948,-3.4375521985784,2.0238687626446,2.9265292788046,-2.5119649807614,460.47270889508,460.47270889508,460.47270889508,460.47270889508,460.47270889508,460.47270889508,460.47270889508,460.47270889508,460.47270889508,460.47270889508,460.47270889508,460.47270889508,460.47270889508,460.47270889508,460.47270889508,460.47270889508,460.47270889508,460.47270889508,460.47270889508,460.47270889508,460.47270889508,460.47270889508,460.47270889508,460.47270889508,460.47270889508,460.47270889508,460.47270889508,460.47270889508,460.47270889508,460.47270889508,460.47270889508,460.47270889508,460.47270889508,460.47270889508,460.47270889508,460.47270889508,460.47270889508,460.47270889508,460.47270889508,460.47270889508,460.47270889508,460.47270889508,460.47270889508,460.47270889508,460.47270889508,460.47270889508,460.47270889508,460.47270889508,215.95391883374,926.91193418349,-4.8853549249028,805.41603721676,-4.8963005817647,0
0.00092843749999998,6553585254.437,7.9147342388093e-05,0.000275156399887,0.00012244505061154,1.0878478268828,0,0,0,0,0,0,0,0,0,0,0,0,0,0,0,0,0,0,0,0,0,0,0,0,0,0,0,0,0,0,0,0,0,0,0,0,0,0,0,0,0,0,0,0,0,0,0,0,-0.91414235898599,0.54847045352741,-0.38970432746037,5.1093722855452,2.7302938884122,0.91801732826823,-2.6216280532244,1.3833868963111,2.5235017002621,-0.33504357380247,1.7736386084854,-5.1916900759567,1.7591145263937,-0.97278903411657,1.9294838485899,-3.2082268784738,1.2527374970751,4.0742512295422,-0.96747642185642,-4.4141561751542,1.8649109526169,2.2760884948862,0.017126660883613,-4.8365603788867,3.1693844772005,-3.1070570687184,1.2049488617144,0.90267094099768,-1.0668449063765,0.78059704021888,0.97861808992497,0.080641342105335,0.78562042642428,-3.3312204841171,-1.201042997047,-2.9904655775931,5.3024275574044,-1.8641361571442,3.022042581987,-0.35614919119961,-1.1397744662084,-5.9688328126991,0.93041002700812,-1.8544742721283,-3.4374812849777,2.0253634749069,2.9256630116937,-2.5098585445475,460.89805512724,460.89805512724,460.89805512724,460.89805512724,460.89805512724,460.89805512724,460.89805512724,460.89805512724,460.89805512724,460.89805512724,460.89805512724,460.89805512724,460.89805512724,460.89805512724,460.89805512724,460.89805512724,460.89805512724,460.89805512724,460.89805512724,460.89805512724,460.89805512724,460.89805512724,460.89805512724,460.89805512724,460.89805512724,460.89805512724,460.89805512724,460.89805512724,460.89805512724,460.89805512724,460.89805512724,460.89805512724,460.89805512724,460.89805512724,460.89805512724,460.89805512724,460.89805512724,460.89805512724,460.89805512724,460.89805512724,460.89805512724,460.89805512724,460.89805512724,460.89805512724,460.89805512724,460.89805512724,460.89805512724,460.89805512724,215.92781207369,927.78541677828,-4.8967859430196,806.15513213219,-4.9077088469892,0
0.00092968749999998,6568618973.1677,7.925439053877e-05,0.00027552692584812,0.00012261530985663,1.0879660786596,0,0,0,0,0,0,0,0,0,0,0,0,0,0,0,0,0,0,0,0,0,0,0,0,0,0,0,0,0,0,0,0,0,0,0,0,0,0,0,0,0,0,0,0,0,0,0,0,-0.91400227167828,0.54939692538028,-0.39031702497338,5.1091476751287,2.7297879809026,0.9176696048615,-2.6206073806649,1.3829388616517,2.5229384514967,-0.33484670344812,1.7733018913721,-5.1909734398254,1.7594872166069,-0.97218732881548,1.9295828158265,-3.2059784817811,1.2512027458794,4.0733411888345,-0.96712234145453,-4.414038652764,1.864694607045,2.276720006197,0.016939203604519,-4.83818909855,3.1692105175429,-3.1080669410919,1.2049332379988,0.90215314928869,-1.0658043382973,0.77989618914281,0.97786116038923,0.08156618347745,0.78560911863001,-3.3298546702948,-1.2000552754768,-2.9895384367957,5.3019333803267,-1.8624826801594,3.0216187396017,-0.35620913846359,-1.1393777886414,-5.9666186361133,0.92985545821872,-1.8539070545556,-3.4374087919057,2.0268584303995,2.9247966339187,-2.5077525456812,461.32330917693,461.32330917693,461.32330917693,461.32330917693,461.32330917693,461.32330917693,461.32330917693,461.32330917693,461.32330917693,461.32330917693,461.32330917693,461.32330917693,461.32330917693,461.32330917693,461.32330917693,461.32330917693,461.32330917693,461.32330917693,461.32330917693,461.32330917693,461.32330917693,461.32330917693,461.32330917693,461.32330917693,461.32330917693,461.32330917693,461.32330917693,461.32330917693,461.32330917693,461.32330917693,461.32330917693,461.32330917693,461.32330917693,461.32330917693,461.32330917693,461.32330917693,461.32330917693,461.32330917693,461.32330917693,461.32330917693,461.32330917693,461.32330917693,461.32330917693,461.32330917693,461.32330917693,461.32330917693,461.32330917693,461.32330917693,215.90171242457,928.65872759282,-4.9082284175703,806.89404921885,-4.9191284354942,0
0.00093093749999998,6583666426.5074,7.9361438797719e-05,0.00027589745198482,0.0001227855779391,1.0880843270365,0,0,0,0,0,0,0,0,0,0,0,0,0,0,0,0,0,0,0,0,0,0,0,0,0,0,0,0,0,0,0,0,0,0,0,0,0,0,0,0,0,0,0,0,0,0,0,0,-0.91386250966137,0.55032038565203,-0.39092976705048,5.1089232735188,2.7292822212997,0.91732179491997,-2.6195877673479,1.3824909674589,2.5223751338498,-0.33465075954067,1.7729654189099,-5.1902560276095,1.7598585693829,-0.97158674133328,1.9296812308877,-3.2037310880904,1.2496685672044,4.0724314698356,-0.96676744769998,-4.4139211968936,1.8644781523725,2.277350702648,0.016750472994036,-4.8398163758592,3.1690365411481,-3.1090739423998,1.2049176994716,0.90163446796019,-1.0647652082747,0.77919590101399,0.97710456392128,0.082490904300369,0.78559820786349,-3.3284901503785,-1.1990676817442,-2.9886104188016,5.3014381655121,-1.860830335975,3.0211944779955,-0.35626995175875,-1.1389805886657,-5.9644037889862,0.92929964808139,-1.8533381823048,-3.4373347150201,2.0283536290217,2.923930145813,-2.505646980038,461.74847106631,461.74847106631,461.74847106631,461.74847106631,461.74847106631,461.74847106631,461.74847106631,461.74847106631,461.74847106631,461.74847106631,461.74847106631,461.74847106631,461.74847106631,461.74847106631,461.74847106631,461.74847106631,461.74847106631,461.74847106631,461.74847106631,461.74847106631,461.74847106631,461.74847106631,461.74847106631,461.74847106631,461.74847106631,461.74847106631,461.74847106631,461.74847106631,461.74847106631,461.74847106631,461.74847106631,461.74847106631,461.74847106631,461.74847106631,461.74847106631,461.74847106631,461.74847106631,461.74847106631,461.74847106631,461.74847106631,461.74847106631,461.74847106631,461.74847106631,461.74847106631,461.74847106631,461.74847106631,461.74847106631,461.74847106631,215.87561989773,929.53186672158,-4.9196823427797,807.63278857035,-4.9305593417723,0
0.00093218749999998,6598727601.2981,7.9468486991995e-05,0.00027626797829835,0.00012295585461899,1.0882025720144,0,0,0,0,0,0,0,0,0,0,0,0,0,0,0,0,0,0,0,0,0,0,0,0,0,0,0,0,0,0,0,0,0,0,0,0,0,0,0,0,0,0,0,0,0,0,0,0,-0.9137230698093,0.55124083390954,-0.39154254959178,5.1086990865547,2.7287766077669,0.91697390136731,-2.6185692098878,1.3820432152426,2.5218117489633,-0.33445573938756,1.7726291938796,-5.1895378377207,1.7602285862047,-0.97098726804233,1.9297790913908,-3.2014846981348,1.2481349641066,4.0715220706855,-0.9664117379738,-4.4138038079921,1.8642615920852,2.2779805879424,0.016560472892303,-4.8414422076083,3.1688625484473,-3.1100780698676,1.204902244825,0.90111489891542,-1.0637275106728,0.77849617707682,0.97634829915307,0.083415504574809,0.78558769683179,-3.3271269215671,-1.1980802152983,-2.9876815217841,5.3009419112609,-1.8591791223804,3.0207698010332,-0.3563316268243,-1.1385828710685,-5.962188274741,0.92874260050133,-1.8527676524052,-3.4372590498824,2.0298490706226,2.9230635476936,-2.503541843486,462.1735408176,462.1735408176,462.1735408176,462.1735408176,462.1735408176,462.1735408176,462.1735408176,462.1735408176,462.1735408176,462.1735408176,462.1735408176,462.1735408176,462.1735408176,462.1735408176,462.1735408176,462.1735408176,462.1735408176,462.1735408176,462.1735408176,462.1735408176,462.1735408176,462.1735408176,462.1735408176,462.1735408176,462.1735408176,462.1735408176,462.1735408176,462.1735408176,462.1735408176,462.1735408176,462.1735408176,462.1735408176,462.1735408176,462.1735408176,462.1735408176,462.1735408176,462.1735408176,462.1735408176,462.1735408176,462.1735408176,462.1735408176,462.1735408176,462.1735408176,462.1735408176,462.1735408176,462.1735408176,462.1735408176,462.1735408176,215.84953450478,930.40483425884,-4.93114771284,808.37135027999,-4.9420015603566,0
0.00093343749999998,6613802484.3819,7.9575534863097e-05,0.00027663850478993,0.00012312613955272,1.0883208135944,0,0,0,0,0,0,0,0,0,0,0,0,0,0,0,0,0,0,0,0,0,0,0,0,0,0,0,0,0,0,0,0,0,0,0,0,0,0,0,0,0,0,0,0,0,0,0,0,-0.91358394894227,0.55215826987603,-0.39215536836454,5.1084751198136,2.7282711383926,0.91662592711103,-2.6175517047861,1.3815956064972,2.5212482984594,-0.33426164027575,1.7722932190059,-5.1888188685095,1.760597268672,-0.97038890531265,1.929876394941,-3.1992393124572,1.2466019396042,4.0706129894075,-0.96605520970874,-4.4136864863186,1.8640449296943,2.2786096657946,0.016369207210935,-4.8430665906199,3.1686885397798,-3.1110793207144,1.2048868727351,0.90059444406391,-1.0626912398334,0.77779701857674,0.97559236470814,0.084339984223861,0.78557758823458,-3.3257649810262,-1.197092875456,-2.9867517440276,5.3004446157617,-1.857529036899,3.0203447124913,-0.35639415932917,-1.1381846406533,-5.9599720967903,0.928184319448,-1.8521954620808,-3.4371817919719,2.0313447550004,2.922196839856,-2.501437131893,462.598518453,462.598518453,462.598518453,462.598518453,462.598518453,462.598518453,462.598518453,462.598518453,462.598518453,462.598518453,462.598518453,462.598518453,462.598518453,462.598518453,462.598518453,462.598518453,462.598518453,462.598518453,462.598518453,462.598518453,462.598518453,462.598518453,462.598518453,462.598518453,462.598518453,462.598518453,462.598518453,462.598518453,462.598518453,462.598518453,462.598518453,462.598518453,462.598518453,462.598518453,462.598518453,462.598518453,462.598518453,462.598518453,462.598518453,462.598518453,462.598518453,462.598518453,462.598518453,462.598518453,462.598518453,462.598518453,462.598518453,462.598518453,215.82345625739,931.27763029861,-4.9426245219661,809.10973444082,-4.9534550857873,0
0.00093468749999998,6628891062.6013,7.9682582588567e-05,0.00027700903146083,0.00012329643291745,1.0884390517775,0,0,0,0,0,0,0,0,0,0,0,0,0,0,0,0,0,0,0,0,0,0,0,0,0,0,0,0,0,0,0,0,0,0,0,0,0,0,0,0,0,0,0,0,0,0,0,0,-0.91344514383116,0.55307269342615,-0.39276821902005,5.1082513785979,2.7277658111969,0.91627787504035,-2.6165352484531,1.3811481427046,2.5206847839285,-0.33406845948007,1.7719574969622,-5.1880991182789,1.760964618495,-0.96979164951139,1.9299731391361,-3.1969949314349,1.2450694966861,4.0697042239166,-0.96569786039229,-4.4135692319552,1.8638281687329,2.279237939917,0.0161766799264,-4.8446895217452,3.168514515404,-3.1120776921699,1.2048715818631,0.90007310531956,-1.0616563900934,0.77709842676437,0.97483675919286,0.08526434308352,0.78556788476544,-3.3244043258978,-1.1961056614114,-2.9858210839239,5.2999462770853,-1.8558800768109,3.0199192160643,-0.35645754487331,-1.1377859022274,-5.9577552585538,0.9276248089588,-1.851621608749,-3.4371029366789,2.0328406819016,2.9213300225759,-2.4993328411341,463.02340399479,463.02340399479,463.02340399479,463.02340399479,463.02340399479,463.02340399479,463.02340399479,463.02340399479,463.02340399479,463.02340399479,463.02340399479,463.02340399479,463.02340399479,463.02340399479,463.02340399479,463.02340399479,463.02340399479,463.02340399479,463.02340399479,463.02340399479,463.02340399479,463.02340399479,463.02340399479,463.02340399479,463.02340399479,463.02340399479,463.02340399479,463.02340399479,463.02340399479,463.02340399479,463.02340399479,463.02340399479,463.02340399479,463.02340399479,463.02340399479,463.02340399479,463.02340399479,463.02340399479,463.02340399479,463.02340399479,463.02340399479,463.02340399479,463.02340399479,463.02340399479,463.02340399479,463.02340399479,463.02340399479,463.02340399479,215.79738516733,932.15025493475,-4.9541127643908,809.84794114565,-4.9649199125968,0
0.00093593749999998,6643993322.7992,7.9789630150877e-05,0.0002773795583123,0.00012346673465705,1.0885572865645,0,0,0,0,0,0,0,0,0,0,0,0,0,0,0,0,0,0,0,0,0,0,0,0,0,0,0,0,0,0,0,0,0,0,0,0,0,0,0,0,0,0,0,0,0,0,0,0,-0.91330665120193,0.55398410458608,-0.39338109708945,5.1080278679287,2.7272606241346,0.91592974801907,-2.6155198372202,1.3807008253355,2.5201212069389,-0.33387619427071,1.7716220303694,-5.1873785852711,1.7613306374934,-0.96919549701111,1.9300693215746,-3.1947515552846,1.2435376383023,4.0687957720279,-0.96533968757429,-4.4134520448146,1.8636113127589,2.2798654140267,0.01598289507551,-4.846310997838,3.1683404754938,-3.1130731814674,1.2048563708576,0.89955088459617,-1.0606229557936,0.77640040289354,0.97408148120633,0.086188580891914,0.78555858911036,-3.3230449532927,-1.1951185722384,-2.9848895399797,5.2994468931979,-1.8542322391723,3.0194933153543,-0.35652177899481,-1.1373866605995,-5.9555377634377,0.92706407313389,-1.8510460900206,-3.4370224793134,2.0343368510208,2.9204630961149,-2.4972289670933,463.44819746522,463.44819746522,463.44819746522,463.44819746522,463.44819746522,463.44819746522,463.44819746522,463.44819746522,463.44819746522,463.44819746522,463.44819746522,463.44819746522,463.44819746522,463.44819746522,463.44819746522,463.44819746522,463.44819746522,463.44819746522,463.44819746522,463.44819746522,463.44819746522,463.44819746522,463.44819746522,463.44819746522,463.44819746522,463.44819746522,463.44819746522,463.44819746522,463.44819746522,463.44819746522,463.44819746522,463.44819746522,463.44819746522,463.44819746522,463.44819746522,463.44819746522,463.44819746522,463.44819746522,463.44819746522,463.44819746522,463.44819746522,463.44819746522,463.44819746522,463.44819746522,463.44819746522,463.44819746522,463.44819746522,463.44819746522,215.77132124651,933.02270826088,-4.965612434311,810.58597048706,-4.9763960353028,0
0.00093718749999998,6659109251.8194,7.989667753668e-05,0.00027775008534557,0.00012363704472081,1.0886755179566,0,0,0,0,0,0,0,0,0,0,0,0,0,0,0,0,0,0,0,0,0,0,0,0,0,0,0,0,0,0,0,0,0,0,0,0,0,0,0,0,0,0,0,0,0,0,0,0,-0.91316846773882,0.55489250353129,-0.39399399800684,5.1078045925362,2.7267555750996,0.91558154888045,-2.6145054673475,1.3802536558499,2.5195575690318,-0.33368484192319,1.7712868217994,-5.1866572676883,1.7616953275916,-0.96860044418187,1.930164939862,-3.1925091840868,1.2420063673651,4.0678876314558,-0.96498068887515,-4.413334924641,1.8633943653481,2.2804920918434,0.015787856745822,-4.8479310157589,3.1681664201491,-3.1140657858649,1.2048412383561,0.89902778380321,-1.0595909312845,0.77570294822172,0.97332652933468,0.087112697278594,0.78554970394784,-3.3216868603033,-1.1941316068993,-2.9839571108083,5.2989464619669,-1.8525855208369,3.0190670138718,-0.3565868571657,-1.1369869205698,-5.9533196148559,0.926502116137,-1.8504689036959,-3.4369404151116,2.035833262003,2.9195960607091,-2.495125505671,463.87289888662,463.87289888662,463.87289888662,463.87289888662,463.87289888662,463.87289888662,463.87289888662,463.87289888662,463.87289888662,463.87289888662,463.87289888662,463.87289888662,463.87289888662,463.87289888662,463.87289888662,463.87289888662,463.87289888662,463.87289888662,463.87289888662,463.87289888662,463.87289888662,463.87289888662,463.87289888662,463.87289888662,463.87289888662,463.87289888662,463.87289888662,463.87289888662,463.87289888662,463.87289888662,463.87289888662,463.87289888662,463.87289888662,463.87289888662,463.87289888662,463.87289888662,463.87289888662,463.87289888662,463.87289888662,463.87289888662,463.87289888662,463.87289888662,463.87289888662,463.87289888662,463.87289888662,463.87289888662,463.87289888662,463.87289888662,215.74526450685,933.89499037045,-4.9771235259632,811.32382255736,-4.9878834484586,0
0.00093843749999998,6674238836.5064,8.0003724744855e-05,0.00027812061256191,0.00012380736307244,1.0887937459548,0,0,0,0,0,0,0,0,0,0,0,0,0,0,0,0,0,0,0,0,0,0,0,0,0,0,0,0,0,0,0,0,0,0,0,0,0,0,0,0,0,0,0,0,0,0,0,0,-0.91303059008848,0.55579789058182,-0.3946069171014,5.1075815568488,2.7262506619313,0.91523328042866,-2.6134921350337,1.3798066356999,2.5189938717249,-0.33349439972603,1.7709518737755,-5.1859351636923,1.7620586908145,-0.96800648739088,1.9302599916149,-3.1902678178027,1.2404756867471,4.0669797998293,-0.9646208619831,-4.4132178710145,1.8631773300981,2.2811179770908,0.015591569071794,-4.8495495723683,3.1679923493947,-3.1150555026526,1.2048261829886,0.8985038048471,-1.0585603109333,0.77500606401027,0.97257190215513,0.088036691755316,0.78554123194839,-3.3203300440019,-1.1931447642488,-2.983023795123,5.2984449811614,-1.8509399184787,3.0186403150322,-0.35665277479532,-1.1365866869242,-5.9511008162337,0.92593894218968,-1.8498900477556,-3.4368567392362,2.0373299144386,2.9187289165838,-2.4930224527849,464.29750828131,464.29750828131,464.29750828131,464.29750828131,464.29750828131,464.29750828131,464.29750828131,464.29750828131,464.29750828131,464.29750828131,464.29750828131,464.29750828131,464.29750828131,464.29750828131,464.29750828131,464.29750828131,464.29750828131,464.29750828131,464.29750828131,464.29750828131,464.29750828131,464.29750828131,464.29750828131,464.29750828131,464.29750828131,464.29750828131,464.29750828131,464.29750828131,464.29750828131,464.29750828131,464.29750828131,464.29750828131,464.29750828131,464.29750828131,464.29750828131,464.29750828131,464.29750828131,464.29750828131,464.29750828131,464.29750828131,464.29750828131,464.29750828131,464.29750828131,464.29750828131,464.29750828131,464.29750828131,464.29750828131,464.29750828131,215.71921496028,934.7671013567,-4.9886460335501,812.06149744863,-4.9993821465895,0
0.00093968749999998,6689382063.706,8.0110771727015e-05,0.00027849113996256,0.00012397768961897,1.0889119705599,0,0,0,0,0,0,0,0,0,0,0,0,0,0,0,0,0,0,0,0,0,0,0,0,0,0,0,0,0,0,0,0,0,0,0,0,0,0,0,0,0,0,0,0,0,0,0,0,-0.91289301486346,0.55670026620159,-0.39521984961903,5.1073587649931,2.7257458824161,0.91488494542793,-2.6124798364339,1.3793597663312,2.5184301165131,-0.33330486499001,1.770617188773,-5.1852122714093,1.7624207292858,-0.96741362300197,1.9303544744716,-3.1880274562938,1.2389455992715,4.0660722746922,-0.964260204669,-4.4131008833647,1.8629602106227,2.2817430734957,0.015394036226889,-4.8511666645228,3.1678182631838,-3.1160423291566,1.2048112033773,0.8979789496245,-1.0575310891363,0.77430975152441,0.97181759823687,0.088960563705745,0.78553317577386,-3.3189745014459,-1.1921580430408,-2.9820895917376,5.2979424484657,-1.8492954286135,3.0182132221424,-0.35671952723006,-1.1361859644274,-5.9488813710184,0.92537455556946,-1.849309520363,-3.4367714467855,2.0388268078623,2.9178616639469,-2.4909198043789,464.72202567165,464.72202567165,464.72202567165,464.72202567165,464.72202567165,464.72202567165,464.72202567165,464.72202567165,464.72202567165,464.72202567165,464.72202567165,464.72202567165,464.72202567165,464.72202567165,464.72202567165,464.72202567165,464.72202567165,464.72202567165,464.72202567165,464.72202567165,464.72202567165,464.72202567165,464.72202567165,464.72202567165,464.72202567165,464.72202567165,464.72202567165,464.72202567165,464.72202567165,464.72202567165,464.72202567165,464.72202567165,464.72202567165,464.72202567165,464.72202567165,464.72202567165,464.72202567165,464.72202567165,464.72202567165,464.72202567165,464.72202567165,464.72202567165,464.72202567165,464.72202567165,464.72202567165,464.72202567165,464.72202567165,464.72202567165,215.69317261872,935.63904131271,-5.0001799513118,812.79899525273,-5.0108921242518,0
0.00094093749999998,6704538920.2653,8.0217818480048e-05,0.00027886166754879,0.00012414802432086,1.0890301917732,0,0,0,0,0,0,0,0,0,0,0,0,0,0,0,0,0,0,0,0,0,0,0,0,0,0,0,0,0,0,0,0,0,0,0,0,0,0,0,0,0,0,0,0,0,0,0,0,-0.91275573864834,0.55759963099561,-0.39583279072386,5.1071362207847,2.725241234294,0.91453654660121,-2.6114685676675,1.3789130491857,2.5178663048662,-0.3331162350572,1.7702827692234,-5.1844885889368,1.7627814452218,-0.96682184737732,1.9304483860973,-3.1857880993364,1.2374161077191,4.0651650535089,-0.96389871478547,-4.4129839609731,1.8627430105526,2.2823673847868,0.015195262415505,-4.8527822890695,3.1676441614058,-3.1170262627508,1.2047962981406,0.89745322002031,-1.0565032603239,0.7736140120357,0.9710636161399,0.089884312376376,0.78552553807776,-3.3176202296812,-1.1911714419368,-2.9811544995631,5.2974388614797,-1.8476520476205,3.0177857384105,-0.35678710975908,-1.1357847578129,-5.9466612826793,0.92480896061003,-1.8487273198555,-3.4366845327914,2.0403239417572,2.9169943029863,-2.4888175564226,465.14645108003,465.14645108003,465.14645108003,465.14645108003,465.14645108003,465.14645108003,465.14645108003,465.14645108003,465.14645108003,465.14645108003,465.14645108003,465.14645108003,465.14645108003,465.14645108003,465.14645108003,465.14645108003,465.14645108003,465.14645108003,465.14645108003,465.14645108003,465.14645108003,465.14645108003,465.14645108003,465.14645108003,465.14645108003,465.14645108003,465.14645108003,465.14645108003,465.14645108003,465.14645108003,465.14645108003,465.14645108003,465.14645108003,465.14645108003,465.14645108003,465.14645108003,465.14645108003,465.14645108003,465.14645108003,465.14645108003,465.14645108003,465.14645108003,465.14645108003,465.14645108003,465.14645108003,465.14645108003,465.14645108003,465.14645108003,215.66713749406,936.51081033143,-5.0117252734547,813.53631606131,-5.0224133759827,0
0.00094218749999998,6719709393.0327,8.0324865022059e-05,0.00027923219532183,0.0001243183671645,1.0891484095955,0,0,0,0,0,0,0,0,0,0,0,0,0,0,0,0,0,0,0,0,0,0,0,0,0,0,0,0,0,0,0,0,0,0,0,0,0,0,0,0,0,0,0,0,0,0,0,0,-0.9126187580008,0.55849598570747,-0.39644573550869,5.1069139277243,2.7247367152636,0.91418808663006,-2.6104583248331,1.3784664857016,2.5173024382352,-0.33292850731036,1.7699486175135,-5.1837641143454,1.7631408409287,-0.96623115687026,1.9305417241903,-3.1835497466396,1.2358872148203,4.0642581336757,-0.96353639027022,-4.4128671029815,1.8625257335335,2.2829909146987,0.014995251867143,-4.8543964428322,3.1674700438867,-3.1180073008616,1.2047814658946,0.89692661790861,-1.0554768189718,0.77291884681914,0.97030995441987,0.090807936864667,0.78551832150441,-3.3162672257437,-1.1901849595107,-2.9802185175993,5.2969342177288,-1.8460097717658,3.0173578669355,-0.35685551760947,-1.1353830717787,-5.9444405547119,0.92424216169521,-1.8481434447407,-3.4365959922311,2.0418213155502,2.9161268338774,-2.4867157049174,465.57078452886,465.57078452886,465.57078452886,465.57078452886,465.57078452886,465.57078452886,465.57078452886,465.57078452886,465.57078452886,465.57078452886,465.57078452886,465.57078452886,465.57078452886,465.57078452886,465.57078452886,465.57078452886,465.57078452886,465.57078452886,465.57078452886,465.57078452886,465.57078452886,465.57078452886,465.57078452886,465.57078452886,465.57078452886,465.57078452886,465.57078452886,465.57078452886,465.57078452886,465.57078452886,465.57078452886,465.57078452886,465.57078452886,465.57078452886,465.57078452886,465.57078452886,465.57078452886,465.57078452886,465.57078452886,465.57078452886,465.57078452886,465.57078452886,465.57078452886,465.57078452886,465.57078452886,465.57078452886,465.57078452886,465.57078452886,215.6411095981,937.38240850563,-5.0232819942081,814.2734599658,-5.033945896326,0
0.00094343749999998,6734893468.8584,8.0431911272134e-05,0.00027960272328296,0.00012448871801772,1.0892666240278,0,0,0,0,0,0,0,0,0,0,0,0,0,0,0,0,0,0,0,0,0,0,0,0,0,0,0,0,0,0,0,0,0,0,0,0,0,0,0,0,0,0,0,0,0,0,0,0,-0.91248206945961,0.5593893312169,-0.39705867899942,5.1066918889958,2.7242323229844,0.91383956814474,-2.6094491040205,1.3780200773179,2.5167385180464,-0.33274167918185,1.7696147359884,-5.1830388456935,1.763498918799,-0.96564154782876,1.9306344864902,-3.181312397865,1.2343589232529,4.0633515125228,-0.963173229155,-4.4127503084038,1.8623083832242,2.283613666966,0.014794008828105,-4.8560091226199,3.1672959103919,-3.118985440984,1.2047667052536,0.89639914514552,-1.0544517596056,0.77222425715723,0.96955661162556,0.091731436111519,0.78551152868871,-3.3149154866683,-1.1891985942575,-2.9792816449353,5.2964285146719,-1.844368597223,3.0169296107043,-0.35692474595272,-1.1349809109792,-5.9422191906533,0.92367416325788,-1.8475578936913,-3.436505820028,2.0433189286125,2.9152592567781,-2.4846142459002,465.99502604058,465.99502604058,465.99502604058,465.99502604058,465.99502604058,465.99502604058,465.99502604058,465.99502604058,465.99502604058,465.99502604058,465.99502604058,465.99502604058,465.99502604058,465.99502604058,465.99502604058,465.99502604058,465.99502604058,465.99502604058,465.99502604058,465.99502604058,465.99502604058,465.99502604058,465.99502604058,465.99502604058,465.99502604058,465.99502604058,465.99502604058,465.99502604058,465.99502604058,465.99502604058,465.99502604058,465.99502604058,465.99502604058,465.99502604058,465.99502604058,465.99502604058,465.99502604058,465.99502604058,465.99502604058,465.99502604058,465.99502604058,465.99502604058,465.99502604058,465.99502604058,465.99502604058,465.99502604058,465.99502604058,465.99502604058,215.61508894253,938.253835928,-5.0348501077871,815.01042705744,-5.0454896798351,0
0.00094468749999998,6750091134.5942,8.0538957455982e-05,0.00027997325143342,0.00012465907711428,1.0893848350714,0,0,0,0,0,0,0,0,0,0,0,0,0,0,0,0,0,0,0,0,0,0,0,0,0,0,0,0,0,0,0,0,0,0,0,0,0,0,0,0,0,0,0,0,0,0,0,0,-0.91234566954637,0.5602796685354,-0.39767161616754,5.1064701074651,2.7237280550836,0.91349099372104,-2.608440901327,1.3775738254742,2.5161745457096,-0.33255574816326,1.7692811269506,-5.1823127810258,1.7638556813057,-0.96505301659141,1.9307266707827,-3.1790760526425,1.2328312356357,4.0624451873221,-0.96280922957161,-4.412633576135,1.8620909632948,2.2842356453303,0.014591537553981,-4.8576203252156,3.1671217606296,-3.1199606806831,1.2047520148346,0.89587080356847,-1.0534280768154,0.77153024433834,0.96880358630316,0.092654808891003,0.78550516225495,-3.3135650094874,-1.1882123445991,-2.9783438807404,5.2959217497018,-1.842728520097,3.0165009725819,-0.35699478990398,-1.1345782800174,-5.9399971940812,0.92310496977454,-1.8469706655393,-3.4364140110558,2.0448167802562,2.914391571831,-2.482513175449,466.41917563765,466.41917563765,466.41917563765,466.41917563765,466.41917563765,466.41917563765,466.41917563765,466.41917563765,466.41917563765,466.41917563765,466.41917563765,466.41917563765,466.41917563765,466.41917563765,466.41917563765,466.41917563765,466.41917563765,466.41917563765,466.41917563765,466.41917563765,466.41917563765,466.41917563765,466.41917563765,466.41917563765,466.41917563765,466.41917563765,466.41917563765,466.41917563765,466.41917563765,466.41917563765,466.41917563765,466.41917563765,466.41917563765,466.41917563765,466.41917563765,466.41917563765,466.41917563765,466.41917563765,466.41917563765,466.41917563765,466.41917563765,466.41917563765,466.41917563765,466.41917563765,466.41917563765,466.41917563765,466.41917563765,466.41917563765,215.58907553893,939.1250926911,-5.0464296084431,815.74721742726,-5.0570447210507,0
0.00094593749999998,6765302377.0938,8.0646003332779e-05,0.00028034377977446,0.00012482944413086,1.089503042727,0,0,0,0,0,0,0,0,0,0,0,0,0,0,0,0,0,0,0,0,0,0,0,0,0,0,0,0,0,0,0,0,0,0,0,0,0,0,0,0,0,0,0,0,0,0,0,0,-0.9122095547708,0.56116699880602,-0.39828454194058,5.1062485856735,2.7232239091622,0.91314236588217,-2.6074337128708,1.3771277316141,2.5156105226131,-0.33237071181502,1.7689477926663,-5.1815859183789,1.7642111309988,-0.9644655594871,1.9308182749103,-3.1768407105871,1.2313041545368,4.0615391552968,-0.96244438974797,-4.412516904959,1.8618734774248,2.284856853533,0.014387842302137,-4.8592300473647,3.1669475942611,-3.1209330176029,1.2047373932587,0.89534159499559,-1.0524057652627,0.77083680965844,0.9680508769954,0.093578053800047,0.78549922481789,-3.3122157912358,-1.1872262088951,-2.977405224261,5.2954139201613,-1.8410895364477,3.0160719553214,-0.3570656445246,-1.1341751834366,-5.9377745686158,0.92253458576848,-1.8463817592701,-3.4363205601471,2.0463148697375,2.9135237791641,-2.4804124896845,466.84323334258,466.84323334258,466.84323334258,466.84323334258,466.84323334258,466.84323334258,466.84323334258,466.84323334258,466.84323334258,466.84323334258,466.84323334258,466.84323334258,466.84323334258,466.84323334258,466.84323334258,466.84323334258,466.84323334258,466.84323334258,466.84323334258,466.84323334258,466.84323334258,466.84323334258,466.84323334258,466.84323334258,466.84323334258,466.84323334258,466.84323334258,466.84323334258,466.84323334258,466.84323334258,466.84323334258,466.84323334258,466.84323334258,466.84323334258,466.84323334258,466.84323334258,466.84323334258,466.84323334258,466.84323334258,466.84323334258,466.84323334258,466.84323334258,466.84323334258,466.84323334258,466.84323334258,466.84323334258,466.84323334258,466.84323334258,215.56306939868,939.99617888743,-5.058020490388,816.48383116614,-5.0686110145306,0
0.00094718749999998,6780527183.2129,8.0753048729435e-05,0.00028071430830735,0.00012499981882593,1.0896212469959,0,0,0,0,0,0,0,0,0,0,0,0,0,0,0,0,0,0,0,0,0,0,0,0,0,0,0,0,0,0,0,0,0,0,0,0,0,0,0,0,0,0,0,0,0,0,0,0,-0.91207372163577,0.56205132329894,-0.39889745120444,5.1060273258434,2.7227198827924,0.91279368709003,-2.6064275348071,1.3766817971864,2.5150464501272,-0.33218656777585,1.7686147353636,-5.1808582557926,1.7645652704997,-0.9638791728324,1.9309092967765,-3.1746063713136,1.2297776824605,4.0606334136187,-0.9620787080193,-4.4124002935655,1.8616559293002,2.2854772953204,0.014182927323196,-4.8608382857776,3.1667734108954,-3.1219024494777,1.2047228391498,0.89481152122271,-1.0513848196883,0.77014395442149,0.96729848224421,0.094501169250096,0.78549371898146,-3.3108678289563,-1.1862401854484,-2.9764656748149,5.2949050233444,-1.8394516423107,3.0156425615493,-0.35713730482334,-1.133771625714,-5.9355513179264,0.92196301580015,-1.8457911740143,-3.436225462096,2.0478131962516,2.912655878887,-2.4783121847732,467.26719917786,467.26719917786,467.26719917786,467.26719917786,467.26719917786,467.26719917786,467.26719917786,467.26719917786,467.26719917786,467.26719917786,467.26719917786,467.26719917786,467.26719917786,467.26719917786,467.26719917786,467.26719917786,467.26719917786,467.26719917786,467.26719917786,467.26719917786,467.26719917786,467.26719917786,467.26719917786,467.26719917786,467.26719917786,467.26719917786,467.26719917786,467.26719917786,467.26719917786,467.26719917786,467.26719917786,467.26719917786,467.26719917786,467.26719917786,467.26719917786,467.26719917786,467.26719917786,467.26719917786,467.26719917786,467.26719917786,467.26719917786,467.26719917786,467.26719917786,467.26719917786,467.26719917786,467.26719917786,467.26719917786,467.26719917786,215.53707053298,940.86709460943,-5.0696227478377,817.22026836477,-5.0801885548314,0
0.00094843749999998,6795765539.8091,8.0860093905776e-05,0.00028108483703334,0.00012517020147308,1.0897394478789,0,0,0,0,0,0,0,0,0,0,0,0,0,0,0,0,0,0,0,0,0,0,0,0,0,0,0,0,0,0,0,0,0,0,0,0,0,0,0,0,0,0,0,0,0,0,0,0,-0.91193816664137,0.56293264340694,-0.39951033881138,5.1058063298716,2.7222159735343,0.91244495974153,-2.6054223633398,1.3762360236476,2.5144823296013,-0.33200331377187,1.768281957233,-5.1801297913111,1.764918102497,-0.96329385293027,1.9309997343526,-3.1723730344621,1.2282518218464,4.0597279594288,-0.96171218283182,-4.4122837405535,1.8614383226141,2.2860969744379,0.013976796853733,-4.8624450371331,3.166599210095,-3.1228689741386,1.2047083511427,0.89428058402003,-1.0503652349223,0.76945167993995,0.96654640058804,0.095424153459451,0.78548864733763,-3.3095211197011,-1.1852542725141,-2.9755252317861,5.2943950565031,-1.8378148337217,3.0152127937621,-0.35720976575815,-1.1333676112517,-5.9333274457512,0.92139026446608,-1.8451989090435,-3.4361287116643,2.0493117589321,2.9117878710967,-2.4762122569344,467.69107316606,467.69107316606,467.69107316606,467.69107316606,467.69107316606,467.69107316606,467.69107316606,467.69107316606,467.69107316606,467.69107316606,467.69107316606,467.69107316606,467.69107316606,467.69107316606,467.69107316606,467.69107316606,467.69107316606,467.69107316606,467.69107316606,467.69107316606,467.69107316606,467.69107316606,467.69107316606,467.69107316606,467.69107316606,467.69107316606,467.69107316606,467.69107316606,467.69107316606,467.69107316606,467.69107316606,467.69107316606,467.69107316606,467.69107316606,467.69107316606,467.69107316606,467.69107316606,467.69107316606,467.69107316606,467.69107316606,467.69107316606,467.69107316606,467.69107316606,467.69107316606,467.69107316606,467.69107316606,467.69107316606,467.69107316606,215.51107895277,941.73783994953,-5.0812363750431,817.95652911371,-5.0917773364926,0
0.00094968749999998,6811017433.7423,8.0967138784379e-05,0.00028145536595369,0.00012534059194369,1.0898576453772,0,0,0,0,0,0,0,0,0,0,0,0,0,0,0,0,0,0,0,0,0,0,0,0,0,0,0,0,0,0,0,0,0,0,0,0,0,0,0,0,0,0,0,0,0,0,0,0,-0.91180288628988,0.56381096064634,-0.40012319959944,5.1055855993404,2.7217121789296,0.91209618616308,-2.6044181947466,1.3757904124626,2.5139181623685,-0.33182094762706,1.7679494604349,-5.1794005229909,1.7652696297437,-0.96270959607353,1.931089585691,-3.1701406997028,1.2267265750718,4.0588227898313,-0.96134481274992,-4.4121672444544,1.861220661059,2.2867158946335,0.013769455107491,-4.8640502980543,3.1664249913873,-3.1238325895193,1.2046939278785,0.89374878512973,-1.0493470059004,0.76875998753565,0.9657946305676,0.096347004441882,0.78548401246848,-3.3081756605362,-1.1842684683111,-2.9745838946241,5.2938840168664,-1.836179106741,3.0147826543308,-0.35728302224096,-1.1329631443708,-5.9311029558752,0.92081633639808,-1.8446049637653,-3.4360303035913,2.0508105568538,2.9109197558721,-2.474112702444,468.11485532972,468.11485532972,468.11485532972,468.11485532972,468.11485532972,468.11485532972,468.11485532972,468.11485532972,468.11485532972,468.11485532972,468.11485532972,468.11485532972,468.11485532972,468.11485532972,468.11485532972,468.11485532972,468.11485532972,468.11485532972,468.11485532972,468.11485532972,468.11485532972,468.11485532972,468.11485532972,468.11485532972,468.11485532972,468.11485532972,468.11485532972,468.11485532972,468.11485532972,468.11485532972,468.11485532972,468.11485532972,468.11485532972,468.11485532972,468.11485532972,468.11485532972,468.11485532972,468.11485532972,468.11485532972,468.11485532972,468.11485532972,468.11485532972,468.11485532972,468.11485532972,468.11485532972,468.11485532972,468.11485532972,468.11485532972,215.48509466875,942.60841500015,-5.0928613662363,818.69261350337,-5.1033773540784,0
0.00095093749999998,6826282851.8743,8.1074183212314e-05,0.00028182589506965,0.00012551099001946,1.0899758394919,0,0,0,0,0,0,0,0,0,0,0,0,0,0,0,0,0,0,0,0,0,0,0,0,0,0,0,0,0,0,0,0,0,0,0,0,0,0,0,0,0,0,0,0,0,0,0,0,-0.9116678770894,0.56468627665027,-0.40073602838683,5.1053651355057,2.7212084965136,0.91174736861316,-2.6034150253872,1.3753449651077,2.5133539497457,-0.33163946727177,1.767617247095,-5.1786704489068,1.765619855047,-0.96212639853004,1.9311788489249,-3.167909366761,1.2252019444443,4.0579179019075,-0.96097659645002,-4.4120508037368,1.8610029483292,2.2873340596561,0.013560906267464,-4.8656540651231,3.1662507542572,-3.1247932936693,1.204679568012,0.89321612626709,-1.0483301276659,0.76806887854091,0.96504317072593,0.097269720001296,0.7854798169427,-3.3068314485445,-1.1832827710255,-2.9736416628215,5.2933719016335,-1.8345444574726,3.0143521454869,-0.35735706913282,-1.1325582293012,-5.9288778521565,0.92024123625861,-1.8440093377069,-3.4359302325913,2.0523095890236,2.910051533277,-2.4720135176331,468.53854569145,468.53854569145,468.53854569145,468.53854569145,468.53854569145,468.53854569145,468.53854569145,468.53854569145,468.53854569145,468.53854569145,468.53854569145,468.53854569145,468.53854569145,468.53854569145,468.53854569145,468.53854569145,468.53854569145,468.53854569145,468.53854569145,468.53854569145,468.53854569145,468.53854569145,468.53854569145,468.53854569145,468.53854569145,468.53854569145,468.53854569145,468.53854569145,468.53854569145,468.53854569145,468.53854569145,468.53854569145,468.53854569145,468.53854569145,468.53854569145,468.53854569145,468.53854569145,468.53854569145,468.53854569145,468.53854569145,468.53854569145,468.53854569145,468.53854569145,468.53854569145,468.53854569145,468.53854569145,468.53854569145,468.53854569145,215.45911769137,943.47881985375,-5.1044977156469,819.42852162404,-5.114988602142,0
0.00095218749999998,6841561781.0693,8.1181227359847e-05,0.00028219642438247,0.00012568139586753,1.0900940302238,0,0,0,0,0,0,0,0,0,0,0,0,0,0,0,0,0,0,0,0,0,0,0,0,0,0,0,0,0,0,0,0,0,0,0,0,0,0,0,0,0,0,0,0,0,0,0,0,-0.91153313556045,0.56555859316799,-0.40134881999206,5.1051449393099,2.7207049238164,0.91139850927162,-2.6024128517188,1.3748996830706,2.5127896930296,-0.3314588707533,1.7672853193098,-5.1779395671593,1.7659687812686,-0.96154425655436,1.9312675222794,-3.1656790354294,1.2236779322004,4.0570132927196,-0.96060753273692,-4.4119344168176,1.8607851881136,2.2879514732518,0.013351154476998,-4.867256334866,3.166076498159,-3.1257510847579,1.2046652702098,0.89268260911565,-1.0473145953816,0.76737835429889,0.96429201960638,0.098192297721057,0.78547606331704,-3.3054884808306,-1.1822971788249,-2.9726985359258,5.2928587079886,-1.8329108820905,3.0139212693247,-0.35743190125304,-1.1321528701762,-5.926652138521,0.91966496873648,-1.843412030517,-3.4358284933637,2.053808854385,2.9091832033578,-2.469914698899,468.96214427384,468.96214427384,468.96214427384,468.96214427384,468.96214427384,468.96214427384,468.96214427384,468.96214427384,468.96214427384,468.96214427384,468.96214427384,468.96214427384,468.96214427384,468.96214427384,468.96214427384,468.96214427384,468.96214427384,468.96214427384,468.96214427384,468.96214427384,468.96214427384,468.96214427384,468.96214427384,468.96214427384,468.96214427384,468.96214427384,468.96214427384,468.96214427384,468.96214427384,468.96214427384,468.96214427384,468.96214427384,468.96214427384,468.96214427384,468.96214427384,468.96214427384,468.96214427384,468.96214427384,468.96214427384,468.96214427384,468.96214427384,468.96214427384,468.96214427384,468.96214427384,468.96214427384,468.96214427384,468.96214427384,468.96214427384,215.43314803066,944.34905460284,-5.1161454175161,820.1642535659,-5.1266110752328,0
0.00095343749999998,6856854208.1936,8.1288271223639e-05,0.00028256695389341,0.00012585180944721,1.0902122175742,0,0,0,0,0,0,0,0,0,0,0,0,0,0,0,0,0,0,0,0,0,0,0,0,0,0,0,0,0,0,0,0,0,0,0,0,0,0,0,0,0,0,0,0,0,0,0,0,-0.91139865823865,0.56642791205907,-0.40196156923805,5.1049250113768,2.7202014583719,0.9110496102366,-2.6014116703235,1.3744545678535,2.5122253935031,-0.33127915624471,1.7669536791473,-5.1772078758776,1.7663164113152,-0.96096316637918,1.9313556040807,-3.1634497055862,1.2221545405018,4.0561089593211,-0.96023762054469,-4.411818082086,1.8605673840942,2.2885681391678,0.013140203831443,-4.8688571037572,3.1659022225159,-3.1267059610849,1.2046510331558,0.89214823532587,-1.046300404346,0.7666884161646,0.96354117575794,0.099114734958416,0.7854727541357,-3.3041467545221,-1.1813116898644,-2.9717545135249,5.2923444331108,-1.8312783768609,3.0134900277962,-0.35750751337701,-1.1317470710216,-5.924425818971,0.91908753854263,-1.8428130419551,-3.4357250805995,2.0553083518149,2.908314766144,-2.4678162427058,469.38565109954,469.38565109954,469.38565109954,469.38565109954,469.38565109954,469.38565109954,469.38565109954,469.38565109954,469.38565109954,469.38565109954,469.38565109954,469.38565109954,469.38565109954,469.38565109954,469.38565109954,469.38565109954,469.38565109954,469.38565109954,469.38565109954,469.38565109954,469.38565109954,469.38565109954,469.38565109954,469.38565109954,469.38565109954,469.38565109954,469.38565109954,469.38565109954,469.38565109954,469.38565109954,469.38565109954,469.38565109954,469.38565109954,469.38565109954,469.38565109954,469.38565109954,469.38565109954,469.38565109954,469.38565109954,469.38565109954,469.38565109954,469.38565109954,469.38565109954,469.38565109954,469.38565109954,469.38565109954,469.38565109954,469.38565109954,215.40718569636,945.21911934006,-5.127804466087,820.89980941902,-5.1382447679025,0
0.00095468749999998,6872160120.1158,8.1395314533135e-05,0.00028293748360372,0.00012602223040021,1.0903304015441,0,0,0,0,0,0,0,0,0,0,0,0,0,0,0,0,0,0,0,0,0,0,0,0,0,0,0,0,0,0,0,0,0,0,0,0,0,0,0,0,0,0,0,0,0,0,0,0,-0.91126444168024,0.56729423529297,-0.40257427095865,5.104705352018,2.7196980977179,0.91070067352495,-2.6004114779172,1.3740096209726,2.5116610524318,-0.33110032205377,1.7666223286502,-5.176475373229,1.7666627481359,-0.96038312421667,1.931443092762,-3.1612213772054,1.220631771438,4.0552048987574,-0.95986685893628,-4.4117017979083,1.8603495399423,2.2891840611459,0.012928058370102,-4.8704563682054,3.165727926726,-3.1276579210881,1.2046368555497,0.89161300651498,-1.04528755,0.76599906550475,0.96279063773395,0.10003702883678,0.78546989193003,-3.3028062667745,-1.1803263022979,-2.9708095952408,5.2918290741837,-1.8296469381631,3.013058422709,-0.3575839002408,-1.1313408357503,-5.922198897577,0.91850895041282,-1.8422123718809,-3.4356199889894,2.0568080801213,2.9074462216467,-2.4657181455881,469.80906619121,469.80906619121,469.80906619121,469.80906619121,469.80906619121,469.80906619121,469.80906619121,469.80906619121,469.80906619121,469.80906619121,469.80906619121,469.80906619121,469.80906619121,469.80906619121,469.80906619121,469.80906619121,469.80906619121,469.80906619121,469.80906619121,469.80906619121,469.80906619121,469.80906619121,469.80906619121,469.80906619121,469.80906619121,469.80906619121,469.80906619121,469.80906619121,469.80906619121,469.80906619121,469.80906619121,469.80906619121,469.80906619121,469.80906619121,469.80906619121,469.80906619121,469.80906619121,469.80906619121,469.80906619121,469.80906619121,469.80906619121,469.80906619121,469.80906619121,469.80906619121,469.80906619121,469.80906619121,469.80906619121,469.80906619121,215.38123069782,946.08901415814,-5.1394748555867,821.63518927343,-5.1498896747183,0
0.00095593749999998,6887479503.7064,8.1502357503785e-05,0.00028330801351466,0.00012619265894647,1.0904485821345,0,0,0,0,0,0,0,0,0,0,0,0,0,0,0,0,0,0,0,0,0,0,0,0,0,0,0,0,0,0,0,0,0,0,0,0,0,0,0,0,0,0,0,0,0,0,0,0,-0.91113048246733,0.56815756494331,-0.40318692001468,5.1044859612407,2.7191948394078,0.91035170106258,-2.5994122713704,1.3735648439613,2.5110966710638,-0.33092236663298,1.7662912698356,-5.1757420574238,1.767007794715,-0.95980412625264,1.9315299868674,-3.1589940503825,1.2191096270159,4.0543011080814,-0.95949524711562,-4.4115855626476,1.8601316593146,2.2897992429233,0.01271472206683,-4.8720541245711,3.1655536101652,-3.1286069633513,1.2046227361133,0.89107692426381,-1.0442760279382,0.76531030369998,0.96204040409234,0.10095917623952,0.78546747921728,-3.3014670147737,-1.1793410142856,-2.9698637807236,5.2913126283948,-1.828016562515,3.01262645572,-0.35766105654052,-1.130934168155,-5.9199713785074,0.91792920909576,-1.841610020251,-3.4355132132224,2.0583080380414,2.9065775698601,-2.4636204041593,470.23238957151,470.23238957151,470.23238957151,470.23238957151,470.23238957151,470.23238957151,470.23238957151,470.23238957151,470.23238957151,470.23238957151,470.23238957151,470.23238957151,470.23238957151,470.23238957151,470.23238957151,470.23238957151,470.23238957151,470.23238957151,470.23238957151,470.23238957151,470.23238957151,470.23238957151,470.23238957151,470.23238957151,470.23238957151,470.23238957151,470.23238957151,470.23238957151,470.23238957151,470.23238957151,470.23238957151,470.23238957151,470.23238957151,470.23238957151,470.23238957151,470.23238957151,470.23238957151,470.23238957151,470.23238957151,470.23238957151,470.23238957151,470.23238957151,470.23238957151,470.23238957151,470.23238957151,470.23238957151,470.23238957151,470.23238957151,215.35528304393,946.95873915002,-5.1511565802763,822.37039321907,-5.1615457902271,0
0.00095718749999998,6902812345.8383,8.1609400111695e-05,0.00028367854362748,0.00012636309502094,1.0905667593464,0,0,0,0,0,0,0,0,0,0,0,0,0,0,0,0,0,0,0,0,0,0,0,0,0,0,0,0,0,0,0,0,0,0,0,0,0,0,0,0,0,0,0,0,0,0,0,0,-0.91099677721117,0.56901790318636,-0.40379951129783,5.104266838742,2.718691681008,0.91000269468089,-2.5984140477249,1.3731202383689,2.510532250636,-0.330745288588,1.7659605047003,-5.1750079267176,1.767351554067,-0.95922616864733,1.931616285068,-3.1567677253349,1.2175881091643,4.0533975843524,-0.95912278442878,-4.4114693746745,1.8599137458483,2.2904136882356,0.012500198821863,-4.8736503691344,3.1653792721942,-3.1295530866107,1.2046086735863,0.89053999011362,-1.0432658339205,0.76462213214413,0.96129047340086,0.10188117380203,0.78546551850131,-3.3001289957373,-1.1783558240071,-2.9689170696412,5.2907950929576,-1.8263872465918,3.0121941283337,-0.35773897693736,-1.1305270718974,-5.9177432659955,0.91734831935674,-1.8410059871041,-3.4354047479993,2.0598082242413,2.9057088107583,-2.4615230151094,470.65562126314,470.65562126314,470.65562126314,470.65562126314,470.65562126314,470.65562126314,470.65562126314,470.65562126314,470.65562126314,470.65562126314,470.65562126314,470.65562126314,470.65562126314,470.65562126314,470.65562126314,470.65562126314,470.65562126314,470.65562126314,470.65562126314,470.65562126314,470.65562126314,470.65562126314,470.65562126314,470.65562126314,470.65562126314,470.65562126314,470.65562126314,470.65562126314,470.65562126314,470.65562126314,470.65562126314,470.65562126314,470.65562126314,470.65562126314,470.65562126314,470.65562126314,470.65562126314,470.65562126314,470.65562126314,470.65562126314,470.65562126314,470.65562126314,470.65562126314,470.65562126314,470.65562126314,470.65562126314,470.65562126314,470.65562126314,215.32934274326,947.82829440881,-5.1628496343947,823.10542134585,-5.1732131089846,0
0.00095843749999998,6918158633.3864,8.1716442270059e-05,0.00028404907394342,0.00012653353848384,1.0906849331811,0,0,0,0,0,0,0,0,0,0,0,0,0,0,0,0,0,0,0,0,0,0,0,0,0,0,0,0,0,0,0,0,0,0,0,0,0,0,0,0,0,0,0,0,0,0,0,0,-0.91086332255787,0.56987525229428,-0.40441203973981,5.1040479839211,2.7181886201112,0.90965365611637,-2.5974168042153,1.3726758057621,2.5099677923649,-0.33056908668627,1.7656300352179,-5.1742729794273,1.7676940292305,-0.95864924753559,1.9317019861595,-3.1545424024278,1.2160672197268,4.0524943246478,-0.95874947036717,-4.4113532323862,1.8596958031561,2.2910274008063,0.012284492452974,-4.8752450981192,3.1652049121539,-3.1304962897705,1.2045946667356,0.89000220556864,-1.0422569638855,0.76393455224506,0.96054084423181,0.10280301790865,0.78546401227091,-3.2987922069228,-1.1773707296671,-2.9679694616813,5.2902764651078,-1.8247589872496,3.0117614418968,-0.35781765605853,-1.1301195505039,-5.9155145643733,0.91676628597043,-1.8404002725607,-3.4352945880349,2.0613086373118,2.9048399442941,-2.4594259752145,471.07876128882,471.07876128882,471.07876128882,471.07876128882,471.07876128882,471.07876128882,471.07876128882,471.07876128882,471.07876128882,471.07876128882,471.07876128882,471.07876128882,471.07876128882,471.07876128882,471.07876128882,471.07876128882,471.07876128882,471.07876128882,471.07876128882,471.07876128882,471.07876128882,471.07876128882,471.07876128882,471.07876128882,471.07876128882,471.07876128882,471.07876128882,471.07876128882,471.07876128882,471.07876128882,471.07876128882,471.07876128882,471.07876128882,471.07876128882,471.07876128882,471.07876128882,471.07876128882,471.07876128882,471.07876128882,471.07876128882,471.07876128882,471.07876128882,471.07876128882,471.07876128882,471.07876128882,471.07876128882,471.07876128882,471.07876128882,215.30340980377,948.6976800279,-5.1745540121938,823.84027374365,-5.1848916255509,0
0.00095968749999998,6933518353.2275,8.1823483905899e-05,0.00028441960446374,0.00012670398921149,1.0908031036394,0,0,0,0,0,0,0,0,0,0,0,0,0,0,0,0,0,0,0,0,0,0,0,0,0,0,0,0,0,0,0,0,0,0,0,0,0,0,0,0,0,0,0,0,0,0,0,0,-0.91073011519166,0.57072961463528,-0.40502450032774,5.1038293958805,2.7176856543375,0.90930458700157,-2.5964205382805,1.3722315477262,2.5094032974484,-0.33039375986579,1.7652998633466,-5.1735372139214,1.7680352232611,-0.95807335901874,1.9317870890779,-3.1523180821846,1.2145469604603,4.0515913260704,-0.95837530457625,-4.4112371342157,1.859477834823,2.2916403843466,0.012067606687007,-4.8768383076801,3.165030529382,-3.1314365718982,1.2045807143529,0.88946357209056,-1.0412494139562,0.76324756542437,0.95979151516523,0.1037247046861,0.78546296300055,-3.297456645621,-1.1763857295068,-2.967020956529,5.289756742121,-1.8231317815459,3.0113283975971,-0.3578970884991,-1.1297116073538,-5.9132852780634,0.9161831137162,-1.8397928768021,-3.4351827280672,2.0628092757682,2.9039709704011,-2.4573292813422,471.50180967128,471.50180967128,471.50180967128,471.50180967128,471.50180967128,471.50180967128,471.50180967128,471.50180967128,471.50180967128,471.50180967128,471.50180967128,471.50180967128,471.50180967128,471.50180967128,471.50180967128,471.50180967128,471.50180967128,471.50180967128,471.50180967128,471.50180967128,471.50180967128,471.50180967128,471.50180967128,471.50180967128,471.50180967128,471.50180967128,471.50180967128,471.50180967128,471.50180967128,471.50180967128,471.50180967128,471.50180967128,471.50180967128,471.50180967128,471.50180967128,471.50180967128,471.50180967128,471.50180967128,471.50180967128,471.50180967128,471.50180967128,471.50180967128,471.50180967128,471.50180967128,471.50180967128,471.50180967128,471.50180967128,471.50180967128,215.27748423304,949.56689610092,-5.1862697079224,824.57495050234,-5.1965813344862,0
0.00096093749999998,6948891492.2403,8.1930525155605e-05,0.00028479013518967,0.0001268744473296,1.0909212707225,0,0,0,0,0,0,0,0,0,0,0,0,0,0,0,0,0,0,0,0,0,0,0,0,0,0,0,0,0,0,0,0,0,0,0,0,0,0,0,0,0,0,0,0,0,0,0,0,-0.91059715184033,0.57158099266705,-0.40563688810321,5.1036110734323,2.7171827813392,0.90895548886414,-2.5954252475886,1.3717874658636,2.5088387670764,-0.33021930724329,1.7649699910267,-5.1728006286386,1.7683751392277,-0.95749849917093,1.9318715929004,-3.1500947652932,1.2130273330374,4.0506885857523,-0.95800028685578,-4.4111210786517,1.8592598443996,2.2922526425631,0.011849545151031,-4.8784299938929,3.1648561232046,-3.132373932244,1.204566815257,0.88892409109966,-1.0402431804605,0.76256117311971,0.95904248479511,0.1046462299988,0.78546237314939,-3.2961223091664,-1.175400821813,-2.9660715538771,5.2892359213134,-1.8215056267579,3.010894996461,-0.3579772688262,-1.129303245676,-5.911055411569,0.91559880738005,-1.8391838000774,-3.4350691628551,2.0643101380484,2.90310188899,-2.4552329304494,471.92476643326,471.92476643326,471.92476643326,471.92476643326,471.92476643326,471.92476643326,471.92476643326,471.92476643326,471.92476643326,471.92476643326,471.92476643326,471.92476643326,471.92476643326,471.92476643326,471.92476643326,471.92476643326,471.92476643326,471.92476643326,471.92476643326,471.92476643326,471.92476643326,471.92476643326,471.92476643326,471.92476643326,471.92476643326,471.92476643326,471.92476643326,471.92476643326,471.92476643326,471.92476643326,471.92476643326,471.92476643326,471.92476643326,471.92476643326,471.92476643326,471.92476643326,471.92476643326,471.92476643326,471.92476643326,471.92476643326,471.92476643326,471.92476643326,471.92476643326,471.92476643326,471.92476643326,471.92476643326,471.92476643326,471.92476643326,215.25156603807,950.43594272186,-5.1979967158336,825.3094517118,-5.2082822303371,0
0.00096218749999998,6964278037.3055,8.2037566090238e-05,0.00028516066612248,0.00012704491288617,1.0910394344315,0,0,0,0,0,0,0,0,0,0,0,0,0,0,0,0,0,0,0,0,0,0,0,0,0,0,0,0,0,0,0,0,0,0,0,0,0,0,0,0,0,0,0,0,0,0,0,0,-0.9104644292792,0.57242938893565,-0.4062491981867,5.1033930151058,2.7166799988106,0.9086063631168,-2.5944309300497,1.3713435617961,2.5082742024223,-0.33004572812153,1.7646404201861,-5.172063222084,1.7687137802056,-0.95692466402753,1.9319554968589,-3.1478724526271,1.211508339039,4.0497861008671,-0.95762441717283,-4.4110050642518,1.8590418353971,2.2928641791482,0.011630311364511,-4.8800201527648,3.1646816929524,-3.1333083702393,1.2045529682982,0.88838376397016,-1.0392382599326,0.76187537678251,0.95829375172547,0.10556758944617,0.78546224516091,-3.2947891949348,-1.1744160049295,-2.9651212533994,5.2887140000658,-1.8198805204056,3.0104612393469,-0.35805819157847,-1.1288944685401,-5.9088249694926,0.91501337174735,-1.8385730426766,-3.4349538872036,2.0658112225091,2.9022326999498,-2.4531369195974,472.34763159752,472.34763159752,472.34763159752,472.34763159752,472.34763159752,472.34763159752,472.34763159752,472.34763159752,472.34763159752,472.34763159752,472.34763159752,472.34763159752,472.34763159752,472.34763159752,472.34763159752,472.34763159752,472.34763159752,472.34763159752,472.34763159752,472.34763159752,472.34763159752,472.34763159752,472.34763159752,472.34763159752,472.34763159752,472.34763159752,472.34763159752,472.34763159752,472.34763159752,472.34763159752,472.34763159752,472.34763159752,472.34763159752,472.34763159752,472.34763159752,472.34763159752,472.34763159752,472.34763159752,472.34763159752,472.34763159752,472.34763159752,472.34763159752,472.34763159752,472.34763159752,472.34763159752,472.34763159752,472.34763159752,472.34763159752,215.22565522532,951.30481998508,-5.2097350301865,826.04377746197,-5.2199943076524,0
0.00096343749999998,6979677975.305,8.2144606590493e-05,0.0002855311972634,0.00012721538570252,1.0911575947674,0,0,0,0,0,0,0,0,0,0,0,0,0,0,0,0,0,0,0,0,0,0,0,0,0,0,0,0,0,0,0,0,0,0,0,0,0,0,0,0,0,0,0,0,0,0,0,0,-0.91033194433481,0.57327480606874,-0.40686142576906,5.1031752191485,2.7161773044867,0.908257211062,-2.5934375838316,1.3708998371621,2.5077096046294,-0.32987302199735,1.7643111527382,-5.171324992845,1.7690511492716,-0.95635184959353,1.932038800337,-3.1456511452555,1.209989979952,4.048883868629,-0.95724769565486,-4.410889089651,1.8588238112818,2.2934749977673,0.011409908729381,-4.8816087802375,3.1645072379502,-3.1342398855164,1.2045391723571,0.88784259203424,-1.0382346491289,0.76119017787983,0.95754531456189,0.10648877836002,0.7854625814625,-3.2934573003492,-1.1734312772609,-2.9641700547639,5.2881909758096,-1.8182564602653,3.0100271269435,-0.35813985127155,-1.1284852788522,-5.9065939565409,0.91442681159877,-1.8379606049392,-3.434836895947,2.0673125274249,2.9013634031416,-2.4510412459473,472.77040518685,472.77040518685,472.77040518685,472.77040518685,472.77040518685,472.77040518685,472.77040518685,472.77040518685,472.77040518685,472.77040518685,472.77040518685,472.77040518685,472.77040518685,472.77040518685,472.77040518685,472.77040518685,472.77040518685,472.77040518685,472.77040518685,472.77040518685,472.77040518685,472.77040518685,472.77040518685,472.77040518685,472.77040518685,472.77040518685,472.77040518685,472.77040518685,472.77040518685,472.77040518685,472.77040518685,472.77040518685,472.77040518685,472.77040518685,472.77040518685,472.77040518685,472.77040518685,472.77040518685,472.77040518685,472.77040518685,472.77040518685,472.77040518685,472.77040518685,472.77040518685,472.77040518685,472.77040518685,472.77040518685,472.77040518685,215.19975180077,952.1735279853,-5.2214846452409,826.77792784281,-5.2317175609982,0
0.00096468749999998,6995091293.1225,8.2251646660113e-05,0.00028590172861367,0.00012738586574591,1.0912757517314,0,0,0,0,0,0,0,0,0,0,0,0,0,0,0,0,0,0,0,0,0,0,0,0,0,0,0,0,0,0,0,0,0,0,0,0,0,0,0,0,0,0,0,0,0,0,0,0,-0.91019969388874,0.57411724677347,-0.40747356613835,5.1029576835352,2.7156746961581,0.90790803387823,-2.5924452073817,1.3704562936186,2.5071449748403,-0.32970118856811,1.76398219059,-5.1705859395821,1.7693872494942,-0.95578005183402,1.9321215028864,-3.143430844448,1.2084722571734,4.0479818863108,-0.95687012260449,-4.4107731535843,1.85860577547,2.2940851020798,0.011188340523739,-4.8831958721675,3.1643327575378,-3.1351684779013,1.2045254263516,0.88730057657475,-1.0372323450395,0.76050557789359,0.95679717193256,0.10740979180046,0.78546338446514,-3.2921266228753,-1.1724466372864,-2.9632179576095,5.2876668460529,-1.8166334443901,3.0095926597724,-0.35822224239773,-1.128075679342,-5.9043623775054,0.91383913170895,-1.8373464872333,-3.4347181839697,2.0688140509888,2.9004939984048,-2.4489459067695,473.19308722403,473.19308722403,473.19308722403,473.19308722403,473.19308722403,473.19308722403,473.19308722403,473.19308722403,473.19308722403,473.19308722403,473.19308722403,473.19308722403,473.19308722403,473.19308722403,473.19308722403,473.19308722403,473.19308722403,473.19308722403,473.19308722403,473.19308722403,473.19308722403,473.19308722403,473.19308722403,473.19308722403,473.19308722403,473.19308722403,473.19308722403,473.19308722403,473.19308722403,473.19308722403,473.19308722403,473.19308722403,473.19308722403,473.19308722403,473.19308722403,473.19308722403,473.19308722403,473.19308722403,473.19308722403,473.19308722403,473.19308722403,473.19308722403,473.19308722403,473.19308722403,473.19308722403,473.19308722403,473.19308722403,473.19308722403,215.17385576974,953.04206681774,-5.2332455552622,827.51190294434,-5.243451984933,0
0.00096593749999998,7010517977.6429,8.2358686333091e-05,0.00028627226017453,0.00012755635301977,1.0913939053244,0,0,0,0,0,0,0,0,0,0,0,0,0,0,0,0,0,0,0,0,0,0,0,0,0,0,0,0,0,0,0,0,0,0,0,0,0,0,0,0,0,0,0,0,0,0,0,0,-0.9100676748832,0.57495671383161,-0.40808561467626,5.1027404059736,2.7151721716664,0.90755883262274,-2.5914537994373,1.3700129328386,2.5065803141728,-0.32953022773844,1.763653535638,-5.1698460610419,1.7697220839317,-0.95520926667311,1.9322036042311,-3.1412115516872,1.2069551720029,4.0470801512401,-0.95649169849794,-4.4106572548928,1.8583877313209,2.2946944957175,0.010965609892504,-4.8847814243331,3.1641582510599,-3.1360941474282,1.2045117292328,0.88675771882914,-1.0362313448956,0.7598215783205,0.95604932247295,0.10833062455489,0.78546465656239,-3.2907971600283,-1.1714620835663,-2.9622649615392,5.2871416083876,-1.815011471124,3.0091578381768,-0.35830535943012,-1.1276656725611,-5.9021302372734,0.9132503368422,-1.8367306899474,-3.4345977462103,2.0703157913045,2.8996244855496,-2.4468508994475,473.61567773186,473.61567773186,473.61567773186,473.61567773186,473.61567773186,473.61567773186,473.61567773186,473.61567773186,473.61567773186,473.61567773186,473.61567773186,473.61567773186,473.61567773186,473.61567773186,473.61567773186,473.61567773186,473.61567773186,473.61567773186,473.61567773186,473.61567773186,473.61567773186,473.61567773186,473.61567773186,473.61567773186,473.61567773186,473.61567773186,473.61567773186,473.61567773186,473.61567773186,473.61567773186,473.61567773186,473.61567773186,473.61567773186,473.61567773186,473.61567773186,473.61567773186,473.61567773186,473.61567773186,473.61567773186,473.61567773186,473.61567773186,473.61567773186,473.61567773186,473.61567773186,473.61567773186,473.61567773186,473.61567773186,473.61567773186,215.14796713703,953.91043657809,-5.2450177545065,828.24570285668,-5.2551975740093,0
0.00096718749999998,7025958015.7522,8.2465725499755e-05,0.00028664279194722,0.00012772684735721,1.0915120555476,0,0,0,0,0,0,0,0,0,0,0,0,0,0,0,0,0,0,0,0,0,0,0,0,0,0,0,0,0,0,0,0,0,0,0,0,0,0,0,0,0,0,0,0,0,0,0,0,-0.90993588432158,0.57579321009675,-0.40869756687626,5.1025233839149,2.7146697289163,0.90720960821951,-2.5904633590475,1.3695697565108,2.5060156237297,-0.32936013962625,1.7633251897748,-5.1691053560587,1.7700556556242,-0.95463948999978,1.9322851042671,-3.138993268679,1.2054387256469,4.0461786608132,-0.9561124239969,-4.4105413925448,1.85816968213,2.2953031822886,0.010741719839282,-4.886365432445,3.163983717878,-3.1370168943457,1.2044980799917,0.88621401998345,-1.0352316461852,0.75913818067106,0.95530176483317,0.10925127113886,0.78546640013094,-3.28946890937,-1.1704776147492,-2.9613110661269,5.2866152604875,-1.8133905391158,3.0087226623291,-0.35838919682583,-1.1272552608774,-5.8998975408359,0.91266043175121,-1.8361132134909,-3.4344755776644,2.0718177463908,2.898754864358,-2.4447562214857,474.03817673315,474.03817673315,474.03817673315,474.03817673315,474.03817673315,474.03817673315,474.03817673315,474.03817673315,474.03817673315,474.03817673315,474.03817673315,474.03817673315,474.03817673315,474.03817673315,474.03817673315,474.03817673315,474.03817673315,474.03817673315,474.03817673315,474.03817673315,474.03817673315,474.03817673315,474.03817673315,474.03817673315,474.03817673315,474.03817673315,474.03817673315,474.03817673315,474.03817673315,474.03817673315,474.03817673315,474.03817673315,474.03817673315,474.03817673315,474.03817673315,474.03817673315,474.03817673315,474.03817673315,474.03817673315,474.03817673315,474.03817673315,474.03817673315,474.03817673315,474.03817673315,474.03817673315,474.03817673315,474.03817673315,474.03817673315,215.12208590678,954.77863736256,-5.2568012372376,828.97932767006,-5.2669543227824,0
0.00096843749999998,7041411394.3371,8.2572764237275e-05,0.00028701332393298,0.00012789734881309,1.0916302024021,0,0,0,0,0,0,0,0,0,0,0,0,0,0,0,0,0,0,0,0,0,0,0,0,0,0,0,0,0,0,0,0,0,0,0,0,0,0,0,0,0,0,0,0,0,0,0,0,-0.90980431927541,0.57662673848913,-0.40930941834782,5.1023066145519,2.7141673658808,0.90686036146394,-2.5894738855792,1.3691267663392,2.5054509045957,-0.32919092456771,1.7629971548899,-5.1683638235599,1.770387967589,-0.95407071765571,1.932366003077,-3.1367759973587,1.2039229192111,4.0452774125014,-0.95573229994273,-4.4104255656381,1.8579516311258,2.2959111653765,0.010516673220059,-4.8879478921285,3.1638091573743,-3.1379367191227,1.2044844776605,0.88566948117606,-1.0342332466547,0.75845538647079,0.95455449767663,0.11017172579411,0.7854686175292,-3.2881418685131,-1.1694932295806,-2.9603562708912,5.2860878001312,-1.8117706473338,3.0082871322211,-0.35847374902627,-1.1268444464685,-5.8976642932766,0.91206942117016,-1.8354940582704,-3.4343516733953,2.0733199141757,2.8978851345843,-2.4426618705064,474.46058425072,474.46058425072,474.46058425072,474.46058425072,474.46058425072,474.46058425072,474.46058425072,474.46058425072,474.46058425072,474.46058425072,474.46058425072,474.46058425072,474.46058425072,474.46058425072,474.46058425072,474.46058425072,474.46058425072,474.46058425072,474.46058425072,474.46058425072,474.46058425072,474.46058425072,474.46058425072,474.46058425072,474.46058425072,474.46058425072,474.46058425072,474.46058425072,474.46058425072,474.46058425072,474.46058425072,474.46058425072,474.46058425072,474.46058425072,474.46058425072,474.46058425072,474.46058425072,474.46058425072,474.46058425072,474.46058425072,474.46058425072,474.46058425072,474.46058425072,474.46058425072,474.46058425072,474.46058425072,474.46058425072,474.46058425072,215.09621208256,955.64666926795,-5.2685959977317,829.71277747483,-5.2787222258152,0
0.00096968749999998,7056878100.2852,8.2679802736816e-05,0.00028738385613303,0.00012806785757778,1.0917483458889,0,0,0,0,0,0,0,0,0,0,0,0,0,0,0,0,0,0,0,0,0,0,0,0,0,0,0,0,0,0,0,0,0,0,0,0,0,0,0,0,0,0,0,0,0,0,0,0,-0.90967297688475,0.57745730199145,-0.40992116482782,5.1020900948342,2.7136650806024,0.90651109301058,-2.5884853787366,1.3686839640392,2.5048861578356,-0.32902258312237,1.7626694328709,-5.1676214625628,1.7707190228123,-0.95350294544365,1.9324463009267,-3.1345597398938,1.2024077537096,4.0443764038526,-0.95535132737119,-4.4103097734182,1.8577335814589,2.2965184485302,0.010290472734193,-4.889528798936,3.1636345689519,-3.1388536224494,1.2044709213132,0.88512410349246,-1.0332361443254,0.75777319725668,0.95380751968054,0.11109198249108,0.78547131109724,-3.2868160351167,-1.1685089269082,-2.9594005753052,5.2855592251961,-1.810151795073,3.0078512476723,-0.35855901046206,-1.1264332313165,-5.8954304997743,0.91147730981717,-1.834873224697,-3.4342260285365,2.0748222924985,2.8970152959482,-2.4405678442662,474.8829003074,474.8829003074,474.8829003074,474.8829003074,474.8829003074,474.8829003074,474.8829003074,474.8829003074,474.8829003074,474.8829003074,474.8829003074,474.8829003074,474.8829003074,474.8829003074,474.8829003074,474.8829003074,474.8829003074,474.8829003074,474.8829003074,474.8829003074,474.8829003074,474.8829003074,474.8829003074,474.8829003074,474.8829003074,474.8829003074,474.8829003074,474.8829003074,474.8829003074,474.8829003074,474.8829003074,474.8829003074,474.8829003074,474.8829003074,474.8829003074,474.8829003074,474.8829003074,474.8829003074,474.8829003074,474.8829003074,474.8829003074,474.8829003074,474.8829003074,474.8829003074,474.8829003074,474.8829003074,474.8829003074,474.8829003074,215.07034566737,956.51453239167,-5.2804020302721,830.44605236147,-5.2905012776518,0
0.00097093749999998,7072358120.4842,8.2786840755834e-05,0.0002877543885486,0.00012823837332559,1.0918664860091,0,0,0,0,0,0,0,0,0,0,0,0,0,0,0,0,0,0,0,0,0,0,0,0,0,0,0,0,0,0,0,0,0,0,0,0,0,0,0,0,0,0,0,0,0,0,0,0,-0.90954185436279,0.57828490364609,-0.41053280218954,5.101873821472,2.7131628712022,0.90616180337604,-2.5874978385687,1.3682413513392,2.5043213844961,-0.32885511607754,1.7623420256061,-5.1668782721874,1.7710488242472,-0.95293616910983,1.9325259982744,-3.1323444986935,1.2008932300499,4.0434756325041,-0.95496950750785,-4.4101940152864,1.8575155361994,2.2971250352745,0.010063120917724,-4.8911081483391,3.1634599520417,-3.1397676052507,1.2044574100687,0.88457788796913,-1.032240337495,0.75709161457994,0.95306082953332,0.11201203492918,0.78547448315609,-3.2854914068921,-1.167524705689,-2.9584439787649,5.2850295336704,-1.8085339819669,3.0074150083114,-0.35864497554968,-1.1260216172049,-5.893196165604,0.91088410238552,-1.834250713159,-3.4340986382941,2.0763248790977,2.8961453481385,-2.4384741406465,475.30512492601,475.30512492601,475.30512492601,475.30512492601,475.30512492601,475.30512492601,475.30512492601,475.30512492601,475.30512492601,475.30512492601,475.30512492601,475.30512492601,475.30512492601,475.30512492601,475.30512492601,475.30512492601,475.30512492601,475.30512492601,475.30512492601,475.30512492601,475.30512492601,475.30512492601,475.30512492601,475.30512492601,475.30512492601,475.30512492601,475.30512492601,475.30512492601,475.30512492601,475.30512492601,475.30512492601,475.30512492601,475.30512492601,475.30512492601,475.30512492601,475.30512492601,475.30512492601,475.30512492601,475.30512492601,475.30512492601,475.30512492601,475.30512492601,475.30512492601,475.30512492601,475.30512492601,475.30512492601,475.30512492601,475.30512492601,215.04448666349,957.38222683178,-5.2922193291223,831.17915242062,-5.3022914728635,0
0.00097218749999998,7087851441.822,8.2893878260815e-05,0.00028812492118093,0.00012840889598017,1.0919846227639,0,0,0,0,0,0,0,0,0,0,0,0,0,0,0,0,0,0,0,0,0,0,0,0,0,0,0,0,0,0,0,0,0,0,0,0,0,0,0,0,0,0,0,0,0,0,0,0,-0.9094109489976,0.57910954654816,-0.4111443264508,5.1016577909414,2.7126607358811,0.90581249292886,-2.5865112654842,1.3677989299758,2.5037565856034,-0.32868852445113,1.7620149349877,-5.1661342516451,1.7713773748043,-0.95237038436515,1.9326050957766,-3.1301302764093,1.199379349045,4.0425750961819,-0.95458684177719,-4.4100782908077,1.8572974983284,2.2977309290892,0.0098346201371341,-4.8926859357347,3.1632853061065,-3.1406786686786,1.2044439430916,0.88403083558678,-1.0312458247531,0.756410640002,0.9523144259421,0.11293187654079,0.78547813600743,-3.2841679815958,-1.1665405649954,-2.9574864806149,5.284498723669,-1.8069172079932,3.0069784135946,-0.35873163870276,-1.1256096057126,-5.890961296134,0.91028980354359,-1.833626524033,-3.4339694979628,2.0778276716246,2.8952752908072,-2.4363807576702,475.72725812941,475.72725812941,475.72725812941,475.72725812941,475.72725812941,475.72725812941,475.72725812941,475.72725812941,475.72725812941,475.72725812941,475.72725812941,475.72725812941,475.72725812941,475.72725812941,475.72725812941,475.72725812941,475.72725812941,475.72725812941,475.72725812941,475.72725812941,475.72725812941,475.72725812941,475.72725812941,475.72725812941,475.72725812941,475.72725812941,475.72725812941,475.72725812941,475.72725812941,475.72725812941,475.72725812941,475.72725812941,475.72725812941,475.72725812941,475.72725812941,475.72725812941,475.72725812941,475.72725812941,475.72725812941,475.72725812941,475.72725812941,475.72725812941,475.72725812941,475.72725812941,475.72725812941,475.72725812941,475.72725812941,475.72725812941,215.01863507268,958.24975268703,-5.3040478885578,831.91207774309,-5.3140928060125,0
0.00097343749999998,7103358051.1863,8.3000915230085e-05,0.00028849545403123,0.00012857942547799,1.0921027561542,0,0,0,0,0,0,0,0,0,0,0,0,0,0,0,0,0,0,0,0,0,0,0,0,0,0,0,0,0,0,0,0,0,0,0,0,0,0,0,0,0,0,0,0,0,0,0,0,-0.90928025815581,0.57993123384395,-0.41175573378206,5.101441999499,2.7121586729296,0.9054631618907,-2.5855256602573,1.3673567016935,2.503191762162,-0.32852280949469,1.7616881629123,-5.1653894002514,1.771704677349,-0.9518055868657,1.9326835942859,-3.1279170759358,1.1978661114102,4.0416747927166,-0.95420333180598,-4.4099625997237,1.8570794707323,2.2983361334188,0.0096049725827899,-4.8942621564403,3.1631106306435,-3.1415868141252,1.2044305195951,0.88348294727535,-1.0302526049819,0.75573027509516,0.95156830762517,0.1138515004942,0.78548227193323,-3.2828457570344,-1.1655565040177,-2.9565280801153,5.2839667934274,-1.8053014734781,3.0065414627976,-0.35881899432752,-1.1251971982134,-5.8887258968203,0.90969441793357,-1.8330006576637,-3.4338386029219,2.0793306676316,2.8944051235747,-2.4342876935035,476.14929994042,476.14929994042,476.14929994042,476.14929994042,476.14929994042,476.14929994042,476.14929994042,476.14929994042,476.14929994042,476.14929994042,476.14929994042,476.14929994042,476.14929994042,476.14929994042,476.14929994042,476.14929994042,476.14929994042,476.14929994042,476.14929994042,476.14929994042,476.14929994042,476.14929994042,476.14929994042,476.14929994042,476.14929994042,476.14929994042,476.14929994042,476.14929994042,476.14929994042,476.14929994042,476.14929994042,476.14929994042,476.14929994042,476.14929994042,476.14929994042,476.14929994042,476.14929994042,476.14929994042,476.14929994042,476.14929994042,476.14929994042,476.14929994042,476.14929994042,476.14929994042,476.14929994042,476.14929994042,476.14929994042,476.14929994042,214.99279089603,959.1171100569,-5.3158877028638,832.64482841988,-5.3259052716512,0
0.00097468749999998,7118877935.4642,8.3107951708631e-05,0.00028886598710073,0.00012874996183631,1.0922208861813,0,0,0,0,0,0,0,0,0,0,0,0,0,0,0,0,0,0,0,0,0,0,0,0,0,0,0,0,0,0,0,0,0,0,0,0,0,0,0,0,0,0,0,0,0,0,0,0,-0.90914977928417,0.58074996872609,-0.41236702051418,5.1012264431807,2.7116566807293,0.9051138103297,-2.5845410240374,1.3669146682416,2.5026269151568,-0.32835797269559,1.7613617112836,-5.1646437174173,1.7720307346955,-0.95124177221986,1.932761494859,-3.1257049004142,1.1963535177673,4.0407747200407,-0.95381897942321,-4.4098469419541,1.8568614561983,2.2989406516647,0.0093741802618812,-4.8958368056993,3.1629359251899,-3.1424920432182,1.2044171388438,0.88293422390877,-1.0292606773655,0.75505052143999,0.95082247331851,0.11477089969834,0.78548689319454,-3.2815247310583,-1.1645725220699,-2.955568776446,5.2834337413188,-1.8036867790997,3.0061041550218,-0.35890703682889,-1.1247843958729,-5.8864899732098,0.9090979501705,-1.832373114358,-3.4337059486464,2.0808338645777,2.8935348460198,-2.4321949464548,476.57125038189,476.57125038189,476.57125038189,476.57125038189,476.57125038189,476.57125038189,476.57125038189,476.57125038189,476.57125038189,476.57125038189,476.57125038189,476.57125038189,476.57125038189,476.57125038189,476.57125038189,476.57125038189,476.57125038189,476.57125038189,476.57125038189,476.57125038189,476.57125038189,476.57125038189,476.57125038189,476.57125038189,476.57125038189,476.57125038189,476.57125038189,476.57125038189,476.57125038189,476.57125038189,476.57125038189,476.57125038189,476.57125038189,476.57125038189,476.57125038189,476.57125038189,476.57125038189,476.57125038189,476.57125038189,476.57125038189,476.57125038189,476.57125038189,476.57125038189,476.57125038189,476.57125038189,476.57125038189,476.57125038189,476.57125038189,214.96695413408,959.98429904163,-5.3277387663216,833.3774045422,-5.3377288643488,0
0.00097593749999998,7134411081.5421,8.3214987706885e-05,0.00028923652039063,0.00012892050503095,1.0923390128461,0,0,0,0,0,0,0,0,0,0,0,0,0,0,0,0,0,0,0,0,0,0,0,0,0,0,0,0,0,0,0,0,0,0,0,0,0,0,0,0,0,0,0,0,0,0,0,0,-0.90901950991131,0.58156575442728,-0.41297818314966,5.1010111178163,2.7111547577572,0.90476443815964,-2.5835573583564,1.366472831372,2.5020620455473,-0.32819401577765,1.7610355820144,-5.1638972026584,1.7723555496008,-0.95067893598451,1.9328387987564,-3.1234937532285,1.1948415686353,4.0398748761968,-0.95343378666599,-4.409731317608,1.8566434574044,2.2995444871804,0.0091422449938447,-4.8974098786839,3.1627611893255,-3.1433943578293,1.2044038001533,0.88238466630802,-1.0282700413961,0.75437138062533,0.95007692177031,0.11569006680897,0.78549200203155,-3.2802049015664,-1.1635886185915,-2.9546085687008,5.2828995658526,-1.8020731258868,3.0056664891819,-0.35899576060942,-1.1243711996445,-5.8842535309361,0.90850040483388,-1.8317438943832,-3.4335715307078,2.0823372598191,2.8926644576832,-2.4301025149857,476.99310947667,476.99310947667,476.99310947667,476.99310947667,476.99310947667,476.99310947667,476.99310947667,476.99310947667,476.99310947667,476.99310947667,476.99310947667,476.99310947667,476.99310947667,476.99310947667,476.99310947667,476.99310947667,476.99310947667,476.99310947667,476.99310947667,476.99310947667,476.99310947667,476.99310947667,476.99310947667,476.99310947667,476.99310947667,476.99310947667,476.99310947667,476.99310947667,476.99310947667,476.99310947667,476.99310947667,476.99310947667,476.99310947667,476.99310947667,476.99310947667,476.99310947667,476.99310947667,476.99310947667,476.99310947667,476.99310947667,476.99310947667,476.99310947667,476.99310947667,476.99310947667,476.99310947667,476.99310947667,476.99310947667,476.99310947667,214.94112478677,960.85131974227,-5.3396010732191,834.10980620147,-5.3495635786546,0
0.00097718749999998,7149957476.305,8.3322023226667e-05,0.00028960705390216,0.0001290910550265,1.0924571361499,0,0,0,0,0,0,0,0,0,0,0,0,0,0,0,0,0,0,0,0,0,0,0,0,0,0,0,0,0,0,0,0,0,0,0,0,0,0,0,0,0,0,0,0,0,0,0,0,-0.90888944764958,0.58237859421913,-0.41358921836218,5.1007960190342,2.7106529025911,0.90441504513591,-2.5825746651293,1.3660311928361,2.5014971542706,-0.32803094070263,1.7607097770284,-5.1631498555853,1.7726791247618,-0.95011707366378,1.9329155074462,-3.1212836380022,1.1933302644407,4.0389752593438,-0.95304775578101,-4.4096157269848,1.8564254769181,2.3001476432732,0.0089091684038827,-4.8989813704869,3.162586422676,-3.1442937600673,1.2043905028927,0.88183427523873,-1.0272806968728,0.75369285424423,0.94933165174325,0.11660899423319,0.78549760066327,-3.2788862664973,-1.1626047931493,-2.9536474558749,5.2823642656893,-1.8004605152169,3.0052284640197,-0.35908516007425,-1.1239576102714,-5.882016575709,0.90790178647093,-1.8311129979497,-3.4334353447865,2.083840850615,2.8917939580633,-2.428010397712,477.4148772476,477.4148772476,477.4148772476,477.4148772476,477.4148772476,477.4148772476,477.4148772476,477.4148772476,477.4148772476,477.4148772476,477.4148772476,477.4148772476,477.4148772476,477.4148772476,477.4148772476,477.4148772476,477.4148772476,477.4148772476,477.4148772476,477.4148772476,477.4148772476,477.4148772476,477.4148772476,477.4148772476,477.4148772476,477.4148772476,477.4148772476,477.4148772476,477.4148772476,477.4148772476,477.4148772476,477.4148772476,477.4148772476,477.4148772476,477.4148772476,477.4148772476,477.4148772476,477.4148772476,477.4148772476,477.4148772476,477.4148772476,477.4148772476,477.4148772476,477.4148772476,477.4148772476,477.4148772476,477.4148772476,477.4148772476,214.9153028535,961.71817226069,-5.3514746178585,834.84203348934,-5.3614094091433,0
0.00097843749999998,7165517106.6363,8.3429058219836e-05,0.00028997758763651,0.00012926161172961,1.0925752560935,0,0,0,0,0,0,0,0,0,0,0,0,0,0,0,0,0,0,0,0,0,0,0,0,0,0,0,0,0,0,0,0,0,0,0,0,0,0,0,0,0,0,0,0,0,0,0,0,-0.90875959019629,0.58318849140429,-0.41420012301562,5.1005811422697,2.7101511139123,0.90406563085417,-2.5815929466602,1.3655897543815,2.5009322422393,-0.3278687496684,1.7603842982607,-5.1624016759086,1.7730014628089,-0.94955618070579,1.9329916225996,-3.119074558596,1.1918196055168,4.0380758677593,-0.9526608892231,-4.4095001705785,1.8562075171849,2.3007501231975,0.0086749519198792,-4.9005512761305,3.1624116249177,-3.1451902522847,1.2043772464866,0.88128305141153,-1.026292643911,0.75301494389476,0.94858666201491,0.11752767413829,0.78550369128556,-3.2775688238323,-1.1616210454391,-2.9526854368586,5.2818278396305,-1.7988489488125,3.004790078101,-0.35917522963109,-1.1235436282857,-5.8797791133176,0.90730209959358,-1.8304804252112,-3.4332973866632,2.0853446341244,2.8909233466156,-2.4259185934011,477.83655371752,477.83655371752,477.83655371752,477.83655371752,477.83655371752,477.83655371752,477.83655371752,477.83655371752,477.83655371752,477.83655371752,477.83655371752,477.83655371752,477.83655371752,477.83655371752,477.83655371752,477.83655371752,477.83655371752,477.83655371752,477.83655371752,477.83655371752,477.83655371752,477.83655371752,477.83655371752,477.83655371752,477.83655371752,477.83655371752,477.83655371752,477.83655371752,477.83655371752,477.83655371752,477.83655371752,477.83655371752,477.83655371752,477.83655371752,477.83655371752,477.83655371752,477.83655371752,477.83655371752,477.83655371752,477.83655371752,477.83655371752,477.83655371752,477.83655371752,477.83655371752,477.83655371752,477.83655371752,477.83655371752,477.83655371752,214.88948833313,962.5848566996,-5.3633593945295,835.57408649767,-5.3732663503747,0
0.00097968749999998,7181089959.4175,8.3536092641845e-05,0.00029034812159491,0.00012943217504993,1.0926933726783,0,0,0,0,0,0,0,0,0,0,0,0,0,0,0,0,0,0,0,0,0,0,0,0,0,0,0,0,0,0,0,0,0,0,0,0,0,0,0,0,0,0,0,0,0,0,0,0,-0.90862993533558,0.58399544931689,-0.41481089415459,5.1003664827739,2.7096493905117,0.90371619474533,-2.5806122056421,1.3651485177512,2.5003673103345,-0.32770744510915,1.7600591476607,-5.161652663432,1.7733225663041,-0.9489962525092,1.9330671460951,-3.1168665190997,1.1903095921063,4.0371766998505,-0.95227318966361,-4.4093846490793,1.855989580531,2.3013519301475,0.0084395967662356,-4.9021195905687,3.1622367957778,-3.1460838370686,1.2043640304164,0.88073099548084,-1.0253058829412,0.75233765117632,0.94784195137214,0.1184460984597,0.78551027607193,-3.2762525715898,-1.1606373752854,-2.9517225104439,5.2812902866382,-1.7972384287326,3.0043513298205,-0.3592659636951,-1.1231292540106,-5.8775411496229,0.90670134867902,-1.8298461762593,-3.4331576522379,2.0868486074063,2.8900526227537,-2.4238271009881,478.25813890928,478.25813890928,478.25813890928,478.25813890928,478.25813890928,478.25813890928,478.25813890928,478.25813890928,478.25813890928,478.25813890928,478.25813890928,478.25813890928,478.25813890928,478.25813890928,478.25813890928,478.25813890928,478.25813890928,478.25813890928,478.25813890928,478.25813890928,478.25813890928,478.25813890928,478.25813890928,478.25813890928,478.25813890928,478.25813890928,478.25813890928,478.25813890928,478.25813890928,478.25813890928,478.25813890928,478.25813890928,478.25813890928,478.25813890928,478.25813890928,478.25813890928,478.25813890928,478.25813890928,478.25813890928,478.25813890928,478.25813890928,478.25813890928,478.25813890928,478.25813890928,478.25813890928,478.25813890928,478.25813890928,478.25813890928,214.86368122394,963.4513731626,-5.3752553975225,836.30596531863,-5.3851343969158,0
0.00098093749999998,7196676021.5278,8.3643126494017e-05,0.00029071865577854,0.00012960274495376,1.0928114859051,0,0,0,0,0,0,0,0,0,0,0,0,0,0,0,0,0,0,0,0,0,0,0,0,0,0,0,0,0,0,0,0,0,0,0,0,0,0,0,0,0,0,0,0,0,0,0,0,-0.9085004809375,0.58479947131272,-0.41542152902609,5.10015203562,2.7091477312893,0.90336673607948,-2.5796324451553,1.3647074846774,2.4998023594181,-0.32754702969249,1.7597343271954,-5.1609028180522,1.7736424377352,-0.94843728441351,1.9331420800199,-3.1146595238263,1.1888002243613,4.0362777541511,-0.95188465998409,-4.4092691633749,1.8557716691496,2.3019530672645,0.0082031039614993,-4.9036863086857,3.1620619350449,-3.1469745172456,1.2043508542199,0.88017810804726,-1.0243204147099,0.75166097768833,0.9470975186213,0.11936425890946,0.78551735717309,-3.274937507823,-1.1596537826417,-2.9507586753042,5.2807516058316,-1.7956289573649,3.003912217403,-0.35935735668698,-1.1227144875568,-5.875302690553,0.90609953816235,-1.829210251113,-3.4330161375226,2.0883527674208,2.8891817858438,-2.4217359195696,478.67963284571,478.67963284571,478.67963284571,478.67963284571,478.67963284571,478.67963284571,478.67963284571,478.67963284571,478.67963284571,478.67963284571,478.67963284571,478.67963284571,478.67963284571,478.67963284571,478.67963284571,478.67963284571,478.67963284571,478.67963284571,478.67963284571,478.67963284571,478.67963284571,478.67963284571,478.67963284571,478.67963284571,478.67963284571,478.67963284571,478.67963284571,478.67963284571,478.67963284571,478.67963284571,478.67963284571,478.67963284571,478.67963284571,478.67963284571,478.67963284571,478.67963284571,478.67963284571,478.67963284571,478.67963284571,478.67963284571,478.67963284571,478.67963284571,478.67963284571,478.67963284571,478.67963284571,478.67963284571,478.67963284571,478.67963284571,214.8378815238,964.31772175421,-5.3871626211526,837.03767004457,-5.3970135433378,0
0.00098218749999998,7212275279.8435,8.3750159834102e-05,0.00029108919018861,0.0001297733214721,1.0929295957753,0,0,0,0,0,0,0,0,0,0,0,0,0,0,0,0,0,0,0,0,0,0,0,0,0,0,0,0,0,0,0,0,0,0,0,0,0,0,0,0,0,0,0,0,0,0,0,0,-0.90837122495991,0.5856005607716,-0.41603202507246,5.0999377957157,2.7086461352597,0.90301725395795,-2.5786536686671,1.3642666568807,2.4992373903293,-0.32738750631677,1.7594098388467,-5.1601521397533,1.7739610795131,-0.94787927170288,1.9332164266623,-3.1124535772993,1.187291502351,4.0353790293252,-0.95149530328066,-4.4091537145504,1.855553785102,2.3025535376316,0.0079654743137019,-4.9052514252973,3.1618870425628,-3.1478622958711,1.2043377174959,0.87962438965387,-1.0233362402817,0.7509849250278,0.94635336258556,0.12028214698672,0.78552493671467,-3.2736236306173,-1.1586702675862,-2.9497939299967,5.2802117964921,-1.7940205374111,3.0034727389074,-0.35944940303767,-1.1222993288322,-5.8730637420934,0.90549667244468,-1.8285726497168,-3.4328728386523,2.0898571110259,2.8883108352004,-2.4196450484058,479.10103554964,479.10103554964,479.10103554964,479.10103554964,479.10103554964,479.10103554964,479.10103554964,479.10103554964,479.10103554964,479.10103554964,479.10103554964,479.10103554964,479.10103554964,479.10103554964,479.10103554964,479.10103554964,479.10103554964,479.10103554964,479.10103554964,479.10103554964,479.10103554964,479.10103554964,479.10103554964,479.10103554964,479.10103554964,479.10103554964,479.10103554964,479.10103554964,479.10103554964,479.10103554964,479.10103554964,479.10103554964,479.10103554964,479.10103554964,479.10103554964,479.10103554964,479.10103554964,479.10103554964,479.10103554964,479.10103554964,479.10103554964,479.10103554964,479.10103554964,479.10103554964,479.10103554964,479.10103554964,479.10103554964,479.10103554964,214.81208923016,965.18390257986,-5.3990810597155,837.76920076818,-5.4089037841989,0
0.00098343749999998,7227887721.2378,8.385719268458e-05,0.0002914597248263,0.00012994390459582,1.0930477022897,0,0,0,0,0,0,0,0,0,0,0,0,0,0,0,0,0,0,0,0,0,0,0,0,0,0,0,0,0,0,0,0,0,0,0,0,0,0,0,0,0,0,0,0,0,0,0,0,-0.90824216544718,0.58639872108526,-0.41664237994184,5.0997237578042,2.7081446015547,0.9026677473184,-2.5776758800243,1.3638260360662,2.4986724038609,-0.3272288781076,1.759085684617,-5.1594006286036,1.7742784939683,-0.94732220960718,1.9332901885155,-3.1102486842484,1.1857834260595,4.034480524179,-0.95110512286129,-4.4090383038819,1.8553359303118,2.3031533442543,0.0077267084190156,-4.9068149351613,3.1617121182397,-3.1487471762305,1.2043246199013,0.8790698407902,-1.022353361037,0.75030949478669,0.94560948208744,0.12119975398839,0.78553301679893,-3.2723109380848,-1.1576868303224,-2.9488282729596,5.2796708580665,-1.7924131718768,3.0030328922316,-0.35954209719001,-1.121883777538,-5.8708243102921,0.90489275588306,-1.827933371937,-3.4327277518846,2.0913616349816,2.8874397700948,-2.4175544869286,479.52234704391,479.52234704391,479.52234704391,479.52234704391,479.52234704391,479.52234704391,479.52234704391,479.52234704391,479.52234704391,479.52234704391,479.52234704391,479.52234704391,479.52234704391,479.52234704391,479.52234704391,479.52234704391,479.52234704391,479.52234704391,479.52234704391,479.52234704391,479.52234704391,479.52234704391,479.52234704391,479.52234704391,479.52234704391,479.52234704391,479.52234704391,479.52234704391,479.52234704391,479.52234704391,479.52234704391,479.52234704391,479.52234704391,479.52234704391,479.52234704391,479.52234704391,479.52234704391,479.52234704391,479.52234704391,479.52234704391,479.52234704391,479.52234704391,479.52234704391,479.52234704391,479.52234704391,479.52234704391,479.52234704391,479.52234704391,214.78630434002,966.0499157459,-5.4110107075515,838.50055758234,-5.4208051140934,0
0.00098468749999998,7243513332.58,8.3964225217279e-05,0.0002918302596928,0.00013011449449368,1.0931658054496,0,0,0,0,0,0,0,0,0,0,0,0,0,0,0,0,0,0,0,0,0,0,0,0,0,0,0,0,0,0,0,0,0,0,0,0,0,0,0,0,0,0,0,0,0,0,0,0,-0.90811330053157,0.58719395565967,-0.4172525914893,5.0995099164776,2.7076431294227,0.90231821492831,-2.5766990834468,1.3633856239196,2.4981074007914,-0.32707114841281,1.7587618665267,-5.1586482847491,1.7745946833492,-0.94676609329685,1.9333633682668,-3.1080448495902,1.1842759953978,4.0335822376509,-0.95071412224792,-4.4089229328359,1.8551181065602,2.3037524900829,0.007486806658224,-4.9083768329661,3.161537162047,-3.1496291618287,1.2043115611548,0.87851446188793,-1.0213717786673,0.74963468854977,0.94486587597223,0.12211707102046,0.7855415995016,-3.2709994283618,-1.1567034711717,-2.9478617025013,5.2791287901628,-1.790806864052,3.0025926751195,-0.35963543359911,-1.1214678331806,-5.8685844012366,0.90428779279951,-1.8272924175536,-3.4325808736023,2.0928663359482,2.8865685897401,-2.4154642347374,479.94356735133,479.94356735133,479.94356735133,479.94356735133,479.94356735133,479.94356735133,479.94356735133,479.94356735133,479.94356735133,479.94356735133,479.94356735133,479.94356735133,479.94356735133,479.94356735133,479.94356735133,479.94356735133,479.94356735133,479.94356735133,479.94356735133,479.94356735133,479.94356735133,479.94356735133,479.94356735133,479.94356735133,479.94356735133,479.94356735133,479.94356735133,479.94356735133,479.94356735133,479.94356735133,479.94356735133,479.94356735133,479.94356735133,479.94356735133,479.94356735133,479.94356735133,479.94356735133,479.94356735133,479.94356735133,479.94356735133,479.94356735133,479.94356735133,479.94356735133,479.94356735133,479.94356735133,479.94356735133,479.94356735133,479.94356735133,214.76052685003,966.91576135965,-5.4229515589623,839.23174058026,-5.432717527564,0
0.00098593749999998,7259152100.7356,8.4071257265025e-05,0.0002922007947893,0.00013028509092988,1.0932839052559,0,0,0,0,0,0,0,0,0,0,0,0,0,0,0,0,0,0,0,0,0,0,0,0,0,0,0,0,0,0,0,0,0,0,0,0,0,0,0,0,0,0,0,0,0,0,0,0,-0.90798462842999,0.587986267908,-0.41786265778212,5.0992962661856,2.7071417182341,0.90196865539084,-2.5757232835192,1.3629454221047,2.4975423818393,-0.32691432079815,1.7584383866176,-5.1578951084055,1.7749096498184,-0.94621091789254,1.9334359688012,-3.1058420784239,1.1827692101977,4.0326841688281,-0.95032230517155,-4.4088076030619,1.8549003154838,2.3043509779754,0.0072457691957816,-4.9099371133513,3.1613621740231,-3.1505082563821,1.2042985410354,0.87795825332571,-1.0203914951737,0.74896050789155,0.94412254307561,0.12303408901064,0.78555068687328,-3.2696890996018,-1.1557201905729,-2.9468942168116,5.2785855925606,-1.7892016174958,3.0021520851616,-0.3597294067363,-1.1210514950699,-5.8663440210695,0.9036817874722,-1.826649786262,-3.4324322003187,2.0943712104874,2.8856972933045,-2.413374291606,480.36469649471,480.36469649471,480.36469649471,480.36469649471,480.36469649471,480.36469649471,480.36469649471,480.36469649471,480.36469649471,480.36469649471,480.36469649471,480.36469649471,480.36469649471,480.36469649471,480.36469649471,480.36469649471,480.36469649471,480.36469649471,480.36469649471,480.36469649471,480.36469649471,480.36469649471,480.36469649471,480.36469649471,480.36469649471,480.36469649471,480.36469649471,480.36469649471,480.36469649471,480.36469649471,480.36469649471,480.36469649471,480.36469649471,480.36469649471,480.36469649471,480.36469649471,480.36469649471,480.36469649471,480.36469649471,480.36469649471,480.36469649471,480.36469649471,480.36469649471,480.36469649471,480.36469649471,480.36469649471,480.36469649471,480.36469649471,214.73475675652,967.78143952938,-5.4349036082671,839.96274985539,-5.4446410191993,0
0.00098718749999998,7274804012.5654,8.4178288820955e-05,0.00029257133011698,0.00013045569386024,1.0934020017099,0,0,0,0,0,0,0,0,0,0,0,0,0,0,0,0,0,0,0,0,0,0,0,0,0,0,0,0,0,0,0,0,0,0,0,0,0,0,0,0,0,0,0,0,0,0,0,0,-0.90785614744578,0.58877566124788,-0.41847257709516,5.0990828012429,2.70664036748,0.90161906714183,-2.5747484851831,1.36250543226,2.4969773477192,-0.32675839904031,1.7581152469524,-5.1571410998566,1.7752233954522,-0.94565667844889,1.9335079931917,-3.1036403760073,1.1812630702255,4.0317863169354,-0.9499296755731,-4.4086923163898,1.8546825585721,2.3049488107379,0.0070035959779832,-4.9114957708978,3.1611871542728,-3.1513844638143,1.2042855593851,0.87740121542683,-1.0194125128628,0.74828695437462,0.94337948226367,0.12395079872141,0.78556028093771,-3.2683799499749,-1.1547369890734,-2.9459258139348,5.2780412652053,-1.7875974360141,3.0017111198052,-0.35982401108631,-1.1206347623298,-5.8641031759602,0.90307474414252,-1.8260054776643,-3.4322817286777,2.095876255065,2.8848258798953,-2.4112846574795,480.78573449688,480.78573449688,480.78573449688,480.78573449688,480.78573449688,480.78573449688,480.78573449688,480.78573449688,480.78573449688,480.78573449688,480.78573449688,480.78573449688,480.78573449688,480.78573449688,480.78573449688,480.78573449688,480.78573449688,480.78573449688,480.78573449688,480.78573449688,480.78573449688,480.78573449688,480.78573449688,480.78573449688,480.78573449688,480.78573449688,480.78573449688,480.78573449688,480.78573449688,480.78573449688,480.78573449688,480.78573449688,480.78573449688,480.78573449688,480.78573449688,480.78573449688,480.78573449688,480.78573449688,480.78573449688,480.78573449688,480.78573449688,480.78573449688,480.78573449688,480.78573449688,480.78573449688,480.78573449688,480.78573449688,480.78573449688,214.70899405555,968.64695036432,-5.4468668497884,840.69358550145,-5.4565755835807,0
0.00098843749999998,7290469054.9252,8.428531989097e-05,0.000292941865677,0.00013062630325617,1.0935200948125,0,0,0,0,0,0,0,0,0,0,0,0,0,0,0,0,0,0,0,0,0,0,0,0,0,0,0,0,0,0,0,0,0,0,0,0,0,0,0,0,0,0,0,0,0,0,0,0,-0.90772785596559,0.58956213909589,-0.41908234792561,5.098869515831,2.7061390767739,0.90126944845197,-2.573774693718,1.3620656559958,2.4964122990954,-0.32660338712052,1.7577924496181,-5.1563862594429,1.7755359222366,-0.94510336996856,1.9335794446954,-3.1014397477461,1.179757575182,4.0308886813464,-0.94953623759734,-4.4085770748134,1.8544648371631,2.3055459910888,0.0067602867333484,-4.9130528001283,3.161012102976,-3.1522577882455,1.2042726161065,0.87684334846035,-1.0184348343367,0.74761402954698,0.94263669239917,0.12486719076256,0.78557038369167,-3.267071977659,-1.1537538673266,-2.9449564917881,5.2774958082085,-1.78599432364,3.0012697763595,-0.35991924115242,-1.1202176339015,-5.861861872104,0.90246666701013,-1.8253594912726,-3.4321294554544,2.0973814660504,2.8839543485693,-2.4091953324746,481.20668138062,481.20668138062,481.20668138062,481.20668138062,481.20668138062,481.20668138062,481.20668138062,481.20668138062,481.20668138062,481.20668138062,481.20668138062,481.20668138062,481.20668138062,481.20668138062,481.20668138062,481.20668138062,481.20668138062,481.20668138062,481.20668138062,481.20668138062,481.20668138062,481.20668138062,481.20668138062,481.20668138062,481.20668138062,481.20668138062,481.20668138062,481.20668138062,481.20668138062,481.20668138062,481.20668138062,481.20668138062,481.20668138062,481.20668138062,481.20668138062,481.20668138062,481.20668138062,481.20668138062,481.20668138062,481.20668138062,481.20668138062,481.20668138062,481.20668138062,481.20668138062,481.20668138062,481.20668138062,481.20668138062,481.20668138062,214.68323874303,969.51229397467,-5.4588412778639,841.42424761244,-5.4685212152887,0
0.00098968749999998,7306147214.6652,8.4392350427614e-05,0.00029331240147054,0.00013079691902555,1.0936381845649,0,0,0,0,0,0,0,0,0,0,0,0,0,0,0,0,0,0,0,0,0,0,0,0,0,0,0,0,0,0,0,0,0,0,0,0,0,0,0,0,0,0,0,0,0,0,0,0,-0.90759975245795,0.59034570486546,-0.41969196897944,5.0986564040165,2.70563784585,0.90091979742831,-2.5728019147362,1.3616260948892,2.4958472366031,-0.32644928921717,1.7574699967231,-5.1556305875539,1.7758472320695,-0.94455098739497,1.9336503267476,-3.099240199179,1.1782527247117,4.0299912615755,-0.94914199559087,-4.4084618804913,1.8542471524434,2.3061425216742,0.0065158409709214,-4.9146081955223,3.1608370203803,-3.1531282339789,1.2042597111644,0.87628465264107,-1.0174584624905,0.7469417349372,0.94189417235552,0.12578325560671,0.78558099710383,-3.2657651808361,-1.152770826083,-2.9439862481479,5.2769492218532,-1.7843922846105,3.0008280520057,-0.36001509145532,-1.1198001085549,-5.859620115722,0.90185756023916,-1.824711826503,-3.4319753775631,2.0988868397223,2.8830826983213,-2.4071063168797,481.62753716872,481.62753716872,481.62753716872,481.62753716872,481.62753716872,481.62753716872,481.62753716872,481.62753716872,481.62753716872,481.62753716872,481.62753716872,481.62753716872,481.62753716872,481.62753716872,481.62753716872,481.62753716872,481.62753716872,481.62753716872,481.62753716872,481.62753716872,481.62753716872,481.62753716872,481.62753716872,481.62753716872,481.62753716872,481.62753716872,481.62753716872,481.62753716872,481.62753716872,481.62753716872,481.62753716872,481.62753716872,481.62753716872,481.62753716872,481.62753716872,481.62753716872,481.62753716872,481.62753716872,481.62753716872,481.62753716872,481.62753716872,481.62753716872,481.62753716872,481.62753716872,481.62753716872,481.62753716872,481.62753716872,481.62753716872,214.6574908146,970.37747047157,-5.470826886818,842.15473628263,-5.4804779089102,0
0.00099093749999998,7321838478.6298,8.4499380419262e-05,0.00029368293749876,0.0001309675411188,1.0937562709682,0,0,0,0,0,0,0,0,0,0,0,0,0,0,0,0,0,0,0,0,0,0,0,0,0,0,0,0,0,0,0,0,0,0,0,0,0,0,0,0,0,0,0,0,0,0,0,0,-0.90747183547192,0.5911263619626,-0.42030143917735,5.0984434597507,2.7051366745666,0.90057011201612,-2.5718301541603,1.3611867504844,2.4952821608368,-0.32629610969716,1.7571478904001,-5.1548740846184,1.7761573267576,-0.94399952561664,1.9337206429497,-3.0970417359559,1.1767485184057,4.0290940572867,-0.94874695409916,-4.408346735728,1.8540295054477,2.3067384050563,0.0062702579821691,-4.9161619515097,3.1606619068066,-3.1539958054911,1.2042468445856,0.87572512813184,-1.0164834005012,0.74627007205535,0.94115192101029,0.12669898360386,0.7855921231149,-3.2644595576858,-1.1517878661836,-2.9430150806542,5.2764015065762,-1.7827913233414,3.0003859437983,-0.36011155653591,-1.1193821848944,-5.8573779130431,0.9012474279553,-1.8240624826788,-3.4318194920462,2.100392372264,2.8822109280918,-2.4050176111566,482.04830188398,482.04830188398,482.04830188398,482.04830188398,482.04830188398,482.04830188398,482.04830188398,482.04830188398,482.04830188398,482.04830188398,482.04830188398,482.04830188398,482.04830188398,482.04830188398,482.04830188398,482.04830188398,482.04830188398,482.04830188398,482.04830188398,482.04830188398,482.04830188398,482.04830188398,482.04830188398,482.04830188398,482.04830188398,482.04830188398,482.04830188398,482.04830188398,482.04830188398,482.04830188398,482.04830188398,482.04830188398,482.04830188398,482.04830188398,482.04830188398,482.04830188398,482.04830188398,482.04830188398,482.04830188398,482.04830188398,482.04830188398,482.04830188398,482.04830188398,482.04830188398,482.04830188398,482.04830188398,482.04830188398,482.04830188398,214.63175026594,971.24247996714,-5.4828236709956,842.88505160653,-5.4924456590257,0
0.00099218749999998,7337542833.6568,8.460640993089e-05,0.00029405347376281,0.00013113816957752,1.0938743540234,0,0,0,0,0,0,0,0,0,0,0,0,0,0,0,0,0,0,0,0,0,0,0,0,0,0,0,0,0,0,0,0,0,0,0,0,0,0,0,0,0,0,0,0,0,0,0,0,-0.90734410363399,0.5919041137797,-0.42091075765625,5.0982306768839,2.704635562902,0.90022039000092,-2.5708594182097,1.3607476242863,2.4947170723487,-0.32614385310754,1.7568261328066,-5.1541167510995,1.7764662080167,-0.94344897946584,1.9337903970691,-3.0948443638269,1.1752449558088,4.0281970682876,-0.94835111786023,-4.408231642968,1.8538118970564,2.3073336437114,0.0060235368412584,-4.9177140624814,3.160486762652,-3.154860507421,1.2042340164572,0.8751647750423,-1.0155096518191,0.74559904238633,0.94040993724108,0.12761436499625,0.78560376363649,-3.2631551063811,-1.1508049885532,-2.942042986805,5.2758526629857,-1.7811914444056,2.9999434486801,-0.36020863095602,-1.118963861368,-5.8551352703062,0.90063627424747,-1.8234114590266,-3.4316617960873,2.1018980597733,2.88133903676,-2.4029292159372,482.46897554916,482.46897554916,482.46897554916,482.46897554916,482.46897554916,482.46897554916,482.46897554916,482.46897554916,482.46897554916,482.46897554916,482.46897554916,482.46897554916,482.46897554916,482.46897554916,482.46897554916,482.46897554916,482.46897554916,482.46897554916,482.46897554916,482.46897554916,482.46897554916,482.46897554916,482.46897554916,482.46897554916,482.46897554916,482.46897554916,482.46897554916,482.46897554916,482.46897554916,482.46897554916,482.46897554916,482.46897554916,482.46897554916,482.46897554916,482.46897554916,482.46897554916,482.46897554916,482.46897554916,482.46897554916,482.46897554916,482.46897554916,482.46897554916,482.46897554916,482.46897554916,482.46897554916,482.46897554916,482.46897554916,482.46897554916,214.60601709259,972.10732257441,-5.4948316247413,843.61519367891,-5.5044244602245,0
0.00099343749999998,7353260266.5771,8.4713438964632e-05,0.00029442401026384,0.00013130880436924,1.0939924337316,0,0,0,0,0,0,0,0,0,0,0,0,0,0,0,0,0,0,0,0,0,0,0,0,0,0,0,0,0,0,0,0,0,0,0,0,0,0,0,0,0,0,0,0,0,0,0,0,-0.90721655564639,0.5926789636957,-0.42151992376179,5.098018049167,2.7041345109538,0.8998706290131,-2.5698897133788,1.360308717761,2.4941519716541,-0.32599252416648,1.7565047261225,-5.153358587479,1.7767738774727,-0.94289934371828,1.9338595930223,-3.0926480886162,1.1737420364298,4.0273002945282,-0.94795449179785,-4.4081166047789,1.8535943279968,2.307928240035,0.005775676405883,-4.9192645227836,3.1603115883832,-3.1557223445539,1.2042212269267,0.87460359343128,-1.0145372201548,0.74492864739174,0.93966821993045,0.12852938993327,0.78561592055018,-3.2618518250805,-1.1498221941907,-2.9410699639581,5.275302691841,-1.779592652503,2.9995005634926,-0.36030630929757,-1.1185451362795,-5.8528921937414,0.90002410317098,-1.8227587546786,-3.4315022870024,2.1034038982625,2.8804670231426,-2.4008411320199,482.88955818704,482.88955818704,482.88955818704,482.88955818704,482.88955818704,482.88955818704,482.88955818704,482.88955818704,482.88955818704,482.88955818704,482.88955818704,482.88955818704,482.88955818704,482.88955818704,482.88955818704,482.88955818704,482.88955818704,482.88955818704,482.88955818704,482.88955818704,482.88955818704,482.88955818704,482.88955818704,482.88955818704,482.88955818704,482.88955818704,482.88955818704,482.88955818704,482.88955818704,482.88955818704,482.88955818704,482.88955818704,482.88955818704,482.88955818704,482.88955818704,482.88955818704,482.88955818704,482.88955818704,482.88955818704,482.88955818704,482.88955818704,482.88955818704,482.88955818704,482.88955818704,482.88955818704,482.88955818704,482.88955818704,482.88955818704,214.58029129013,972.97199840734,-5.5068507424057,844.34516259477,-5.5164143071061,0
0.00099468749999998,7368990764.2142,8.4820467474079e-05,0.00029479454700301,0.00013147944540414,1.0941105100939,0,0,0,0,0,0,0,0,0,0,0,0,0,0,0,0,0,0,0,0,0,0,0,0,0,0,0,0,0,0,0,0,0,0,0,0,0,0,0,0,0,0,0,0,0,0,0,0,-0.90708919028267,0.59345091507079,-0.42212893704792,5.0978055702678,2.7036335189399,0.89952082652899,-2.5689210464236,1.3598700323307,2.4935868592257,-0.32584212775261,1.7561836725549,-5.1525995942508,1.7770803366614,-0.94235061309584,1.9339282348724,-3.0904529162121,1.1722397597413,4.0264037361059,-0.94755708102058,-4.4080016238443,1.8533767988451,2.3085221963362,0.0055266753201459,-4.9208133267371,3.1601363845458,-3.1565813218081,1.2042084762016,0.87404158330689,-1.0135661094746,0.74425888850242,0.93892676795887,0.12944404848955,0.78562859570852,-3.2605497119225,-1.1488394841624,-2.9400960093319,5.2747515940627,-1.777994952439,2.9990572849724,-0.36040458616464,-1.1181260077968,-5.8506486895768,0.89941091874984,-1.8221043686754,-3.4313409622484,2.1049098836565,2.8795948859974,-2.3987533603729,483.31004982036,483.31004982036,483.31004982036,483.31004982036,483.31004982036,483.31004982036,483.31004982036,483.31004982036,483.31004982036,483.31004982036,483.31004982036,483.31004982036,483.31004982036,483.31004982036,483.31004982036,483.31004982036,483.31004982036,483.31004982036,483.31004982036,483.31004982036,483.31004982036,483.31004982036,483.31004982036,483.31004982036,483.31004982036,483.31004982036,483.31004982036,483.31004982036,483.31004982036,483.31004982036,483.31004982036,483.31004982036,483.31004982036,483.31004982036,483.31004982036,483.31004982036,483.31004982036,483.31004982036,483.31004982036,483.31004982036,483.31004982036,483.31004982036,483.31004982036,483.31004982036,483.31004982036,483.31004982036,483.31004982036,483.31004982036,214.55457285422,973.83650758082,-5.5188810183498,845.07495844938,-5.5284151942638,0
0.00099593749999998,7384734313.3837,8.4927495472833e-05,0.00029516508398144,0.00013165009266296,1.0942285831114,0,0,0,0,0,0,0,0,0,0,0,0,0,0,0,0,0,0,0,0,0,0,0,0,0,0,0,0,0,0,0,0,0,0,0,0,0,0,0,0,0,0,0,0,0,0,0,0,-0.9069620063856,0.59421997124212,-0.42273779727693,5.0975932337676,2.7031325871913,0.8991709798748,-2.5679534243311,1.3594315693722,2.4930217354893,-0.32569266889552,1.7558629743306,-5.1518397719084,1.7773855870296,-0.94180278226587,1.9339963268127,-3.0882588525423,1.1707381251937,4.0255073932538,-0.94715889081111,-4.4078867029393,1.8531593100234,2.3091155148335,0.0052765320159728,-4.9223604686221,3.1599611517529,-3.1574374442195,1.2041957645461,0.87347874462715,-1.0125963239791,0.74358976711945,0.93818558020332,0.13035833067813,0.78564179093214,-3.2592487650193,-1.147856859593,-2.939121120002,5.2741993707119,-1.7763983490956,2.9986136097766,-0.36050345618401,-1.1177064739629,-5.8484047640165,0.89879672497589,-1.8214482999636,-3.4311778194106,2.1064160118035,2.8787226240165,-2.3966659021251,483.73045047189,483.73045047189,483.73045047189,483.73045047189,483.73045047189,483.73045047189,483.73045047189,483.73045047189,483.73045047189,483.73045047189,483.73045047189,483.73045047189,483.73045047189,483.73045047189,483.73045047189,483.73045047189,483.73045047189,483.73045047189,483.73045047189,483.73045047189,483.73045047189,483.73045047189,483.73045047189,483.73045047189,483.73045047189,483.73045047189,483.73045047189,483.73045047189,483.73045047189,483.73045047189,483.73045047189,483.73045047189,483.73045047189,483.73045047189,483.73045047189,483.73045047189,483.73045047189,483.73045047189,483.73045047189,483.73045047189,483.73045047189,483.73045047189,483.73045047189,483.73045047189,483.73045047189,483.73045047189,483.73045047189,483.73045047189,214.52886178072,974.70085021057,-5.5309224469158,845.80458133818,-5.5404271162863,0
0.00099718749999998,7400490900.8925,8.5034523027384e-05,0.00029553562120028,0.00013182074619031,1.0943466527852,0,0,0,0,0,0,0,0,0,0,0,0,0,0,0,0,0,0,0,0,0,0,0,0,0,0,0,0,0,0,0,0,0,0,0,0,0,0,0,0,0,0,0,0,0,0,0,0,-0.90683500286364,0.5949861355221,-0.42334650440722,5.0973810331775,2.7026317161543,0.89882108623573,-2.566986854308,1.358993330215,2.4924566008316,-0.32554415276478,1.7555426337033,-5.1510791209303,1.777689629937,-0.94125584584108,1.9340638731626,-3.0860659035596,1.1692371322173,4.0246112663472,-0.94675992661701,-4.4077718449282,1.8529418618074,2.3097081976622,0.0050252447162813,-4.9239059426984,3.1597858906946,-3.1582907169246,1.204183092282,0.87291507730338,-1.0116278680984,0.74292128461017,0.93744465553914,0.13127222646911,0.78565550801104,-3.2579489824476,-1.1468743216554,-2.9381452929028,5.2736460230013,-1.7748028474064,2.9981695344814,-0.36060291400437,-1.1172865327081,-5.8461604232444,0.89818152581303,-1.8207905473999,-3.4310128562133,2.1079222784731,2.8778502358292,-2.3945787585646,484.15076016436,484.15076016436,484.15076016436,484.15076016436,484.15076016436,484.15076016436,484.15076016436,484.15076016436,484.15076016436,484.15076016436,484.15076016436,484.15076016436,484.15076016436,484.15076016436,484.15076016436,484.15076016436,484.15076016436,484.15076016436,484.15076016436,484.15076016436,484.15076016436,484.15076016436,484.15076016436,484.15076016436,484.15076016436,484.15076016436,484.15076016436,484.15076016436,484.15076016436,484.15076016436,484.15076016436,484.15076016436,484.15076016436,484.15076016436,484.15076016436,484.15076016436,484.15076016436,484.15076016436,484.15076016436,484.15076016436,484.15076016436,484.15076016436,484.15076016436,484.15076016436,484.15076016436,484.15076016436,484.15076016436,484.15076016436,214.50315806553,975.56502641321,-5.542975022486,846.53403135684,-5.5524500677794,0
0.00099843749999998,7416260513.5391,8.5141549794354e-05,0.00029590615866065,0.00013199140554283,1.0944647191164,0,0,0,0,0,0,0,0,0,0,0,0,0,0,0,0,0,0,0,0,0,0,0,0,0,0,0,0,0,0,0,0,0,0,0,0,0,0,0,0,0,0,0,0,0,0,0,0,-0.90670817868678,0.59574941119293,-0.42395505859334,5.0971689619416,2.7021309063839,0.89847114265527,-2.5660213437487,1.3585553161401,2.4918914555889,-0.32539658465917,1.7552226529497,-5.1503176417792,1.7779924666571,-0.94070979838627,1.9341308783491,-3.0838740752209,1.1677367802323,4.0237153558953,-0.94636019404896,-4.4076570527381,1.852724454326,2.3103002468642,0.0047728114377057,-4.9254497431995,3.1596106021321,-3.1591411451508,1.2041704597845,0.87235058119927,-1.0106607464716,0.74225344230666,0.93670399283337,0.13218572580458,0.78566974870392,-3.2566503622476,-1.1458918715654,-2.9371685248367,5.2730915522748,-1.773208452331,2.9977250555979,-0.36070295429888,-1.1168661818634,-5.8439156734098,0.89756532519728,-1.8201311097563,-3.4308460705107,2.1094286793619,2.8769777199994,-2.3924919311389,484.57097892051,484.57097892051,484.57097892051,484.57097892051,484.57097892051,484.57097892051,484.57097892051,484.57097892051,484.57097892051,484.57097892051,484.57097892051,484.57097892051,484.57097892051,484.57097892051,484.57097892051,484.57097892051,484.57097892051,484.57097892051,484.57097892051,484.57097892051,484.57097892051,484.57097892051,484.57097892051,484.57097892051,484.57097892051,484.57097892051,484.57097892051,484.57097892051,484.57097892051,484.57097892051,484.57097892051,484.57097892051,484.57097892051,484.57097892051,484.57097892051,484.57097892051,484.57097892051,484.57097892051,484.57097892051,484.57097892051,484.57097892051,484.57097892051,484.57097892051,484.57097892051,484.57097892051,484.57097892051,484.57097892051,484.57097892051,214.47746170492,976.42903630617,-5.5550387394177,847.26330860121,-5.5644840433645,0
0.001,7435988794.256,8.5279619547434e-05,0.00029636933076782,0.00013221007998695,1.0946126715889,0,0,0,0,0,0,0,0,0,0,0,0,0,0,0,0,0,0,0,0,0,0,0,0,0,0,0,0,0,0,0,0,0,0,0,0,0,0,0,0,0,0,0,0,0,0,0,0,-0.90938364490168,0.59806792442812,-0.42578352588509,5.1092994687552,2.708202952088,0.90110156399999,-2.5714142705586,1.3616900811459,2.4979209781127,-0.32630475040768,1.7595204117076,-5.1615894311081,1.7834575253207,-0.9413958415239,1.9383874418711,-3.0886876636472,1.1690521005037,4.032414026744,-0.94700468399876,-4.4185529935613,1.8573416007564,2.3177742885013,0.0042395606037241,-4.9385628274566,3.1677069228128,-3.1674211148274,1.2071308763,0.87452407669666,-1.0118086448146,0.74344372929847,0.93796574891666,0.1331976768649,0.78789361035425,-3.26310198412,-1.1478367672488,-2.941660148879,5.2848546316776,-1.7758886511045,3.0044507320888,-0.36164550426712,-1.1198181654248,-5.8549340111989,0.89964017353839,-1.8224690023067,-3.4390478178222,2.1159437444105,2.8828273249448,-2.3943908362721,485.09606870022,485.09606870022,485.09606870022,485.09606870022,485.09606870022,485.09606870022,485.09606870022,485.09606870022,485.09606870022,485.09606870022,485.09606870022,485.09606870022,485.09606870022,485.09606870022,485.09606870022,485.09606870022,485.09606870022,485.09606870022,485.09606870022,485.09606870022,485.09606870022,485.09606870022,485.09606870022,485.09606870022,485.09606870022,485.09606870022,485.09606870022,485.09606870022,485.09606870022,485.09606870022,485.09606870022,485.09606870022,485.09606870022,485.09606870022,485.09606870022,485.09606870022,485.09606870022,485.09606870022,485.09606870022,485.09606870022,485.09606870022,485.09606870022,485.09606870022,485.09606870022,485.09606870022,485.09606870022,485.09606870022,485.09606870022,214.45177269545,977.43838708141,-5.5701176879791,848.10142992832,-5.5795219580876,0
