time,disloc_density,disp_x,disp_y,disp_z,fp_yy,gd_0,gd_1,gd_10,gd_11,gd_12,gd_13,gd_14,gd_15,gd_16,gd_17,gd_18,gd_19,gd_2,gd_20,gd_21,gd_22,gd_23,gd_24,gd_25,gd_26,gd_27,gd_28,gd_29,gd_3,gd_30,gd_31,gd_32,gd_33,gd_34,gd_35,gd_36,gd_37,gd_38,gd_39,gd_4,gd_40,gd_41,gd_42,gd_43,gd_44,gd_45,gd_46,gd_47,gd_5,gd_6,gd_7,gd_8,gd_9,slip_increment_0,slip_increment_1,slip_increment_10,slip_increment_11,slip_increment_12,slip_increment_13,slip_increment_14,slip_increment_15,slip_increment_16,slip_increment_17,slip_increment_18,slip_increment_19,slip_increment_2,slip_increment_20,slip_increment_21,slip_increment_22,slip_increment_23,slip_increment_24,slip_increment_25,slip_increment_26,slip_increment_27,slip_increment_28,slip_increment_29,slip_increment_3,slip_increment_30,slip_increment_31,slip_increment_32,slip_increment_33,slip_increment_34,slip_increment_35,slip_increment_36,slip_increment_37,slip_increment_38,slip_increment_39,slip_increment_4,slip_increment_40,slip_increment_41,slip_increment_42,slip_increment_43,slip_increment_44,slip_increment_45,slip_increment_46,slip_increment_47,slip_increment_5,slip_increment_6,slip_increment_7,slip_increment_8,slip_increment_9,slip_resistance_0,slip_resistance_1,slip_resistance_10,slip_resistance_11,slip_resistance_12,slip_resistance_13,slip_resistance_14,slip_resistance_15,slip_resistance_16,slip_resistance_17,slip_resistance_18,slip_resistance_19,slip_resistance_2,slip_resistance_20,slip_resistance_21,slip_resistance_22,slip_resistance_23,slip_resistance_24,slip_resistance_25,slip_resistance_26,slip_resistance_27,slip_resistance_28,slip_resistance_29,slip_resistance_3,slip_resistance_30,slip_resistance_31,slip_resistance_32,slip_resistance_33,slip_resistance_34,slip_resistance_35,slip_resistance_36,slip_resistance_37,slip_resistance_38,slip_resistance_39,slip_resistance_4,slip_resistance_40,slip_resistance_41,slip_resistance_42,slip_resistance_43,slip_resistance_44,slip_resistance_45,slip_resistance_46,slip_resistance_47,slip_resistance_5,slip_resistance_6,slip_resistance_7,slip_resistance_8,slip_resistance_9,sliprate,stress_vm,stress_xx,stress_yy,stress_zz,total_twin_volume_fraction
1e-07,20000000,6.875140790385e-09,2.9680619618618e-08,6.1077759824608e-09,1,607.67959772498,607.67959772498,607.67959772498,607.67959772498,607.67959772498,607.67959772498,607.67959772498,607.67959772498,607.67959772498,607.67959772498,607.67959772498,607.67959772498,607.67959772498,607.67959772498,607.67959772498,607.67959772498,607.67959772498,607.67959772498,607.67959772498,607.67959772498,607.67959772498,607.67959772498,607.67959772498,607.67959772498,607.67959772498,607.67959772498,607.67959772498,607.67959772498,607.67959772498,607.67959772498,607.67959772498,607.67959772498,607.67959772498,607.67959772498,607.67959772498,607.67959772498,607.67959772498,607.67959772498,607.67959772498,607.67959772498,607.67959772498,607.67959772498,607.67959772498,607.67959772498,607.67959772498,607.67959772498,607.67959772498,607.67959772498,-1.5218069423222e-53,-7.6810843462404e-56,-1.0333848286095e-53,-4.5016208793037e-54,3.3371357564982e-54,5.969450737353e-53,-2.4497945013503e-53,1.3699899442727e-55,9.7258341760317e-55,2.8777223448525e-55,3.1077158343201e-54,-2.7345196637657e-52,-6.4335838401456e-57,-1.8479017001808e-55,4.3963375132574e-54,-2.2338468270173e-52,-4.8162799896937e-55,4.961183053534e-54,5.5863605769347e-53,-4.0148702883005e-53,-9.3946282944069e-55,7.5936563299929e-55,1.338924391422e-55,-1.1754611807946e-52,8.9587635648976e-54,-2.0696925866086e-52,1.0100833836371e-54,3.0212000553938e-53,-7.6350232895218e-54,-4.4046387638791e-55,5.9058464909545e-55,4.4172061354072e-54,4.9148498352967e-55,-1.8209901951338e-52,-2.3983401427756e-54,-4.1986455942453e-55,9.2915453638216e-54,-7.3680418126409e-53,-8.9877448580384e-56,-1.0544167267927e-55,1.0213759864128e-54,-3.2744661604701e-52,-5.536421471913e-55,-4.4901989318467e-55,-6.7983405248085e-54,-1.0556489655117e-54,2.2370906489952e-54,6.8227406664368e-54,732.20212669302,732.20212669302,732.20212669302,732.20212669302,732.20212669302,732.20212669302,732.20212669302,732.20212669302,732.20212669302,732.20212669302,732.20212669302,732.20212669302,732.20212669302,732.20212669302,732.20212669302,732.20212669302,732.20212669302,732.20212669302,732.20212669302,732.20212669302,732.20212669302,732.20212669302,732.20212669302,732.20212669302,732.20212669302,732.20212669302,732.20212669302,732.20212669302,732.20212669302,732.20212669302,732.20212669302,732.20212669302,732.20212669302,732.20212669302,732.20212669302,732.20212669302,732.20212669302,732.20212669302,732.20212669302,732.20212669302,732.20212669302,732.20212669302,732.20212669302,732.20212669302,732.20212669302,732.20212669302,732.20212669302,732.20212669302,0,4.4330653334737,0.96776539977232,4.6512693969222,0.87876528476093,0
2e-07,20000000,1.3750274549166e-08,5.9361237924278e-08,1.2215561887224e-08,1,607.67959772498,607.67959772498,607.67959772498,607.67959772498,607.67959772498,607.67959772498,607.67959772498,607.67959772498,607.67959772498,607.67959772498,607.67959772498,607.67959772498,607.67959772498,607.67959772498,607.67959772498,607.67959772498,607.67959772498,607.67959772498,607.67959772498,607.67959772498,607.67959772498,607.67959772498,607.67959772498,607.67959772498,607.67959772498,607.67959772498,607.67959772498,607.67959772498,607.67959772498,607.67959772498,607.67959772498,607.67959772498,607.67959772498,607.67959772498,607.67959772498,607.67959772498,607.67959772498,607.67959772498,607.67959772498,607.67959772498,607.67959772498,607.67959772498,607.67959772498,607.67959772498,607.67959772498,607.67959772498,607.67959772498,607.67959772498,-1.5958714377153e-47,-8.0548266825307e-50,-1.0836640949631e-47,-4.7190122050167e-48,3.499596805992e-48,6.258872163323e-47,-2.5692638570118e-47,1.436719174065e-49,1.0199547703132e-48,3.017800201965e-49,3.2590031158394e-48,-2.8676082986604e-46,-6.7468426029883e-51,-1.9377042070243e-49,4.6103637966133e-48,-2.3425985326849e-46,-5.0509126093976e-49,5.2026978153294e-48,5.8572365391704e-47,-4.2106655308375e-47,-9.8513811771553e-49,7.9634634916675e-49,1.4040887897127e-49,-1.2326925496268e-46,9.3948056676441e-48,-2.1704241928763e-46,1.0592737503846e-48,3.1676528315452e-47,-8.0073121611634e-48,-4.6189182894312e-49,6.1934764640626e-49,4.6322959918011e-48,5.1541556548203e-49,-1.9096167973582e-46,-2.5150386160054e-48,-4.4027715561664e-49,9.7438565613455e-48,-7.7267341887772e-47,-9.426325931203e-50,-1.1056950077754e-49,1.0711005873206e-48,-3.4338830615671e-46,-5.8060661304477e-49,-4.708826917032e-49,-7.1292106129605e-48,-1.1067541130457e-48,2.3459917749858e-48,7.153405263198e-48,732.20212669302,732.20212669302,732.20212669302,732.20212669302,732.20212669302,732.20212669302,732.20212669302,732.20212669302,732.20212669302,732.20212669302,732.20212669302,732.20212669302,732.20212669302,732.20212669302,732.20212669302,732.20212669302,732.20212669302,732.20212669302,732.20212669302,732.20212669302,732.20212669302,732.20212669302,732.20212669302,732.20212669302,732.20212669302,732.20212669302,732.20212669302,732.20212669302,732.20212669302,732.20212669302,732.20212669302,732.20212669302,732.20212669302,732.20212669302,732.20212669302,732.20212669302,732.20212669302,732.20212669302,732.20212669302,732.20212669302,732.20212669302,732.20212669302,732.20212669302,732.20212669302,732.20212669302,732.20212669302,732.20212669302,732.20212669302,1.0136458407628e-47,8.8663489612165,1.9355104831665,9.3028262180886,1.7575130865234,0
3e-07,20000000,2.0625401262875e-08,8.9041854909924e-08,1.8323357714163e-08,1,607.67959772498,607.67959772498,607.67959772498,607.67959772498,607.67959772498,607.67959772498,607.67959772498,607.67959772498,607.67959772498,607.67959772498,607.67959772498,607.67959772498,607.67959772498,607.67959772498,607.67959772498,607.67959772498,607.67959772498,607.67959772498,607.67959772498,607.67959772498,607.67959772498,607.67959772498,607.67959772498,607.67959772498,607.67959772498,607.67959772498,607.67959772498,607.67959772498,607.67959772498,607.67959772498,607.67959772498,607.67959772498,607.67959772498,607.67959772498,607.67959772498,607.67959772498,607.67959772498,607.67959772498,607.67959772498,607.67959772498,607.67959772498,607.67959772498,607.67959772498,607.67959772498,607.67959772498,607.67959772498,607.67959772498,607.67959772498,-5.3071518065812e-44,-2.6786446533309e-46,-3.6037327394327e-44,-1.5687672058452e-44,1.1638242776477e-44,2.0810531262636e-43,-8.5450188226055e-44,4.7780601631578e-46,3.3920344642211e-45,1.0035923543146e-45,1.0838109326637e-44,-9.5363871618205e-43,-2.2437448444163e-47,-6.4434930615892e-46,1.5332205905667e-44,-7.7905408452984e-43,-1.6797832467874e-45,1.7302036197229e-44,1.9475200775993e-43,-1.4004101038387e-43,-3.2759702996152e-45,2.6483681425524e-45,4.6693707158203e-46,-4.0994587078684e-43,3.124300570438e-44,-7.2178635488973e-43,3.5227713215934e-45,1.0532247250622e-43,-2.6631057825522e-44,-1.5360153344378e-45,2.0597386649202e-45,1.5405301511675e-44,1.7140760202417e-45,-6.3505320576133e-43,-8.3638033792001e-45,-1.4640919459226e-45,3.2404034908881e-44,-2.5695976620335e-43,-3.1351579499712e-46,-3.6769157469811e-46,3.5620511139557e-45,-1.1419728052974e-42,-1.9309013017312e-45,-1.56597610835e-45,-2.3708564370839e-44,-3.6796638751964e-45,7.801797114995e-45,2.3784400499267e-44,732.20212669302,732.20212669302,732.20212669302,732.20212669302,732.20212669302,732.20212669302,732.20212669302,732.20212669302,732.20212669302,732.20212669302,732.20212669302,732.20212669302,732.20212669302,732.20212669302,732.20212669302,732.20212669302,732.20212669302,732.20212669302,732.20212669302,732.20212669302,732.20212669302,732.20212669302,732.20212669302,732.20212669302,732.20212669302,732.20212669302,732.20212669302,732.20212669302,732.20212669302,732.20212669302,732.20212669302,732.20212669302,732.20212669302,732.20212669302,732.20212669302,732.20212669302,732.20212669302,732.20212669302,732.20212669302,732.20212669302,732.20212669302,732.20212669302,732.20212669302,732.20212669302,732.20212669302,732.20212669302,732.20212669302,732.20212669302,1.0629494903038e-41,13.299850889175,2.9032352512582,13.954670468845,2.6362433976166,0
4e-07,20000000,2.7500520930373e-08,1.1872247057558e-07,2.4431163467115e-08,1,607.67959772498,607.67959772498,607.67959772498,607.67959772498,607.67959772498,607.67959772498,607.67959772498,607.67959772498,607.67959772498,607.67959772498,607.67959772498,607.67959772498,607.67959772498,607.67959772498,607.67959772498,607.67959772498,607.67959772498,607.67959772498,607.67959772498,607.67959772498,607.67959772498,607.67959772498,607.67959772498,607.67959772498,607.67959772498,607.67959772498,607.67959772498,607.67959772498,607.67959772498,607.67959772498,607.67959772498,607.67959772498,607.67959772498,607.67959772498,607.67959772498,607.67959772498,607.67959772498,607.67959772498,607.67959772498,607.67959772498,607.67959772498,607.67959772498,607.67959772498,607.67959772498,607.67959772498,607.67959772498,607.67959772498,607.67959772498,-1.6736886457467e-41,-8.4474096074018e-44,-1.1364753572651e-41,-4.9455590720348e-42,3.67034056266e-42,6.5617523173029e-41,-2.6950503880709e-41,1.5068876592052e-43,1.0697668971356e-42,3.165000306945e-43,3.4179982260018e-42,-3.0074434613005e-40,-7.0761317640118e-45,-2.0319115506071e-43,4.8353024396578e-42,-2.4568967235648e-40,-5.2976856612313e-43,5.4565153436204e-42,6.1407399359907e-41,-4.4168156721448e-41,-1.0330761862843e-42,8.3522652426534e-43,1.472555557077e-43,-1.2928490236266e-40,9.8529747500111e-42,-2.2762620868166e-40,1.1109902359987e-42,3.3208869649586e-41,-8.3992329339585e-42,-4.843958123246e-43,6.4958996664929e-43,4.8584043197394e-42,5.4057029974204e-43,-2.002735289311e-40,-2.6376218095201e-42,-4.617002416959e-43,1.0219198962477e-41,-8.1037089598224e-41,-9.8883981037223e-44,-1.1595288528594e-43,1.1233616414271e-42,-3.6014349301011e-40,-6.0895853554791e-43,-4.9386367757016e-43,-7.4768492331158e-42,-1.1601515744094e-42,2.460437681541e-42,7.4993077262002e-42,732.20212669302,732.20212669302,732.20212669302,732.20212669302,732.20212669302,732.20212669302,732.20212669302,732.20212669302,732.20212669302,732.20212669302,732.20212669302,732.20212669302,732.20212669302,732.20212669302,732.20212669302,732.20212669302,732.20212669302,732.20212669302,732.20212669302,732.20212669302,732.20212669302,732.20212669302,732.20212669302,732.20212669302,732.20212669302,732.20212669302,732.20212669302,732.20212669302,732.20212669302,732.20212669302,732.20212669302,732.20212669302,732.20212669302,732.20212669302,732.20212669302,732.20212669302,732.20212669302,732.20212669302,732.20212669302,732.20212669302,732.20212669302,732.20212669302,732.20212669302,732.20212669302,732.20212669302,732.20212669302,732.20212669302,732.20212669302,3.5347954032104e-38,17.733571123904,3.8709397049015,18.606802158893,3.5149562188495,0
5e-07,20000000,3.4375633550588e-08,1.484030849213e-07,3.0538979149857e-08,1,607.67959772498,607.67959772498,607.67959772498,607.67959772498,607.67959772498,607.67959772498,607.67959772498,607.67959772498,607.67959772498,607.67959772498,607.67959772498,607.67959772498,607.67959772498,607.67959772498,607.67959772498,607.67959772498,607.67959772498,607.67959772498,607.67959772498,607.67959772498,607.67959772498,607.67959772498,607.67959772498,607.67959772498,607.67959772498,607.67959772498,607.67959772498,607.67959772498,607.67959772498,607.67959772498,607.67959772498,607.67959772498,607.67959772498,607.67959772498,607.67959772498,607.67959772498,607.67959772498,607.67959772498,607.67959772498,607.67959772498,607.67959772498,607.67959772498,607.67959772498,607.67959772498,607.67959772498,607.67959772498,607.67959772498,607.67959772498,-1.4518219473382e-39,-7.3275287056971e-42,-9.8580950607032e-40,-4.2884243176432e-40,3.1838371191628e-40,5.6909142286969e-39,-2.3380095564852e-39,1.3071807951606e-41,9.279906132144e-41,2.7454636486629e-41,2.9649383512964e-40,-2.6087748373294e-38,-6.1382402733311e-43,-1.7624376474449e-41,4.1943838614316e-40,-2.1312368705193e-38,-4.5956257353165e-41,4.7332459593171e-40,5.3258018905488e-39,-3.8316765528276e-39,-8.9608721054381e-41,7.2452893214841e-41,1.2773518769255e-41,-1.121488009896e-38,8.5468771448324e-40,-1.9745193331609e-38,9.6374371411785e-41,2.8801339194487e-39,-7.2864562399695e-40,-4.2017551298221e-41,5.634975406188e-41,4.2144667691943e-40,4.689211389333e-41,-1.7372507836546e-38,-2.2879512414587e-40,-4.0047681706662e-41,8.8646204930367e-40,-7.0295588227554e-39,-8.5786308729396e-42,-1.0057845717876e-41,9.7446122541831e-41,-3.124071108565e-38,-5.2825169129775e-41,-4.2840503682988e-41,-6.485709905856e-40,-1.0061132242494e-40,2.1343007373921e-40,6.5039273488384e-40,732.20212669302,732.20212669302,732.20212669302,732.20212669302,732.20212669302,732.20212669302,732.20212669302,732.20212669302,732.20212669302,732.20212669302,732.20212669302,732.20212669302,732.20212669302,732.20212669302,732.20212669302,732.20212669302,732.20212669302,732.20212669302,732.20212669302,732.20212669302,732.20212669302,732.20212669302,732.20212669302,732.20212669302,732.20212669302,732.20212669302,732.20212669302,732.20212669302,732.20212669302,732.20212669302,732.20212669302,732.20212669302,732.20212669302,732.20212669302,732.20212669302,732.20212669302,732.20212669302,732.20212669302,732.20212669302,732.20212669302,732.20212669302,732.20212669302,732.20212669302,732.20212669302,732.20212669302,732.20212669302,732.20212669302,732.20212669302,1.1147192132339e-35,22.167509672236,4.8386238449192,23.259221298162,4.3936515508683,0
6e-07,20000000,4.1250739122362e-08,1.7808369794713e-07,3.6646804766138e-08,1,607.67959772498,607.67959772498,607.67959772498,607.67959772498,607.67959772498,607.67959772498,607.67959772498,607.67959772498,607.67959772498,607.67959772498,607.67959772498,607.67959772498,607.67959772498,607.67959772498,607.67959772498,607.67959772498,607.67959772498,607.67959772498,607.67959772498,607.67959772498,607.67959772498,607.67959772498,607.67959772498,607.67959772498,607.67959772498,607.67959772498,607.67959772498,607.67959772498,607.67959772498,607.67959772498,607.67959772498,607.67959772498,607.67959772498,607.67959772498,607.67959772498,607.67959772498,607.67959772498,607.67959772498,607.67959772498,607.67959772498,607.67959772498,607.67959772498,607.67959772498,607.67959772498,607.67959772498,607.67959772498,607.67959772498,607.67959772498,-5.5664294061899e-38,-2.8094167296094e-40,-3.7796417949559e-38,-1.6436324360355e-38,1.2207310199764e-38,2.1815688066837e-37,-8.965000836556e-38,5.0120465569858e-40,3.5581370573203e-39,1.0526458945352e-39,1.1368002594597e-38,-1.0002311675979e-36,-2.3535125557844e-41,-6.7568983328272e-40,1.608190030859e-38,-8.1714890108023e-37,-1.7620887542459e-39,1.8147943786774e-38,2.0416156111116e-37,-1.4692410954448e-37,-3.4355230853984e-39,2.7779974988569e-39,4.8974958056827e-40,-4.2999768583419e-37,3.2769681079618e-38,-7.5705106886453e-37,3.6951964696339e-39,1.1040682949535e-37,-2.7939443835939e-38,-1.6109637210176e-39,2.1605752802197e-39,1.6159066726424e-38,1.797927200392e-39,-6.6607961582199e-37,-8.7721422669156e-39,-1.535392166573e-39,3.3988195073541e-38,-2.6952370255628e-37,-3.2895362305797e-40,-3.8561421983436e-40,3.7362351113049e-39,-1.1978182038236e-36,-2.0254369583766e-39,-1.6425806850724e-39,-2.4866867338539e-38,-3.8565915630872e-39,8.183206672432e-39,2.4931870043007e-38,732.20212669302,732.20212669302,732.20212669302,732.20212669302,732.20212669302,732.20212669302,732.20212669302,732.20212669302,732.20212669302,732.20212669302,732.20212669302,732.20212669302,732.20212669302,732.20212669302,732.20212669302,732.20212669302,732.20212669302,732.20212669302,732.20212669302,732.20212669302,732.20212669302,732.20212669302,732.20212669302,732.20212669302,732.20212669302,732.20212669302,732.20212669302,732.20212669302,732.20212669302,732.20212669302,732.20212669302,732.20212669302,732.20212669302,732.20212669302,732.20212669302,732.20212669302,732.20212669302,732.20212669302,732.20212669302,732.20212669302,732.20212669302,732.20212669302,732.20212669302,732.20212669302,732.20212669302,732.20212669302,732.20212669302,732.20212669302,9.6692373383009e-34,26.601666540754,5.8062876722683,27.911927896377,5.2723293945429,0
7e-07,20000000,4.8125837644621e-08,2.0776430965311e-07,4.2754640319747e-08,1,607.67959772498,607.67959772498,607.67959772498,607.67959772498,607.67959772498,607.67959772498,607.67959772498,607.67959772498,607.67959772498,607.67959772498,607.67959772498,607.67959772498,607.67959772498,607.67959772498,607.67959772498,607.67959772498,607.67959772498,607.67959772498,607.67959772498,607.67959772498,607.67959772498,607.67959772498,607.67959772498,607.67959772498,607.67959772498,607.67959772498,607.67959772498,607.67959772498,607.67959772498,607.67959772498,607.67959772498,607.67959772498,607.67959772498,607.67959772498,607.67959772498,607.67959772498,607.67959772498,607.67959772498,607.67959772498,607.67959772498,607.67959772498,607.67959772498,607.67959772498,607.67959772498,607.67959772498,607.67959772498,607.67959772498,607.67959772498,-1.2149290755997e-36,-6.1317674001834e-39,-8.2493391095832e-37,-3.5861005608833e-37,2.6644034715181e-37,4.7606545325041e-36,-1.9568847897549e-36,1.093969972373e-38,7.7662726636983e-38,2.2975225198347e-38,2.4812100564889e-37,-2.1831070966798e-35,-5.1368871834789e-40,-1.4746599300145e-38,3.5100833561904e-37,-1.7835346552232e-35,-3.8461106716594e-38,3.961016480543e-37,4.4552679104215e-36,-3.20706796463e-36,-7.498015564047e-38,6.0634366054093e-38,1.0689280328572e-38,-9.3853067816327e-36,7.1523348859139e-37,-1.652341594063e-35,8.0653715838998e-38,2.4092955159371e-36,-6.0985982359357e-37,-3.5160225687775e-38,4.7158246970887e-38,3.5269620496741e-37,3.924237346177e-38,-1.4537865335796e-35,-1.914588475157e-37,-3.3509822915832e-38,7.4183433319389e-37,-5.8827003903002e-36,-7.1806247620292e-39,-8.4161212497992e-39,8.1548261070499e-38,-2.6143984581177e-35,-4.4208668578565e-38,-3.5851697836357e-38,-5.4274459565703e-37,-8.4153330884008e-38,1.7860857125409e-37,5.4405762557825e-37,732.20212669302,732.20212669302,732.20212669302,732.20212669302,732.20212669302,732.20212669302,732.20212669302,732.20212669302,732.20212669302,732.20212669302,732.20212669302,732.20212669302,732.20212669302,732.20212669302,732.20212669302,732.20212669302,732.20212669302,732.20212669302,732.20212669302,732.20212669302,732.20212669302,732.20212669302,732.20212669302,732.20212669302,732.20212669302,732.20212669302,732.20212669302,732.20212669302,732.20212669302,732.20212669302,732.20212669302,732.20212669302,732.20212669302,732.20212669302,732.20212669302,732.20212669302,732.20212669302,732.20212669302,732.20212669302,732.20212669302,732.20212669302,732.20212669302,732.20212669302,732.20212669302,732.20212669302,732.20212669302,732.20212669302,732.20212669302,3.7071795060625e-32,31.036041736165,6.7739311878082,32.564921963138,6.1509897506141,0
8e-07,20000000,5.5000929116227e-08,2.3744492003927e-07,4.886248581449e-08,1,607.67959772498,607.67959772498,607.67959772498,607.67959772498,607.67959772498,607.67959772498,607.67959772498,607.67959772498,607.67959772498,607.67959772498,607.67959772498,607.67959772498,607.67959772498,607.67959772498,607.67959772498,607.67959772498,607.67959772498,607.67959772498,607.67959772498,607.67959772498,607.67959772498,607.67959772498,607.67959772498,607.67959772498,607.67959772498,607.67959772498,607.67959772498,607.67959772498,607.67959772498,607.67959772498,607.67959772498,607.67959772498,607.67959772498,607.67959772498,607.67959772498,607.67959772498,607.67959772498,607.67959772498,607.67959772498,607.67959772498,607.67959772498,607.67959772498,607.67959772498,607.67959772498,607.67959772498,607.67959772498,607.67959772498,607.67959772498,-1.7556109974844e-35,-8.8605019968716e-38,-1.1920399722977e-35,-5.1801615846824e-36,3.8501987426922e-36,6.8780854957419e-35,-2.8280255375748e-35,1.58087979744e-37,1.1222916760224e-36,3.3200177146147e-37,3.5854696353502e-36,-3.1546620895061e-34,-7.4231234691103e-39,-2.1307844666392e-37,5.072249899632e-36,-2.5773004545307e-34,-5.5580048352186e-37,5.7238602284405e-36,6.4369008891315e-35,-4.6347509894976e-35,-1.0834352285887e-36,8.7621156305947e-37,1.5446354848545e-37,-1.3562319608914e-34,1.0335383938434e-35,-2.3876883533467e-34,1.1655056233191e-36,3.4808664188526e-35,-8.8134396987141e-36,-5.0806665858804e-37,6.8147362007836e-37,5.0966926666501e-36,5.6707640521114e-37,-2.1007689384384e-34,-2.766612672084e-36,-4.8420368758225e-37,1.0719854824481e-35,-8.5007969477238e-35,-1.0377504527496e-37,-1.2161134012839e-37,1.1784152650438e-36,-3.7779464262844e-34,-6.3885057085373e-37,-5.1807888324959e-37,-7.8428351283566e-36,-1.2157439649563e-36,2.5809775078897e-36,7.8602814518626e-36,732.20212669302,732.20212669302,732.20212669302,732.20212669302,732.20212669302,732.20212669302,732.20212669302,732.20212669302,732.20212669302,732.20212669302,732.20212669302,732.20212669302,732.20212669302,732.20212669302,732.20212669302,732.20212669302,732.20212669302,732.20212669302,732.20212669302,732.20212669302,732.20212669302,732.20212669302,732.20212669302,732.20212669302,732.20212669302,732.20212669302,732.20212669302,732.20212669302,732.20212669302,732.20212669302,732.20212669302,732.20212669302,732.20212669302,732.20212669302,732.20212669302,732.20212669302,732.20212669302,732.20212669302,732.20212669302,732.20212669302,732.20212669302,732.20212669302,732.20212669302,732.20212669302,732.20212669302,732.20212669302,732.20212669302,732.20212669302,8.091068594634e-31,35.470635265257,7.7415543924436,37.218203508385,7.02963261986,0
9e-07,20000000,6.1876013536096e-08,2.6712552910567e-07,5.4970341254111e-08,1,607.67959772498,607.67959772498,607.67959772498,607.67959772498,607.67959772498,607.67959772498,607.67959772498,607.67959772498,607.67959772498,607.67959772498,607.67959772498,607.67959772498,607.67959772498,607.67959772498,607.67959772498,607.67959772498,607.67959772498,607.67959772498,607.67959772498,607.67959772498,607.67959772498,607.67959772498,607.67959772498,607.67959772498,607.67959772498,607.67959772498,607.67959772498,607.67959772498,607.67959772498,607.67959772498,607.67959772498,607.67959772498,607.67959772498,607.67959772498,607.67959772498,607.67959772498,607.67959772498,607.67959772498,607.67959772498,607.67959772498,607.67959772498,607.67959772498,607.67959772498,607.67959772498,607.67959772498,607.67959772498,607.67959772498,607.67959772498,-1.8514720876493e-34,-9.3442079268842e-37,-1.2571120549333e-34,-5.4610429825403e-35,4.0604840988232e-35,7.2523705455446e-34,-2.9827228737139e-34,1.667261813084e-36,1.1836147225425e-35,3.5013258935842e-36,3.7812907733522e-35,-3.3269184977527e-33,-7.8286134800528e-38,-2.2469772454482e-36,5.349280413165e-35,-2.7180663711315e-33,-5.8617537791809e-36,6.0364679640266e-35,6.7872107081845e-34,-4.8882809232836e-34,-1.1425391204569e-35,9.2408225171897e-36,1.6289773963864e-36,-1.4303126690183e-33,1.0899759065016e-34,-2.5180651142455e-33,1.2291811008609e-35,3.6702542904071e-34,-9.295491543348e-35,-5.3579819630669e-36,7.1870713152547e-36,5.3751132050646e-35,5.9805262158836e-36,-2.2154780045638e-33,-2.9176473153806e-35,-5.1061734422843e-36,1.1305307734973e-34,-8.9650778306515e-34,-1.0945488119706e-36,-1.2824713588913e-36,1.242777909491e-35,-3.9842934772732e-33,-6.7375600308043e-36,-5.4637845355372e-36,-8.2710790760688e-35,-1.2818123280028e-35,2.7219343889851e-35,8.287867546607e-35,732.20212669302,732.20212669302,732.20212669302,732.20212669302,732.20212669302,732.20212669302,732.20212669302,732.20212669302,732.20212669302,732.20212669302,732.20212669302,732.20212669302,732.20212669302,732.20212669302,732.20212669302,732.20212669302,732.20212669302,732.20212669302,732.20212669302,732.20212669302,732.20212669302,732.20212669302,732.20212669302,732.20212669302,732.20212669302,732.20212669302,732.20212669302,732.20212669302,732.20212669302,732.20212669302,732.20212669302,732.20212669302,732.20212669302,732.20212669302,732.20212669302,732.20212669302,732.20212669302,732.20212669302,732.20212669302,732.20212669302,732.20212669302,732.20212669302,732.20212669302,732.20212669302,732.20212669302,732.20212669302,732.20212669302,732.20212669302,1.1691528646966e-29,39.905447134574,8.709157286963,41.871772541731,7.9082580030347,0
1e-06,20000000,6.8751090903075e-08,2.9680613685235e-07,6.1078206642417e-08,1,607.67959772498,607.67959772498,607.67959772498,607.67959772498,607.67959772498,607.67959772498,607.67959772498,607.67959772498,607.67959772498,607.67959772498,607.67959772498,607.67959772498,607.67959772498,607.67959772498,607.67959772498,607.67959772498,607.67959772498,607.67959772498,607.67959772498,607.67959772498,607.67959772498,607.67959772498,607.67959772498,607.67959772498,607.67959772498,607.67959772498,607.67959772498,607.67959772498,607.67959772498,607.67959772498,607.67959772498,607.67959772498,607.67959772498,607.67959772498,607.67959772498,607.67959772498,607.67959772498,607.67959772498,607.67959772498,607.67959772498,607.67959772498,607.67959772498,607.67959772498,607.67959772498,607.67959772498,607.67959772498,607.67959772498,607.67959772498,-1.5230193036122e-33,-7.686453834372e-36,-1.0340856857733e-33,-4.4906290369609e-34,3.340195160464e-34,5.9647434124118e-33,-2.4538151526725e-33,1.3715388557309e-35,9.7367571255071e-35,2.8802092018819e-35,3.1105233355502e-34,-2.7367229814857e-32,-6.4399483134666e-37,-1.8482349967006e-35,4.4003725798653e-34,-2.235910555826e-32,-4.8220930364523e-35,4.9656504218041e-34,5.5821976127418e-33,-4.0214740252675e-33,-9.3980677046101e-35,7.6017160113386e-35,1.3399959042435e-35,-1.176595974417e-32,8.9661612430617e-34,-2.0713602321558e-32,1.0111526782667e-34,3.0185913161036e-33,-7.6471330203603e-34,-4.4073867503443e-35,5.9122694867995e-35,4.421668167651e-34,4.9196769059902e-35,-1.8224514199337e-32,-2.4000295427156e-34,-4.2001267372646e-35,9.2998348434559e-34,-7.3747592593706e-33,-9.0048543457181e-36,-1.0549227015249e-35,1.0223228162365e-34,-3.277526469329e-32,-5.5424957658849e-35,-4.4945953833896e-35,-6.8037856538423e-34,-1.0541590179034e-34,2.2390843127864e-34,6.8162713078125e-34,732.20212669302,732.20212669302,732.20212669302,732.20212669302,732.20212669302,732.20212669302,732.20212669302,732.20212669302,732.20212669302,732.20212669302,732.20212669302,732.20212669302,732.20212669302,732.20212669302,732.20212669302,732.20212669302,732.20212669302,732.20212669302,732.20212669302,732.20212669302,732.20212669302,732.20212669302,732.20212669302,732.20212669302,732.20212669302,732.20212669302,732.20212669302,732.20212669302,732.20212669302,732.20212669302,732.20212669302,732.20212669302,732.20212669302,732.20212669302,732.20212669302,732.20212669302,732.20212669302,732.20212669302,732.20212669302,732.20212669302,732.20212669302,732.20212669302,732.20212669302,732.20212669302,732.20212669302,732.20212669302,732.20212669302,732.20212669302,1.2329578306443e-28,44.340477350997,9.6767398723297,46.525629073045,8.7868659008751,0
1.1e-06,20000000,7.5626161216063e-08,3.2648674327935e-07,6.7186081983221e-08,1,607.67959772498,607.67959772498,607.67959772498,607.67959772498,607.67959772498,607.67959772498,607.67959772498,607.67959772498,607.67959772498,607.67959772498,607.67959772498,607.67959772498,607.67959772498,607.67959772498,607.67959772498,607.67959772498,607.67959772498,607.67959772498,607.67959772498,607.67959772498,607.67959772498,607.67959772498,607.67959772498,607.67959772498,607.67959772498,607.67959772498,607.67959772498,607.67959772498,607.67959772498,607.67959772498,607.67959772498,607.67959772498,607.67959772498,607.67959772498,607.67959772498,607.67959772498,607.67959772498,607.67959772498,607.67959772498,607.67959772498,607.67959772498,607.67959772498,607.67959772498,607.67959772498,607.67959772498,607.67959772498,607.67959772498,607.67959772498,-1.024701893241e-32,-5.1714632824792e-35,-6.9573356301099e-33,-3.020247912618e-33,2.2473450754245e-33,4.0124297485216e-32,-1.6511049306822e-32,9.2281855168709e-35,6.5512203470823e-34,1.9378467310749e-34,2.0928145454767e-33,-1.8412951480492e-31,-4.3329512752192e-36,-1.2434250052696e-34,2.9606524431091e-33,-1.5043631505354e-31,-3.2444978414451e-34,3.3409753872456e-33,3.7551126983673e-32,-2.7059406720308e-32,-6.3228074016374e-34,5.114657365819e-34,9.015623684806e-35,-7.9163980404188e-32,6.0325382445782e-33,-1.3936323018395e-31,6.8033292595732e-34,2.0305625705706e-32,-5.1455146729492e-33,-2.9652749492078e-34,3.977959707958e-34,2.9750109660947e-33,3.3100736547544e-34,-1.2261634609494e-31,-1.6147462120722e-33,-2.8257459946747e-34,6.2570838637434e-33,-4.9618716152641e-32,-6.0592955578251e-35,-7.0973707791451e-35,6.8783849065622e-34,-2.2051847816125e-31,-3.7291682995317e-34,-3.0240678493063e-34,-4.5776540220455e-33,-7.0907423365211e-34,1.5064930545921e-33,4.5851634945397e-33,732.20212669302,732.20212669302,732.20212669302,732.20212669302,732.20212669302,732.20212669302,732.20212669302,732.20212669302,732.20212669302,732.20212669302,732.20212669302,732.20212669302,732.20212669302,732.20212669302,732.20212669302,732.20212669302,732.20212669302,732.20212669302,732.20212669302,732.20212669302,732.20212669302,732.20212669302,732.20212669302,732.20212669302,732.20212669302,732.20212669302,732.20212669302,732.20212669302,732.20212669302,732.20212669302,732.20212669302,732.20212669302,732.20212669302,732.20212669302,732.20212669302,732.20212669302,732.20212669302,732.20212669302,732.20212669302,732.20212669302,732.20212669302,732.20212669302,732.20212669302,732.20212669302,732.20212669302,732.20212669302,732.20212669302,732.20212669302,1.0142021134564e-27,48.775725921013,10.644302149438,51.179773111936,9.6654563142257,0
1.2e-06,20000000,8.2501224473983e-08,3.561673483867e-07,7.3293967280256e-08,1,607.67959772498,607.67959772498,607.67959772498,607.67959772498,607.67959772498,607.67959772498,607.67959772498,607.67959772498,607.67959772498,607.67959772498,607.67959772498,607.67959772498,607.67959772498,607.67959772498,607.67959772498,607.67959772498,607.67959772498,607.67959772498,607.67959772498,607.67959772498,607.67959772498,607.67959772498,607.67959772498,607.67959772498,607.67959772498,607.67959772498,607.67959772498,607.67959772498,607.67959772498,607.67959772498,607.67959772498,607.67959772498,607.67959772498,607.67959772498,607.67959772498,607.67959772498,607.67959772498,607.67959772498,607.67959772498,607.67959772498,607.67959772498,607.67959772498,607.67959772498,607.67959772498,607.67959772498,607.67959772498,607.67959772498,607.67959772498,-5.8399238485187e-32,-2.947259551089e-34,-3.9650338419708e-32,-1.7206615548119e-32,1.2808114378274e-32,2.2863390513513e-31,-9.4107669476911e-32,5.259470566151e-34,3.7337702489289e-33,1.1044150891875e-33,1.1927393335362e-32,-1.0493817165609e-30,-2.4694642577041e-35,-7.0859734237203e-34,1.6873412388953e-32,-8.573703523269e-31,-1.8491702916655e-33,1.9040919838683e-32,2.1397264797366e-31,-1.5422997437986e-31,-3.6032869818711e-33,2.9150027233502e-33,5.1381360015978e-34,-4.5117538902996e-31,3.4380416865632e-32,-7.9425194807557e-31,3.8774281339935e-33,1.157033550113e-31,-2.9327599137422e-32,-1.689920563752e-33,2.267169823993e-33,1.6955418344177e-32,1.8864975624177e-33,-6.9880868655541e-31,-9.2025773485482e-33,-1.6103540186884e-33,3.5660401691755e-32,-2.8278782819206e-31,-3.4537038107525e-34,-4.0447516900306e-34,3.9201475305444e-33,-1.256785842778e-30,-2.1253776614781e-33,-1.7234947945532e-33,-2.6088723096913e-32,-4.0401249279162e-33,8.5858112107702e-33,2.6126443659123e-32,732.20212669302,732.20212669302,732.20212669302,732.20212669302,732.20212669302,732.20212669302,732.20212669302,732.20212669302,732.20212669302,732.20212669302,732.20212669302,732.20212669302,732.20212669302,732.20212669302,732.20212669302,732.20212669302,732.20212669302,732.20212669302,732.20212669302,732.20212669302,732.20212669302,732.20212669302,732.20212669302,732.20212669302,732.20212669302,732.20212669302,732.20212669302,732.20212669302,732.20212669302,732.20212669302,732.20212669302,732.20212669302,732.20212669302,732.20212669302,732.20212669302,732.20212669302,732.20212669302,732.20212669302,732.20212669302,732.20212669302,732.20212669302,732.20212669302,732.20212669302,732.20212669302,732.20212669302,732.20212669302,732.20212669302,732.20212669302,6.8234606569549e-27,53.2111928515,11.611844119077,55.834204668223,10.544029243756,0
1.3e-06,20000000,8.9376280675715e-08,3.8584795217446e-07,7.9401862537321e-08,1,607.67959772498,607.67959772498,607.67959772498,607.67959772498,607.67959772498,607.67959772498,607.67959772498,607.67959772498,607.67959772498,607.67959772498,607.67959772498,607.67959772498,607.67959772498,607.67959772498,607.67959772498,607.67959772498,607.67959772498,607.67959772498,607.67959772498,607.67959772498,607.67959772498,607.67959772498,607.67959772498,607.67959772498,607.67959772498,607.67959772498,607.67959772498,607.67959772498,607.67959772498,607.67959772498,607.67959772498,607.67959772498,607.67959772498,607.67959772498,607.67959772498,607.67959772498,607.67959772498,607.67959772498,607.67959772498,607.67959772498,607.67959772498,607.67959772498,607.67959772498,607.67959772498,607.67959772498,607.67959772498,607.67959772498,607.67959772498,-2.8952611106274e-31,-1.4611480763801e-33,-1.9657204250191e-31,-8.5274495777728e-32,6.3499680353743e-32,1.1332996033667e-30,-4.6660164894372e-31,2.6075860284068e-33,1.851159676592e-32,5.4754037249973e-33,5.9133181493281e-32,-5.2025287063217e-30,-1.22431337111e-34,-3.5127751299774e-33,8.3654502758796e-32,-4.2506480134274e-30,-9.1680554653865e-33,9.4400323026373e-32,1.0606313414866e-30,-7.6469844802652e-31,-1.7863175334968e-32,1.4452144398072e-32,2.5473365239047e-33,-2.2368357104629e-30,1.7044846738389e-31,-3.9376696755543e-30,1.9223697811439e-32,5.7351718799339e-31,-1.4541027948544e-31,-8.3779645924145e-33,1.1240318874801e-32,8.4061929852579e-32,9.352888281526e-33,-3.4644885236067e-30,-4.5623183509602e-32,-7.9832643483557e-33,1.7679557620851e-31,-1.4019961116046e-30,-1.7124541172633e-33,-2.0051974520187e-33,1.9435210846374e-32,-6.230866985709e-30,-1.0537343716627e-32,-8.5447493833675e-33,-1.2934021796804e-31,-2.0024827868926e-32,4.2566353066926e-32,1.2950205947415e-31,732.20212669302,732.20212669302,732.20212669302,732.20212669302,732.20212669302,732.20212669302,732.20212669302,732.20212669302,732.20212669302,732.20212669302,732.20212669302,732.20212669302,732.20212669302,732.20212669302,732.20212669302,732.20212669302,732.20212669302,732.20212669302,732.20212669302,732.20212669302,732.20212669302,732.20212669302,732.20212669302,732.20212669302,732.20212669302,732.20212669302,732.20212669302,732.20212669302,732.20212669302,732.20212669302,732.20212669302,732.20212669302,732.20212669302,732.20212669302,732.20212669302,732.20212669302,732.20212669302,732.20212669302,732.20212669302,732.20212669302,732.20212669302,732.20212669302,732.20212669302,732.20212669302,732.20212669302,732.20212669302,732.20212669302,732.20212669302,3.8886816227088e-26,57.646878149083,12.579365782148,60.48892375176,11.422584690238,0
1.4e-06,20000000,9.6251329820141e-08,4.1552855464268e-07,8.5509767758222e-08,1,607.67959772498,607.67959772498,607.67959772498,607.67959772498,607.67959772498,607.67959772498,607.67959772498,607.67959772498,607.67959772498,607.67959772498,607.67959772498,607.67959772498,607.67959772498,607.67959772498,607.67959772498,607.67959772498,607.67959772498,607.67959772498,607.67959772498,607.67959772498,607.67959772498,607.67959772498,607.67959772498,607.67959772498,607.67959772498,607.67959772498,607.67959772498,607.67959772498,607.67959772498,607.67959772498,607.67959772498,607.67959772498,607.67959772498,607.67959772498,607.67959772498,607.67959772498,607.67959772498,607.67959772498,607.67959772498,607.67959772498,607.67959772498,607.67959772498,607.67959772498,607.67959772498,607.67959772498,607.67959772498,607.67959772498,607.67959772498,-1.2747347704888e-30,-6.4331195324611e-33,-8.6546228128632e-31,-3.7531363486948e-31,2.7958213894705e-31,4.9888492841181e-30,-2.0545611011173e-30,1.1481187270344e-32,8.150640044151e-32,2.4107462839741e-32,2.6035654066943e-31,-2.2905882031453e-29,-5.3905612352431e-34,-1.5465099630978e-32,3.6832166590663e-31,-1.8715152370528e-29,-4.036724382759e-32,4.156335324256e-31,4.6689819561443e-30,-3.3671554928764e-30,-7.8644800123712e-32,6.363223274273e-32,1.1215498770935e-32,-9.8485958407454e-30,7.5045836986859e-31,-1.7336914842421e-29,8.4641167678992e-32,2.524634243828e-30,-6.4027308923897e-31,-3.6886062107198e-32,4.9490831762602e-32,3.7011931100919e-31,4.1180042246025e-32,-1.5253570078027e-29,-2.0086914872083e-31,-3.5147237978232e-32,7.7840944974947e-31,-6.1728318620088e-30,-7.5405727523652e-33,-8.8282366388587e-33,8.5571204383472e-32,-2.743387922781e-29,-4.6395699093403e-32,-3.7621856792214e-32,-5.6946350434575e-31,-8.8144319745465e-32,1.8741445885573e-31,5.7006528356631e-31,732.20212669302,732.20212669302,732.20212669302,732.20212669302,732.20212669302,732.20212669302,732.20212669302,732.20212669302,732.20212669302,732.20212669302,732.20212669302,732.20212669302,732.20212669302,732.20212669302,732.20212669302,732.20212669302,732.20212669302,732.20212669302,732.20212669302,732.20212669302,732.20212669302,732.20212669302,732.20212669302,732.20212669302,732.20212669302,732.20212669302,732.20212669302,732.20212669302,732.20212669302,732.20212669302,732.20212669302,732.20212669302,732.20212669302,732.20212669302,732.20212669302,732.20212669302,732.20212669302,732.20212669302,732.20212669302,732.20212669302,732.20212669302,732.20212669302,732.20212669302,732.20212669302,732.20212669302,732.20212669302,732.20212669302,732.20212669302,1.927840020325e-25,62.082781820459,13.546867139624,65.143930372208,12.301122654515,0
1.5e-06,20000000,1.0312637190614e-07,4.4520915579138e-07,9.1617682946718e-08,1,607.67959772498,607.67959772498,607.67959772498,607.67959772498,607.67959772498,607.67959772498,607.67959772498,607.67959772498,607.67959772498,607.67959772498,607.67959772498,607.67959772498,607.67959772498,607.67959772498,607.67959772498,607.67959772498,607.67959772498,607.67959772498,607.67959772498,607.67959772498,607.67959772498,607.67959772498,607.67959772498,607.67959772498,607.67959772498,607.67959772498,607.67959772498,607.67959772498,607.67959772498,607.67959772498,607.67959772498,607.67959772498,607.67959772498,607.67959772498,607.67959772498,607.67959772498,607.67959772498,607.67959772498,607.67959772498,607.67959772498,607.67959772498,607.67959772498,607.67959772498,607.67959772498,607.67959772498,607.67959772498,607.67959772498,607.67959772498,-5.0666712653091e-30,-2.5569357349556e-32,-3.4398962243928e-30,-1.4912149861677e-30,1.1112662050478e-30,1.9825622539956e-29,-8.1670018288576e-30,4.5635808926661e-32,3.2397413994758e-31,9.5820330879056e-32,1.0348479410033e-30,-9.1043795481454e-29,-2.1426250418092e-33,-6.1464718307893e-32,1.4639829241763e-30,-7.4387915809703e-29,-1.6045444881696e-31,1.6520320787857e-30,1.8554563280319e-29,-1.3384647400208e-29,-3.1257350767664e-31,2.529256254515e-31,4.4578111060762e-32,-3.914581537766e-29,2.9828465458527e-30,-6.8908873646078e-29,3.3643189404293e-31,1.0032780297604e-29,-2.5451078363981e-30,-1.4660772895504e-31,1.967169006161e-31,1.4711431514748e-30,1.636811355271e-31,-6.0628200268484e-29,-7.9838375640638e-31,-1.3969237286789e-31,3.0939664913447e-30,-2.453538549802e-29,-2.9975091597161e-32,-3.5088240267399e-32,3.4012365200317e-31,-1.0904274216295e-28,-1.8441451439729e-31,-1.4953812245104e-31,-2.2634400940869e-30,-3.502601011543e-31,7.449215590501e-31,2.2653917318532e-30,732.20212669302,732.20212669302,732.20212669302,732.20212669302,732.20212669302,732.20212669302,732.20212669302,732.20212669302,732.20212669302,732.20212669302,732.20212669302,732.20212669302,732.20212669302,732.20212669302,732.20212669302,732.20212669302,732.20212669302,732.20212669302,732.20212669302,732.20212669302,732.20212669302,732.20212669302,732.20212669302,732.20212669302,732.20212669302,732.20212669302,732.20212669302,732.20212669302,732.20212669302,732.20212669302,732.20212669302,732.20212669302,732.20212669302,732.20212669302,732.20212669302,732.20212669302,732.20212669302,732.20212669302,732.20212669302,732.20212669302,732.20212669302,732.20212669302,732.20212669302,732.20212669302,732.20212669302,732.20212669302,732.20212669302,732.20212669302,8.4877218403156e-25,66.518903872269,14.514348192252,69.799224539368,13.179643137325,0
1.6e-06,20000000,1.100014069326e-07,4.7488975562062e-07,9.7725608106584e-08,1,607.67959772498,607.67959772498,607.67959772498,607.67959772498,607.67959772498,607.67959772498,607.67959772498,607.67959772498,607.67959772498,607.67959772498,607.67959772498,607.67959772498,607.67959772498,607.67959772498,607.67959772498,607.67959772498,607.67959772498,607.67959772498,607.67959772498,607.67959772498,607.67959772498,607.67959772498,607.67959772498,607.67959772498,607.67959772498,607.67959772498,607.67959772498,607.67959772498,607.67959772498,607.67959772498,607.67959772498,607.67959772498,607.67959772498,607.67959772498,607.67959772498,607.67959772498,607.67959772498,607.67959772498,607.67959772498,607.67959772498,607.67959772498,607.67959772498,607.67959772498,607.67959772498,607.67959772498,607.67959772498,607.67959772498,607.67959772498,-1.8421951188412e-29,-9.2966827366256e-32,-1.2506982489513e-29,-5.4199604332532e-30,4.0405156704424e-30,7.2071454968344e-29,-2.9697250884233e-29,1.6593374182096e-31,1.1779828865407e-30,3.4839653899302e-31,3.7626566701992e-30,-3.310272102483e-28,-7.7905545794459e-33,-2.2346477464794e-31,5.3229791024078e-30,-2.7047144332633e-28,-5.8342418965561e-31,6.0067060344478e-30,6.7451138474023e-29,-4.866992765576e-29,-1.1364342799778e-30,9.1964138735406e-31,1.6208198104968e-31,-1.4233325317028e-28,1.0845391207003e-29,-2.5054658701276e-28,1.22327099614e-30,3.6471543411591e-29,-9.2545889013057e-30,-5.3304201789598e-31,7.1526767334065e-31,5.3490681172063e-30,5.9514182922623e-31,-2.2043870752954e-28,-2.9028202945431e-30,-5.0788360337218e-31,1.1249497332693e-29,-8.9209545844633e-29,-1.0900005114244e-31,-1.2757313132165e-31,1.2366762712958e-30,-3.964754590057e-28,-6.705365869831e-31,-5.4371789440789e-31,-8.2296642546752e-30,-1.2732011166462e-30,2.7084947499096e-30,8.2351598126695e-30,732.20212669302,732.20212669302,732.20212669302,732.20212669302,732.20212669302,732.20212669302,732.20212669302,732.20212669302,732.20212669302,732.20212669302,732.20212669302,732.20212669302,732.20212669302,732.20212669302,732.20212669302,732.20212669302,732.20212669302,732.20212669302,732.20212669302,732.20212669302,732.20212669302,732.20212669302,732.20212669302,732.20212669302,732.20212669302,732.20212669302,732.20212669302,732.20212669302,732.20212669302,732.20212669302,732.20212669302,732.20212669302,732.20212669302,732.20212669302,732.20212669302,732.20212669302,732.20212669302,732.20212669302,732.20212669302,732.20212669302,732.20212669302,732.20212669302,732.20212669302,732.20212669302,732.20212669302,732.20212669302,732.20212669302,732.20212669302,3.3735106535695e-24,70.955244311276,15.48180894097,74.454806262956,14.058146139396,0
1.7e-06,20000000,1.1687643489841e-07,5.0457035413044e-07,1.0383354324161e-07,1,607.67959772498,607.67959772498,607.67959772498,607.67959772498,607.67959772498,607.67959772498,607.67959772498,607.67959772498,607.67959772498,607.67959772498,607.67959772498,607.67959772498,607.67959772498,607.67959772498,607.67959772498,607.67959772498,607.67959772498,607.67959772498,607.67959772498,607.67959772498,607.67959772498,607.67959772498,607.67959772498,607.67959772498,607.67959772498,607.67959772498,607.67959772498,607.67959772498,607.67959772498,607.67959772498,607.67959772498,607.67959772498,607.67959772498,607.67959772498,607.67959772498,607.67959772498,607.67959772498,607.67959772498,607.67959772498,607.67959772498,607.67959772498,607.67959772498,607.67959772498,607.67959772498,607.67959772498,607.67959772498,607.67959772498,607.67959772498,-6.1937379881596e-29,-3.1256511942958e-31,-4.2049810787613e-29,-1.8216133903318e-29,1.3585004482994e-29,2.4227246080441e-28,-9.9855995265636e-29,5.5791489924751e-31,3.9606997275577e-30,1.1713705512494e-30,1.265076963219e-29,-1.1129645619612e-27,-2.6193581003637e-32,-7.5127087913476e-31,1.7896900115567e-29,-9.0937863861697e-28,-1.9616494548422e-30,2.019568474826e-29,2.2674208510458e-28,-1.6365103938519e-28,-3.8206810854196e-30,3.0920640828541e-30,5.4494429851924e-31,-4.7855483687964e-28,3.6463960377905e-29,-8.423762884617e-28,4.1129411782874e-30,1.2260023073593e-28,-3.1118050221331e-29,-1.7921333644052e-30,2.4049155112556e-30,1.7984800520022e-29,2.0009978614532e-30,-7.4114867773102e-28,-9.7596200824183e-30,-1.7074971718232e-30,3.7822909293795e-29,-2.9993978305954e-28,-3.6651958058942e-31,-4.2890503633744e-31,4.1579525162816e-30,-1.3330307227397e-27,-2.2545203605888e-30,-1.8280986697853e-30,-2.7669386732222e-29,-4.2796441054687e-30,9.1064635781901e-30,2.768248371079e-29,732.20212669302,732.20212669302,732.20212669302,732.20212669302,732.20212669302,732.20212669302,732.20212669302,732.20212669302,732.20212669302,732.20212669302,732.20212669302,732.20212669302,732.20212669302,732.20212669302,732.20212669302,732.20212669302,732.20212669302,732.20212669302,732.20212669302,732.20212669302,732.20212669302,732.20212669302,732.20212669302,732.20212669302,732.20212669302,732.20212669302,732.20212669302,732.20212669302,732.20212669302,732.20212669302,732.20212669302,732.20212669302,732.20212669302,732.20212669302,732.20212669302,732.20212669302,732.20212669302,732.20212669302,732.20212669302,732.20212669302,732.20212669302,732.20212669302,732.20212669302,732.20212669302,732.20212669302,732.20212669302,732.20212669302,732.20212669302,1.2265437354871e-23,75.391803144154,16.449249386696,79.110675552692,14.936631661479,0
1.8e-06,20000000,1.2375145580254e-07,5.3425095132087e-07,1.0994148835559e-07,1,607.67959772498,607.67959772498,607.67959772498,607.67959772498,607.67959772498,607.67959772498,607.67959772498,607.67959772498,607.67959772498,607.67959772498,607.67959772498,607.67959772498,607.67959772498,607.67959772498,607.67959772498,607.67959772498,607.67959772498,607.67959772498,607.67959772498,607.67959772498,607.67959772498,607.67959772498,607.67959772498,607.67959772498,607.67959772498,607.67959772498,607.67959772498,607.67959772498,607.67959772498,607.67959772498,607.67959772498,607.67959772498,607.67959772498,607.67959772498,607.67959772498,607.67959772498,607.67959772498,607.67959772498,607.67959772498,607.67959772498,607.67959772498,607.67959772498,607.67959772498,607.67959772498,607.67959772498,607.67959772498,607.67959772498,607.67959772498,-1.9429558492407e-28,-9.8049619816356e-31,-1.3190718456961e-28,-5.7122754174018e-29,4.2616293679599e-29,7.5986722677413e-28,-3.1327442432579e-28,1.7502259117542e-30,1.2425038845814e-29,3.6745797058987e-30,3.9685531679272e-29,-3.4913378647936e-27,-8.217018770674e-32,-2.3565515071871e-30,5.6142761180722e-29,-2.8527320271764e-27,-6.153911854125e-30,6.3353948503844e-29,7.1116093069954e-28,-5.1341639647424e-28,-1.198478238082e-29,9.6999917434714e-30,1.709473568557e-30,-1.5012393668965e-27,1.14386652396e-28,-2.6425102253416e-27,1.2902540097805e-29,3.8452212641676e-28,-9.7624882191078e-29,-5.6217574823826e-30,7.5443868405155e-30,5.6419082885124e-29,6.277195776296e-30,-2.3249612582322e-27,-3.0615303835163e-29,-5.3561002191e-30,1.1865051999706e-28,-9.4091353817891e-28,-1.149901271298e-30,-1.3454141062708e-30,1.304355349867e-29,-4.1817388427245e-27,-7.0725942493148e-30,-5.7348034766072e-30,-8.6798026260232e-29,-1.3421813434862e-29,2.8566985325505e-29,8.6822237341292e-29,732.20212669302,732.20212669302,732.20212669302,732.20212669302,732.20212669302,732.20212669302,732.20212669302,732.20212669302,732.20212669302,732.20212669302,732.20212669302,732.20212669302,732.20212669302,732.20212669302,732.20212669302,732.20212669302,732.20212669302,732.20212669302,732.20212669302,732.20212669302,732.20212669302,732.20212669302,732.20212669302,732.20212669302,732.20212669302,732.20212669302,732.20212669302,732.20212669302,732.20212669302,732.20212669302,732.20212669302,732.20212669302,732.20212669302,732.20212669302,732.20212669302,732.20212669302,732.20212669302,732.20212669302,732.20212669302,732.20212669302,732.20212669302,732.20212669302,732.20212669302,732.20212669302,732.20212669302,732.20212669302,732.20212669302,732.20212669302,4.1237116951247e-23,79.828580377636,17.416669530232,83.766832418495,15.815099704457,0
1.9e-06,20000000,1.3062646964379e-07,5.6393154719197e-07,1.1604944345229e-07,1,607.67959772498,607.67959772498,607.67959772498,607.67959772498,607.67959772498,607.67959772498,607.67959772498,607.67959772498,607.67959772498,607.67959772498,607.67959772498,607.67959772498,607.67959772498,607.67959772498,607.67959772498,607.67959772498,607.67959772498,607.67959772498,607.67959772498,607.67959772498,607.67959772498,607.67959772498,607.67959772498,607.67959772498,607.67959772498,607.67959772498,607.67959772498,607.67959772498,607.67959772498,607.67959772498,607.67959772498,607.67959772498,607.67959772498,607.67959772498,607.67959772498,607.67959772498,607.67959772498,607.67959772498,607.67959772498,607.67959772498,607.67959772498,607.67959772498,607.67959772498,607.67959772498,607.67959772498,607.67959772498,607.67959772498,607.67959772498,-5.7295864553531e-28,-2.8913559511627e-30,-3.8897626242543e-28,-1.6838842885369e-28,1.256729499605e-28,2.2403796621049e-27,-9.239021509974e-28,5.1614354249588e-30,3.6641549740303e-29,1.0836057141564e-29,1.1703013382019e-28,-1.0295623763502e-26,-2.4231702341e-31,-6.9487639847095e-30,1.6556173348395e-28,-8.4125459538446e-27,-1.8148109138151e-29,1.8682673929414e-28,2.0967849339873e-27,-1.5141571157113e-27,-3.5340261639403e-29,2.860516689496e-29,5.04107211125e-30,-4.427090712327e-27,3.3731612886555e-28,-7.7925116831783e-27,3.8049432004037e-29,1.1337090879582e-27,-2.8791143253982e-28,-1.6577694455439e-29,2.2248376027424e-29,1.6637829217726e-28,1.8511216749155e-29,-6.856087403227e-27,-9.0280608734253e-29,-1.5793836555123e-29,3.4989247592902e-28,-2.774697250799e-27,-3.3913621103148e-30,-3.9673548883064e-30,3.8464719127265e-29,-1.2331726865709e-26,-2.0857082903389e-29,-1.6911716529032e-29,-2.5595900228656e-28,-3.9569902720796e-29,8.4242124501287e-29,2.5598064798084e-28,732.20212669302,732.20212669302,732.20212669302,732.20212669302,732.20212669302,732.20212669302,732.20212669302,732.20212669302,732.20212669302,732.20212669302,732.20212669302,732.20212669302,732.20212669302,732.20212669302,732.20212669302,732.20212669302,732.20212669302,732.20212669302,732.20212669302,732.20212669302,732.20212669302,732.20212669302,732.20212669302,732.20212669302,732.20212669302,732.20212669302,732.20212669302,732.20212669302,732.20212669302,732.20212669302,732.20212669302,732.20212669302,732.20212669302,732.20212669302,732.20212669302,732.20212669302,732.20212669302,732.20212669302,732.20212669302,732.20212669302,732.20212669302,732.20212669302,732.20212669302,732.20212669302,732.20212669302,732.20212669302,732.20212669302,732.20212669302,1.2935596224371e-22,84.26557601842,18.38406937246,88.423276869964,16.693550268937,0
2e-06,20000000,1.3750147642109e-07,5.9361214174378e-07,1.2215740853551e-07,1,607.67959772498,607.67959772498,607.67959772498,607.67959772498,607.67959772498,607.67959772498,607.67959772498,607.67959772498,607.67959772498,607.67959772498,607.67959772498,607.67959772498,607.67959772498,607.67959772498,607.67959772498,607.67959772498,607.67959772498,607.67959772498,607.67959772498,607.67959772498,607.67959772498,607.67959772498,607.67959772498,607.67959772498,607.67959772498,607.67959772498,607.67959772498,607.67959772498,607.67959772498,607.67959772498,607.67959772498,607.67959772498,607.67959772498,607.67959772498,607.67959772498,607.67959772498,607.67959772498,607.67959772498,607.67959772498,607.67959772498,607.67959772498,607.67959772498,607.67959772498,607.67959772498,607.67959772498,607.67959772498,607.67959772498,607.67959772498,-1.5984151944066e-27,-8.0660922628076e-30,-1.0851348840911e-27,-4.6959261963607e-28,3.506016208661e-28,6.2490141601962e-27,-2.5777036841864e-27,1.4399680674393e-29,1.0222471037084e-28,3.0230190175001e-29,3.2648946922999e-28,-2.8722314028437e-26,-6.7602000884469e-31,-1.9384034015778e-29,4.6188317204866e-28,-2.3469287124012e-26,-5.0631112456342e-29,5.2120714187609e-28,5.848518448236e-27,-4.2245273452937e-27,-9.8586022884584e-29,7.9803802455747e-29,1.4063370131466e-29,-1.2350737016724e-26,9.4103297667813e-28,-2.1739233390047e-26,1.0615173946255e-28,3.1621895590612e-27,-8.0327319507161e-28,-4.6246847410244e-29,6.2069559010141e-29,4.6416595089611e-28,5.1642854067668e-29,-1.9126827797093e-26,-2.5185835435269e-28,-4.4058789614495e-29,9.7612523160302e-28,-7.7408288854847e-27,-9.4622353211942e-30,-1.1067565540715e-29,1.0730876219106e-28,-3.4403043462049e-26,-5.8188125651721e-29,-4.718053043688e-29,-7.1406368229532e-28,-1.1036331674884e-28,2.3501749177679e-28,7.1398530077785e-28,732.20212669302,732.20212669302,732.20212669302,732.20212669302,732.20212669302,732.20212669302,732.20212669302,732.20212669302,732.20212669302,732.20212669302,732.20212669302,732.20212669302,732.20212669302,732.20212669302,732.20212669302,732.20212669302,732.20212669302,732.20212669302,732.20212669302,732.20212669302,732.20212669302,732.20212669302,732.20212669302,732.20212669302,732.20212669302,732.20212669302,732.20212669302,732.20212669302,732.20212669302,732.20212669302,732.20212669302,732.20212669302,732.20212669302,732.20212669302,732.20212669302,732.20212669302,732.20212669302,732.20212669302,732.20212669302,732.20212669302,732.20212669302,732.20212669302,732.20212669302,732.20212669302,732.20212669302,732.20212669302,732.20212669302,732.20212669302,3.814475681886e-22,88.702790073145,19.35144891433,93.08000891688,17.571983355771,0
2.1e-06,20000000,1.4437647613331e-07,6.2329273497634e-07,1.2826538360903e-07,1,607.67959772498,607.67959772498,607.67959772498,607.67959772498,607.67959772498,607.67959772498,607.67959772498,607.67959772498,607.67959772498,607.67959772498,607.67959772498,607.67959772498,607.67959772498,607.67959772498,607.67959772498,607.67959772498,607.67959772498,607.67959772498,607.67959772498,607.67959772498,607.67959772498,607.67959772498,607.67959772498,607.67959772498,607.67959772498,607.67959772498,607.67959772498,607.67959772498,607.67959772498,607.67959772498,607.67959772498,607.67959772498,607.67959772498,607.67959772498,607.67959772498,607.67959772498,607.67959772498,607.67959772498,607.67959772498,607.67959772498,607.67959772498,607.67959772498,607.67959772498,607.67959772498,607.67959772498,607.67959772498,607.67959772498,607.67959772498,-4.2414466505782e-27,-2.1403406444864e-29,-2.8794029089932e-27,-1.2456278291764e-27,9.3034518999405e-28,1.6579044045538e-26,-6.840661375799e-27,3.8211431558599e-29,2.7126641651331e-28,8.0217396093622e-29,8.663606963566e-28,-7.621567074827e-26,-1.7938794860728e-30,-5.1432644273533e-29,1.2256385216526e-27,-6.2277394343719e-26,-1.3435741619279e-28,1.3830560126473e-27,1.551657731692e-26,-1.1210975294756e-26,-2.615887253442e-28,2.1176821276438e-28,3.7317624588254e-29,-3.2773695540953e-26,2.4970697037543e-27,-5.7685820672607e-26,2.8168527085586e-28,8.3894262838736e-27,-2.1316982387373e-27,-1.2271516121504e-28,1.6470890883587e-28,1.2317086296368e-27,1.370388145046e-28,-5.0753691736588e-26,-6.6830749490341e-28,-1.1690566928051e-28,2.5902075317407e-27,-2.0540803007032e-26,-2.51114277807e-29,-2.9367112161397e-29,2.847514164364e-28,-9.129099026229e-26,-1.5440922929688e-28,-1.251976093426e-28,-1.8947921166187e-27,-2.9278079889708e-28,6.2363308903293e-28,1.8942159671264e-27,732.20212669302,732.20212669302,732.20212669302,732.20212669302,732.20212669302,732.20212669302,732.20212669302,732.20212669302,732.20212669302,732.20212669302,732.20212669302,732.20212669302,732.20212669302,732.20212669302,732.20212669302,732.20212669302,732.20212669302,732.20212669302,732.20212669302,732.20212669302,732.20212669302,732.20212669302,732.20212669302,732.20212669302,732.20212669302,732.20212669302,732.20212669302,732.20212669302,732.20212669302,732.20212669302,732.20212669302,732.20212669302,732.20212669302,732.20212669302,732.20212669302,732.20212669302,732.20212669302,732.20212669302,732.20212669302,732.20212669302,732.20212669302,732.20212669302,732.20212669302,732.20212669302,732.20212669302,732.20212669302,732.20212669302,732.20212669302,1.064116624138e-21,93.140222548622,20.318808156651,97.73702856899,18.450398965691,0
2.2e-06,20000000,1.5125146877938e-07,6.5297332688969e-07,1.3437336867656e-07,1,607.67959772498,607.67959772498,607.67959772498,607.67959772498,607.67959772498,607.67959772498,607.67959772498,607.67959772498,607.67959772498,607.67959772498,607.67959772498,607.67959772498,607.67959772498,607.67959772498,607.67959772498,607.67959772498,607.67959772498,607.67959772498,607.67959772498,607.67959772498,607.67959772498,607.67959772498,607.67959772498,607.67959772498,607.67959772498,607.67959772498,607.67959772498,607.67959772498,607.67959772498,607.67959772498,607.67959772498,607.67959772498,607.67959772498,607.67959772498,607.67959772498,607.67959772498,607.67959772498,607.67959772498,607.67959772498,607.67959772498,607.67959772498,607.67959772498,607.67959772498,607.67959772498,607.67959772498,607.67959772498,607.67959772498,607.67959772498,-1.0755241304908e-26,-5.4273065660292e-29,-7.3013454058277e-27,-3.157453890852e-27,2.3591527092558e-27,4.2032885466705e-26,-1.7347821011067e-26,9.6898151636841e-29,6.8788828217591e-28,2.0341266188127e-28,2.1968987730935e-27,-1.9326395666904e-25,-4.5489243887982e-30,-1.304113178254e-28,3.1079527376944e-27,-1.5792202676055e-25,-3.4071209941596e-28,3.507122376606e-27,3.9339400511984e-26,-2.8430886704717e-26,-6.6329150943416e-28,5.370066929254e-28,9.462814274041e-29,-8.3107399972155e-26,6.3319609698174e-27,-1.4627687260605e-25,7.1430370308782e-28,2.1269553205633e-26,-5.4059237764432e-27,-3.1116880536364e-28,4.1767382547083e-28,3.1233771561738e-27,3.47503106155e-28,-1.2869867266712e-25,-1.6946423008047e-27,-2.964287510311e-28,6.5681842293797e-27,-5.2086971620332e-26,-6.3684068770738e-29,-7.4464987726082e-29,7.2206840449015e-28,-2.3149451854821e-25,-3.9155599930245e-28,-3.1747606898586e-28,-4.8047183409067e-27,-7.4223628020084e-28,1.5813931510142e-27,4.802323965357e-27,732.20212669302,732.20212669302,732.20212669302,732.20212669302,732.20212669302,732.20212669302,732.20212669302,732.20212669302,732.20212669302,732.20212669302,732.20212669302,732.20212669302,732.20212669302,732.20212669302,732.20212669302,732.20212669302,732.20212669302,732.20212669302,732.20212669302,732.20212669302,732.20212669302,732.20212669302,732.20212669302,732.20212669302,732.20212669302,732.20212669302,732.20212669302,732.20212669302,732.20212669302,732.20212669302,732.20212669302,732.20212669302,732.20212669302,732.20212669302,732.20212669302,732.20212669302,732.20212669302,732.20212669302,732.20212669302,732.20212669302,732.20212669302,732.20212669302,732.20212669302,732.20212669302,732.20212669302,732.20212669302,732.20212669302,732.20212669302,2.8235903782613e-21,97.577873451419,21.28614710042,102.3943358362,19.328797099482,0
2.3e-06,20000000,1.5812645435817e-07,6.8265391748387e-07,1.4048136374201e-07,1,607.67959772498,607.67959772498,607.67959772498,607.67959772498,607.67959772498,607.67959772498,607.67959772498,607.67959772498,607.67959772498,607.67959772498,607.67959772498,607.67959772498,607.67959772498,607.67959772498,607.67959772498,607.67959772498,607.67959772498,607.67959772498,607.67959772498,607.67959772498,607.67959772498,607.67959772498,607.67959772498,607.67959772498,607.67959772498,607.67959772498,607.67959772498,607.67959772498,607.67959772498,607.67959772498,607.67959772498,607.67959772498,607.67959772498,607.67959772498,607.67959772498,607.67959772498,607.67959772498,607.67959772498,607.67959772498,607.67959772498,607.67959772498,607.67959772498,607.67959772498,607.67959772498,607.67959772498,607.67959772498,607.67959772498,607.67959772498,-2.6167467339382e-26,-1.3204476630709e-28,-1.7763916869095e-26,-7.6792896459361e-27,5.7398874047229e-27,1.0224787896471e-25,-4.2211147048918e-26,2.357615923928e-28,1.6736905892408e-27,4.9490607981556e-28,5.3451110617877e-27,-4.7021105922909e-25,-1.1067755488307e-29,-3.1726860324445e-28,7.5617408985428e-27,-3.8422919981072e-25,-8.2898915871438e-28,8.5329156706576e-27,9.5696252061702e-26,-6.9178763464958e-26,-1.6137090621139e-27,1.3065739891221e-27,2.3023005829868e-28,-2.0220382101057e-25,1.5405690745699e-26,-3.5589151998133e-25,1.7379490719293e-27,5.173921751987e-26,-1.3153747206294e-26,-7.5705819565537e-28,1.0162318716924e-27,7.5993466817672e-27,8.4549135475775e-28,-3.1312365692501e-25,-4.1230171063867e-27,-7.2117466024147e-28,1.5980540795778e-26,-1.2672905024048e-25,-1.5496212918198e-28,-1.8116670486186e-28,1.7568155786275e-27,-5.6323403167019e-25,-9.5268623732168e-28,-7.7243391755016e-28,-1.1689869984324e-26,-1.8054154188049e-27,3.8475647651187e-27,1.1681773892332e-26,732.20212669302,732.20212669302,732.20212669302,732.20212669302,732.20212669302,732.20212669302,732.20212669302,732.20212669302,732.20212669302,732.20212669302,732.20212669302,732.20212669302,732.20212669302,732.20212669302,732.20212669302,732.20212669302,732.20212669302,732.20212669302,732.20212669302,732.20212669302,732.20212669302,732.20212669302,732.20212669302,732.20212669302,732.20212669302,732.20212669302,732.20212669302,732.20212669302,732.20212669302,732.20212669302,732.20212669302,732.20212669302,732.20212669302,732.20212669302,732.20212669302,732.20212669302,732.20212669302,732.20212669302,732.20212669302,732.20212669302,732.20212669302,732.20212669302,732.20212669302,732.20212669302,732.20212669302,732.20212669302,732.20212669302,732.20212669302,7.1597177124346e-21,102.0157427883,22.253465746335,107.05193072813,20.207177757919,0
2.4e-06,20000000,1.6500143286854e-07,7.1233450675894e-07,1.4658936880906e-07,1,607.67959772498,607.67959772498,607.67959772498,607.67959772498,607.67959772498,607.67959772498,607.67959772498,607.67959772498,607.67959772498,607.67959772498,607.67959772498,607.67959772498,607.67959772498,607.67959772498,607.67959772498,607.67959772498,607.67959772498,607.67959772498,607.67959772498,607.67959772498,607.67959772498,607.67959772498,607.67959772498,607.67959772498,607.67959772498,607.67959772498,607.67959772498,607.67959772498,607.67959772498,607.67959772498,607.67959772498,607.67959772498,607.67959772498,607.67959772498,607.67959772498,607.67959772498,607.67959772498,607.67959772498,607.67959772498,607.67959772498,607.67959772498,607.67959772498,607.67959772498,607.67959772498,607.67959772498,607.67959772498,607.67959772498,607.67959772498,-6.1301095094792e-26,-3.093307126424e-28,-4.1614011299189e-26,-1.7983326297e-26,1.3446699587012e-26,2.3948836728089e-25,-9.8895011270582e-26,5.5232617659415e-28,3.9210054518989e-27,1.1593981584029e-27,1.2521848097904e-26,-1.1015388591087e-24,-2.5928381315271e-29,-7.4319695247749e-28,1.7714715798883e-26,-9.001254338555e-25,-1.9421159479731e-27,1.9989825212912e-26,2.2414400733732e-25,-1.6207655391008e-25,-3.7801675429939e-27,3.060929507812e-27,5.3934758782108e-28,-4.737007043018e-25,3.609018700699e-26,-8.3372845387066e-25,4.0715165028106e-27,1.2118429984288e-25,-3.0817263668942e-26,-1.7734848731239e-27,2.3807476924895e-27,1.7802996051663e-26,1.9807271836043e-27,-7.3353814573271e-25,-9.6586680626994e-27,-1.6893732132378e-27,3.743713702551e-26,-2.9688500433634e-25,-3.6306580830444e-28,-4.2439441382313e-28,4.1156555142807e-27,-1.3194777562468e-24,-2.2318803560605e-27,-1.8095754157664e-27,-2.7385232870989e-26,-4.2284103264001e-27,9.0135741158681e-27,2.7360948335123e-26,732.20212669302,732.20212669302,732.20212669302,732.20212669302,732.20212669302,732.20212669302,732.20212669302,732.20212669302,732.20212669302,732.20212669302,732.20212669302,732.20212669302,732.20212669302,732.20212669302,732.20212669302,732.20212669302,732.20212669302,732.20212669302,732.20212669302,732.20212669302,732.20212669302,732.20212669302,732.20212669302,732.20212669302,732.20212669302,732.20212669302,732.20212669302,732.20212669302,732.20212669302,732.20212669302,732.20212669302,732.20212669302,732.20212669302,732.20212669302,732.20212669302,732.20212669302,732.20212669302,732.20212669302,732.20212669302,732.20212669302,732.20212669302,732.20212669302,732.20212669302,732.20212669302,732.20212669302,732.20212669302,732.20212669302,732.20212669302,1.7419091030239e-20,106.45383056597,23.220764095349,111.70981325458,21.085540941747,0
2.5e-06,20000000,1.7187640430948e-07,7.4201509471492e-07,1.5269738388152e-07,1,607.67959772498,607.67959772498,607.67959772498,607.67959772498,607.67959772498,607.67959772498,607.67959772498,607.67959772498,607.67959772498,607.67959772498,607.67959772498,607.67959772498,607.67959772498,607.67959772498,607.67959772498,607.67959772498,607.67959772498,607.67959772498,607.67959772498,607.67959772498,607.67959772498,607.67959772498,607.67959772498,607.67959772498,607.67959772498,607.67959772498,607.67959772498,607.67959772498,607.67959772498,607.67959772498,607.67959772498,607.67959772498,607.67959772498,607.67959772498,607.67959772498,607.67959772498,607.67959772498,607.67959772498,607.67959772498,607.67959772498,607.67959772498,607.67959772498,607.67959772498,607.67959772498,607.67959772498,607.67959772498,607.67959772498,607.67959772498,-1.3870176910459e-25,-6.9989375527506e-28,-9.4155925250391e-26,-4.067486872666e-26,3.0425327154686e-26,5.4177849952319e-25,-2.2378390050277e-25,1.2497565419761e-27,8.8721105109891e-27,2.6233102118451e-27,2.8332660286965e-26,-2.4923786992871e-24,-5.866762136689e-29,-1.6814655326008e-27,4.0082408715221e-26,-2.0366805931863e-24,-4.394492043916e-27,4.5230122618656e-26,5.0706841836848e-25,-3.6675396479801e-25,-8.552716694755e-27,6.925958319347e-27,1.220345161179e-27,-1.0718300476551e-24,8.1659048493739e-26,-1.8864219133656e-24,9.2126076879413e-27,2.7414484721134e-25,-6.9734209502853e-26,-4.0126653099771e-27,5.3869278316714e-27,4.0282568955918e-26,4.4817474308813e-27,-1.6597273526795e-24,-2.1853780223202e-26,-3.8222401913612e-27,8.4707333671674e-26,-6.7174983555201e-25,-8.2158470697302e-28,-9.602142751088e-28,9.3123456058534e-27,-2.9855371784432e-24,-5.0500904077168e-27,-4.0944848241292e-27,-6.196271250025e-26,-9.5649857391882e-27,2.0394607637761e-26,6.1895734337647e-26,732.20212669302,732.20212669302,732.20212669302,732.20212669302,732.20212669302,732.20212669302,732.20212669302,732.20212669302,732.20212669302,732.20212669302,732.20212669302,732.20212669302,732.20212669302,732.20212669302,732.20212669302,732.20212669302,732.20212669302,732.20212669302,732.20212669302,732.20212669302,732.20212669302,732.20212669302,732.20212669302,732.20212669302,732.20212669302,732.20212669302,732.20212669302,732.20212669302,732.20212669302,732.20212669302,732.20212669302,732.20212669302,732.20212669302,732.20212669302,732.20212669302,732.20212669302,732.20212669302,732.20212669302,732.20212669302,732.20212669302,732.20212669302,732.20212669302,732.20212669302,732.20212669302,732.20212669302,732.20212669302,732.20212669302,732.20212669302,4.0805630106394e-20,110.8921367912,24.188042148431,116.36798342537,21.963886651778,0
2.6e-06,20000000,1.7875136867979e-07,7.7169568135187e-07,1.588054089632e-07,1,607.67959772498,607.67959772498,607.67959772498,607.67959772498,607.67959772498,607.67959772498,607.67959772498,607.67959772498,607.67959772498,607.67959772498,607.67959772498,607.67959772498,607.67959772498,607.67959772498,607.67959772498,607.67959772498,607.67959772498,607.67959772498,607.67959772498,607.67959772498,607.67959772498,607.67959772498,607.67959772498,607.67959772498,607.67959772498,607.67959772498,607.67959772498,607.67959772498,607.67959772498,607.67959772498,607.67959772498,607.67959772498,607.67959772498,607.67959772498,607.67959772498,607.67959772498,607.67959772498,607.67959772498,607.67959772498,607.67959772498,607.67959772498,607.67959772498,607.67959772498,607.67959772498,607.67959772498,607.67959772498,607.67959772498,607.67959772498,-3.0393954902935e-25,-1.5336725450167e-27,-2.0632277845977e-25,-8.9099173763371e-26,6.6672425962314e-26,1.1869995595933e-24,-4.9042741587402e-25,2.7387138294482e-27,1.9442310980544e-26,5.748547727264e-27,6.2086578174498e-26,-5.4615974428375e-24,-1.2856211360262e-28,-3.6843719378139e-27,8.7834449253624e-26,-4.463075806625e-24,-9.6301634072674e-27,9.9114679313224e-26,1.1109574890393e-24,-8.0374981609414e-25,-1.8740819248332e-26,1.517741699059e-26,2.6741642161745e-27,-2.3487634056119e-24,1.7894144708831e-25,-4.1337526739317e-24,2.0188330292807e-26,6.0062757353028e-25,-1.5282314630343e-25,-8.792853422864e-27,1.1804847709243e-26,8.8273972251897e-26,9.8211318509306e-27,-3.6369911683105e-24,-4.7888071579073e-26,-8.3753274074145e-27,1.856225957667e-25,-1.4720356301547e-24,-1.8005732047224e-27,-2.1040599259089e-27,2.0406597655021e-26,-6.5423585346386e-24,-1.1066717976975e-26,-8.9724963797674e-27,-1.3578001471419e-25,-2.095477369039e-26,4.4691519576623e-26,1.3560688461835e-25,732.20212669302,732.20212669302,732.20212669302,732.20212669302,732.20212669302,732.20212669302,732.20212669302,732.20212669302,732.20212669302,732.20212669302,732.20212669302,732.20212669302,732.20212669302,732.20212669302,732.20212669302,732.20212669302,732.20212669302,732.20212669302,732.20212669302,732.20212669302,732.20212669302,732.20212669302,732.20212669302,732.20212669302,732.20212669302,732.20212669302,732.20212669302,732.20212669302,732.20212669302,732.20212669302,732.20212669302,732.20212669302,732.20212669302,732.20212669302,732.20212669302,732.20212669302,732.20212669302,732.20212669302,732.20212669302,732.20212669302,732.20212669302,732.20212669302,732.20212669302,732.20212669302,732.20212669302,732.20212669302,732.20212669302,732.20212669302,9.2325552269293e-20,115.33066147058,25.155299906336,121.02644125008,22.84221488865,0
2.7e-06,20000000,1.8562632597844e-07,8.0137626666983e-07,1.6491344405781e-07,1,607.67959772498,607.67959772498,607.67959772498,607.67959772498,607.67959772498,607.67959772498,607.67959772498,607.67959772498,607.67959772498,607.67959772498,607.67959772498,607.67959772498,607.67959772498,607.67959772498,607.67959772498,607.67959772498,607.67959772498,607.67959772498,607.67959772498,607.67959772498,607.67959772498,607.67959772498,607.67959772498,607.67959772498,607.67959772498,607.67959772498,607.67959772498,607.67959772498,607.67959772498,607.67959772498,607.67959772498,607.67959772498,607.67959772498,607.67959772498,607.67959772498,607.67959772498,607.67959772498,607.67959772498,607.67959772498,607.67959772498,607.67959772498,607.67959772498,607.67959772498,607.67959772498,607.67959772498,607.67959772498,607.67959772498,607.67959772498,-6.4659741928737e-25,-3.2626816982141e-27,-4.3892289833404e-25,-1.8947969004143e-25,1.418400241213e-25,2.5247645836759e-24,-1.0434272583414e-24,5.8265224683369e-27,4.1362841438431e-26,1.2229485092903e-26,1.3208382393281e-25,-1.1618949925823e-23,-2.7350739049731e-28,-7.8375531764551e-27,1.8686049339281e-25,-9.494828819491e-24,-2.048802838797e-26,2.1085783004332e-25,2.3630333934633e-24,-1.710048753664e-24,-3.9867095508328e-26,3.2289208327386e-26,5.6889877763347e-27,-4.9968251573216e-24,3.8067916973235e-25,-8.7941057348903e-24,4.2949663183611e-26,1.2775325801952e-24,-3.251426406952e-25,-1.8705454618375e-26,2.5114304594946e-26,1.8779746199772e-25,2.0893790851478e-26,-7.7372972095957e-24,-1.0187547915703e-25,-1.7816695206647e-26,3.9489552269941e-25,-3.1316312118532e-24,-3.8309876402834e-27,-4.4759949702719e-27,4.3413385715787e-26,-1.3918349413629e-23,-2.3543990261959e-26,-1.9088370523768e-26,-2.8885694885862e-25,-4.4568001470533e-26,9.5077209374266e-26,2.8843256617283e-25,732.20212669302,732.20212669302,732.20212669302,732.20212669302,732.20212669302,732.20212669302,732.20212669302,732.20212669302,732.20212669302,732.20212669302,732.20212669302,732.20212669302,732.20212669302,732.20212669302,732.20212669302,732.20212669302,732.20212669302,732.20212669302,732.20212669302,732.20212669302,732.20212669302,732.20212669302,732.20212669302,732.20212669302,732.20212669302,732.20212669302,732.20212669302,732.20212669302,732.20212669302,732.20212669302,732.20212669302,732.20212669302,732.20212669302,732.20212669302,732.20212669302,732.20212669302,732.20212669302,732.20212669302,732.20212669302,732.20212669302,732.20212669302,732.20212669302,732.20212669302,732.20212669302,732.20212669302,732.20212669302,732.20212669302,732.20212669302,2.0230899249745e-19,119.76940461083,26.122537369981,125.68518673863,23.720525653247,0
2.8e-06,20000000,1.9250127620424e-07,8.3105685066883e-07,1.7102148916922e-07,1,607.67959772498,607.67959772498,607.67959772498,607.67959772498,607.67959772498,607.67959772498,607.67959772498,607.67959772498,607.67959772498,607.67959772498,607.67959772498,607.67959772498,607.67959772498,607.67959772498,607.67959772498,607.67959772498,607.67959772498,607.67959772498,607.67959772498,607.67959772498,607.67959772498,607.67959772498,607.67959772498,607.67959772498,607.67959772498,607.67959772498,607.67959772498,607.67959772498,607.67959772498,607.67959772498,607.67959772498,607.67959772498,607.67959772498,607.67959772498,607.67959772498,607.67959772498,607.67959772498,607.67959772498,607.67959772498,607.67959772498,607.67959772498,607.67959772498,607.67959772498,607.67959772498,607.67959772498,607.67959772498,607.67959772498,607.67959772498,-1.3383131307686e-24,-6.7529540047857e-27,-9.0846106634188e-25,-3.9203840054596e-25,2.9358127678524e-25,5.2247828248931e-24,-2.1598651394006e-24,1.2060052906042e-26,8.5615000611478e-26,2.5312510670643e-26,2.7338744274707e-25,-2.4048671702199e-23,-5.6611172419052e-28,-1.622088537727e-26,3.8676495945282e-25,-1.965246514527e-23,-4.2407600213178e-26,4.3643392842333e-25,4.8901175455964e-24,-3.5397542915419e-24,-8.2512100353512e-26,6.683346041219e-26,1.1774946652576e-26,-1.0342512504721e-23,7.8792395094323e-25,-1.8201865349141e-23,8.8898849897056e-26,2.6437216370126e-24,-6.7303204101245e-25,-3.8715397474913e-26,5.1982713374653e-26,3.8870827626244e-25,4.3246400382643e-26,-1.601449811624e-23,-2.1085747450622e-25,-3.6874787661912e-26,8.1735476402122e-25,-6.4818641290983e-24,-7.9302655947987e-27,-9.2639903771875e-27,8.9857376066105e-26,-2.8808334363157e-23,-4.8732457845165e-26,-3.9509491663813e-26,-5.9787006339261e-25,-9.2223237427786e-26,1.9679078158422e-25,5.9687565740509e-25,732.20212669302,732.20212669302,732.20212669302,732.20212669302,732.20212669302,732.20212669302,732.20212669302,732.20212669302,732.20212669302,732.20212669302,732.20212669302,732.20212669302,732.20212669302,732.20212669302,732.20212669302,732.20212669302,732.20212669302,732.20212669302,732.20212669302,732.20212669302,732.20212669302,732.20212669302,732.20212669302,732.20212669302,732.20212669302,732.20212669302,732.20212669302,732.20212669302,732.20212669302,732.20212669302,732.20212669302,732.20212669302,732.20212669302,732.20212669302,732.20212669302,732.20212669302,732.20212669302,732.20212669302,732.20212669302,732.20212669302,732.20212669302,732.20212669302,732.20212669302,732.20212669302,732.20212669302,732.20212669302,732.20212669302,732.20212669302,4.3037793639965e-19,124.20836621872,27.089754540266,130.34421990078,24.59881894627,0
2.9e-06,20000000,1.9937621935619e-07,8.6073743334893e-07,1.7712954430116e-07,1,607.67959772498,607.67959772498,607.67959772498,607.67959772498,607.67959772498,607.67959772498,607.67959772498,607.67959772498,607.67959772498,607.67959772498,607.67959772498,607.67959772498,607.67959772498,607.67959772498,607.67959772498,607.67959772498,607.67959772498,607.67959772498,607.67959772498,607.67959772498,607.67959772498,607.67959772498,607.67959772498,607.67959772498,607.67959772498,607.67959772498,607.67959772498,607.67959772498,607.67959772498,607.67959772498,607.67959772498,607.67959772498,607.67959772498,607.67959772498,607.67959772498,607.67959772498,607.67959772498,607.67959772498,607.67959772498,607.67959772498,607.67959772498,607.67959772498,607.67959772498,607.67959772498,607.67959772498,607.67959772498,607.67959772498,607.67959772498,-2.7001973000509e-24,-1.3624697395826e-26,-1.832898387277e-24,-7.9069405493944e-25,5.923411452452e-25,1.0539732446431e-23,-4.3581791487161e-24,2.4333410622868e-26,1.7274415039037e-25,5.1071223696453e-26,5.5159647173097e-25,-4.852094995324e-23,-1.1422185817974e-27,-3.2725221765921e-26,7.8035234158222e-25,-3.9651618333133e-23,-8.5565996688905e-26,8.8056468715568e-25,9.8646737652551e-24,-7.1425243224636e-24,-1.6646950059186e-25,1.3484799291659e-25,2.3757289142291e-26,-2.0867573081964e-23,1.589730398753e-24,-3.6724348436075e-23,1.7936863748198e-25,5.3330229941638e-24,-1.3580368009152e-24,-7.8111173916045e-26,1.0488435682467e-25,7.8428127153587e-25,8.7256276083432e-26,-3.2311072480231e-23,-4.254243311194e-25,-7.4395367594694e-26,1.6491227190066e-24,-1.3078056846187e-23,-1.6002163220873e-26,-1.8690485760016e-26,1.8129999685788e-25,-5.8124944355973e-23,-9.8326492912842e-26,-7.9716462083434e-26,-1.2062707139102e-24,-1.8602510326314e-25,3.9705170227798e-25,1.2040303282928e-24,732.20212669302,732.20212669302,732.20212669302,732.20212669302,732.20212669302,732.20212669302,732.20212669302,732.20212669302,732.20212669302,732.20212669302,732.20212669302,732.20212669302,732.20212669302,732.20212669302,732.20212669302,732.20212669302,732.20212669302,732.20212669302,732.20212669302,732.20212669302,732.20212669302,732.20212669302,732.20212669302,732.20212669302,732.20212669302,732.20212669302,732.20212669302,732.20212669302,732.20212669302,732.20212669302,732.20212669302,732.20212669302,732.20212669302,732.20212669302,732.20212669302,732.20212669302,732.20212669302,732.20212669302,732.20212669302,732.20212669302,732.20212669302,732.20212669302,732.20212669302,732.20212669302,732.20212669302,732.20212669302,732.20212669302,732.20212669302,8.9076230608848e-19,128.64754630095,28.056951418026,135.00354074621,25.477094768542,0
3e-06,20000000,2.0625115543308e-07,8.9041801471017e-07,1.8323760945742e-07,1,607.67959772498,607.67959772498,607.67959772498,607.67959772498,607.67959772498,607.67959772498,607.67959772498,607.67959772498,607.67959772498,607.67959772498,607.67959772498,607.67959772498,607.67959772498,607.67959772498,607.67959772498,607.67959772498,607.67959772498,607.67959772498,607.67959772498,607.67959772498,607.67959772498,607.67959772498,607.67959772498,607.67959772498,607.67959772498,607.67959772498,607.67959772498,607.67959772498,607.67959772498,607.67959772498,607.67959772498,607.67959772498,607.67959772498,607.67959772498,607.67959772498,607.67959772498,607.67959772498,607.67959772498,607.67959772498,607.67959772498,607.67959772498,607.67959772498,607.67959772498,607.67959772498,607.67959772498,607.67959772498,607.67959772498,607.67959772498,-5.3198460393873e-24,-2.6842672065397e-26,-3.6110729711826e-24,-1.5572347181893e-24,1.1670279344831e-24,2.0761404831695e-23,-8.5871554846665e-24,4.7942707748329e-26,3.4034755899849e-25,1.0061972144185e-25,1.0867513845819e-24,-9.5594587119601e-23,-2.2504123332754e-27,-6.4469818392353e-26,1.5374470275614e-24,-7.8121505606055e-23,-1.6858717538854e-25,1.7348815569976e-24,1.9431752170397e-23,-1.4073306402033e-23,-3.2795746253632e-25,2.6568120426078e-25,4.680590253696e-26,-4.1113423015293e-23,3.1320483764175e-24,-7.2353260496841e-23,3.5339685509399e-25,1.0505022686097e-23,-2.6757968773739e-24,-1.5388929599971e-25,2.0664661629746e-25,1.5452035829713e-24,1.7191318613433e-25,-6.3658326850153e-23,-8.3814943123196e-25,-1.4656425534618e-25,3.2490856268838e-24,-2.5766315677303e-23,-3.153083401486e-26,-3.6822128390616e-26,3.5719688810533e-25,-1.1451773671942e-22,-1.9372630150096e-25,-1.5705812051645e-25,-2.3765588100662e-24,-3.6641103890969e-25,7.8226730489356e-25,2.371683812282e-24,732.20212669302,732.20212669302,732.20212669302,732.20212669302,732.20212669302,732.20212669302,732.20212669302,732.20212669302,732.20212669302,732.20212669302,732.20212669302,732.20212669302,732.20212669302,732.20212669302,732.20212669302,732.20212669302,732.20212669302,732.20212669302,732.20212669302,732.20212669302,732.20212669302,732.20212669302,732.20212669302,732.20212669302,732.20212669302,732.20212669302,732.20212669302,732.20212669302,732.20212669302,732.20212669302,732.20212669302,732.20212669302,732.20212669302,732.20212669302,732.20212669302,732.20212669302,732.20212669302,732.20212669302,732.20212669302,732.20212669302,732.20212669302,732.20212669302,732.20212669302,732.20212669302,732.20212669302,732.20212669302,732.20212669302,732.20212669302,1.7971637548179e-18,133.08694486415,29.024128004169,139.66314928482,26.355353120803,0
3.1e-06,20000000,2.1312608443391e-07,9.2009859475258e-07,1.8934568464176e-07,1,607.67959772498,607.67959772498,607.67959772498,607.67959772498,607.67959772498,607.67959772498,607.67959772498,607.67959772498,607.67959772498,607.67959772498,607.67959772498,607.67959772498,607.67959772498,607.67959772498,607.67959772498,607.67959772498,607.67959772498,607.67959772498,607.67959772498,607.67959772498,607.67959772498,607.67959772498,607.67959772498,607.67959772498,607.67959772498,607.67959772498,607.67959772498,607.67959772498,607.67959772498,607.67959772498,607.67959772498,607.67959772498,607.67959772498,607.67959772498,607.67959772498,607.67959772498,607.67959772498,607.67959772498,607.67959772498,607.67959772498,607.67959772498,607.67959772498,607.67959772498,607.67959772498,607.67959772498,607.67959772498,607.67959772498,607.67959772498,-1.0250528903262e-23,-5.1721161967911e-26,-6.9578936545867e-24,-2.9994612928491e-24,2.248714127385e-24,3.9997010820361e-23,-1.6547684032097e-23,9.2381662936164e-26,6.5582138744906e-25,1.9388026492495e-25,2.0940284175594e-24,-1.8419632227393e-22,-4.3362930504152e-27,-1.2421497082266e-25,2.9624650196461e-24,-1.5053030365357e-22,-3.2485645452579e-25,3.3428896528124e-24,3.743560412793e-23,-2.7119657671148e-23,-6.3189367101074e-25,5.1194207180395e-25,9.0187845165137e-26,-7.9220754794522e-23,6.0349974411311e-24,-1.3941379853409e-22,6.8096140285154e-25,2.0237841081657e-23,-5.1563025484578e-24,-2.9651543631987e-25,3.9818924220475e-25,2.9774413460387e-24,3.3125721832004e-25,-1.2265992986687e-22,-1.614969151258e-24,-2.823929720629e-25,6.2605571660172e-24,-4.9648378749984e-23,-6.0762531694658e-26,-7.0948110478207e-26,6.8827371369097e-25,-2.2066152123009e-22,-3.7329336507961e-25,-3.0263309749469e-25,-4.5792672877561e-24,-7.0584475058646e-25,1.5073251369169e-24,4.5689856753854e-24,732.20212669302,732.20212669302,732.20212669302,732.20212669302,732.20212669302,732.20212669302,732.20212669302,732.20212669302,732.20212669302,732.20212669302,732.20212669302,732.20212669302,732.20212669302,732.20212669302,732.20212669302,732.20212669302,732.20212669302,732.20212669302,732.20212669302,732.20212669302,732.20212669302,732.20212669302,732.20212669302,732.20212669302,732.20212669302,732.20212669302,732.20212669302,732.20212669302,732.20212669302,732.20212669302,732.20212669302,732.20212669302,732.20212669302,732.20212669302,732.20212669302,732.20212669302,732.20212669302,732.20212669302,732.20212669302,732.20212669302,732.20212669302,732.20212669302,732.20212669302,732.20212669302,732.20212669302,732.20212669302,732.20212669302,732.20212669302,3.5406196662497e-18,137.52656191506,29.991284299564,144.32304552622,27.23359400376,0
3.2e-06,20000000,2.200010063575e-07,9.4977917347622e-07,1.9545376985797e-07,1,607.67959772498,607.67959772498,607.67959772498,607.67959772498,607.67959772498,607.67959772498,607.67959772498,607.67959772498,607.67959772498,607.67959772498,607.67959772498,607.67959772498,607.67959772498,607.67959772498,607.67959772498,607.67959772498,607.67959772498,607.67959772498,607.67959772498,607.67959772498,607.67959772498,607.67959772498,607.67959772498,607.67959772498,607.67959772498,607.67959772498,607.67959772498,607.67959772498,607.67959772498,607.67959772498,607.67959772498,607.67959772498,607.67959772498,607.67959772498,607.67959772498,607.67959772498,607.67959772498,607.67959772498,607.67959772498,607.67959772498,607.67959772498,607.67959772498,607.67959772498,607.67959772498,607.67959772498,607.67959772498,607.67959772498,607.67959772498,-1.934418303866e-23,-9.7604020939046e-26,-1.3130347404196e-23,-5.6583432267757e-24,4.24369489532e-24,7.5466679836358e-23,-3.1230721637934e-23,1.7434355472359e-25,1.2376715779329e-24,3.6588196842039e-25,3.951771709714e-24,-3.4760460014053e-22,-8.1833675621703e-27,-2.3439500058955e-25,5.590661643505e-24,-2.8407576037105e-22,-6.1307749255827e-25,6.3085733802829e-24,7.0634136175686e-23,-5.1183404453491e-23,-1.1924149218995e-24,9.6613478745033e-25,1.7019715834464e-25,-1.495034526267e-22,1.1388922224348e-23,-2.6309362302057e-22,1.2851067938006e-24,3.8184602827575e-23,-9.7315170583195e-24,-5.5955542343686e-25,7.5146308925046e-25,5.6189818715584e-24,6.2514162832326e-25,-2.31476609179e-22,-3.0476417557667e-24,-5.3288882225922e-25,1.1814673434309e-23,-9.3694635607501e-23,-1.146814470629e-25,-1.3388431078116e-25,1.298887712726e-24,-4.1642554864307e-22,-7.0448031347564e-25,-5.7112261594964e-25,-8.6417227579624e-24,-1.331701030054e-24,2.8445633589938e-24,8.6206439722263e-24,732.20212669302,732.20212669302,732.20212669302,732.20212669302,732.20212669302,732.20212669302,732.20212669302,732.20212669302,732.20212669302,732.20212669302,732.20212669302,732.20212669302,732.20212669302,732.20212669302,732.20212669302,732.20212669302,732.20212669302,732.20212669302,732.20212669302,732.20212669302,732.20212669302,732.20212669302,732.20212669302,732.20212669302,732.20212669302,732.20212669302,732.20212669302,732.20212669302,732.20212669302,732.20212669302,732.20212669302,732.20212669302,732.20212669302,732.20212669302,732.20212669302,732.20212669302,732.20212669302,732.20212669302,732.20212669302,732.20212669302,732.20212669302,732.20212669302,732.20212669302,732.20212669302,732.20212669302,732.20212669302,732.20212669302,732.20212669302,6.822044531343e-18,141.96639746047,30.95842030509,148.98322948024,28.111817418208,0
3.3e-06,20000000,2.2687592120277e-07,9.7945975088112e-07,2.0156186510987e-07,1,607.67959772498,607.67959772498,607.67959772498,607.67959772498,607.67959772498,607.67959772498,607.67959772498,607.67959772498,607.67959772498,607.67959772498,607.67959772498,607.67959772498,607.67959772498,607.67959772498,607.67959772498,607.67959772498,607.67959772498,607.67959772498,607.67959772498,607.67959772498,607.67959772498,607.67959772498,607.67959772498,607.67959772498,607.67959772498,607.67959772498,607.67959772498,607.67959772498,607.67959772498,607.67959772498,607.67959772498,607.67959772498,607.67959772498,607.67959772498,607.67959772498,607.67959772498,607.67959772498,607.67959772498,607.67959772498,607.67959772498,607.67959772498,607.67959772498,607.67959772498,607.67959772498,607.67959772498,607.67959772498,607.67959772498,607.67959772498,-3.5798765688413e-23,-1.8062617632422e-25,-2.429898814915e-23,-1.04676402571e-23,7.8535786549751e-24,1.39635709225e-22,-5.7801666487969e-23,3.2265585924637e-25,2.2905448548416e-24,6.7711424722841e-25,7.3133215108397e-24,-6.4328528534919e-22,-1.5144642801797e-26,-4.3374680516078e-25,1.0346339587545e-23,-5.2572418815565e-22,-1.1346261416992e-24,1.1674917450443e-23,1.3069469922152e-22,-9.4730030304185e-23,-2.2066036969177e-24,1.7880026576794e-24,3.149706889893e-25,-2.7667951773395e-22,2.1076655934264e-23,-4.8688727530861e-22,2.3783155918963e-24,7.065223713718e-23,-1.8010934456648e-23,-1.0355056038107e-24,1.3907187989456e-24,1.0398856585217e-23,1.1569245326467e-24,-4.2837592319806e-22,-5.6399745131243e-24,-9.8612706684831e-25,2.186472403511e-23,-1.7339554009957e-22,-2.1225796851591e-25,-2.4776050801392e-25,2.4037847506889e-24,-7.7065795634591e-22,-1.3037700277905e-24,-1.0569533894417e-24,-1.5992568021789e-23,-2.4638701876789e-24,5.2642659626157e-24,1.5950458152638e-23,732.20212669302,732.20212669302,732.20212669302,732.20212669302,732.20212669302,732.20212669302,732.20212669302,732.20212669302,732.20212669302,732.20212669302,732.20212669302,732.20212669302,732.20212669302,732.20212669302,732.20212669302,732.20212669302,732.20212669302,732.20212669302,732.20212669302,732.20212669302,732.20212669302,732.20212669302,732.20212669302,732.20212669302,732.20212669302,732.20212669302,732.20212669302,732.20212669302,732.20212669302,732.20212669302,732.20212669302,732.20212669302,732.20212669302,732.20212669302,732.20212669302,732.20212669302,732.20212669302,732.20212669302,732.20212669302,732.20212669302,732.20212669302,732.20212669302,732.20212669302,732.20212669302,732.20212669302,732.20212669302,732.20212669302,732.20212669302,1.2873799193928e-17,146.40645150696,31.925536021602,153.64370115669,28.990023365008,0
3.4e-06,20000000,2.3375082896866e-07,1.0091403269673e-06,2.076699704012e-07,1,607.67959772498,607.67959772498,607.67959772498,607.67959772498,607.67959772498,607.67959772498,607.67959772498,607.67959772498,607.67959772498,607.67959772498,607.67959772498,607.67959772498,607.67959772498,607.67959772498,607.67959772498,607.67959772498,607.67959772498,607.67959772498,607.67959772498,607.67959772498,607.67959772498,607.67959772498,607.67959772498,607.67959772498,607.67959772498,607.67959772498,607.67959772498,607.67959772498,607.67959772498,607.67959772498,607.67959772498,607.67959772498,607.67959772498,607.67959772498,607.67959772498,607.67959772498,607.67959772498,607.67959772498,607.67959772498,607.67959772498,607.67959772498,607.67959772498,607.67959772498,607.67959772498,607.67959772498,607.67959772498,607.67959772498,607.67959772498,-6.5043817835527e-23,-3.2818141327616e-25,-4.4148959685089e-23,-1.9012031975573e-23,1.4269585399639e-23,2.5366354704695e-22,-1.0503136543866e-22,5.8626440181228e-25,4.1619081859568e-24,1.2302778648839e-24,1.3287944257902e-23,-1.1688049221831e-21,-2.7517332031988e-26,-7.8803325671719e-25,1.8798818783242e-23,-9.5521701989538e-22,-2.0616289765356e-24,2.1212741025432e-23,2.3742236278509e-22,-1.7213393385758e-22,-4.0090511205434e-24,3.2487695987154e-24,5.722796309848e-25,-5.0271646508696e-22,3.8294913898545e-23,-8.8464054422679e-22,4.3213561220482e-24,1.2834645350069e-22,-3.2727456565279e-23,-1.8814042036879e-24,2.5269189270247e-24,1.8894432787658e-23,2.1020931336742e-24,-7.7832917009256e-22,-1.0247329009759e-23,-1.7916346818453e-24,3.9727075086165e-23,-3.1505141240049e-22,-3.85704893193e-25,-4.5014744668856e-25,4.3675698160002e-24,-1.4002522466213e-21,-2.3689365903282e-24,-1.9204483280396e-24,-2.9057376213844e-23,-4.4755789337067e-24,9.5648980603059e-24,2.897523221346e-23,732.20212669302,732.20212669302,732.20212669302,732.20212669302,732.20212669302,732.20212669302,732.20212669302,732.20212669302,732.20212669302,732.20212669302,732.20212669302,732.20212669302,732.20212669302,732.20212669302,732.20212669302,732.20212669302,732.20212669302,732.20212669302,732.20212669302,732.20212669302,732.20212669302,732.20212669302,732.20212669302,732.20212669302,732.20212669302,732.20212669302,732.20212669302,732.20212669302,732.20212669302,732.20212669302,732.20212669302,732.20212669302,732.20212669302,732.20212669302,732.20212669302,732.20212669302,732.20212669302,732.20212669302,732.20212669302,732.20212669302,732.20212669302,732.20212669302,732.20212669302,732.20212669302,732.20212669302,732.20212669302,732.20212669302,732.20212669302,2.3823877840635e-17,150.84672406132,32.892631450054,158.30446056519,29.868211844825,0
3.5e-06,20000000,2.4062572965399e-07,1.0388209017349e-06,2.1377808573572e-07,1,607.67959772498,607.67959772498,607.67959772498,607.67959772498,607.67959772498,607.67959772498,607.67959772498,607.67959772498,607.67959772498,607.67959772498,607.67959772498,607.67959772498,607.67959772498,607.67959772498,607.67959772498,607.67959772498,607.67959772498,607.67959772498,607.67959772498,607.67959772498,607.67959772498,607.67959772498,607.67959772498,607.67959772498,607.67959772498,607.67959772498,607.67959772498,607.67959772498,607.67959772498,607.67959772498,607.67959772498,607.67959772498,607.67959772498,607.67959772498,607.67959772498,607.67959772498,607.67959772498,607.67959772498,607.67959772498,607.67959772498,607.67959772498,607.67959772498,607.67959772498,607.67959772498,607.67959772498,607.67959772498,607.67959772498,607.67959772498,-1.161520822614e-22,-5.8604407241338e-25,-7.8838029927926e-23,-3.3938388757236e-23,2.5482270117209e-23,4.5290032444158e-22,-1.8757746624476e-22,1.0469609720957e-24,7.432402004074e-24,2.196986926837e-24,2.3729245638422e-23,-2.087197036496e-21,-4.9140165832579e-26,-1.4071351327521e-24,3.3570468142939e-23,-1.7058040751553e-21,-3.6817240620712e-24,3.7881115916961e-23,4.2390474342255e-22,-3.0741730684011e-22,-7.158826726857e-24,5.8016652669496e-24,1.0219495092405e-24,-8.9774338102969e-22,6.8385415857367e-23,-1.5797496147902e-21,7.71709123701e-24,2.2915262290182e-22,-5.8448216975109e-23,-3.359655676992e-24,4.5125943328527e-24,3.3741558012765e-23,3.7538929186276e-24,-1.3899032293791e-21,-1.8298994326914e-23,-3.1992563881574e-24,7.0943430556535e-23,-5.626106405266e-22,-6.8885734030832e-25,-8.0382313723554e-25,7.7995067783476e-24,-2.5005404964539e-21,-4.2304725522055e-24,-3.4295127429579e-24,-5.1889273392571e-23,-7.9903098578392e-24,1.708070812969e-23,5.1732526577686e-23,732.20212669302,732.20212669302,732.20212669302,732.20212669302,732.20212669302,732.20212669302,732.20212669302,732.20212669302,732.20212669302,732.20212669302,732.20212669302,732.20212669302,732.20212669302,732.20212669302,732.20212669302,732.20212669302,732.20212669302,732.20212669302,732.20212669302,732.20212669302,732.20212669302,732.20212669302,732.20212669302,732.20212669302,732.20212669302,732.20212669302,732.20212669302,732.20212669302,732.20212669302,732.20212669302,732.20212669302,732.20212669302,732.20212669302,732.20212669302,732.20212669302,732.20212669302,732.20212669302,732.20212669302,732.20212669302,732.20212669302,732.20212669302,732.20212669302,732.20212669302,732.20212669302,732.20212669302,732.20212669302,732.20212669302,732.20212669302,4.328510637228e-17,155.28721513021,33.859706591218,162.96550771573,30.746382858379,0
3.6e-06,20000000,2.4750062325775e-07,1.0685014751838e-06,2.1988621111727e-07,1,607.67959772498,607.67959772498,607.67959772498,607.67959772498,607.67959772498,607.67959772498,607.67959772498,607.67959772498,607.67959772498,607.67959772498,607.67959772498,607.67959772498,607.67959772498,607.67959772498,607.67959772498,607.67959772498,607.67959772498,607.67959772498,607.67959772498,607.67959772498,607.67959772498,607.67959772498,607.67959772498,607.67959772498,607.67959772498,607.67959772498,607.67959772498,607.67959772498,607.67959772498,607.67959772498,607.67959772498,607.67959772498,607.67959772498,607.67959772498,607.67959772498,607.67959772498,607.67959772498,607.67959772498,607.67959772498,607.67959772498,607.67959772498,607.67959772498,607.67959772498,607.67959772498,607.67959772498,607.67959772498,607.67959772498,607.67959772498,-2.0405843756358e-22,-1.0295635478566e-24,-1.3850250712042e-22,-5.9601943333486e-23,4.4768388035301e-23,7.9552491682811e-22,-3.2957093211797e-22,1.8393909267891e-24,1.3057873884792e-23,3.8597423793425e-24,4.1688536486382e-23,-3.6668356871843e-21,-8.633233645798e-26,-2.4719156634321e-24,5.8978105302815e-23,-2.9968349505265e-21,-6.4684249468485e-24,6.6551112602513e-23,7.4459739703534e-22,-5.4012802826802e-22,-1.2576178443667e-23,1.0192788348716e-23,1.7953832649979e-24,-1.5772040949925e-21,1.2014133951136e-22,-2.775340408054e-21,1.3557942668939e-23,4.0250601709349e-22,-1.0269205882086e-22,-5.902201229945e-24,7.9280770168809e-24,5.9279289265099e-23,6.595054501873e-24,-2.4418130089964e-21,-3.214773261087e-23,-5.6202445571311e-24,1.246362467662e-22,-9.8841888412174e-22,-1.2103473081744e-24,-1.4121238794447e-24,1.3702537734671e-23,-4.3930696461301e-21,-7.4324313916863e-24,-6.0251629718652e-24,-9.1160220020732e-23,-1.4034101163394e-23,3.0008064146876e-23,9.0867176694476e-23,732.20212669302,732.20212669302,732.20212669302,732.20212669302,732.20212669302,732.20212669302,732.20212669302,732.20212669302,732.20212669302,732.20212669302,732.20212669302,732.20212669302,732.20212669302,732.20212669302,732.20212669302,732.20212669302,732.20212669302,732.20212669302,732.20212669302,732.20212669302,732.20212669302,732.20212669302,732.20212669302,732.20212669302,732.20212669302,732.20212669302,732.20212669302,732.20212669302,732.20212669302,732.20212669302,732.20212669302,732.20212669302,732.20212669302,732.20212669302,732.20212669302,732.20212669302,732.20212669302,732.20212669302,732.20212669302,732.20212669302,732.20212669302,732.20212669302,732.20212669302,732.20212669302,732.20212669302,732.20212669302,732.20212669302,732.20212669302,7.7294310643918e-17,159.72792472039,34.826761446047,167.6268426178,31.624536406573,0
3.7e-06,20000000,2.5437550977876e-07,1.0981820473142e-06,2.2599434654959e-07,1,607.67959772498,607.67959772498,607.67959772498,607.67959772498,607.67959772498,607.67959772498,607.67959772498,607.67959772498,607.67959772498,607.67959772498,607.67959772498,607.67959772498,607.67959772498,607.67959772498,607.67959772498,607.67959772498,607.67959772498,607.67959772498,607.67959772498,607.67959772498,607.67959772498,607.67959772498,607.67959772498,607.67959772498,607.67959772498,607.67959772498,607.67959772498,607.67959772498,607.67959772498,607.67959772498,607.67959772498,607.67959772498,607.67959772498,607.67959772498,607.67959772498,607.67959772498,607.67959772498,607.67959772498,607.67959772498,607.67959772498,607.67959772498,607.67959772498,607.67959772498,607.67959772498,607.67959772498,607.67959772498,607.67959772498,607.67959772498,-3.5300223242982e-22,-1.7810305827068e-24,-2.3959339693421e-22,-1.0306824753641e-22,7.744620417054e-23,1.3759424882803e-21,-5.7018064670743e-22,3.1820933919202e-24,2.2589732323507e-23,6.6770480721537e-24,7.211817103718e-23,-6.3432932208744e-21,-1.4935016620426e-25,-4.2758930162353e-24,1.0202804705782e-22,-5.1843204704027e-21,-1.1190286035461e-23,1.1512859753242e-22,1.287864257822e-21,-9.3445943096204e-22,-2.1754588357838e-23,1.7633100483105e-23,3.1058483309588e-24,-2.7284683326794e-21,2.0783409060068e-22,-4.8010872400491e-21,2.3454667911774e-23,6.9616993138403e-22,-1.7766332757932e-22,-1.0210067016855e-23,1.3715282713575e-23,1.0255012207324e-22,1.140906976503e-23,-4.224113511244e-21,-5.5612037956017e-23,-9.7220246961837e-24,2.1561147838962e-22,-1.7098950854247e-21,-2.0940452323064e-24,-2.4427579180889e-24,2.3704467955857e-23,-7.5997205289948e-21,-1.285784758664e-23,-1.0423186643356e-23,-1.5769883248504e-22,-2.4271740546458e-23,5.1911720742566e-23,1.5716133719644e-22,732.20212669302,732.20212669302,732.20212669302,732.20212669302,732.20212669302,732.20212669302,732.20212669302,732.20212669302,732.20212669302,732.20212669302,732.20212669302,732.20212669302,732.20212669302,732.20212669302,732.20212669302,732.20212669302,732.20212669302,732.20212669302,732.20212669302,732.20212669302,732.20212669302,732.20212669302,732.20212669302,732.20212669302,732.20212669302,732.20212669302,732.20212669302,732.20212669302,732.20212669302,732.20212669302,732.20212669302,732.20212669302,732.20212669302,732.20212669302,732.20212669302,732.20212669302,732.20212669302,732.20212669302,732.20212669302,732.20212669302,732.20212669302,732.20212669302,732.20212669302,732.20212669302,732.20212669302,732.20212669302,732.20212669302,732.20212669302,1.3578854981094e-16,164.1688528385,35.793796015358,172.28846528145,32.502672490049,0
3.8e-06,20000000,2.6125038921593e-07,1.1278626181261e-06,2.3210249203646e-07,1,607.67959772498,607.67959772498,607.67959772498,607.67959772498,607.67959772498,607.67959772498,607.67959772498,607.67959772498,607.67959772498,607.67959772498,607.67959772498,607.67959772498,607.67959772498,607.67959772498,607.67959772498,607.67959772498,607.67959772498,607.67959772498,607.67959772498,607.67959772498,607.67959772498,607.67959772498,607.67959772498,607.67959772498,607.67959772498,607.67959772498,607.67959772498,607.67959772498,607.67959772498,607.67959772498,607.67959772498,607.67959772498,607.67959772498,607.67959772498,607.67959772498,607.67959772498,607.67959772498,607.67959772498,607.67959772498,607.67959772498,607.67959772498,607.67959772498,607.67959772498,607.67959772498,607.67959772498,607.67959772498,607.67959772498,607.67959772498,-6.0180159145665e-22,-3.0362853383174e-24,-4.0845577496477e-22,-1.7564762510839e-22,1.3203279024036e-22,2.3453073438881e-21,-9.7214048177081e-22,5.4250629934657e-24,3.8512586262566e-23,1.1383181846422e-23,1.2294921061567e-22,-1.0814118153798e-20,-2.5461906088447e-25,-7.2890847037137e-24,1.7394074133017e-22,-8.8384037972501e-21,-1.9078174471229e-23,1.9627459637424e-22,2.1951876649942e-21,-1.5932252206244e-21,-3.7085661944223e-23,3.0061963542852e-23,5.2948821715655e-24,-4.6516060213249e-21,3.5431871051114e-22,-8.1849479398888e-21,3.9986902856778e-23,1.1866185503343e-21,-3.0290867265774e-22,-1.740588695315e-23,2.3382699703634e-23,1.7483257764697e-22,1.9450692496647e-23,-7.2013139061561e-21,-9.4806968299619e-23,-1.6573384723308e-23,3.6758042699578e-22,-2.9150826904828e-21,-3.5703853111894e-24,-4.1642907840264e-24,4.0412191586768e-23,-1.2956274479908e-20,-2.1920912195193e-23,-1.776990952416e-23,-2.6884661747594e-22,-4.1368542822967e-23,8.8500526648809e-23,2.6787820462647e-22,732.20212669302,732.20212669302,732.20212669302,732.20212669302,732.20212669302,732.20212669302,732.20212669302,732.20212669302,732.20212669302,732.20212669302,732.20212669302,732.20212669302,732.20212669302,732.20212669302,732.20212669302,732.20212669302,732.20212669302,732.20212669302,732.20212669302,732.20212669302,732.20212669302,732.20212669302,732.20212669302,732.20212669302,732.20212669302,732.20212669302,732.20212669302,732.20212669302,732.20212669302,732.20212669302,732.20212669302,732.20212669302,732.20212669302,732.20212669302,732.20212669302,732.20212669302,732.20212669302,732.20212669302,732.20212669302,732.20212669302,732.20212669302,732.20212669302,732.20212669302,732.20212669302,732.20212669302,732.20212669302,732.20212669302,732.20212669302,2.3489518280508e-16,168.60999949134,36.760810300034,176.95037571622,33.38079110958,0
3.9e-06,20000000,2.6812526156823e-07,1.1575431876195e-06,2.3821064758168e-07,1,607.67959772498,607.67959772498,607.67959772498,607.67959772498,607.67959772498,607.67959772498,607.67959772498,607.67959772498,607.67959772498,607.67959772498,607.67959772498,607.67959772498,607.67959772498,607.67959772498,607.67959772498,607.67959772498,607.67959772498,607.67959772498,607.67959772498,607.67959772498,607.67959772498,607.67959772498,607.67959772498,607.67959772498,607.67959772498,607.67959772498,607.67959772498,607.67959772498,607.67959772498,607.67959772498,607.67959772498,607.67959772498,607.67959772498,607.67959772498,607.67959772498,607.67959772498,607.67959772498,607.67959772498,607.67959772498,607.67959772498,607.67959772498,607.67959772498,607.67959772498,607.67959772498,607.67959772498,607.67959772498,607.67959772498,607.67959772498,-1.0118402916678e-21,-5.1050094043874e-24,-6.8674893468904e-22,-2.9521768032322e-22,2.2199654880644e-22,3.9425935275548e-21,-1.6346634073032e-21,9.121775998821e-24,6.475555648194e-23,1.9139280302663e-23,2.067233541225e-22,-1.8182357424324e-20,-4.2811344982532e-25,-1.2254678473847e-23,2.9245955672522e-22,-1.4860677021282e-20,-3.2078584834301e-23,3.3001047766591e-22,3.6902515883003e-21,-2.6790242817576e-21,-6.2351076895956e-23,5.0546229243248e-23,8.9025641879163e-24,-7.8211332917217e-21,5.9573641234991e-22,-1.3761792419711e-20,6.7234008289571e-23,1.994755929574e-21,-5.0934069980343e-22,-2.9264862099529e-23,3.9315816257617e-23,2.9396207011878e-22,3.2704134308841e-23,-1.2107951197023e-20,-1.5940225665303e-22,-2.786432081578e-23,6.1803865122565e-22,-4.901342483847e-21,-6.0038089928265e-24,-7.0013924779571e-24,6.7948105496114e-23,-2.1784390578775e-20,-3.6857996822772e-23,-2.9878079378802e-23,-4.5202601794154e-22,-6.9538013844953e-23,1.4880209384987e-22,4.503102155524e-22,732.20212669302,732.20212669302,732.20212669302,732.20212669302,732.20212669302,732.20212669302,732.20212669302,732.20212669302,732.20212669302,732.20212669302,732.20212669302,732.20212669302,732.20212669302,732.20212669302,732.20212669302,732.20212669302,732.20212669302,732.20212669302,732.20212669302,732.20212669302,732.20212669302,732.20212669302,732.20212669302,732.20212669302,732.20212669302,732.20212669302,732.20212669302,732.20212669302,732.20212669302,732.20212669302,732.20212669302,732.20212669302,732.20212669302,732.20212669302,732.20212669302,732.20212669302,732.20212669302,732.20212669302,732.20212669302,732.20212669302,732.20212669302,732.20212669302,732.20212669302,732.20212669302,732.20212669302,732.20212669302,732.20212669302,732.20212669302,4.0044055655839e-16,173.05136468557,37.727804301022,181.61257393203,34.258892266026,0
4e-06,20000000,2.7500012683448e-07,1.1872237557945e-06,2.4431881318902e-07,1,607.67959772498,607.67959772498,607.67959772498,607.67959772498,607.67959772498,607.67959772498,607.67959772498,607.67959772498,607.67959772498,607.67959772498,607.67959772498,607.67959772498,607.67959772498,607.67959772498,607.67959772498,607.67959772498,607.67959772498,607.67959772498,607.67959772498,607.67959772498,607.67959772498,607.67959772498,607.67959772498,607.67959772498,607.67959772498,607.67959772498,607.67959772498,607.67959772498,607.67959772498,607.67959772498,607.67959772498,607.67959772498,607.67959772498,607.67959772498,607.67959772498,607.67959772498,607.67959772498,607.67959772498,607.67959772498,607.67959772498,607.67959772498,607.67959772498,607.67959772498,607.67959772498,607.67959772498,607.67959772498,607.67959772498,607.67959772498,-1.6790285627943e-21,-8.4710645220317e-24,-1.1395632276328e-21,-4.8969972055881e-22,3.6838176316652e-22,6.5411141124966e-21,-2.7127834694292e-21,1.5137058721424e-23,1.0745802957857e-22,3.1759599052695e-23,3.430368844106e-22,-3.0171489388426e-20,-7.1041857965862e-25,-2.0333789509001e-23,4.8530838679553e-22,-2.4659872635356e-20,-5.3233014785441e-23,5.476194216437e-22,6.1224856718043e-21,-4.4459400672339e-21,-1.0345925850102e-22,8.3877921436789e-23,1.4772751934493e-23,-1.297848287583e-20,9.8855692548866e-22,-2.2836080333281e-20,1.1157007271631e-22,3.3094503979886e-21,-8.4526430806299e-22,-4.8560626784287e-23,6.5242022906484e-23,4.8780664449346e-22,5.42697380747e-23,-2.0091717323595e-20,-2.6450637889578e-22,-4.6235247853345e-23,1.025572512972e-21,-8.1332982658267e-21,-9.9638256309597e-24,-1.1617569462236e-23,1.1275343469005e-22,-3.6149156460695e-20,-6.1163497470831e-23,-4.9580124804567e-23,-7.5008376770211e-22,-1.1536174527789e-22,2.469219552835e-22,7.4709132788835e-22,732.20212669302,732.20212669302,732.20212669302,732.20212669302,732.20212669302,732.20212669302,732.20212669302,732.20212669302,732.20212669302,732.20212669302,732.20212669302,732.20212669302,732.20212669302,732.20212669302,732.20212669302,732.20212669302,732.20212669302,732.20212669302,732.20212669302,732.20212669302,732.20212669302,732.20212669302,732.20212669302,732.20212669302,732.20212669302,732.20212669302,732.20212669302,732.20212669302,732.20212669302,732.20212669302,732.20212669302,732.20212669302,732.20212669302,732.20212669302,732.20212669302,732.20212669302,732.20212669302,732.20212669302,732.20212669302,732.20212669302,732.20212669302,732.20212669302,732.20212669302,732.20212669302,732.20212669302,732.20212669302,732.20212669302,732.20212669302,6.7326301877647e-16,177.49294842789,38.694778019165,186.27505993863,35.136975960046,0
4.1e-06,20000000,2.8187498501366e-07,1.216904322651e-06,2.5042698886221e-07,1,607.67959772498,607.67959772498,607.67959772498,607.67959772498,607.67959772498,607.67959772498,607.67959772498,607.67959772498,607.67959772498,607.67959772498,607.67959772498,607.67959772498,607.67959772498,607.67959772498,607.67959772498,607.67959772498,607.67959772498,607.67959772498,607.67959772498,607.67959772498,607.67959772498,607.67959772498,607.67959772498,607.67959772498,607.67959772498,607.67959772498,607.67959772498,607.67959772498,607.67959772498,607.67959772498,607.67959772498,607.67959772498,607.67959772498,607.67959772498,607.67959772498,607.67959772498,607.67959772498,607.67959772498,607.67959772498,607.67959772498,607.67959772498,607.67959772498,607.67959772498,607.67959772498,607.67959772498,607.67959772498,607.67959772498,607.67959772498,-2.7515272684589e-21,-1.3881904616058e-23,-1.867447844532e-21,-8.0220784428606e-22,6.0369786948687e-22,1.0717440239942e-20,-4.4460213193697e-21,2.4806940610476e-23,1.761044485764e-22,5.2046801117028e-23,5.621623006489e-22,-4.9443923950463e-20,-1.1642315735216e-24,-3.3319950543814e-23,7.9531541144572e-22,-4.0412217755058e-20,-8.7240178447998e-23,8.9742792135311e-22,1.003157680228e-20,-7.2865202928019e-21,-1.6953695831834e-22,1.3745994915265e-22,2.4209026099624e-23,-2.1269035250391e-20,1.6200142793895e-21,-3.7422926230228e-20,1.8284203653476e-22,5.4224007551707e-21,-1.3853078740005e-21,-7.9577759504619e-23,1.0691955958338e-22,7.9941767870719e-22,8.8936987638671e-23,-3.2925553070038e-20,-4.3345843336549e-22,-7.5764810435499e-23,1.6806865758528e-21,-1.3328705418853e-20,-1.6330330946987e-23,-1.9037755914419e-23,1.8477866736982e-22,-5.9240749093922e-20,-1.0023572037451e-22,-8.12516477929e-23,-1.2292089777147e-21,-1.8900399076374e-22,4.0465041854439e-22,1.2240670605125e-21,732.20212669302,732.20212669302,732.20212669302,732.20212669302,732.20212669302,732.20212669302,732.20212669302,732.20212669302,732.20212669302,732.20212669302,732.20212669302,732.20212669302,732.20212669302,732.20212669302,732.20212669302,732.20212669302,732.20212669302,732.20212669302,732.20212669302,732.20212669302,732.20212669302,732.20212669302,732.20212669302,732.20212669302,732.20212669302,732.20212669302,732.20212669302,732.20212669302,732.20212669302,732.20212669302,732.20212669302,732.20212669302,732.20212669302,732.20212669302,732.20212669302,732.20212669302,732.20212669302,732.20212669302,732.20212669302,732.20212669302,732.20212669302,732.20212669302,732.20212669302,732.20212669302,732.20212669302,732.20212669302,732.20212669302,732.20212669302,1.1171691702245e-15,181.93475072503,39.661731455329,190.93783374565,36.015042192478,0
4.2e-06,20000000,2.8874983610458e-07,1.2465848881893e-06,2.5653517460508e-07,1,607.67959772498,607.67959772498,607.67959772498,607.67959772498,607.67959772498,607.67959772498,607.67959772498,607.67959772498,607.67959772498,607.67959772498,607.67959772498,607.67959772498,607.67959772498,607.67959772498,607.67959772498,607.67959772498,607.67959772498,607.67959772498,607.67959772498,607.67959772498,607.67959772498,607.67959772498,607.67959772498,607.67959772498,607.67959772498,607.67959772498,607.67959772498,607.67959772498,607.67959772498,607.67959772498,607.67959772498,607.67959772498,607.67959772498,607.67959772498,607.67959772498,607.67959772498,607.67959772498,607.67959772498,607.67959772498,607.67959772498,607.67959772498,607.67959772498,607.67959772498,607.67959772498,607.67959772498,607.67959772498,607.67959772498,607.67959772498,-4.4557511093116e-21,-2.2479750636526e-23,-3.0240565103313e-21,-1.2985995612744e-21,9.7762551972471e-22,1.7352489221411e-20,-7.2004446499392e-21,4.0173186484999e-23,2.8518924658721e-22,8.4283864504523e-23,9.1036170941264e-22,-8.0068275754229e-20,-1.8853665681927e-24,-5.3953762871613e-23,1.2879303165436e-21,-6.544340765903e-20,-1.4128088045982e-22,1.4532879690367e-21,1.6242093075095e-20,-1.1800709466514e-20,-2.7453061299663e-22,2.2260558904027e-22,3.92034780094e-23,-3.4443162382187e-20,2.6234172413899e-21,-6.0601767493296e-20,2.9609818726561e-22,8.7792762689711e-21,-2.2435277204834e-21,-1.2886367051019e-22,1.7314831476891e-22,1.2945867294474e-21,1.4402519486495e-22,-5.3318811984232e-20,-7.0192406181875e-22,-1.2268550594605e-22,2.7216887374153e-21,-2.1584431053215e-20,-2.6448144761432e-23,-3.0828159491585e-23,2.9923007925011e-22,-9.5934381709807e-20,-1.6232450443444e-22,-1.3157946176749e-22,-1.990549793606e-21,-3.0599300287246e-22,6.5528714166647e-22,1.9818377263393e-21,732.20212669302,732.20212669302,732.20212669302,732.20212669302,732.20212669302,732.20212669302,732.20212669302,732.20212669302,732.20212669302,732.20212669302,732.20212669302,732.20212669302,732.20212669302,732.20212669302,732.20212669302,732.20212669302,732.20212669302,732.20212669302,732.20212669302,732.20212669302,732.20212669302,732.20212669302,732.20212669302,732.20212669302,732.20212669302,732.20212669302,732.20212669302,732.20212669302,732.20212669302,732.20212669302,732.20212669302,732.20212669302,732.20212669302,732.20212669302,732.20212669302,732.20212669302,732.20212669302,732.20212669302,732.20212669302,732.20212669302,732.20212669302,732.20212669302,732.20212669302,732.20212669302,732.20212669302,732.20212669302,732.20212669302,732.20212669302,1.8307234601459e-15,186.37677158374,40.628664610331,195.60089536309,36.893090964033,0
4.3e-06,20000000,2.9562468010618e-07,1.2762654524092e-06,2.6264337042144e-07,1,607.67959772498,607.67959772498,607.67959772498,607.67959772498,607.67959772498,607.67959772498,607.67959772498,607.67959772498,607.67959772498,607.67959772498,607.67959772498,607.67959772498,607.67959772498,607.67959772498,607.67959772498,607.67959772498,607.67959772498,607.67959772498,607.67959772498,607.67959772498,607.67959772498,607.67959772498,607.67959772498,607.67959772498,607.67959772498,607.67959772498,607.67959772498,607.67959772498,607.67959772498,607.67959772498,607.67959772498,607.67959772498,607.67959772498,607.67959772498,607.67959772498,607.67959772498,607.67959772498,607.67959772498,607.67959772498,607.67959772498,607.67959772498,607.67959772498,607.67959772498,607.67959772498,607.67959772498,607.67959772498,607.67959772498,607.67959772498,-7.1341569048159e-21,-3.5992213320544e-23,-4.8417900598338e-21,-2.07844321103e-21,1.5653088702939e-21,2.7778393659193e-20,-1.1529798593996e-20,6.4324138977684e-23,4.5663647014851e-22,1.349489374994e-22,1.4576084519033e-21,-1.2819841416668e-19,-3.0187480096767e-24,-8.6380111460926e-23,2.0621486339799e-21,-1.0478370622826e-19,-2.2621680769831e-22,2.3269036940724e-21,2.6000962143917e-20,-1.8896035082326e-20,-4.3953332021251e-22,3.5642698726814e-22,6.2769187562635e-23,-5.5148394944132e-20,4.2003987918653e-21,-9.7030321082149e-20,4.7410013238187e-22,1.4054016269e-20,-3.5924539259446e-21,-2.06321229862e-22,2.7723879729655e-22,2.0728276051479e-21,2.3060523279081e-22,-8.5369449280839e-20,-1.1238476297555e-21,-1.9642357281198e-22,4.3577750856264e-21,-3.4559533471546e-20,-4.2351623631133e-23,-4.9357604146746e-23,4.7910785968228e-22,-1.5360404412595e-19,-2.5990838164023e-22,-2.1067774675114e-22,-3.1870949244867e-21,-4.8980887062341e-22,1.049199145531e-21,3.1725289945576e-21,732.20212669302,732.20212669302,732.20212669302,732.20212669302,732.20212669302,732.20212669302,732.20212669302,732.20212669302,732.20212669302,732.20212669302,732.20212669302,732.20212669302,732.20212669302,732.20212669302,732.20212669302,732.20212669302,732.20212669302,732.20212669302,732.20212669302,732.20212669302,732.20212669302,732.20212669302,732.20212669302,732.20212669302,732.20212669302,732.20212669302,732.20212669302,732.20212669302,732.20212669302,732.20212669302,732.20212669302,732.20212669302,732.20212669302,732.20212669302,732.20212669302,732.20212669302,732.20212669302,732.20212669302,732.20212669302,732.20212669302,732.20212669302,732.20212669302,732.20212669302,732.20212669302,732.20212669302,732.20212669302,732.20212669302,732.20212669302,2.9645441187588e-15,190.81901101068,41.59557748515,200.26424480042,37.771122275481,0
4.4e-06,20000000,3.0249951701738e-07,1.3059460153108e-06,2.6875157631503e-07,1,607.67959772498,607.67959772498,607.67959772498,607.67959772498,607.67959772498,607.67959772498,607.67959772498,607.67959772498,607.67959772498,607.67959772498,607.67959772498,607.67959772498,607.67959772498,607.67959772498,607.67959772498,607.67959772498,607.67959772498,607.67959772498,607.67959772498,607.67959772498,607.67959772498,607.67959772498,607.67959772498,607.67959772498,607.67959772498,607.67959772498,607.67959772498,607.67959772498,607.67959772498,607.67959772498,607.67959772498,607.67959772498,607.67959772498,607.67959772498,607.67959772498,607.67959772498,607.67959772498,607.67959772498,607.67959772498,607.67959772498,607.67959772498,607.67959772498,607.67959772498,607.67959772498,607.67959772498,607.67959772498,607.67959772498,607.67959772498,-1.1299663333793e-20,-5.7006809402018e-23,-7.6687242474674e-21,-3.2908047978774e-21,2.4792976983029e-21,4.3989962285196e-20,-1.8263551741178e-20,1.0188559682778e-22,7.2328449710888e-22,2.1374482783198e-22,2.3087073631377e-21,-2.0305137949411e-19,-4.7814435995371e-24,-1.3680655167133e-22,3.2662444035681e-21,-1.6596737307749e-19,-3.5831703833646e-22,3.6855834939929e-21,4.117541254873e-20,-2.9931905707104e-20,-6.9613575939749e-22,5.6455493757822e-22,9.941903231653e-23,-8.7350189073722e-20,6.6529582235542e-21,-1.5368474500616e-19,7.5094048403134e-22,2.2255804871569e-20,-5.6905217561261e-21,-3.2678224590125e-22,4.39127724292e-22,3.2831923827943e-21,3.652590280193e-22,-1.352152296411e-19,-1.7800239787963e-21,-3.1109646021133e-22,6.9022753744524e-21,-5.4738923342804e-20,-6.7088182144136e-23,-7.8173878415776e-23,7.5886139281476e-22,-2.4329441158065e-19,-4.1167794261171e-22,-3.336954918776e-22,-5.0479851222789e-21,-7.7560912551416e-22,1.6618251400686e-21,5.0239374225312e-21,732.20212669302,732.20212669302,732.20212669302,732.20212669302,732.20212669302,732.20212669302,732.20212669302,732.20212669302,732.20212669302,732.20212669302,732.20212669302,732.20212669302,732.20212669302,732.20212669302,732.20212669302,732.20212669302,732.20212669302,732.20212669302,732.20212669302,732.20212669302,732.20212669302,732.20212669302,732.20212669302,732.20212669302,732.20212669302,732.20212669302,732.20212669302,732.20212669302,732.20212669302,732.20212669302,732.20212669302,732.20212669302,732.20212669302,732.20212669302,732.20212669302,732.20212669302,732.20212669302,732.20212669302,732.20212669302,732.20212669302,732.20212669302,732.20212669302,732.20212669302,732.20212669302,732.20212669302,732.20212669302,732.20212669302,732.20212669302,4.7464369880381e-15,195.26146901258,42.562470080664,204.92788206771,38.64913612764,0
4.5e-06,20000000,3.093743468371e-07,1.3356265768943e-06,2.7485979228963e-07,1,607.67959772498,607.67959772498,607.67959772498,607.67959772498,607.67959772498,607.67959772498,607.67959772498,607.67959772498,607.67959772498,607.67959772498,607.67959772498,607.67959772498,607.67959772498,607.67959772498,607.67959772498,607.67959772498,607.67959772498,607.67959772498,607.67959772498,607.67959772498,607.67959772498,607.67959772498,607.67959772498,607.67959772498,607.67959772498,607.67959772498,607.67959772498,607.67959772498,607.67959772498,607.67959772498,607.67959772498,607.67959772498,607.67959772498,607.67959772498,607.67959772498,607.67959772498,607.67959772498,607.67959772498,607.67959772498,607.67959772498,607.67959772498,607.67959772498,607.67959772498,607.67959772498,607.67959772498,607.67959772498,607.67959772498,607.67959772498,-1.7713348991388e-20,-8.9362898011701e-23,-1.2021332711617e-20,-5.1567768894466e-21,3.886598114571e-21,6.8946524806933e-20,-2.8632619669805e-20,1.5972170243661e-22,1.1338615953324e-21,3.350688756367e-22,3.6191720246078e-21,-3.1830360962758e-19,-7.4955506240678e-24,-2.1444324008704e-22,5.1202329570286e-21,-2.6017407065939e-19,-5.6172322025487e-22,5.7775861096449e-21,6.4535522216055e-20,-4.6925658620134e-20,-1.0912101874083e-21,8.8502220751241e-22,1.5584930991952e-22,-1.3693269291275e-19,1.0429209605916e-20,-2.4091640899299e-19,1.177208222223e-21,3.4881767899329e-20,-8.9212415128648e-21,-5.122539508138e-22,6.8839868973244e-22,5.1468535056189e-21,5.7259175253108e-22,-2.1196349320357e-19,-2.7903366260261e-21,-4.8765071030407e-22,1.0820120079429e-20,-8.5809813532055e-20,-1.0518027584668e-22,-1.2254104388609e-22,1.1896082029437e-21,-3.8139407685855e-19,-6.4536771997632e-22,-5.2311159054375e-22,-7.9132240413313e-21,-1.215546286781e-21,2.6051038975111e-21,7.8739956143581e-21,732.20212669302,732.20212669302,732.20212669302,732.20212669302,732.20212669302,732.20212669302,732.20212669302,732.20212669302,732.20212669302,732.20212669302,732.20212669302,732.20212669302,732.20212669302,732.20212669302,732.20212669302,732.20212669302,732.20212669302,732.20212669302,732.20212669302,732.20212669302,732.20212669302,732.20212669302,732.20212669302,732.20212669302,732.20212669302,732.20212669302,732.20212669302,732.20212669302,732.20212669302,732.20212669302,732.20212669302,732.20212669302,732.20212669302,732.20212669302,732.20212669302,732.20212669302,732.20212669302,732.20212669302,732.20212669302,732.20212669302,732.20212669302,732.20212669302,732.20212669302,732.20212669302,732.20212669302,732.20212669302,732.20212669302,732.20212669302,7.5175900080518e-15,199.70414559612,43.529342397626,209.59180717451,39.527132521173,0
4.6e-06,20000000,3.162491695642e-07,1.3653071371595e-06,2.8096801834898e-07,1,607.67959772498,607.67959772498,607.67959772498,607.67959772498,607.67959772498,607.67959772498,607.67959772498,607.67959772498,607.67959772498,607.67959772498,607.67959772498,607.67959772498,607.67959772498,607.67959772498,607.67959772498,607.67959772498,607.67959772498,607.67959772498,607.67959772498,607.67959772498,607.67959772498,607.67959772498,607.67959772498,607.67959772498,607.67959772498,607.67959772498,607.67959772498,607.67959772498,607.67959772498,607.67959772498,607.67959772498,607.67959772498,607.67959772498,607.67959772498,607.67959772498,607.67959772498,607.67959772498,607.67959772498,607.67959772498,607.67959772498,607.67959772498,607.67959772498,607.67959772498,607.67959772498,607.67959772498,607.67959772498,607.67959772498,607.67959772498,-2.7494477241231e-20,-1.3870667706097e-22,-1.8659144405114e-20,-8.0013654677633e-21,6.032817760052e-21,1.0699926301736e-19,-4.4447418394456e-20,2.4792748597595e-22,1.7600319290616e-21,5.200943976379e-22,5.6177082038045e-21,-4.9406807876015e-19,-1.1634766170449e-23,-3.3283381077866e-22,7.9476800558676e-21,-4.0384519116358e-19,-8.7194061082341e-22,8.9680126441648e-21,1.0015423363195e-19,-7.2844370818751e-20,-1.6936844253776e-21,1.373762760183e-21,2.419077867408e-22,-2.1254948688345e-19,1.6188164482562e-20,-3.7394834366369e-19,1.8273034190616e-21,5.4133148298387e-20,-1.3848671612672e-20,-7.9510007190789e-22,1.0685597825885e-21,7.9890823055902e-21,8.8878932563293e-22,-3.2900775802902e-19,-4.3310875170351e-21,-7.5688912576084e-22,1.6795057375453e-20,-1.3319480226821e-19,-1.6327969973961e-22,-1.9020025949056e-22,1.8465244176953e-21,-5.9200498912679e-19,-1.0017664703544e-21,-8.1198491173432e-22,-1.2282830815919e-20,-1.8862953894654e-21,4.0436576982284e-21,1.2219564455531e-20,732.20212669302,732.20212669302,732.20212669302,732.20212669302,732.20212669302,732.20212669302,732.20212669302,732.20212669302,732.20212669302,732.20212669302,732.20212669302,732.20212669302,732.20212669302,732.20212669302,732.20212669302,732.20212669302,732.20212669302,732.20212669302,732.20212669302,732.20212669302,732.20212669302,732.20212669302,732.20212669302,732.20212669302,732.20212669302,732.20212669302,732.20212669302,732.20212669302,732.20212669302,732.20212669302,732.20212669302,732.20212669302,732.20212669302,732.20212669302,732.20212669302,732.20212669302,732.20212669302,732.20212669302,732.20212669302,732.20212669302,732.20212669302,732.20212669302,732.20212669302,732.20212669302,732.20212669302,732.20212669302,732.20212669302,732.20212669302,1.1784248220394e-14,204.14704076807,44.496194437044,214.25602013071,40.405111456941,0
4.7e-06,20000000,3.2312398519759e-07,1.3949876961066e-06,2.8707625449694e-07,1,607.67959772498,607.67959772498,607.67959772498,607.67959772498,607.67959772498,607.67959772498,607.67959772498,607.67959772498,607.67959772498,607.67959772498,607.67959772498,607.67959772498,607.67959772498,607.67959772498,607.67959772498,607.67959772498,607.67959772498,607.67959772498,607.67959772498,607.67959772498,607.67959772498,607.67959772498,607.67959772498,607.67959772498,607.67959772498,607.67959772498,607.67959772498,607.67959772498,607.67959772498,607.67959772498,607.67959772498,607.67959772498,607.67959772498,607.67959772498,607.67959772498,607.67959772498,607.67959772498,607.67959772498,607.67959772498,607.67959772498,607.67959772498,607.67959772498,607.67959772498,607.67959772498,607.67959772498,607.67959772498,607.67959772498,607.67959772498,-4.2275078359645e-20,-2.1327092824928e-22,-2.8689633611529e-20,-1.2298268586328e-20,9.2760897889644e-21,1.6449146214254e-19,-6.8348055608181e-20,3.812234317199e-22,2.7062954885851e-21,7.9969509293398e-22,8.6378030118533e-21,-7.5967213118421e-19,-1.7889818948034e-23,-5.11725055582e-22,1.2220393719145e-20,-6.2095479687128e-19,-1.3407431913085e-21,1.3789234703783e-20,1.5396923932275e-19,-1.1201489653324e-19,-2.6040585462906e-21,2.1123383198512e-21,3.7195378252301e-22,-3.268188815684e-19,2.4890750320633e-20,-5.7497771673882e-19,2.8097146314464e-21,8.3218953996277e-20,-2.1295365791317e-20,-1.2225100447514e-21,1.6430537858504e-21,1.2284179415645e-20,1.3666167494046e-21,-5.0587751496385e-19,-6.6593445677711e-21,-1.1637235899829e-21,2.5824092613062e-20,-2.0480085402647e-19,-2.5108700801572e-22,-2.9243867135253e-22,2.8392283803906e-21,-9.1027152225903e-19,-1.5403517648736e-21,-1.2485206898832e-21,-1.8885898239238e-20,-2.8996265758006e-21,6.2175299755907e-21,1.8784967576247e-20,732.20212669302,732.20212669302,732.20212669302,732.20212669302,732.20212669302,732.20212669302,732.20212669302,732.20212669302,732.20212669302,732.20212669302,732.20212669302,732.20212669302,732.20212669302,732.20212669302,732.20212669302,732.20212669302,732.20212669302,732.20212669302,732.20212669302,732.20212669302,732.20212669302,732.20212669302,732.20212669302,732.20212669302,732.20212669302,732.20212669302,732.20212669302,732.20212669302,732.20212669302,732.20212669302,732.20212669302,732.20212669302,732.20212669302,732.20212669302,732.20212669302,732.20212669302,732.20212669302,732.20212669302,732.20212669302,732.20212669302,732.20212669302,732.20212669302,732.20212669302,732.20212669302,732.20212669302,732.20212669302,732.20212669302,732.20212669302,1.8290885874291e-14,208.59015453513,45.463026199681,218.92052094604,41.283072935653,0
4.8e-06,20000000,3.2999879373619e-07,1.4246682537357e-06,2.9318450073722e-07,1,607.67959772498,607.67959772498,607.67959772498,607.67959772498,607.67959772498,607.67959772498,607.67959772498,607.67959772498,607.67959772498,607.67959772498,607.67959772498,607.67959772498,607.67959772498,607.67959772498,607.67959772498,607.67959772498,607.67959772498,607.67959772498,607.67959772498,607.67959772498,607.67959772498,607.67959772498,607.67959772498,607.67959772498,607.67959772498,607.67959772498,607.67959772498,607.67959772498,607.67959772498,607.67959772498,607.67959772498,607.67959772498,607.67959772498,607.67959772498,607.67959772498,607.67959772498,607.67959772498,607.67959772498,607.67959772498,607.67959772498,607.67959772498,607.67959772498,607.67959772498,607.67959772498,607.67959772498,607.67959772498,607.67959772498,607.67959772498,-6.4415508507107e-20,-3.2496232685949e-22,-4.371448261913e-20,-1.8732288440656e-20,1.4134379407842e-20,2.5059534616902e-19,-1.0415325566779e-19,5.8090024145686e-22,4.1237938218537e-21,1.2185230573355e-21,1.3161775478343e-20,-1.1575310709909e-18,-2.7259714063774e-23,-7.7967388944173e-22,1.8620746394896e-20,-9.4617641917439e-19,-2.043014070468e-21,2.101121559685e-20,2.3456633462568e-19,-1.7069571938843e-19,-3.9676747098341e-21,3.218713191251e-21,5.6675475816499e-22,-4.9799075632054e-19,3.7926732853171e-20,-8.7610766078611e-19,4.2813508807828e-21,1.2677928139082e-19,-3.2451079993527e-20,-1.8627310064094e-21,2.5036395256447e-21,1.8718130480471e-20,2.0823882870584e-21,-7.7081769904118e-19,-1.0146892941486e-20,-1.773105082692e-21,3.9349182443282e-20,-3.1206374252444e-19,-3.8263381498676e-22,-4.4557987088969e-22,4.3262604818818e-21,-1.3870228278417e-18,-2.3471475553842e-21,-1.9024383529264e-21,-2.8776891854875e-20,-4.4171434405806e-21,9.4738925385924e-21,2.8617535819011e-20,732.20212669302,732.20212669302,732.20212669302,732.20212669302,732.20212669302,732.20212669302,732.20212669302,732.20212669302,732.20212669302,732.20212669302,732.20212669302,732.20212669302,732.20212669302,732.20212669302,732.20212669302,732.20212669302,732.20212669302,732.20212669302,732.20212669302,732.20212669302,732.20212669302,732.20212669302,732.20212669302,732.20212669302,732.20212669302,732.20212669302,732.20212669302,732.20212669302,732.20212669302,732.20212669302,732.20212669302,732.20212669302,732.20212669302,732.20212669302,732.20212669302,732.20212669302,732.20212669302,732.20212669302,732.20212669302,732.20212669302,732.20212669302,732.20212669302,732.20212669302,732.20212669302,732.20212669302,732.20212669302,732.20212669302,732.20212669302,2.812300769929e-14,213.03348690401,46.429837686514,223.58530963023,42.16101695811,0
4.9e-06,20000000,3.3687359517892e-07,1.4543488100467e-06,2.9929275707363e-07,1,607.67959772498,607.67959772498,607.67959772498,607.67959772498,607.67959772498,607.67959772498,607.67959772498,607.67959772498,607.67959772498,607.67959772498,607.67959772498,607.67959772498,607.67959772498,607.67959772498,607.67959772498,607.67959772498,607.67959772498,607.67959772498,607.67959772498,607.67959772498,607.67959772498,607.67959772498,607.67959772498,607.67959772498,607.67959772498,607.67959772498,607.67959772498,607.67959772498,607.67959772498,607.67959772498,607.67959772498,607.67959772498,607.67959772498,607.67959772498,607.67959772498,607.67959772498,607.67959772498,607.67959772498,607.67959772498,607.67959772498,607.67959772498,607.67959772498,607.67959772498,607.67959772498,607.67959772498,607.67959772498,607.67959772498,607.67959772498,-9.7302886112815e-20,-4.9086677580982e-22,-6.6032075533823e-20,-2.8285697779731e-20,2.1350979820094e-20,3.7847039037093e-19,-1.5734349729636e-19,8.7751144333427e-22,6.2294246533603e-21,1.8406547557783e-21,1.9881764497974e-20,-1.7485110641669e-18,-4.1178062850734e-23,-1.1776563102989e-21,2.8127960085623e-20,-1.4292674988902e-18,-3.0862164272165e-21,3.1738869864627e-20,3.5426370866198e-19,-2.578687657835e-19,-5.9930877950088e-21,4.8621723212621e-21,8.5611209882435e-22,-7.5225431501608e-19,5.7290437869742e-20,-1.3234063260514e-18,6.4673846979833e-21,1.9147125568789e-19,-4.9023291777744e-20,-2.8136956292951e-21,3.7819961434941e-21,2.8275354224007e-20,3.1456177733145e-21,-1.1643599107292e-18,-1.5327239175972e-20,-2.6782331199703e-21,5.9439564816054e-20,-4.713940818366e-19,-5.780583944678e-22,-6.7304730459064e-22,6.535130533461e-21,-2.095200193331e-18,-3.5456032661017e-21,-2.8737878670768e-21,-4.3468973900725e-20,-6.6706813740386e-21,1.4310944085755e-20,4.3219852752854e-20,732.20212669302,732.20212669302,732.20212669302,732.20212669302,732.20212669302,732.20212669302,732.20212669302,732.20212669302,732.20212669302,732.20212669302,732.20212669302,732.20212669302,732.20212669302,732.20212669302,732.20212669302,732.20212669302,732.20212669302,732.20212669302,732.20212669302,732.20212669302,732.20212669302,732.20212669302,732.20212669302,732.20212669302,732.20212669302,732.20212669302,732.20212669302,732.20212669302,732.20212669302,732.20212669302,732.20212669302,732.20212669302,732.20212669302,732.20212669302,732.20212669302,732.20212669302,732.20212669302,732.20212669302,732.20212669302,732.20212669302,732.20212669302,732.20212669302,732.20212669302,732.20212669302,732.20212669302,732.20212669302,732.20212669302,732.20212669302,4.2850496255799e-14,217.47703788138,47.39662889839,228.25038619316,43.038943525016,0
5e-06,20000000,3.4374838952464e-07,1.4840293650396e-06,3.0540102350999e-07,1,607.67959772498,607.67959772498,607.67959772498,607.67959772498,607.67959772498,607.67959772498,607.67959772498,607.67959772498,607.67959772498,607.67959772498,607.67959772498,607.67959772498,607.67959772498,607.67959772498,607.67959772498,607.67959772498,607.67959772498,607.67959772498,607.67959772498,607.67959772498,607.67959772498,607.67959772498,607.67959772498,607.67959772498,607.67959772498,607.67959772498,607.67959772498,607.67959772498,607.67959772498,607.67959772498,607.67959772498,607.67959772498,607.67959772498,607.67959772498,607.67959772498,607.67959772498,607.67959772498,607.67959772498,607.67959772498,607.67959772498,607.67959772498,607.67959772498,607.67959772498,607.67959772498,607.67959772498,607.67959772498,607.67959772498,607.67959772498,-1.4576143588358e-19,-7.353191806416e-22,-9.8915918431719e-20,-4.2356934700591e-20,3.1984569396337e-20,5.6685561124746e-19,-2.3572539955795e-19,1.3145758521657e-21,9.3321253427972e-21,2.7573541981478e-21,2.9783587333074e-20,-2.6193030307332e-18,-6.1686788723008e-23,-1.7640292019474e-21,4.2136748755e-20,-2.141098014272e-18,-4.6234166397809e-21,4.7545932686078e-20,5.3060248885189e-19,-3.8632826621154e-19,-8.9773230749262e-21,7.2838341229717e-21,1.2824715146484e-21,-1.1269112813098e-18,8.5822366176625e-20,-1.9824880037636e-18,9.6885369438479e-21,2.8677449293975e-19,-7.3444185175668e-20,-4.2148849217261e-21,5.6656794091064e-21,4.2357982996007e-20,4.7122879546727e-21,-1.7442327773294e-18,-2.2960240049757e-20,-4.0118428416961e-21,8.9042462546028e-20,-7.0616562312277e-19,-8.6604748304914e-22,-1.0082012904517e-21,9.7898830255906e-21,-3.1386947064331e-18,-5.3115529767413e-21,-4.3050723559637e-21,-6.51173211656e-20,-9.9903458622247e-21,2.1438270602674e-20,6.4731543421664e-20,732.20212669302,732.20212669302,732.20212669302,732.20212669302,732.20212669302,732.20212669302,732.20212669302,732.20212669302,732.20212669302,732.20212669302,732.20212669302,732.20212669302,732.20212669302,732.20212669302,732.20212669302,732.20212669302,732.20212669302,732.20212669302,732.20212669302,732.20212669302,732.20212669302,732.20212669302,732.20212669302,732.20212669302,732.20212669302,732.20212669302,732.20212669302,732.20212669302,732.20212669302,732.20212669302,732.20212669302,732.20212669302,732.20212669302,732.20212669302,732.20212669302,732.20212669302,732.20212669302,732.20212669302,732.20212669302,732.20212669302,732.20212669302,732.20212669302,732.20212669302,732.20212669302,732.20212669302,732.20212669302,732.20212669302,732.20212669302,6.4726065880618e-14,221.92080747404,48.363399836131,232.91575064461,43.916852637204,0
5.1e-06,20000000,3.5062317677225e-07,1.5137099187147e-06,3.1150930004998e-07,1,607.67959772498,607.67959772498,607.67959772498,607.67959772498,607.67959772498,607.67959772498,607.67959772498,607.67959772498,607.67959772498,607.67959772498,607.67959772498,607.67959772498,607.67959772498,607.67959772498,607.67959772498,607.67959772498,607.67959772498,607.67959772498,607.67959772498,607.67959772498,607.67959772498,607.67959772498,607.67959772498,607.67959772498,607.67959772498,607.67959772498,607.67959772498,607.67959772498,607.67959772498,607.67959772498,607.67959772498,607.67959772498,607.67959772498,607.67959772498,607.67959772498,607.67959772498,607.67959772498,607.67959772498,607.67959772498,607.67959772498,607.67959772498,607.67959772498,607.67959772498,607.67959772498,607.67959772498,607.67959772498,607.67959772498,607.67959772498,-2.1661299277721e-19,-1.0927305917683e-21,-1.4699493718879e-19,-6.292265397843e-20,4.7532226219459e-20,8.4224403346443e-19,-3.5033934227702e-19,1.9536351385495e-21,1.3868776126753e-20,4.0976770526397e-21,4.426128681071e-20,-3.8924949287666e-18,-9.1673405081717e-23,-2.6213072363659e-21,6.2619379226504e-20,-3.1818853573559e-18,-6.8710741142254e-21,7.0657819775104e-20,7.8838227472183e-19,-5.7416825390811e-19,-1.3340374452918e-20,1.0824670776425e-20,1.9058546225776e-21,-1.6747103888012e-18,1.275392257816e-19,-2.9461365980048e-18,1.4398347561952e-20,4.2609104516805e-19,-1.0915341132365e-19,-6.2635316579016e-21,8.4199179537766e-21,6.2948797516837e-20,7.0029760586363e-21,-2.5920692019585e-18,-3.412038035133e-20,-5.9616214664735e-21,1.3232553331463e-19,-1.0494311874794e-18,-1.2871721616598e-21,-1.4982140249842e-21,1.4548750247347e-20,-4.6644191870724e-18,-7.8936496111705e-21,-6.3978072733319e-21,-9.6769525761818e-20,-1.4842798728416e-20,3.1859294978737e-20,9.6177523225509e-20,732.20212669302,732.20212669302,732.20212669302,732.20212669302,732.20212669302,732.20212669302,732.20212669302,732.20212669302,732.20212669302,732.20212669302,732.20212669302,732.20212669302,732.20212669302,732.20212669302,732.20212669302,732.20212669302,732.20212669302,732.20212669302,732.20212669302,732.20212669302,732.20212669302,732.20212669302,732.20212669302,732.20212669302,732.20212669302,732.20212669302,732.20212669302,732.20212669302,732.20212669302,732.20212669302,732.20212669302,732.20212669302,732.20212669302,732.20212669302,732.20212669302,732.20212669302,732.20212669302,732.20212669302,732.20212669302,732.20212669302,732.20212669302,732.20212669302,732.20212669302,732.20212669302,732.20212669302,732.20212669302,732.20212669302,732.20212669302,9.6958123059426e-14,226.36479568875,49.330150500685,237.58140299415,44.794744295389,0
5.2e-06,20000000,3.5749795692072e-07,1.5433904710718e-06,3.1761758669741e-07,1,607.67959772498,607.67959772498,607.67959772498,607.67959772498,607.67959772498,607.67959772498,607.67959772498,607.67959772498,607.67959772498,607.67959772498,607.67959772498,607.67959772498,607.67959772498,607.67959772498,607.67959772498,607.67959772498,607.67959772498,607.67959772498,607.67959772498,607.67959772498,607.67959772498,607.67959772498,607.67959772498,607.67959772498,607.67959772498,607.67959772498,607.67959772498,607.67959772498,607.67959772498,607.67959772498,607.67959772498,607.67959772498,607.67959772498,607.67959772498,607.67959772498,607.67959772498,607.67959772498,607.67959772498,607.67959772498,607.67959772498,607.67959772498,607.67959772498,607.67959772498,607.67959772498,607.67959772498,607.67959772498,607.67959772498,607.67959772498,-3.1943778305506e-19,-1.611425476381e-21,-2.1676965302387e-19,-9.2757575710772e-20,7.0096400611767e-20,1.2418334496731e-18,-5.1669154476529e-19,2.8811188778153e-21,2.0452934471587e-20,6.0428639234294e-21,6.5272610497714e-20,-5.740243045852e-18,-1.3519308549833e-22,-3.865360448711e-21,9.2345642941305e-20,-4.6923718697925e-18,-1.0133189140171e-20,1.0419982979376e-19,1.162423382175e-18,-8.4680181901935e-19,-1.9672026553936e-20,1.5963542098966e-20,2.8105526652088e-21,-2.469730798178e-18,1.8808189182025e-19,-4.3446531006309e-18,2.1233765687788e-20,6.2823801381873e-19,-1.6098192799929e-19,-9.2366130034793e-21,1.241719889564e-20,9.2832387694467e-20,1.0327456584527e-20,-3.8225102282363e-18,-5.0316592118403e-20,-8.7911319459298e-21,1.9514168904865e-19,-1.5476091066372e-18,-1.8984164243742e-21,-2.2093289507807e-21,2.1455260445271e-20,-6.878693942019e-18,-1.1641101798532e-20,-9.4349970334814e-21,-1.4270546835008e-19,-2.1883207967219e-20,4.6983188730088e-20,1.4180486454826e-19,732.20212669302,732.20212669302,732.20212669302,732.20212669302,732.20212669302,732.20212669302,732.20212669302,732.20212669302,732.20212669302,732.20212669302,732.20212669302,732.20212669302,732.20212669302,732.20212669302,732.20212669302,732.20212669302,732.20212669302,732.20212669302,732.20212669302,732.20212669302,732.20212669302,732.20212669302,732.20212669302,732.20212669302,732.20212669302,732.20212669302,732.20212669302,732.20212669302,732.20212669302,732.20212669302,732.20212669302,732.20212669302,732.20212669302,732.20212669302,732.20212669302,732.20212669302,732.20212669302,732.20212669302,732.20212669302,732.20212669302,732.20212669302,732.20212669302,732.20212669302,732.20212669302,732.20212669302,732.20212669302,732.20212669302,732.20212669302,1.4408346305551e-13,230.809002532,50.296880892881,242.24734325173,45.672618500388,0
5.3e-06,20000000,3.6437272996891e-07,1.573071022111e-06,3.2372588345609e-07,1,607.67959772498,607.67959772498,607.67959772498,607.67959772498,607.67959772498,607.67959772498,607.67959772498,607.67959772498,607.67959772498,607.67959772498,607.67959772498,607.67959772498,607.67959772498,607.67959772498,607.67959772498,607.67959772498,607.67959772498,607.67959772498,607.67959772498,607.67959772498,607.67959772498,607.67959772498,607.67959772498,607.67959772498,607.67959772498,607.67959772498,607.67959772498,607.67959772498,607.67959772498,607.67959772498,607.67959772498,607.67959772498,607.67959772498,607.67959772498,607.67959772498,607.67959772498,607.67959772498,607.67959772498,607.67959772498,607.67959772498,607.67959772498,607.67959772498,607.67959772498,607.67959772498,607.67959772498,607.67959772498,607.67959772498,607.67959772498,-4.6760078564672e-19,-2.3588184674723e-21,-3.1730853735732e-19,-1.3573093736359e-19,1.0261017986232e-19,1.8175063420404e-18,-7.5641645336451e-19,4.2176065557219e-21,2.9940585164572e-20,8.8457583577658e-21,9.5548769216083e-20,-8.4027158131077e-18,-1.9790317731487e-22,-5.6578214737224e-21,1.3517962270082e-19,-6.8689046114145e-18,-1.4833882434231e-20,1.525319965426e-19,1.7012925225362e-18,-1.2396855973056e-18,-2.8795017955601e-20,2.336850859979e-20,4.1141569382211e-21,-3.6153195449338e-18,2.7531974698139e-19,-6.3598152749123e-18,3.1083402796868e-20,9.1946073289584e-19,-2.3566989267432e-19,-1.3520519782347e-20,1.8177183164435e-20,1.3589352752098e-19,1.5117893554576e-20,-5.5954869747298e-18,-7.3653899304866e-20,-1.2868039018551e-20,2.8565618739448e-19,-2.2654566424596e-18,-2.7792875964591e-21,-3.2339557854149e-21,3.1407188595676e-20,-1.006935304822e-17,-1.7041094998174e-20,-1.3811458795017e-20,-2.0889583768414e-19,-3.2025310172855e-20,6.8775852943826e-20,2.0753714438462e-19,732.20212669302,732.20212669302,732.20212669302,732.20212669302,732.20212669302,732.20212669302,732.20212669302,732.20212669302,732.20212669302,732.20212669302,732.20212669302,732.20212669302,732.20212669302,732.20212669302,732.20212669302,732.20212669302,732.20212669302,732.20212669302,732.20212669302,732.20212669302,732.20212669302,732.20212669302,732.20212669302,732.20212669302,732.20212669302,732.20212669302,732.20212669302,732.20212669302,732.20212669302,732.20212669302,732.20212669302,732.20212669302,732.20212669302,732.20212669302,732.20212669302,732.20212669302,732.20212669302,732.20212669302,732.20212669302,732.20212669302,732.20212669302,732.20212669302,732.20212669302,732.20212669302,732.20212669302,732.20212669302,732.20212669302,732.20212669302,2.1247311886106e-13,235.25342801069,51.263591013632,246.91357142706,46.550475252893,0
5.4e-06,20000000,3.7124749591572e-07,1.6027515718324e-06,3.2983419032981e-07,1,607.67959772498,607.67959772498,607.67959772498,607.67959772498,607.67959772498,607.67959772498,607.67959772498,607.67959772498,607.67959772498,607.67959772498,607.67959772498,607.67959772498,607.67959772498,607.67959772498,607.67959772498,607.67959772498,607.67959772498,607.67959772498,607.67959772498,607.67959772498,607.67959772498,607.67959772498,607.67959772498,607.67959772498,607.67959772498,607.67959772498,607.67959772498,607.67959772498,607.67959772498,607.67959772498,607.67959772498,607.67959772498,607.67959772498,607.67959772498,607.67959772498,607.67959772498,607.67959772498,607.67959772498,607.67959772498,607.67959772498,607.67959772498,607.67959772498,607.67959772498,607.67959772498,607.67959772498,607.67959772498,607.67959772498,607.67959772498,-6.796283181955e-19,-3.4283574747728e-21,-4.6118196748103e-19,-1.9720391170177e-19,1.4913942516713e-19,2.6411666416532e-18,-1.0995066577164e-18,6.1302506384067e-21,4.3518330442824e-20,1.285685110907e-20,1.3887577571907e-19,-1.2212831224358e-17,-2.8764600048799e-22,-8.2227250060548e-21,1.9647773200127e-19,-9.9836611615114e-18,-2.1561094379803e-20,2.2169820932706e-19,2.4722986740935e-18,-1.8019743840117e-18,-4.1849752289784e-20,3.3965656711001e-20,5.9796706717642e-21,-5.2547377381317e-18,4.0016124416775e-19,-9.2436008191352e-18,4.5179079303906e-20,1.3361322586962e-18,-3.4256135552496e-19,-1.9650848773612e-20,2.6420243366125e-20,1.9751737668861e-19,2.1973360139738e-20,-8.1326935408005e-18,-1.0705021747284e-19,-1.8701964384403e-20,4.151877169871e-19,-3.2927405944393e-18,-4.040013115497e-21,-4.7001861454538e-21,4.5649036972854e-20,-1.4635394542156e-17,-2.4768983999961e-20,-2.0074494695773e-20,-3.0361711092758e-19,-4.6535350129523e-20,9.9962421134979e-20,3.0158367394679e-19,732.20212669302,732.20212669302,732.20212669302,732.20212669302,732.20212669302,732.20212669302,732.20212669302,732.20212669302,732.20212669302,732.20212669302,732.20212669302,732.20212669302,732.20212669302,732.20212669302,732.20212669302,732.20212669302,732.20212669302,732.20212669302,732.20212669302,732.20212669302,732.20212669302,732.20212669302,732.20212669302,732.20212669302,732.20212669302,732.20212669302,732.20212669302,732.20212669302,732.20212669302,732.20212669302,732.20212669302,732.20212669302,732.20212669302,732.20212669302,732.20212669302,732.20212669302,732.20212669302,732.20212669302,732.20212669302,732.20212669302,732.20212669302,732.20212669302,732.20212669302,732.20212669302,732.20212669302,732.20212669302,732.20212669302,732.20212669302,3.1101477195629e-13,239.69807213159,52.230280863801,251.58008752998,47.428314553651,0
5.5e-06,20000000,3.7812225476014e-07,1.632432120236e-06,3.3594250732228e-07,1,607.67959772498,607.67959772498,607.67959772498,607.67959772498,607.67959772498,607.67959772498,607.67959772498,607.67959772498,607.67959772498,607.67959772498,607.67959772498,607.67959772498,607.67959772498,607.67959772498,607.67959772498,607.67959772498,607.67959772498,607.67959772498,607.67959772498,607.67959772498,607.67959772498,607.67959772498,607.67959772498,607.67959772498,607.67959772498,607.67959772498,607.67959772498,607.67959772498,607.67959772498,607.67959772498,607.67959772498,607.67959772498,607.67959772498,607.67959772498,607.67959772498,607.67959772498,607.67959772498,607.67959772498,607.67959772498,607.67959772498,607.67959772498,607.67959772498,607.67959772498,607.67959772498,607.67959772498,607.67959772498,607.67959772498,607.67959772498,-9.8104400825185e-19,-4.9487836751677e-21,-6.6570783444116e-19,-2.8455939186868e-19,2.1528574272425e-19,3.8118557976909e-18,-1.5872873243709e-18,8.8493461800862e-21,6.282101591249e-20,1.855901606696e-20,2.0046967569243e-19,-1.7629249506968e-17,-4.1522615611794e-22,-1.1868698083665e-20,2.8361959482802e-19,-1.4411625537441e-17,-3.1124870751861e-20,3.2002521980902e-19,3.5681546507591e-18,-2.6013959408781e-18,-6.0407271527149e-20,4.9030895456903e-20,8.6316628172061e-21,-7.5853598856545e-18,5.7763496942286e-19,-1.3343158733741e-17,6.5217926113512e-20,1.9283528476102e-18,-4.9453088699973e-19,-2.8365472901243e-20,3.8138870958905e-20,2.8512325141979e-19,3.1719216683438e-20,-1.1739557160041e-17,-1.5452549859166e-19,-2.699497140517e-20,5.9933017978568e-19,-4.753134126362e-18,-5.8324744333855e-21,-6.7844840779305e-21,6.5895380075117e-20,-2.1126526064267e-17,-3.5755238249376e-20,-2.8978138403568e-20,-4.3827176167953e-19,-6.7157329028397e-20,1.4429734371242e-19,4.3525182989822e-19,732.20212669302,732.20212669302,732.20212669302,732.20212669302,732.20212669302,732.20212669302,732.20212669302,732.20212669302,732.20212669302,732.20212669302,732.20212669302,732.20212669302,732.20212669302,732.20212669302,732.20212669302,732.20212669302,732.20212669302,732.20212669302,732.20212669302,732.20212669302,732.20212669302,732.20212669302,732.20212669302,732.20212669302,732.20212669302,732.20212669302,732.20212669302,732.20212669302,732.20212669302,732.20212669302,732.20212669302,732.20212669302,732.20212669302,732.20212669302,732.20212669302,732.20212669302,732.20212669302,732.20212669302,732.20212669302,732.20212669302,732.20212669302,732.20212669302,732.20212669302,732.20212669302,732.20212669302,732.20212669302,732.20212669302,732.20212669302,4.5202798880116e-13,244.14293490132,53.196950444226,256.24689157027,48.306136403505,0
5.6e-06,20000000,3.8499700650093e-07,1.6621126673218e-06,3.4205083443738e-07,1,607.67959772498,607.67959772498,607.67959772498,607.67959772498,607.67959772498,607.67959772498,607.67959772498,607.67959772498,607.67959772498,607.67959772498,607.67959772498,607.67959772498,607.67959772498,607.67959772498,607.67959772498,607.67959772498,607.67959772498,607.67959772498,607.67959772498,607.67959772498,607.67959772498,607.67959772498,607.67959772498,607.67959772498,607.67959772498,607.67959772498,607.67959772498,607.67959772498,607.67959772498,607.67959772498,607.67959772498,607.67959772498,607.67959772498,607.67959772498,607.67959772498,607.67959772498,607.67959772498,607.67959772498,607.67959772498,607.67959772498,607.67959772498,607.67959772498,607.67959772498,607.67959772498,607.67959772498,607.67959772498,607.67959772498,607.67959772498,-1.4068042438767e-18,-7.0964148938778e-21,-9.5460383728443e-19,-4.0790442108011e-19,3.0872104184477e-19,5.4651902053842e-18,-2.2763623228541e-18,1.2690311774672e-20,9.0087770943708e-20,2.6613588588402e-20,2.874743065488e-19,-2.5280138584451e-17,-5.9544167001421e-22,-1.7018393283265e-20,4.0671228024534e-19,-2.0666372920323e-17,-4.4634684432673e-20,4.5891724791349e-19,5.1158118203288e-18,-3.7307183155297e-18,-8.6619107836207e-20,7.0311731170838e-20,1.2377696362954e-20,-1.0877510029066e-17,8.2832369859649e-19,-1.9133934358233e-17,9.3524360782294e-20,2.7647235808084e-18,-7.0921290775251e-19,-4.067493808439e-20,5.4692403219368e-20,4.0887270358359e-19,4.54858789029e-20,-1.683438205053e-17,-2.2158528198075e-19,-3.8708529701008e-20,8.5944077738373e-19,-6.8160187718369e-18,-8.3647133605463e-21,-9.7285195171197e-21,9.4494487130202e-20,-3.0295623953119e-17,-5.1274249960027e-20,-4.1555116112997e-20,-6.2847628220963e-19,-9.6279095194514e-20,2.0692266505048e-19,6.2402435332286e-19,732.20212669302,732.20212669302,732.20212669302,732.20212669302,732.20212669302,732.20212669302,732.20212669302,732.20212669302,732.20212669302,732.20212669302,732.20212669302,732.20212669302,732.20212669302,732.20212669302,732.20212669302,732.20212669302,732.20212669302,732.20212669302,732.20212669302,732.20212669302,732.20212669302,732.20212669302,732.20212669302,732.20212669302,732.20212669302,732.20212669302,732.20212669302,732.20212669302,732.20212669302,732.20212669302,732.20212669302,732.20212669302,732.20212669302,732.20212669302,732.20212669302,732.20212669302,732.20212669302,732.20212669302,732.20212669302,732.20212669302,732.20212669302,732.20212669302,732.20212669302,732.20212669302,732.20212669302,732.20212669302,732.20212669302,732.20212669302,6.5248484011186e-13,248.58801632657,54.163599755815,260.91398355753,49.183940803216,0
5.7e-06,20000000,3.9187175113708e-07,1.69179321309e-06,3.4815917167877e-07,1,607.67959772498,607.67959772498,607.67959772498,607.67959772498,607.67959772498,607.67959772498,607.67959772498,607.67959772498,607.67959772498,607.67959772498,607.67959772498,607.67959772498,607.67959772498,607.67959772498,607.67959772498,607.67959772498,607.67959772498,607.67959772498,607.67959772498,607.67959772498,607.67959772498,607.67959772498,607.67959772498,607.67959772498,607.67959772498,607.67959772498,607.67959772498,607.67959772498,607.67959772498,607.67959772498,607.67959772498,607.67959772498,607.67959772498,607.67959772498,607.67959772498,607.67959772498,607.67959772498,607.67959772498,607.67959772498,607.67959772498,607.67959772498,607.67959772498,607.67959772498,607.67959772498,607.67959772498,607.67959772498,607.67959772498,607.67959772498,-2.0045120578516e-18,-1.0111354848517e-20,-1.3601678564777e-18,-5.8099668803453e-19,4.3989296408447e-19,7.7858122160188e-18,-3.2438222749266e-18,1.8082697582582e-20,1.283679333952e-19,3.7921172277526e-20,4.0961816318051e-19,-3.602092820178e-17,-8.4844475509019e-22,-2.4247326055196e-20,5.7951964523673e-19,-2.9447292983362e-17,-6.3601477232889e-20,6.5390458032019e-19,7.2881160187624e-18,-5.3162853350765e-18,-1.2341501968245e-19,1.0018797078903e-19,1.7636605714938e-20,-1.5499319007585e-17,1.1802568241784e-18,-2.726338209411e-17,1.332638435928e-19,3.9386442457534e-18,-1.0106241305284e-18,-5.7955358432597e-20,7.7932032691188e-20,5.8260394943156e-19,6.4812765273887e-20,-2.3986808433806e-17,-3.1572683141388e-19,-5.5151877688169e-20,1.2246037560019e-18,-9.71205892844e-18,-1.192007807242e-20,-1.3861381132442e-20,1.3464424675315e-19,-4.3167961019389e-17,-7.3061532724325e-20,-5.9211810690835e-20,-8.9549696698526e-19,-1.371514512898e-19,2.9484082174687e-19,8.8898062034552e-19,732.20212669302,732.20212669302,732.20212669302,732.20212669302,732.20212669302,732.20212669302,732.20212669302,732.20212669302,732.20212669302,732.20212669302,732.20212669302,732.20212669302,732.20212669302,732.20212669302,732.20212669302,732.20212669302,732.20212669302,732.20212669302,732.20212669302,732.20212669302,732.20212669302,732.20212669302,732.20212669302,732.20212669302,732.20212669302,732.20212669302,732.20212669302,732.20212669302,732.20212669302,732.20212669302,732.20212669302,732.20212669302,732.20212669302,732.20212669302,732.20212669302,732.20212669302,732.20212669302,732.20212669302,732.20212669302,732.20212669302,732.20212669302,732.20212669302,732.20212669302,732.20212669302,732.20212669302,732.20212669302,732.20212669302,732.20212669302,9.3562901731505e-13,253.03331641412,55.130228799369,265.58136350173,50.06172775344,0
5.8e-06,20000000,3.9874648866754e-07,1.7214737575405e-06,3.5426751905031e-07,1,607.67959772498,607.67959772498,607.67959772498,607.67959772498,607.67959772498,607.67959772498,607.67959772498,607.67959772498,607.67959772498,607.67959772498,607.67959772498,607.67959772498,607.67959772498,607.67959772498,607.67959772498,607.67959772498,607.67959772498,607.67959772498,607.67959772498,607.67959772498,607.67959772498,607.67959772498,607.67959772498,607.67959772498,607.67959772498,607.67959772498,607.67959772498,607.67959772498,607.67959772498,607.67959772498,607.67959772498,607.67959772498,607.67959772498,607.67959772498,607.67959772498,607.67959772498,607.67959772498,607.67959772498,607.67959772498,607.67959772498,607.67959772498,607.67959772498,607.67959772498,607.67959772498,607.67959772498,607.67959772498,607.67959772498,607.67959772498,-2.8386370102748e-18,-1.4318775855012e-20,-1.9261407710177e-18,-8.2246044079422e-19,6.229511393871e-19,1.1023734753736e-17,-4.5940836466281e-18,2.560827516798e-20,1.8179144494544e-19,5.3701480084378e-20,5.8007688689627e-19,-5.1010142140181e-17,-1.2015285650449e-21,-3.4334864212931e-20,8.2068259871671e-19,-4.1701596037586e-17,-9.0071650440941e-20,9.2602041818442e-19,1.0319108528944e-17,-7.5292252278114e-18,-1.747626063766e-19,1.4188273604426e-19,2.4975625380206e-20,-2.194936325185e-17,1.6713951534695e-18,-3.8608361003753e-17,1.8872355341899e-19,5.5765805644717e-18,-1.431294097162e-18,-8.20703861065e-20,1.1036495355947e-19,8.2505882795981e-19,9.178478533603e-20,-3.3968309900086e-17,-4.471036925783e-19,-7.809803656277e-20,1.7342088718623e-18,-1.375365176429e-17,-1.6882366143299e-20,-1.9628740820716e-20,1.9067568497397e-19,-6.1132105563659e-17,-1.0346761191584e-19,-8.3852954481902e-20,-1.26813512126e-18,-1.9417575316167e-19,4.1753544298093e-19,1.2586623194386e-18,732.20212669302,732.20212669302,732.20212669302,732.20212669302,732.20212669302,732.20212669302,732.20212669302,732.20212669302,732.20212669302,732.20212669302,732.20212669302,732.20212669302,732.20212669302,732.20212669302,732.20212669302,732.20212669302,732.20212669302,732.20212669302,732.20212669302,732.20212669302,732.20212669302,732.20212669302,732.20212669302,732.20212669302,732.20212669302,732.20212669302,732.20212669302,732.20212669302,732.20212669302,732.20212669302,732.20212669302,732.20212669302,732.20212669302,732.20212669302,732.20212669302,732.20212669302,732.20212669302,732.20212669302,732.20212669302,732.20212669302,732.20212669302,732.20212669302,732.20212669302,732.20212669302,732.20212669302,732.20212669302,732.20212669302,732.20212669302,1.3331123841465e-12,257.47883517072,56.096837575991,270.24903141262,50.939497255096,0
5.9e-06,20000000,4.0562121909115e-07,1.7511543006733e-06,3.6037587655576e-07,1,607.67959772498,607.67959772498,607.67959772498,607.67959772498,607.67959772498,607.67959772498,607.67959772498,607.67959772498,607.67959772498,607.67959772498,607.67959772498,607.67959772498,607.67959772498,607.67959772498,607.67959772498,607.67959772498,607.67959772498,607.67959772498,607.67959772498,607.67959772498,607.67959772498,607.67959772498,607.67959772498,607.67959772498,607.67959772498,607.67959772498,607.67959772498,607.67959772498,607.67959772498,607.67959772498,607.67959772498,607.67959772498,607.67959772498,607.67959772498,607.67959772498,607.67959772498,607.67959772498,607.67959772498,607.67959772498,607.67959772498,607.67959772498,607.67959772498,607.67959772498,607.67959772498,607.67959772498,607.67959772498,607.67959772498,607.67959772498,-3.9960291941959e-18,-2.0156727971064e-20,-2.7114471597368e-18,-1.157374517512e-18,8.7695752084779e-19,1.551569346506e-17,-6.4678262988893e-18,3.6050810835255e-20,2.5592218602663e-19,7.5597661541205e-20,8.1660027381492e-19,-7.1808486240455e-17,-1.6914619626646e-21,-4.8330848541981e-20,1.1553136155675e-18,-5.8705336263938e-17,-1.2680215703228e-19,1.3035999936441e-18,1.4524014975286e-17,-1.0600098425891e-17,-2.46006518184e-19,1.9973820060049e-19,3.5158905032731e-20,-3.089931405007e-17,2.3528777407768e-18,-5.4350132177693e-17,2.65679153136e-19,7.8488641516648e-18,-2.015049412449e-18,-1.1553058202097e-19,1.5536885629021e-19,1.1614860838009e-18,1.2921069006505e-19,-4.7818176996753e-17,-6.2939404063333e-19,-1.0993539284468e-19,2.4413206487512e-18,-1.93616489984e-17,-2.3768683507705e-20,-2.7630960401625e-20,2.6842343760364e-19,-8.6058699017955e-17,-1.4565911784769e-19,-1.1804456635047e-19,-1.7851904134677e-18,-2.7327958659739e-19,5.877825445492e-19,1.7715106615557e-18,732.20212669302,732.20212669302,732.20212669302,732.20212669302,732.20212669302,732.20212669302,732.20212669302,732.20212669302,732.20212669302,732.20212669302,732.20212669302,732.20212669302,732.20212669302,732.20212669302,732.20212669302,732.20212669302,732.20212669302,732.20212669302,732.20212669302,732.20212669302,732.20212669302,732.20212669302,732.20212669302,732.20212669302,732.20212669302,732.20212669302,732.20212669302,732.20212669302,732.20212669302,732.20212669302,732.20212669302,732.20212669302,732.20212669302,732.20212669302,732.20212669302,732.20212669302,732.20212669302,732.20212669302,732.20212669302,732.20212669302,732.20212669302,732.20212669302,732.20212669302,732.20212669302,732.20212669302,732.20212669302,732.20212669302,732.20212669302,1.8878002030901e-12,261.92457260302,57.063426086308,274.91698729984,51.817249308793,0
6e-06,20000000,4.1249594240684e-07,1.7808348424886e-06,3.6648424419886e-07,1,607.67959772498,607.67959772498,607.67959772498,607.67959772498,607.67959772498,607.67959772498,607.67959772498,607.67959772498,607.67959772498,607.67959772498,607.67959772498,607.67959772498,607.67959772498,607.67959772498,607.67959772498,607.67959772498,607.67959772498,607.67959772498,607.67959772498,607.67959772498,607.67959772498,607.67959772498,607.67959772498,607.67959772498,607.67959772498,607.67959772498,607.67959772498,607.67959772498,607.67959772498,607.67959772498,607.67959772498,607.67959772498,607.67959772498,607.67959772498,607.67959772498,607.67959772498,607.67959772498,607.67959772498,607.67959772498,607.67959772498,607.67959772498,607.67959772498,607.67959772498,607.67959772498,607.67959772498,607.67959772498,607.67959772498,607.67959772498,-5.5930906388437e-18,-2.8212306496407e-20,-3.7950602979966e-18,-1.6193367042377e-18,1.2274605488352e-18,2.17129104962e-17,-9.053618908306e-18,5.0460802911039e-20,3.58217537775e-19,1.058119900016e-19,1.14297806184e-18,-1.0050772043895e-16,-2.3675261575126e-21,-6.7642230445311e-20,1.6170705658389e-18,-8.2168790817777e-17,-1.7748823656307e-19,1.824620499262e-18,2.0325236649557e-17,-1.4837950542691e-17,-3.4430959856479e-19,2.7957422197491e-19,4.9210607251999e-20,-4.3249407671738e-17,3.2932446693827e-18,-7.6071898912904e-17,3.7187181530659e-19,1.0983735333899e-17,-2.8206352771361e-18,-1.6170068493922e-19,2.1747090674179e-19,1.6257266290636e-18,1.8085503699416e-19,-6.6929334211436e-17,-8.8093002030183e-19,-1.5386483084255e-19,3.4170604268743e-18,-2.7100111282285e-17,-3.3272186975759e-20,-3.8672650130219e-20,3.7570758824055e-19,-1.2045493881139e-16,-2.0388033482874e-19,-1.6522586993285e-19,-2.4986646632525e-18,-3.8240520773103e-19,8.2270556572487e-19,2.4790353601525e-18,732.20212669302,732.20212669302,732.20212669302,732.20212669302,732.20212669302,732.20212669302,732.20212669302,732.20212669302,732.20212669302,732.20212669302,732.20212669302,732.20212669302,732.20212669302,732.20212669302,732.20212669302,732.20212669302,732.20212669302,732.20212669302,732.20212669302,732.20212669302,732.20212669302,732.20212669302,732.20212669302,732.20212669302,732.20212669302,732.20212669302,732.20212669302,732.20212669302,732.20212669302,732.20212669302,732.20212669302,732.20212669302,732.20212669302,732.20212669302,732.20212669302,732.20212669302,732.20212669302,732.20212669302,732.20212669302,732.20212669302,732.20212669302,732.20212669302,732.20212669302,732.20212669302,732.20212669302,732.20212669302,732.20212669302,732.20212669302,2.6574365166461e-12,266.37052871775,58.029994331306,279.58523117327,52.694983915406,0
6.1e-06,20000000,4.1937065861355e-07,1.8105153829864e-06,3.7259262198343e-07,1,607.67959772498,607.67959772498,607.67959772498,607.67959772498,607.67959772498,607.67959772498,607.67959772498,607.67959772498,607.67959772498,607.67959772498,607.67959772498,607.67959772498,607.67959772498,607.67959772498,607.67959772498,607.67959772498,607.67959772498,607.67959772498,607.67959772498,607.67959772498,607.67959772498,607.67959772498,607.67959772498,607.67959772498,607.67959772498,607.67959772498,607.67959772498,607.67959772498,607.67959772498,607.67959772498,607.67959772498,607.67959772498,607.67959772498,607.67959772498,607.67959772498,607.67959772498,607.67959772498,607.67959772498,607.67959772498,607.67959772498,607.67959772498,607.67959772498,607.67959772498,607.67959772498,607.67959772498,607.67959772498,607.67959772498,607.67959772498,-7.7850602861663e-18,-3.9268478192251e-20,-5.2823008704925e-18,-2.2531352069828e-18,1.7085332921004e-18,3.0217032602845e-17,-1.2602972504983e-17,7.0239302567426e-20,4.9862341535279e-19,1.472815417164e-19,1.5909377475383e-18,-1.398975125076e-16,-3.2954464198611e-21,-9.414523359396e-20,2.2508417955964e-18,-1.1437289902901e-16,-2.4705828617556e-19,2.539730692766e-18,2.8285994525872e-17,-2.0654983724973e-17,-4.7922400531381e-19,3.8915268824214e-19,6.849660162437e-20,-6.0200265538161e-17,4.5839044057755e-18,-1.0588509433987e-16,5.176258614466e-19,1.5285520319486e-17,-3.9264049055453e-18,-2.2506796070074e-19,3.027089619084e-19,2.2629134625155e-18,2.5173852877559e-19,-9.3159449239957e-17,-1.2261599083296e-18,-2.1415494802328e-19,4.7562799791621e-18,-3.77213062258e-17,-4.6317432759814e-20,-5.38268302633e-20,5.2295752667502e-19,-1.6766459479423e-16,-2.8379184934969e-19,-2.2998367627252e-19,-3.4779098605714e-18,-5.3214173442046e-19,1.1451413678543e-18,3.4499165376281e-18,732.20212669302,732.20212669302,732.20212669302,732.20212669302,732.20212669302,732.20212669302,732.20212669302,732.20212669302,732.20212669302,732.20212669302,732.20212669302,732.20212669302,732.20212669302,732.20212669302,732.20212669302,732.20212669302,732.20212669302,732.20212669302,732.20212669302,732.20212669302,732.20212669302,732.20212669302,732.20212669302,732.20212669302,732.20212669302,732.20212669302,732.20212669302,732.20212669302,732.20212669302,732.20212669302,732.20212669302,732.20212669302,732.20212669302,732.20212669302,732.20212669302,732.20212669302,732.20212669302,732.20212669302,732.20212669302,732.20212669302,732.20212669302,732.20212669302,732.20212669302,732.20212669302,732.20212669302,732.20212669302,732.20212669302,732.20212669302,3.7194110962036e-12,270.81670352164,58.996542311838,284.25376304273,53.572701075657,0
6.2e-06,20000000,4.2624536771013e-07,1.8401959221666e-06,3.7870100991321e-07,1,607.67959772498,607.67959772498,607.67959772498,607.67959772498,607.67959772498,607.67959772498,607.67959772498,607.67959772498,607.67959772498,607.67959772498,607.67959772498,607.67959772498,607.67959772498,607.67959772498,607.67959772498,607.67959772498,607.67959772498,607.67959772498,607.67959772498,607.67959772498,607.67959772498,607.67959772498,607.67959772498,607.67959772498,607.67959772498,607.67959772498,607.67959772498,607.67959772498,607.67959772498,607.67959772498,607.67959772498,607.67959772498,607.67959772498,607.67959772498,607.67959772498,607.67959772498,607.67959772498,607.67959772498,607.67959772498,607.67959772498,607.67959772498,607.67959772498,607.67959772498,607.67959772498,607.67959772498,607.67959772498,607.67959772498,607.67959772498,-1.0777983141421e-17,-5.4364443550809e-20,-7.3129564269239e-18,-3.1181907403175e-18,2.3654008365011e-18,4.1826447866902e-17,-1.7449748184094e-17,9.7245971393707e-20,6.9034135447867e-19,2.039046638758e-19,2.2025910770435e-18,-1.9368052747714e-16,-4.5624605485679e-21,-1.3032992720092e-19,3.1162074934576e-18,-1.5834514775722e-16,-3.4205399782949e-19,3.5161563825288e-18,3.915368963845e-17,-2.8598364106713e-17,-6.6342738999729e-19,5.3877612483037e-19,9.4829775673672e-20,-8.3345478998519e-17,6.3461817302602e-18,-1.4659217749173e-16,7.166449834696e-19,2.1158057519155e-17,-5.4363652901354e-18,-3.1158811928744e-19,4.1909722837931e-19,3.1329522108131e-18,3.4852518644392e-19,-1.289741627193e-16,-1.6975329442816e-18,-2.9647102885506e-19,6.5848754033706e-18,-5.2223715771974e-17,-6.4131736973035e-20,-7.4517637154236e-20,7.24016172561e-19,-2.3212585313312e-16,-3.9290711637247e-19,-3.184060965982e-19,-4.8149753303716e-18,-7.3653983439866e-19,1.5854011506826e-18,4.7752910989021e-18,732.20212669302,732.20212669302,732.20212669302,732.20212669302,732.20212669302,732.20212669302,732.20212669302,732.20212669302,732.20212669302,732.20212669302,732.20212669302,732.20212669302,732.20212669302,732.20212669302,732.20212669302,732.20212669302,732.20212669302,732.20212669302,732.20212669302,732.20212669302,732.20212669302,732.20212669302,732.20212669302,732.20212669302,732.20212669302,732.20212669302,732.20212669302,732.20212669302,732.20212669302,732.20212669302,732.20212669302,732.20212669302,732.20212669302,732.20212669302,732.20212669302,732.20212669302,732.20212669302,732.20212669302,732.20212669302,732.20212669302,732.20212669302,732.20212669302,732.20212669302,732.20212669302,732.20212669302,732.20212669302,732.20212669302,732.20212669302,5.1769310958518e-12,275.26309702155,59.963070028773,288.92258291795,54.45040079031,0
6.3e-06,20000000,4.3312006969549e-07,1.8698764600295e-06,3.8480940799204e-07,1,607.67959772498,607.67959772498,607.67959772498,607.67959772498,607.67959772498,607.67959772498,607.67959772498,607.67959772498,607.67959772498,607.67959772498,607.67959772498,607.67959772498,607.67959772498,607.67959772498,607.67959772498,607.67959772498,607.67959772498,607.67959772498,607.67959772498,607.67959772498,607.67959772498,607.67959772498,607.67959772498,607.67959772498,607.67959772498,607.67959772498,607.67959772498,607.67959772498,607.67959772498,607.67959772498,607.67959772498,607.67959772498,607.67959772498,607.67959772498,607.67959772498,607.67959772498,607.67959772498,607.67959772498,607.67959772498,607.67959772498,607.67959772498,607.67959772498,607.67959772498,607.67959772498,607.67959772498,607.67959772498,607.67959772498,607.67959772498,-1.4844074635115e-17,-7.4873120559617e-20,-1.0071703853206e-17,-4.2929728617026e-18,3.2578130269038e-18,5.7595727087481e-17,-2.4035073131578e-17,1.3393779760016e-19,9.5081323902461e-19,2.8083168630188e-19,3.0335745662082e-18,-2.6674853045658e-16,-6.2838252621627e-21,-1.7948579283283e-19,4.2918829994957e-18,-2.1808535316608e-16,-4.7111835561714e-19,4.8427138323834e-18,5.3915550748275e-17,-3.9391056902155e-17,-9.136678457182e-19,7.4205613387134e-19,1.3060521873687e-19,-1.1479045994077e-16,8.7403649476955e-18,-2.0189560896313e-16,9.8703436287418e-19,2.9134761809267e-17,-7.4879388190494e-18,-4.2912934483532e-19,5.772240363223e-19,4.3149891112945e-18,4.8001936304599e-19,-1.7763094716933e-16,-2.3379187868805e-18,-4.0829730931714e-19,9.0691758300422e-18,-7.1926499388765e-17,-8.8336793117148e-20,-1.0262648516795e-19,9.971723477642e-19,-3.197023077308e-16,-5.411528879799e-19,-4.3853660264243e-19,-6.631471697699e-18,-1.0141571743513e-18,2.1835309074088e-18,6.5755369307664e-18,732.20212669302,732.20212669302,732.20212669302,732.20212669302,732.20212669302,732.20212669302,732.20212669302,732.20212669302,732.20212669302,732.20212669302,732.20212669302,732.20212669302,732.20212669302,732.20212669302,732.20212669302,732.20212669302,732.20212669302,732.20212669302,732.20212669302,732.20212669302,732.20212669302,732.20212669302,732.20212669302,732.20212669302,732.20212669302,732.20212669302,732.20212669302,732.20212669302,732.20212669302,732.20212669302,732.20212669302,732.20212669302,732.20212669302,732.20212669302,732.20212669302,732.20212669302,732.20212669302,732.20212669302,732.20212669302,732.20212669302,732.20212669302,732.20212669302,732.20212669302,732.20212669302,732.20212669302,732.20212669302,732.20212669302,732.20212669302,7.1669765706475e-12,279.70970922399,60.929577483015,293.59169080863,55.328083060137,0
6.4e-06,20000000,4.3999476456865e-07,1.8995569965749e-06,3.9091781622361e-07,1,607.67959772498,607.67959772498,607.67959772498,607.67959772498,607.67959772498,607.67959772498,607.67959772498,607.67959772498,607.67959772498,607.67959772498,607.67959772498,607.67959772498,607.67959772498,607.67959772498,607.67959772498,607.67959772498,607.67959772498,607.67959772498,607.67959772498,607.67959772498,607.67959772498,607.67959772498,607.67959772498,607.67959772498,607.67959772498,607.67959772498,607.67959772498,607.67959772498,607.67959772498,607.67959772498,607.67959772498,607.67959772498,607.67959772498,607.67959772498,607.67959772498,607.67959772498,607.67959772498,607.67959772498,607.67959772498,607.67959772498,607.67959772498,607.67959772498,607.67959772498,607.67959772498,607.67959772498,607.67959772498,607.67959772498,607.67959772498,-2.0341363006418e-17,-1.026002015012e-19,-1.3801433626677e-17,-5.8806432340094e-18,4.4643563834757e-18,7.8911598417204e-17,-3.2939198120971e-17,1.8354644455205e-19,1.3029802737152e-18,3.8483658204472e-19,4.1570645233894e-18,-3.6553536743489e-16,-8.611134450982e-21,-2.4593893880833e-19,5.8813994007239e-18,-2.9885431402095e-16,-6.4561954713064e-19,6.6362191849894e-18,7.3869760497537e-17,-5.3984037960969e-17,-1.2519718888836e-18,1.0168958341387e-18,1.7897304625115e-19,-1.573043876393e-16,1.1977272235162e-17,-2.7666501368672e-16,1.3526074361899e-18,3.9917050561554e-17,-1.0261887160338e-17,-5.8803994622107e-19,7.9101608864483e-19,5.9131232282345e-18,6.5780116190129e-19,-2.4341415944509e-16,-3.2037005976089e-18,-5.5947678108103e-19,1.2427946470703e-17,-9.8564692222553e-17,-1.2106581804061e-19,-1.4062778186153e-19,1.3664806255791e-18,-4.3810612066314e-16,-7.4158571784022e-19,-6.0095453009197e-19,-9.0873460470012e-18,-1.3893945318237e-18,2.9922013157531e-18,9.0089438746242e-18,732.20212669302,732.20212669302,732.20212669302,732.20212669302,732.20212669302,732.20212669302,732.20212669302,732.20212669302,732.20212669302,732.20212669302,732.20212669302,732.20212669302,732.20212669302,732.20212669302,732.20212669302,732.20212669302,732.20212669302,732.20212669302,732.20212669302,732.20212669302,732.20212669302,732.20212669302,732.20212669302,732.20212669302,732.20212669302,732.20212669302,732.20212669302,732.20212669302,732.20212669302,732.20212669302,732.20212669302,732.20212669302,732.20212669302,732.20212669302,732.20212669302,732.20212669302,732.20212669302,732.20212669302,732.20212669302,732.20212669302,732.20212669302,732.20212669302,732.20212669302,732.20212669302,732.20212669302,732.20212669302,732.20212669302,732.20212669302,9.8705123181173e-12,284.15654013581,61.896064675406,298.2610867246,56.205747885852,0
6.5e-06,20000000,4.4686945232837e-07,1.9292375318029e-06,3.9702623461175e-07,1,607.67959772498,607.67959772498,607.67959772498,607.67959772498,607.67959772498,607.67959772498,607.67959772498,607.67959772498,607.67959772498,607.67959772498,607.67959772498,607.67959772498,607.67959772498,607.67959772498,607.67959772498,607.67959772498,607.67959772498,607.67959772498,607.67959772498,607.67959772498,607.67959772498,607.67959772498,607.67959772498,607.67959772498,607.67959772498,607.67959772498,607.67959772498,607.67959772498,607.67959772498,607.67959772498,607.67959772498,607.67959772498,607.67959772498,607.67959772498,607.67959772498,607.67959772498,607.67959772498,607.67959772498,607.67959772498,607.67959772498,607.67959772498,607.67959772498,607.67959772498,607.67959772498,607.67959772498,607.67959772498,607.67959772498,607.67959772498,-2.7738701921759e-17,-1.3991029016886e-19,-1.8820216638521e-17,-8.0162382588436e-18,6.0879449933207e-18,1.0758967121989e-16,-4.4922069835738e-17,2.5030409725584e-19,1.7768862363133e-18,5.2479024490546e-19,5.6688898609065e-18,-4.9846645178016e-16,-1.1742911942142e-20,-3.3535414204499e-19,8.0203373321612e-18,-4.0754138968238e-16,-8.8044549968547e-19,9.0496503470135e-18,1.0071600719359e-16,-7.3622788164961e-17,-1.7071826077764e-18,1.3867409487139e-18,2.4405847438884e-19,-2.145137026693e-16,1.6332980297766e-17,-3.7727738657984e-16,1.8445499936945e-18,5.4423263567574e-17,-1.3994949789432e-17,-8.0187118546504e-19,1.0787116971993e-18,8.0636806175543e-18,8.9703560034669e-19,-3.3193435687956e-16,-4.368713722166e-18,-7.6289853407632e-19,1.6947673518195e-17,-1.3441043248348e-16,-1.6511274944997e-19,-1.9176173980185e-19,1.8634420594155e-18,-5.9743688561637e-16,-1.0113043980484e-18,-8.1951431166203e-19,-1.2392056221342e-17,-1.8941966533358e-18,4.0803877768007e-18,1.2282752538585e-17,732.20212669302,732.20212669302,732.20212669302,732.20212669302,732.20212669302,732.20212669302,732.20212669302,732.20212669302,732.20212669302,732.20212669302,732.20212669302,732.20212669302,732.20212669302,732.20212669302,732.20212669302,732.20212669302,732.20212669302,732.20212669302,732.20212669302,732.20212669302,732.20212669302,732.20212669302,732.20212669302,732.20212669302,732.20212669302,732.20212669302,732.20212669302,732.20212669302,732.20212669302,732.20212669302,732.20212669302,732.20212669302,732.20212669302,732.20212669302,732.20212669302,732.20212669302,732.20212669302,732.20212669302,732.20212669302,732.20212669302,732.20212669302,732.20212669302,732.20212669302,732.20212669302,732.20212669302,732.20212669302,732.20212669302,732.20212669302,1.3525542615336e-11,288.60358976369,62.862531606871,302.93077067576,57.083395268253,0
6.6e-06,20000000,4.5374413297364e-07,1.9589180657137e-06,4.0313466316025e-07,1,607.67959772498,607.67959772498,607.67959772498,607.67959772498,607.67959772498,607.67959772498,607.67959772498,607.67959772498,607.67959772498,607.67959772498,607.67959772498,607.67959772498,607.67959772498,607.67959772498,607.67959772498,607.67959772498,607.67959772498,607.67959772498,607.67959772498,607.67959772498,607.67959772498,607.67959772498,607.67959772498,607.67959772498,607.67959772498,607.67959772498,607.67959772498,607.67959772498,607.67959772498,607.67959772498,607.67959772498,607.67959772498,607.67959772498,607.67959772498,607.67959772498,607.67959772498,607.67959772498,607.67959772498,607.67959772498,607.67959772498,607.67959772498,607.67959772498,607.67959772498,607.67959772498,607.67959772498,607.67959772498,607.67959772498,607.67959772498,-3.7647500007393e-17,-1.8988690986195e-19,-2.5542826936445e-17,-1.0875776101989e-17,8.2627860530456e-18,1.4599710599939e-16,-6.0974804834124e-17,3.3972997159671e-19,2.4117113650219e-18,7.1226086741962e-19,7.6940180072626e-18,-6.7652895707225e-16,-1.5938049236284e-20,-4.5511796620106e-19,1.0885503513146e-17,-5.5313079644544e-16,-1.1950118420241e-18,1.2282500831096e-17,1.366703277263e-16,-9.9931654677846e-17,-2.3169107454317e-18,1.8821669222586e-18,3.312409939109e-19,-2.9114756787827e-16,2.2167508353608e-17,-5.1204865794737e-16,2.5035312368525e-18,7.3850705006775e-17,-1.8995878318597e-17,-1.0882941922255e-18,1.4640954248801e-18,1.0944442189892e-17,1.2174990948749e-18,-4.5050799241554e-16,-5.9292420029288e-18,-1.0353696225376e-18,2.3001953940855e-17,-1.8242674591443e-16,-2.2412153926128e-19,-2.6025358536476e-19,2.529136296878e-18,-8.1086521190443e-16,-1.3726074731148e-18,-1.1122832496439e-18,-1.6818745888906e-17,-2.5702091685135e-18,5.5380387591839e-18,1.6667153921646e-17,732.20212669302,732.20212669302,732.20212669302,732.20212669302,732.20212669302,732.20212669302,732.20212669302,732.20212669302,732.20212669302,732.20212669302,732.20212669302,732.20212669302,732.20212669302,732.20212669302,732.20212669302,732.20212669302,732.20212669302,732.20212669302,732.20212669302,732.20212669302,732.20212669302,732.20212669302,732.20212669302,732.20212669302,732.20212669302,732.20212669302,732.20212669302,732.20212669302,732.20212669302,732.20212669302,732.20212669302,732.20212669302,732.20212669302,732.20212669302,732.20212669302,732.20212669302,732.20212669302,732.20212669302,732.20212669302,732.20212669302,732.20212669302,732.20212669302,732.20212669302,732.20212669302,732.20212669302,732.20212669302,732.20212669302,732.20212669302,1.8443734528496e-11,293.0508581144,63.828978278179,307.60074267175,57.961025208159,0
6.7e-06,20000000,4.6061880650343e-07,1.9885985983071e-06,4.0924310187283e-07,1,607.67959772498,607.67959772498,607.67959772498,607.67959772498,607.67959772498,607.67959772498,607.67959772498,607.67959772498,607.67959772498,607.67959772498,607.67959772498,607.67959772498,607.67959772498,607.67959772498,607.67959772498,607.67959772498,607.67959772498,607.67959772498,607.67959772498,607.67959772498,607.67959772498,607.67959772498,607.67959772498,607.67959772498,607.67959772498,607.67959772498,607.67959772498,607.67959772498,607.67959772498,607.67959772498,607.67959772498,607.67959772498,607.67959772498,607.67959772498,607.67959772498,607.67959772498,607.67959772498,607.67959772498,607.67959772498,607.67959772498,607.67959772498,607.67959772498,607.67959772498,607.67959772498,607.67959772498,607.67959772498,607.67959772498,607.67959772498,-5.0861822235141e-17,-2.5653472675803e-19,-3.4507942790288e-17,-1.4687761002118e-17,1.1163183426754e-17,1.9720761516263e-16,-8.2384752919097e-17,4.5899243647733e-19,3.2583430097426e-18,9.6227273654995e-19,1.0394752258779e-17,-9.1399245658204e-16,-2.1532789277469e-20,-6.1482292234673e-19,1.4706528723371e-17,-7.4729094726295e-16,-1.6145358929608e-18,1.6593865661353e-17,1.8461021933867e-16,-1.3502048407069e-16,-3.1300004230611e-18,2.5428848773931e-18,4.4750720437082e-19,-3.9334810195889e-16,2.9948432000809e-17,-6.9177912837884e-16,3.3823719404681e-18,9.9754036317953e-17,-2.5665703816084e-17,-1.4702587776412e-18,1.9780585544491e-18,1.478630671298e-17,1.64487682001e-18,-6.0863729290627e-16,-8.010332287012e-18,-1.3987169023369e-18,3.1076001626558e-17,-2.4646190960843e-16,-3.0282543025843e-19,-3.5159059314683e-19,3.4169163047849e-18,-1.0954966897483e-15,-1.8544562283645e-18,-1.5027267518786e-18,-2.2722159720385e-17,-3.4715037302329e-18,7.4819759690261e-18,2.2512978346569e-17,732.20212669302,732.20212669302,732.20212669302,732.20212669302,732.20212669302,732.20212669302,732.20212669302,732.20212669302,732.20212669302,732.20212669302,732.20212669302,732.20212669302,732.20212669302,732.20212669302,732.20212669302,732.20212669302,732.20212669302,732.20212669302,732.20212669302,732.20212669302,732.20212669302,732.20212669302,732.20212669302,732.20212669302,732.20212669302,732.20212669302,732.20212669302,732.20212669302,732.20212669302,732.20212669302,732.20212669302,732.20212669302,732.20212669302,732.20212669302,732.20212669302,732.20212669302,732.20212669302,732.20212669302,732.20212669302,732.20212669302,732.20212669302,732.20212669302,732.20212669302,732.20212669302,732.20212669302,732.20212669302,732.20212669302,732.20212669302,2.5031504505801e-11,297.49834519464,64.795404690307,312.27100272239,58.838637706194,0
6.8e-06,20000000,4.6749347291653e-07,2.0182791295834e-06,4.1535155075333e-07,1,607.67959772498,607.67959772498,607.67959772498,607.67959772498,607.67959772498,607.67959772498,607.67959772498,607.67959772498,607.67959772498,607.67959772498,607.67959772498,607.67959772498,607.67959772498,607.67959772498,607.67959772498,607.67959772498,607.67959772498,607.67959772498,607.67959772498,607.67959772498,607.67959772498,607.67959772498,607.67959772498,607.67959772498,607.67959772498,607.67959772498,607.67959772498,607.67959772498,607.67959772498,607.67959772498,607.67959772498,607.67959772498,607.67959772498,607.67959772498,607.67959772498,607.67959772498,607.67959772498,607.67959772498,607.67959772498,607.67959772498,607.67959772498,607.67959772498,607.67959772498,607.67959772498,607.67959772498,607.67959772498,607.67959772498,607.67959772498,-6.8408890411848e-17,-3.4503421037217e-19,-4.6412400961322e-17,-1.9747663811465e-17,1.5014624338537e-17,2.6519661368056e-16,-1.1081744280895e-16,6.173650633727e-19,4.3826130585745e-18,1.2942618101212e-18,1.3981055032018e-17,-1.2293164404326e-15,-2.8962115064721e-20,-8.2687712771046e-19,1.9780473629245e-17,-1.0051166328738e-15,-2.1716411165376e-18,2.2318920968022e-17,2.4825734088255e-16,-1.8161892411095e-16,-4.2096340819692e-18,3.420267853795e-18,6.0189514563802e-19,-5.2906107244299e-16,4.0280620768654e-17,-9.3044034692484e-16,4.5494046507634e-18,1.3414397412988e-16,-3.4523262781059e-17,-1.9774527156116e-18,2.6605643014362e-18,1.9887978723877e-17,2.2123965428364e-18,-8.1861458012789e-16,-1.077374630856e-17,-1.8811745077142e-18,4.179750889974e-17,-3.3149422238075e-16,-4.0734833010609e-19,-4.7287094498921e-19,4.5958019561049e-18,-1.4734599210068e-15,-2.4943171412351e-18,-2.0212009634187e-18,-3.0561204351439e-17,-4.6680087346617e-18,1.0063324655606e-17,3.0273965825229e-17,732.20212669302,732.20212669302,732.20212669302,732.20212669302,732.20212669302,732.20212669302,732.20212669302,732.20212669302,732.20212669302,732.20212669302,732.20212669302,732.20212669302,732.20212669302,732.20212669302,732.20212669302,732.20212669302,732.20212669302,732.20212669302,732.20212669302,732.20212669302,732.20212669302,732.20212669302,732.20212669302,732.20212669302,732.20212669302,732.20212669302,732.20212669302,732.20212669302,732.20212669302,732.20212669302,732.20212669302,732.20212669302,732.20212669302,732.20212669302,732.20212669302,732.20212669302,732.20212669302,732.20212669302,732.20212669302,732.20212669302,732.20212669302,732.20212669302,732.20212669302,732.20212669302,732.20212669302,732.20212669302,732.20212669302,732.20212669302,3.3816667720713e-11,301.94605101116,65.761810844138,316.94155083748,59.716232763245,0
6.9e-06,20000000,4.743681322119e-07,2.0479596595424e-06,4.214600098055e-07,1,607.67959772498,607.67959772498,607.67959772498,607.67959772498,607.67959772498,607.67959772498,607.67959772498,607.67959772498,607.67959772498,607.67959772498,607.67959772498,607.67959772498,607.67959772498,607.67959772498,607.67959772498,607.67959772498,607.67959772498,607.67959772498,607.67959772498,607.67959772498,607.67959772498,607.67959772498,607.67959772498,607.67959772498,607.67959772498,607.67959772498,607.67959772498,607.67959772498,607.67959772498,607.67959772498,607.67959772498,607.67959772498,607.67959772498,607.67959772498,607.67959772498,607.67959772498,607.67959772498,607.67959772498,607.67959772498,607.67959772498,607.67959772498,607.67959772498,607.67959772498,607.67959772498,607.67959772498,607.67959772498,607.67959772498,607.67959772498,-9.1612458380767e-17,-4.6206121328508e-19,-6.2154183102242e-17,-2.6436085371904e-17,2.0107692774627e-17,3.5508606553237e-16,-1.4841943183244e-16,8.2679896956465e-19,5.8693609136061e-18,1.7332749222611e-18,1.8723503152706e-17,-1.6462891988455e-15,-3.8786591885674e-20,-1.1072693236699e-18,2.6490158579464e-17,-1.3460604334703e-15,-2.9083707403968e-18,2.9889605239698e-17,3.3240674099917e-16,-2.4324498549765e-16,-5.6372287638228e-18,4.5805212149296e-18,8.0605190863121e-19,-7.0852620488507e-16,5.3943557192168e-17,-1.2460371047726e-15,6.0926906999529e-18,1.796111206131e-16,-4.6237234443665e-17,-2.6481330107604e-18,3.5631141469736e-18,2.6634401585318e-17,2.9628790465779e-18,-1.0962806594537e-15,-1.442793970974e-17,-2.5191249423126e-18,5.5975376487634e-17,-4.4393918258544e-16,-5.4558307866367e-19,-6.3324150779375e-19,6.1547388674457e-18,-1.973271962284e-15,-3.3404741521397e-18,-2.7068259832662e-18,-4.0927261108956e-17,-6.2498132919315e-18,1.347683834411e-17,4.0534706974182e-17,732.20212669302,732.20212669302,732.20212669302,732.20212669302,732.20212669302,732.20212669302,732.20212669302,732.20212669302,732.20212669302,732.20212669302,732.20212669302,732.20212669302,732.20212669302,732.20212669302,732.20212669302,732.20212669302,732.20212669302,732.20212669302,732.20212669302,732.20212669302,732.20212669302,732.20212669302,732.20212669302,732.20212669302,732.20212669302,732.20212669302,732.20212669302,732.20212669302,732.20212669302,732.20212669302,732.20212669302,732.20212669302,732.20212669302,732.20212669302,732.20212669302,732.20212669302,732.20212669302,732.20212669302,732.20212669302,732.20212669302,732.20212669302,732.20212669302,732.20212669302,732.20212669302,732.20212669302,732.20212669302,732.20212669302,732.20212669302,4.5481996925808e-11,306.3939755706,66.728196740509,321.61238702672,60.593810380046,0
7e-06,20000000,4.812427843885e-07,2.0776401881843e-06,4.2756847903308e-07,1,607.67959772498,607.67959772498,607.67959772498,607.67959772498,607.67959772498,607.67959772498,607.67959772498,607.67959772498,607.67959772498,607.67959772498,607.67959772498,607.67959772498,607.67959772498,607.67959772498,607.67959772498,607.67959772498,607.67959772498,607.67959772498,607.67959772498,607.67959772498,607.67959772498,607.67959772498,607.67959772498,607.67959772498,607.67959772498,607.67959772498,607.67959772498,607.67959772498,607.67959772498,607.67959772498,607.67959772498,607.67959772498,607.67959772498,607.67959772498,607.67959772498,607.67959772498,607.67959772498,607.67959772498,607.67959772498,607.67959772498,607.67959772498,607.67959772498,607.67959772498,607.67959772498,607.67959772498,607.67959772498,607.67959772498,607.67959772498,-1.2217207596273e-16,-6.1618666686218e-19,-8.2886178321359e-17,-3.5241462517836e-17,2.6815471405238e-17,4.7345064486575e-16,-1.9794695674941e-16,1.1026386872048e-18,7.8275153321755e-18,2.3114696556756e-18,2.4969491406695e-17,-2.1954522357099e-15,-5.1725940088893e-20,-1.4765256050047e-18,3.5327089253958e-17,-1.7950976651927e-15,-3.8787063563369e-18,3.9860485943124e-17,4.4321349165472e-16,-3.2441588950173e-16,-7.5173089199672e-18,6.1086480576955e-18,1.0749310445191e-18,-9.4489043203007e-16,7.1938012321563e-17,-1.6616855400418e-15,8.1252946645413e-18,2.3948080188358e-16,-6.1666214703867e-17,-3.5314162246051e-18,4.7518326327494e-18,3.5519812593963e-17,3.9513026834117e-18,-1.4619733442909e-15,-1.9240542727077e-17,-3.3592765372926e-18,7.4648154118622e-17,-5.9203368460254e-16,-7.2766462580813e-19,-8.4444534105522e-19,8.2079250676855e-18,-2.6315461311613e-15,-4.4549207687284e-18,-3.6098287762188e-18,-5.4579597019611e-17,-8.332548509155e-18,1.7972561523527e-17,5.4045580080905e-17,732.20212669302,732.20212669302,732.20212669302,732.20212669302,732.20212669302,732.20212669302,732.20212669302,732.20212669302,732.20212669302,732.20212669302,732.20212669302,732.20212669302,732.20212669302,732.20212669302,732.20212669302,732.20212669302,732.20212669302,732.20212669302,732.20212669302,732.20212669302,732.20212669302,732.20212669302,732.20212669302,732.20212669302,732.20212669302,732.20212669302,732.20212669302,732.20212669302,732.20212669302,732.20212669302,732.20212669302,732.20212669302,732.20212669302,732.20212669302,732.20212669302,732.20212669302,732.20212669302,732.20212669302,732.20212669302,732.20212669302,732.20212669302,732.20212669302,732.20212669302,732.20212669302,732.20212669302,732.20212669302,732.20212669302,732.20212669302,6.0907335365767e-11,310.84211887978,67.694562380228,326.2835112999,61.471370557314,0
7.1e-06,20000000,4.881174294452e-07,2.1073207155091e-06,4.3367695843991e-07,1,607.67959772498,607.67959772498,607.67959772498,607.67959772498,607.67959772498,607.67959772498,607.67959772498,607.67959772498,607.67959772498,607.67959772498,607.67959772498,607.67959772498,607.67959772498,607.67959772498,607.67959772498,607.67959772498,607.67959772498,607.67959772498,607.67959772498,607.67959772498,607.67959772498,607.67959772498,607.67959772498,607.67959772498,607.67959772498,607.67959772498,607.67959772498,607.67959772498,607.67959772498,607.67959772498,607.67959772498,607.67959772498,607.67959772498,607.67959772498,607.67959772498,607.67959772498,607.67959772498,607.67959772498,607.67959772498,607.67959772498,607.67959772498,607.67959772498,607.67959772498,607.67959772498,607.67959772498,607.67959772498,607.67959772498,607.67959772498,-1.6226190045752e-16,-8.1837484042403e-19,-1.1008320317919e-16,-4.6788359857636e-17,3.5615235433927e-17,6.2869931277785e-16,-2.6292633126587e-16,1.4645146180024e-18,1.0396429818563e-17,3.069984121622e-18,3.3163432421004e-17,-2.9158759642366e-15,-6.8700888544923e-20,-1.9609019846308e-18,4.6920036597221e-17,-2.3841786448861e-15,-5.1517078284554e-18,5.2941005686985e-17,5.8854992934426e-16,-4.3091094583057e-16,-9.9835805428521e-18,8.1133927364652e-18,1.4276619649342e-18,-1.2549723972254e-15,9.5544232296392e-17,-2.2069571196598e-15,1.0791859825562e-17,3.1800604512025e-16,-8.1908678576719e-17,-4.6901335557161e-18,6.3113130701421e-18,4.7176484684286e-17,5.2480004671041e-18,-1.9417099005085e-15,-2.5553918576702e-17,-4.4613777251132e-18,9.9144428075209e-17,-7.8631497133659e-16,-9.6655999532531e-19,-1.1215041957676e-18,1.0901451422674e-17,-3.495121023029e-15,-5.9169655592878e-18,-4.7944639566802e-18,-7.2489508684108e-17,-1.1064093712194e-17,2.3870368710299e-17,7.1766293044265e-17,732.20212669302,732.20212669302,732.20212669302,732.20212669302,732.20212669302,732.20212669302,732.20212669302,732.20212669302,732.20212669302,732.20212669302,732.20212669302,732.20212669302,732.20212669302,732.20212669302,732.20212669302,732.20212669302,732.20212669302,732.20212669302,732.20212669302,732.20212669302,732.20212669302,732.20212669302,732.20212669302,732.20212669302,732.20212669302,732.20212669302,732.20212669302,732.20212669302,732.20212669302,732.20212669302,732.20212669302,732.20212669302,732.20212669302,732.20212669302,732.20212669302,732.20212669302,732.20212669302,732.20212669302,732.20212669302,732.20212669302,732.20212669302,732.20212669302,732.20212669302,732.20212669302,732.20212669302,732.20212669302,732.20212669302,732.20212669302,8.1222265889253e-11,315.29048094541,68.660907764295,330.95492366697,62.348913295855,0
7.2e-06,20000000,4.9499206738088e-07,2.1370012415168e-06,4.3978544802968e-07,1,607.67959772498,607.67959772498,607.67959772498,607.67959772498,607.67959772498,607.67959772498,607.67959772498,607.67959772498,607.67959772498,607.67959772498,607.67959772498,607.67959772498,607.67959772498,607.67959772498,607.67959772498,607.67959772498,607.67959772498,607.67959772498,607.67959772498,607.67959772498,607.67959772498,607.67959772498,607.67959772498,607.67959772498,607.67959772498,607.67959772498,607.67959772498,607.67959772498,607.67959772498,607.67959772498,607.67959772498,607.67959772498,607.67959772498,607.67959772498,607.67959772498,607.67959772498,607.67959772498,607.67959772498,607.67959772498,607.67959772498,607.67959772498,607.67959772498,607.67959772498,607.67959772498,607.67959772498,607.67959772498,607.67959772498,607.67959772498,-2.1465348466872e-16,-1.0826024939239e-18,-1.4562528260965e-16,-6.1872609334734e-17,4.7115410910206e-17,8.3154937418402e-16,-3.478532883035e-16,1.9374520942194e-18,1.3753755665614e-17,4.0612604638394e-18,4.3871858421332e-17,-3.8573662765795e-15,-9.0885185279345e-20,-2.5938662003344e-18,6.2070552277556e-17,-3.1540333789091e-15,-6.8154153292229e-18,7.0035553492484e-17,7.7844948109825e-16,-5.7009825777789e-16,-1.320647870964e-17,1.0733384166203e-17,1.8886303019789e-18,-1.6602124871989e-15,1.2639424415804e-16,-2.9195487395122e-15,1.427677946799e-17,4.2060732358993e-16,-1.0836507310306e-16,-6.2043786136235e-18,8.3493966088968e-18,6.2410443393372e-17,6.9426330449856e-18,-2.5686564112302e-15,-3.3804496811333e-17,-5.9015897121203e-18,1.3115786278214e-16,-1.0402158140472e-15,-1.2788015199336e-18,-1.483566582097e-18,1.4421553510946e-17,-4.6237061849179e-15,-7.8277127112014e-18,-6.3426433950937e-18,-9.5895177660297e-17,-1.4632907244287e-17,3.1578031650565e-17,9.4919976961132e-17,732.20212669302,732.20212669302,732.20212669302,732.20212669302,732.20212669302,732.20212669302,732.20212669302,732.20212669302,732.20212669302,732.20212669302,732.20212669302,732.20212669302,732.20212669302,732.20212669302,732.20212669302,732.20212669302,732.20212669302,732.20212669302,732.20212669302,732.20212669302,732.20212669302,732.20212669302,732.20212669302,732.20212669302,732.20212669302,732.20212669302,732.20212669302,732.20212669302,732.20212669302,732.20212669302,732.20212669302,732.20212669302,732.20212669302,732.20212669302,732.20212669302,732.20212669302,732.20212669302,732.20212669302,732.20212669302,732.20212669302,732.20212669302,732.20212669302,732.20212669302,732.20212669302,732.20212669302,732.20212669302,732.20212669302,732.20212669302,1.078717666172e-10,319.73906177422,69.627232893492,335.62662413752,63.226438596435,0
7.3e-06,20000000,5.0186669819452e-07,2.1666817662076e-06,4.4589394780625e-07,1,607.67959772498,607.67959772498,607.67959772498,607.67959772498,607.67959772498,607.67959772498,607.67959772498,607.67959772498,607.67959772498,607.67959772498,607.67959772498,607.67959772498,607.67959772498,607.67959772498,607.67959772498,607.67959772498,607.67959772498,607.67959772498,607.67959772498,607.67959772498,607.67959772498,607.67959772498,607.67959772498,607.67959772498,607.67959772498,607.67959772498,607.67959772498,607.67959772498,607.67959772498,607.67959772498,607.67959772498,607.67959772498,607.67959772498,607.67959772498,607.67959772498,607.67959772498,607.67959772498,607.67959772498,607.67959772498,607.67959772498,607.67959772498,607.67959772498,607.67959772498,607.67959772498,607.67959772498,607.67959772498,607.67959772498,607.67959772498,-2.8286788789042e-16,-1.4266258796223e-18,-1.9190081736611e-16,-8.1504820166669e-17,6.2088971528175e-17,1.0956136088147e-15,-4.5843995738903e-16,2.5532453595866e-18,1.812519561563e-17,5.3519232666216e-18,5.7814518015774e-17,-5.0831980672638e-15,-1.1977003057293e-19,-3.4179332267586e-18,8.179696636292e-17,-4.1564072700321e-15,-8.9816835066135e-18,9.2293106215626e-17,1.0256563572328e-15,-7.5133949749717e-16,-1.7402516969218e-17,1.414474649911e-17,2.4888162693058e-18,-2.1878497705625e-15,1.665614293742e-16,-3.8473516634384e-15,1.8814319948443e-17,5.5416948348662e-16,-1.4281474746728e-16,-8.1759023253224e-18,1.1003092842724e-17,8.2245714755778e-17,9.1491105868299e-18,-3.3849480416726e-15,-4.4546723349848e-17,-7.7766643086408e-18,1.7284016435145e-16,-1.370801839085e-15,-1.6853953246358e-18,-1.9549583154773e-18,1.9004834322892e-17,-6.0931596669963e-15,-1.0315612831772e-17,-8.3584327298033e-18,-1.2636962588785e-16,-1.9278343418362e-17,4.1613601450381e-17,1.2506018073114e-16,732.20212669302,732.20212669302,732.20212669302,732.20212669302,732.20212669302,732.20212669302,732.20212669302,732.20212669302,732.20212669302,732.20212669302,732.20212669302,732.20212669302,732.20212669302,732.20212669302,732.20212669302,732.20212669302,732.20212669302,732.20212669302,732.20212669302,732.20212669302,732.20212669302,732.20212669302,732.20212669302,732.20212669302,732.20212669302,732.20212669302,732.20212669302,732.20212669302,732.20212669302,732.20212669302,732.20212669302,732.20212669302,732.20212669302,732.20212669302,732.20212669302,732.20212669302,732.20212669302,732.20212669302,732.20212669302,732.20212669302,732.20212669302,732.20212669302,732.20212669302,732.20212669302,732.20212669302,732.20212669302,732.20212669302,732.20212669302,1.4269779497111e-10,324.18786137291,70.59353776876,340.29861272148,64.103946459773,0
7.4e-06,20000000,5.0874132188501e-07,2.1963622895813e-06,4.5200245777339e-07,1,607.67959772498,607.67959772498,607.67959772498,607.67959772498,607.67959772498,607.67959772498,607.67959772498,607.67959772498,607.67959772498,607.67959772498,607.67959772498,607.67959772498,607.67959772498,607.67959772498,607.67959772498,607.67959772498,607.67959772498,607.67959772498,607.67959772498,607.67959772498,607.67959772498,607.67959772498,607.67959772498,607.67959772498,607.67959772498,607.67959772498,607.67959772498,607.67959772498,607.67959772498,607.67959772498,607.67959772498,607.67959772498,607.67959772498,607.67959772498,607.67959772498,607.67959772498,607.67959772498,607.67959772498,607.67959772498,607.67959772498,607.67959772498,607.67959772498,607.67959772498,607.67959772498,607.67959772498,607.67959772498,607.67959772498,607.67959772498,-3.7136354655477e-16,-1.8729280444406e-18,-2.5193400285687e-16,-1.0696409118314e-16,8.151468737404e-17,1.4381252634535e-15,-6.0191994118695e-16,3.3521546394963e-18,2.3796551072491e-17,7.0263346817679e-18,7.5902784100401e-17,-6.6734913832135e-15,-1.5724365984172e-19,-4.4869320933169e-18,1.0738872934508e-16,-5.4568224659818e-15,-1.1792152467014e-17,1.2116854106011e-16,1.3463043188725e-15,-9.864899011378e-16,-2.2845833949936e-17,1.8570499352841e-17,3.2674476584645e-18,-2.8723756575756e-15,2.1867115562365e-16,-5.051006851049e-15,2.4701124061394e-17,7.2740838667077e-16,-1.8751097946267e-16,-1.0733540901347e-17,1.4445892594091e-17,1.0797897710589e-16,1.2011671921721e-17,-4.4439372306612e-15,-5.8482640509206e-17,-1.0209103589415e-17,2.2691590046927e-16,-1.7996822074284e-15,-2.212943563619e-18,-2.5664799751418e-18,2.4950890448827e-17,-7.9995361722847e-15,-1.3543318981527e-17,-1.097360510902e-17,-1.6590464676425e-16,-2.530339077325e-17,5.4633052883992e-17,1.6415359431987e-16,732.20212669302,732.20212669302,732.20212669302,732.20212669302,732.20212669302,732.20212669302,732.20212669302,732.20212669302,732.20212669302,732.20212669302,732.20212669302,732.20212669302,732.20212669302,732.20212669302,732.20212669302,732.20212669302,732.20212669302,732.20212669302,732.20212669302,732.20212669302,732.20212669302,732.20212669302,732.20212669302,732.20212669302,732.20212669302,732.20212669302,732.20212669302,732.20212669302,732.20212669302,732.20212669302,732.20212669302,732.20212669302,732.20212669302,732.20212669302,732.20212669302,732.20212669302,732.20212669302,732.20212669302,732.20212669302,732.20212669302,732.20212669302,732.20212669302,732.20212669302,732.20212669302,732.20212669302,732.20212669302,732.20212669302,732.20212669302,1.8804035112124e-10,328.63687974822,71.55982239091,344.9708894285,64.981436886662,0
7.5e-06,20000000,5.1561593845125e-07,2.2260428116381e-06,4.5811097793482e-07,1,607.67959772498,607.67959772498,607.67959772498,607.67959772498,607.67959772498,607.67959772498,607.67959772498,607.67959772498,607.67959772498,607.67959772498,607.67959772498,607.67959772498,607.67959772498,607.67959772498,607.67959772498,607.67959772498,607.67959772498,607.67959772498,607.67959772498,607.67959772498,607.67959772498,607.67959772498,607.67959772498,607.67959772498,607.67959772498,607.67959772498,607.67959772498,607.67959772498,607.67959772498,607.67959772498,607.67959772498,607.67959772498,607.67959772498,607.67959772498,607.67959772498,607.67959772498,607.67959772498,607.67959772498,607.67959772498,607.67959772498,607.67959772498,607.67959772498,607.67959772498,607.67959772498,607.67959772498,607.67959772498,607.67959772498,607.67959772498,-4.8576763367859e-16,-2.4498854001475e-18,-3.2954174055501e-16,-1.3986412425624e-16,1.0662792292742e-16,1.8808306617362e-15,-7.87424058006e-16,4.384996153157e-18,3.112855873618e-17,9.1909725500978e-18,9.9286953267087e-17,-8.729369099687e-15,-2.0568935134942e-19,-5.8687971810928e-18,1.4047333458911e-16,-7.1379784747559e-15,-1.5425601374128e-17,1.5849814200871e-16,1.7607523811101e-15,-1.2905140799292e-15,-2.9882411920713e-17,2.4292134475288e-17,4.2740354763024e-18,-3.757324100702e-15,2.8603701851258e-16,-6.6070518039773e-15,3.2311609300822e-17,9.5132231598376e-16,-2.4529801235757e-16,-1.4039900114221e-17,1.8896773861437e-17,1.4124686591781e-16,1.5712371092009e-17,-5.8129623019381e-15,-7.6498313815386e-17,-1.3353513516679e-17,2.9682390107296e-16,-2.3541311193657e-15,-2.8950266557412e-18,-3.3570046283775e-18,3.2637861308546e-17,-1.046407238222e-14,-1.7716130128217e-17,-1.4354480711057e-17,-2.1701416487835e-16,-3.3090353966376e-17,7.1464328345446e-17,2.1468189509865e-16,732.20212669302,732.20212669302,732.20212669302,732.20212669302,732.20212669302,732.20212669302,732.20212669302,732.20212669302,732.20212669302,732.20212669302,732.20212669302,732.20212669302,732.20212669302,732.20212669302,732.20212669302,732.20212669302,732.20212669302,732.20212669302,732.20212669302,732.20212669302,732.20212669302,732.20212669302,732.20212669302,732.20212669302,732.20212669302,732.20212669302,732.20212669302,732.20212669302,732.20212669302,732.20212669302,732.20212669302,732.20212669302,732.20212669302,732.20212669302,732.20212669302,732.20212669302,732.20212669302,732.20212669302,732.20212669302,732.20212669302,732.20212669302,732.20212669302,732.20212669302,732.20212669302,732.20212669302,732.20212669302,732.20212669302,732.20212669302,2.4686229588553e-10,333.08611690696,72.526086760891,349.64345426844,65.858909877874,0
7.6e-06,20000000,5.2249054789216e-07,2.255723332378e-06,4.6421950829435e-07,1,607.67959772498,607.67959772498,607.67959772498,607.67959772498,607.67959772498,607.67959772498,607.67959772498,607.67959772498,607.67959772498,607.67959772498,607.67959772498,607.67959772498,607.67959772498,607.67959772498,607.67959772498,607.67959772498,607.67959772498,607.67959772498,607.67959772498,607.67959772498,607.67959772498,607.67959772498,607.67959772498,607.67959772498,607.67959772498,607.67959772498,607.67959772498,607.67959772498,607.67959772498,607.67959772498,607.67959772498,607.67959772498,607.67959772498,607.67959772498,607.67959772498,607.67959772498,607.67959772498,607.67959772498,607.67959772498,607.67959772498,607.67959772498,607.67959772498,607.67959772498,607.67959772498,607.67959772498,607.67959772498,607.67959772498,607.67959772498,-6.3316016469497e-16,-3.1932002337684e-18,-4.2952631951171e-16,-1.8223437076392e-16,1.3898301731238e-16,2.4510850628682e-15,-1.0264418043943e-15,5.7157087387037e-18,4.0575110623508e-17,1.1979806721591e-17,1.2941432965731e-16,-1.1378062489168e-14,-2.6810578158089e-19,-7.6489955852629e-18,1.8309849953543e-16,-9.3039281448399e-15,-2.0106979092108e-17,2.0659232195591e-16,2.2946108137026e-15,-1.682242319791e-15,-3.894753587709e-17,3.1663832259812e-17,5.5708736777756e-18,-4.8974699871969e-15,3.7282814503791e-16,-8.6117848498406e-15,4.2116877404516e-17,1.2397461603819e-15,-3.1975479085535e-16,-1.8299563284434e-17,2.4631261449653e-17,1.8410862568512e-16,2.0480270975291e-17,-7.5767472791069e-15,-9.9708562973214e-17,-1.7404405588711e-17,3.868908986441e-16,-3.0684650279365e-15,-3.7739009189825e-18,-4.3754397210626e-18,4.2541523732456e-17,-1.3639308982119e-14,-2.3092360030306e-17,-1.8710325794591e-17,-2.8286116026508e-16,-4.3120104698417e-17,9.3149143870679e-17,2.7976678175282e-16,732.20212669302,732.20212669302,732.20212669302,732.20212669302,732.20212669302,732.20212669302,732.20212669302,732.20212669302,732.20212669302,732.20212669302,732.20212669302,732.20212669302,732.20212669302,732.20212669302,732.20212669302,732.20212669302,732.20212669302,732.20212669302,732.20212669302,732.20212669302,732.20212669302,732.20212669302,732.20212669302,732.20212669302,732.20212669302,732.20212669302,732.20212669302,732.20212669302,732.20212669302,732.20212669302,732.20212669302,732.20212669302,732.20212669302,732.20212669302,732.20212669302,732.20212669302,732.20212669302,732.20212669302,732.20212669302,732.20212669302,732.20212669302,732.20212669302,732.20212669302,732.20212669302,732.20212669302,732.20212669302,732.20212669302,732.20212669302,3.2290305628763e-10,337.53557285574,73.492330879476,354.31630725107,66.736365434187,0
7.7e-06,20000000,5.2936515020667e-07,2.2854038518011e-06,4.7032804885571e-07,1,607.67959772498,607.67959772498,607.67959772498,607.67959772498,607.67959772498,607.67959772498,607.67959772498,607.67959772498,607.67959772498,607.67959772498,607.67959772498,607.67959772498,607.67959772498,607.67959772498,607.67959772498,607.67959772498,607.67959772498,607.67959772498,607.67959772498,607.67959772498,607.67959772498,607.67959772498,607.67959772498,607.67959772498,607.67959772498,607.67959772498,607.67959772498,607.67959772498,607.67959772498,607.67959772498,607.67959772498,607.67959772498,607.67959772498,607.67959772498,607.67959772498,607.67959772498,607.67959772498,607.67959772498,607.67959772498,607.67959772498,607.67959772498,607.67959772498,607.67959772498,607.67959772498,607.67959772498,607.67959772498,607.67959772498,607.67959772498,-8.2242191072643e-16,-4.1476549215931e-18,-5.5791136826082e-16,-2.3661935405809e-16,1.8052967588332e-16,3.1831943306809e-15,-1.3333865270492e-15,7.4244970675512e-18,5.2705567185573e-17,1.5560882912008e-17,1.681003550017e-16,-1.4779163460496e-14,-3.4825441543605e-19,-9.9347238538726e-18,2.3783280579656e-16,-1.2085191624253e-14,-2.6118463681167e-17,2.6834917104732e-16,2.9799972901623e-15,-2.1852968524785e-15,-5.0587172437725e-17,4.1129871825177e-17,7.2361003162635e-18,-6.3615213352992e-15,4.8427407269104e-16,-1.1185997313712e-14,5.4707871677285e-17,1.6100299010984e-15,-4.1537099895505e-16,-2.3769142448948e-17,3.1994971057911e-17,2.3914732776465e-16,2.6602702009873e-17,-9.8415652699836e-15,-1.2951173825095e-16,-2.2605750047587e-17,5.0254416941433e-16,-3.9857291892402e-15,-4.9025778082975e-18,-5.6831294794764e-18,5.5258675449514e-17,-1.7716587784002e-14,-2.9996035424869e-17,-2.4303638370046e-17,-3.6741309873069e-16,-5.5995648621984e-17,1.2099418508953e-16,3.6332305063468e-16,732.20212669302,732.20212669302,732.20212669302,732.20212669302,732.20212669302,732.20212669302,732.20212669302,732.20212669302,732.20212669302,732.20212669302,732.20212669302,732.20212669302,732.20212669302,732.20212669302,732.20212669302,732.20212669302,732.20212669302,732.20212669302,732.20212669302,732.20212669302,732.20212669302,732.20212669302,732.20212669302,732.20212669302,732.20212669302,732.20212669302,732.20212669302,732.20212669302,732.20212669302,732.20212669302,732.20212669302,732.20212669302,732.20212669302,732.20212669302,732.20212669302,732.20212669302,732.20212669302,732.20212669302,732.20212669302,732.20212669302,732.20212669302,732.20212669302,732.20212669302,732.20212669302,732.20212669302,732.20212669302,732.20212669302,732.20212669302,4.208673668295e-10,341.98524760137,74.458554747636,358.98944838613,67.613803556297,0
7.8e-06,20000000,5.3623974539367e-07,2.3150843699074e-06,4.7643659962278e-07,1,607.67959772498,607.67959772498,607.67959772498,607.67959772498,607.67959772498,607.67959772498,607.67959772498,607.67959772498,607.67959772498,607.67959772498,607.67959772498,607.67959772498,607.67959772498,607.67959772498,607.67959772498,607.67959772498,607.67959772498,607.67959772498,607.67959772498,607.67959772498,607.67959772498,607.67959772498,607.67959772498,607.67959772498,607.67959772498,607.67959772498,607.67959772498,607.67959772498,607.67959772498,607.67959772498,607.67959772498,607.67959772498,607.67959772498,607.67959772498,607.67959772498,607.67959772498,607.67959772498,607.67959772498,607.67959772498,607.67959772498,607.67959772498,607.67959772498,607.67959772498,607.67959772498,607.67959772498,607.67959772498,607.67959772498,607.67959772498,-1.0646593034327e-15,-5.3692543128663e-18,-7.2223001686611e-16,-3.0619991198387e-16,2.3370626853748e-16,4.1200531305033e-15,-1.726285749286e-15,9.6116706203472e-18,6.823200950262e-17,2.0144363617741e-17,2.1761548076399e-16,-1.9132260399642e-14,-4.5083951829202e-19,-1.286003298626e-17,3.0788861262393e-16,-1.564500213007e-14,-3.381297011092e-17,3.4739313482481e-16,3.8570706730545e-15,-2.8292232454601e-15,-6.5484078163283e-17,5.3245894685533e-17,9.367436114249e-18,-8.2354073414925e-15,6.2691496844434e-16,-1.4480752904906e-14,7.0823659992386e-17,2.0838670438427e-15,-5.3776207884212e-16,-3.0769553499229e-17,4.1420151307762e-17,3.0959349110709e-16,3.4439012795844e-17,-1.2740323192814e-14,-1.6765661773573e-16,-2.926264241602e-17,6.5057123471516e-16,-5.1597574728231e-15,-6.3473636837294e-18,-7.3567888175437e-18,7.1535693779641e-17,-2.2935208110948e-14,-3.8832404941126e-17,-3.146271037902e-17,-4.7563175831551e-16,-7.2470898232206e-17,1.5663363346012e-16,4.702454996128e-16,732.20212669302,732.20212669302,732.20212669302,732.20212669302,732.20212669302,732.20212669302,732.20212669302,732.20212669302,732.20212669302,732.20212669302,732.20212669302,732.20212669302,732.20212669302,732.20212669302,732.20212669302,732.20212669302,732.20212669302,732.20212669302,732.20212669302,732.20212669302,732.20212669302,732.20212669302,732.20212669302,732.20212669302,732.20212669302,732.20212669302,732.20212669302,732.20212669302,732.20212669302,732.20212669302,732.20212669302,732.20212669302,732.20212669302,732.20212669302,732.20212669302,732.20212669302,732.20212669302,732.20212669302,732.20212669302,732.20212669302,732.20212669302,732.20212669302,732.20212669302,732.20212669302,732.20212669302,732.20212669302,732.20212669302,732.20212669302,5.4665639194748e-10,346.43514115051,75.424758366207,363.66287768351,68.491224244963,0
7.9e-06,20000000,5.4311433345211e-07,2.3447648866969e-06,4.8254516059923e-07,1,607.67959772498,607.67959772498,607.67959772498,607.67959772498,607.67959772498,607.67959772498,607.67959772498,607.67959772498,607.67959772498,607.67959772498,607.67959772498,607.67959772498,607.67959772498,607.67959772498,607.67959772498,607.67959772498,607.67959772498,607.67959772498,607.67959772498,607.67959772498,607.67959772498,607.67959772498,607.67959772498,607.67959772498,607.67959772498,607.67959772498,607.67959772498,607.67959772498,607.67959772498,607.67959772498,607.67959772498,607.67959772498,607.67959772498,607.67959772498,607.67959772498,607.67959772498,607.67959772498,607.67959772498,607.67959772498,607.67959772498,607.67959772498,607.67959772498,607.67959772498,607.67959772498,607.67959772498,607.67959772498,607.67959772498,607.67959772498,-1.373722009619e-15,-6.9278353211084e-18,-9.3187589978122e-16,-3.9494080934524e-16,3.0155347793225e-16,5.3151399496533e-15,-2.2276221575109e-15,1.2402320148518e-17,8.8042436625818e-17,2.5992322815756e-17,2.8079098834692e-16,-2.4686239364295e-14,-5.8172743407029e-19,-1.6592070609649e-17,3.9727177989641e-16,-2.0186914030637e-14,-4.3630604920369e-17,4.4824393996729e-16,4.9758988921086e-15,-3.6508687121175e-15,-8.448959999605e-17,6.8704806928333e-17,1.2086738401202e-17,-1.0626283633327e-14,8.0890642065798e-16,-1.8684427570589e-14,9.1385887487817e-17,2.6883034848944e-15,-6.939311744218e-16,-3.970096809534e-17,5.3445834359367e-17,3.9947566877124e-16,4.4437320090964e-17,-1.6438755462887e-14,-2.1632389348144e-16,-3.7755513534343e-17,8.3943620642167e-16,-6.6576814486878e-15,-8.1909539828615e-18,-9.492076951097e-18,9.2303323511755e-17,-2.9593580368158e-14,-5.0106831258359e-17,-4.0596930034434e-17,-6.1370445618822e-16,-9.3485709707792e-17,2.0210533022403e-16,6.0663653682568e-16,732.20212669302,732.20212669302,732.20212669302,732.20212669302,732.20212669302,732.20212669302,732.20212669302,732.20212669302,732.20212669302,732.20212669302,732.20212669302,732.20212669302,732.20212669302,732.20212669302,732.20212669302,732.20212669302,732.20212669302,732.20212669302,732.20212669302,732.20212669302,732.20212669302,732.20212669302,732.20212669302,732.20212669302,732.20212669302,732.20212669302,732.20212669302,732.20212669302,732.20212669302,732.20212669302,732.20212669302,732.20212669302,732.20212669302,732.20212669302,732.20212669302,732.20212669302,732.20212669302,732.20212669302,732.20212669302,732.20212669302,732.20212669302,732.20212669302,732.20212669302,732.20212669302,732.20212669302,732.20212669302,732.20212669302,732.20212669302,7.0764998463783e-10,350.88525351003,76.390941736068,368.33659515285,69.368627501004,0
8e-06,20000000,5.4998891438088e-07,2.3744454021696e-06,4.8865373178887e-07,1,607.67959772498,607.67959772498,607.67959772498,607.67959772498,607.67959772498,607.67959772498,607.67959772498,607.67959772498,607.67959772498,607.67959772498,607.67959772498,607.67959772498,607.67959772498,607.67959772498,607.67959772498,607.67959772498,607.67959772498,607.67959772498,607.67959772498,607.67959772498,607.67959772498,607.67959772498,607.67959772498,607.67959772498,607.67959772498,607.67959772498,607.67959772498,607.67959772498,607.67959772498,607.67959772498,607.67959772498,607.67959772498,607.67959772498,607.67959772498,607.67959772498,607.67959772498,607.67959772498,607.67959772498,607.67959772498,607.67959772498,607.67959772498,607.67959772498,607.67959772498,607.67959772498,607.67959772498,607.67959772498,607.67959772498,607.67959772498,-1.7668317772251e-15,-8.9102374975303e-18,-1.1985296122104e-15,-5.0776999686584e-16,3.8785238290529e-16,6.8349404616688e-15,-2.8653555135009e-15,1.5951999781228e-17,1.132411017956e-16,3.3430646509278e-17,3.6114756119146e-16,-3.1750584922184e-14,-7.4821301259351e-19,-2.1338664458367e-17,5.1096358271462e-16,-2.596404673054e-14,-5.6118659590753e-17,5.7652183982341e-16,6.398727881852e-15,-4.6960569457588e-15,-1.0866230994713e-16,8.8368251216641e-17,1.5545534088249e-17,-1.3667398715445e-14,1.0403897586558e-15,-2.4031262832393e-14,1.1754063770099e-16,3.4569629739426e-15,-8.9258742562775e-16,-5.1060979579726e-17,6.8742319663071e-17,5.1380341415524e-16,5.7154860375129e-17,-2.1142949242705e-14,-2.7822517473844e-16,-4.8557393447901e-17,1.079664147672e-15,-8.5629789441003e-15,-1.0536193196168e-17,-1.2207939090297e-17,1.187189445045e-16,-3.8062777748446e-14,-6.4447745817085e-17,-5.2215374452587e-17,-7.8932498631734e-16,-1.2020843848392e-16,2.5994331582816e-16,7.8008265177715e-16,732.20212669302,732.20212669302,732.20212669302,732.20212669302,732.20212669302,732.20212669302,732.20212669302,732.20212669302,732.20212669302,732.20212669302,732.20212669302,732.20212669302,732.20212669302,732.20212669302,732.20212669302,732.20212669302,732.20212669302,732.20212669302,732.20212669302,732.20212669302,732.20212669302,732.20212669302,732.20212669302,732.20212669302,732.20212669302,732.20212669302,732.20212669302,732.20212669302,732.20212669302,732.20212669302,732.20212669302,732.20212669302,732.20212669302,732.20212669302,732.20212669302,732.20212669302,732.20212669302,732.20212669302,732.20212669302,732.20212669302,732.20212669302,732.20212669302,732.20212669302,732.20212669302,732.20212669302,732.20212669302,732.20212669302,732.20212669302,9.1305049203364e-10,355.33558468653,77.357104858022,373.01060080406,70.2460133252,0
8.1e-06,20000000,5.5686348817889e-07,2.4041259163258e-06,4.9476231319549e-07,1,607.67959772498,607.67959772498,607.67959772498,607.67959772498,607.67959772498,607.67959772498,607.67959772498,607.67959772498,607.67959772498,607.67959772498,607.67959772498,607.67959772498,607.67959772498,607.67959772498,607.67959772498,607.67959772498,607.67959772498,607.67959772498,607.67959772498,607.67959772498,607.67959772498,607.67959772498,607.67959772498,607.67959772498,607.67959772498,607.67959772498,607.67959772498,607.67959772498,607.67959772498,607.67959772498,607.67959772498,607.67959772498,607.67959772498,607.67959772498,607.67959772498,607.67959772498,607.67959772498,607.67959772498,607.67959772498,607.67959772498,607.67959772498,607.67959772498,607.67959772498,607.67959772498,607.67959772498,607.67959772498,607.67959772498,607.67959772498,-2.2653445741704e-15,-1.1424145599289e-17,-1.5366755511573e-15,-6.5079575989078e-16,4.9729181355482e-16,8.7618838809549e-15,-3.674161327297e-15,2.0453613863597e-17,1.4519740080854e-16,4.2863455909948e-17,4.6305111199971e-16,-4.070907638146e-14,-9.5934251915809e-19,-2.7357512455411e-17,6.5514118930486e-16,-3.3290288134643e-14,-7.1955843237977e-17,7.3919636839634e-16,8.2027308368705e-15,-6.0216182081636e-15,-1.3931482603817e-16,1.1330475120507e-16,1.9931725439038e-17,-1.7523992072433e-14,1.3339408687678e-15,-3.0811732138528e-14,1.5070916868761e-16,4.4315319732013e-15,-1.1445317739732e-15,-6.546661886374e-17,8.8140848640809e-17,6.5878903642422e-16,7.3282655886234e-17,-2.7108464783919e-14,-3.5672297473073e-16,-6.2254833272229e-17,1.3843069108375e-15,-1.0979168846857e-14,-1.3510632548469e-17,-1.5651868173575e-17,1.5221779948901e-16,-4.8802960742448e-14,-8.2634470319701e-17,-6.6949343860469e-17,-1.0120341061162e-15,-1.5408749848321e-16,3.3328998592642e-16,9.9998940313128e-16,732.20212669302,732.20212669302,732.20212669302,732.20212669302,732.20212669302,732.20212669302,732.20212669302,732.20212669302,732.20212669302,732.20212669302,732.20212669302,732.20212669302,732.20212669302,732.20212669302,732.20212669302,732.20212669302,732.20212669302,732.20212669302,732.20212669302,732.20212669302,732.20212669302,732.20212669302,732.20212669302,732.20212669302,732.20212669302,732.20212669302,732.20212669302,732.20212669302,732.20212669302,732.20212669302,732.20212669302,732.20212669302,732.20212669302,732.20212669302,732.20212669302,732.20212669302,732.20212669302,732.20212669302,732.20212669302,732.20212669302,732.20212669302,732.20212669302,732.20212669302,732.20212669302,732.20212669302,732.20212669302,732.20212669302,732.20212669302,1.1743004594061e-09,359.7861346867,78.323247733073,377.68489464692,71.123381718196,0
8.2e-06,20000000,5.637380548451e-07,2.4338064291652e-06,5.0087090482284e-07,1,607.67959772498,607.67959772498,607.67959772498,607.67959772498,607.67959772498,607.67959772498,607.67959772498,607.67959772498,607.67959772498,607.67959772498,607.67959772498,607.67959772498,607.67959772498,607.67959772498,607.67959772498,607.67959772498,607.67959772498,607.67959772498,607.67959772498,607.67959772498,607.67959772498,607.67959772498,607.67959772498,607.67959772498,607.67959772498,607.67959772498,607.67959772498,607.67959772498,607.67959772498,607.67959772498,607.67959772498,607.67959772498,607.67959772498,607.67959772498,607.67959772498,607.67959772498,607.67959772498,607.67959772498,607.67959772498,607.67959772498,607.67959772498,607.67959772498,607.67959772498,607.67959772498,607.67959772498,607.67959772498,607.67959772498,607.67959772498,-2.8956720338551e-15,-1.4602735289101e-17,-1.9642267789271e-15,-8.3156912758734e-16,6.3567069136841e-16,1.1197892273574e-14,-4.6969286282669e-15,2.6145743718225e-17,1.8560498210693e-16,5.4790545613586e-17,5.9190118480805e-16,-5.203634690888e-14,-1.2263040516089e-18,-3.4967292761578e-17,8.3744422924112e-16,-4.2553840173787e-14,-9.1981582302497e-17,9.4488709484916e-16,1.0483331387319e-14,-7.6978440610061e-15,-1.7807041649878e-16,1.448358309005e-16,2.5477697524135e-17,-2.2400425301601e-14,1.7051128268634e-15,-3.9385074067868e-14,1.9264925661857e-16,5.6635544573982e-15,-1.4631234649179e-15,-8.3680971536183e-17,1.1266948365189e-16,8.4211571688116e-16,9.3675337299815e-17,-3.4651362165413e-14,-4.5597577583261e-16,-7.9573198636047e-17,1.7695063555484e-15,-1.4034278291892e-14,-1.7272041230193e-17,-2.0006266146938e-17,1.9457493099305e-16,-6.2383235190858e-14,-1.0563085510669e-16,-8.5579606761988e-17,-1.293631193873e-15,-1.9691367847887e-16,4.2603169273484e-16,1.2779863244455e-15,732.20212669302,732.20212669302,732.20212669302,732.20212669302,732.20212669302,732.20212669302,732.20212669302,732.20212669302,732.20212669302,732.20212669302,732.20212669302,732.20212669302,732.20212669302,732.20212669302,732.20212669302,732.20212669302,732.20212669302,732.20212669302,732.20212669302,732.20212669302,732.20212669302,732.20212669302,732.20212669302,732.20212669302,732.20212669302,732.20212669302,732.20212669302,732.20212669302,732.20212669302,732.20212669302,732.20212669302,732.20212669302,732.20212669302,732.20212669302,732.20212669302,732.20212669302,732.20212669302,732.20212669302,732.20212669302,732.20212669302,732.20212669302,732.20212669302,732.20212669302,732.20212669302,732.20212669302,732.20212669302,732.20212669302,732.20212669302,1.5055888543115e-09,364.23690351741,79.289370362056,382.35947669114,72.000732680885,0
8.3e-06,20000000,5.7061261437838e-07,2.4634869406881e-06,5.0697950667471e-07,1,607.67959772498,607.67959772498,607.67959772498,607.67959772498,607.67959772498,607.67959772498,607.67959772498,607.67959772498,607.67959772498,607.67959772498,607.67959772498,607.67959772498,607.67959772498,607.67959772498,607.67959772498,607.67959772498,607.67959772498,607.67959772498,607.67959772498,607.67959772498,607.67959772498,607.67959772498,607.67959772498,607.67959772498,607.67959772498,607.67959772498,607.67959772498,607.67959772498,607.67959772498,607.67959772498,607.67959772498,607.67959772498,607.67959772498,607.67959772498,607.67959772498,607.67959772498,607.67959772498,607.67959772498,607.67959772498,607.67959772498,607.67959772498,607.67959772498,607.67959772498,607.67959772498,607.67959772498,607.67959772498,607.67959772498,607.67959772498,-3.6903928726837e-15,-1.861027654922e-17,-2.5032787002873e-15,-1.0594002266472e-15,8.1014208954793e-16,1.4268660634932e-14,-5.9865667492653e-15,3.3322691592104e-17,2.3655304681545e-16,6.9828417173089e-17,7.5435820298791e-16,-6.6317856625668e-14,-1.5628984620364e-18,-4.4561063154655e-17,1.0672963250658e-15,-5.4233557277075e-14,-1.172313629823e-16,1.2042263892534e-15,1.3358211007193e-14,-9.8114485472197e-15,-2.2693126965173e-16,1.8459164448247e-16,3.24700971735e-17,-2.8548783663523e-14,2.1730904069021e-15,-5.0194409492992e-14,2.4552918922924e-16,7.2165962213064e-15,-1.8648427923988e-15,-1.0664528174744e-16,1.4359638585577e-16,1.0732609122632e-15,1.1938711584825e-16,-4.4161501396919e-14,-5.8111300013454e-16,-1.0140717584433e-16,2.2551736934319e-15,-1.7886230925825e-14,-2.2015054924013e-17,-2.5496116379238e-17,2.4797988907364e-16,-7.9505604898161e-14,-1.346258544392e-16,-1.0906926305316e-16,-1.648670776862e-15,-2.50895281869e-16,5.4296230520656e-16,1.6284151839717e-15,732.20212669302,732.20212669302,732.20212669302,732.20212669302,732.20212669302,732.20212669302,732.20212669302,732.20212669302,732.20212669302,732.20212669302,732.20212669302,732.20212669302,732.20212669302,732.20212669302,732.20212669302,732.20212669302,732.20212669302,732.20212669302,732.20212669302,732.20212669302,732.20212669302,732.20212669302,732.20212669302,732.20212669302,732.20212669302,732.20212669302,732.20212669302,732.20212669302,732.20212669302,732.20212669302,732.20212669302,732.20212669302,732.20212669302,732.20212669302,732.20212669302,732.20212669302,732.20212669302,732.20212669302,732.20212669302,732.20212669302,732.20212669302,732.20212669302,732.20212669302,732.20212669302,732.20212669302,732.20212669302,732.20212669302,732.20212669302,1.9244630826623e-09,368.68789118535,80.255472745739,387.0343469465,72.878066213962,0
8.4e-06,20000000,5.7748716677769e-07,2.4931674508945e-06,5.1308811875489e-07,1,607.67959772498,607.67959772498,607.67959772498,607.67959772498,607.67959772498,607.67959772498,607.67959772498,607.67959772498,607.67959772498,607.67959772498,607.67959772498,607.67959772498,607.67959772498,607.67959772498,607.67959772498,607.67959772498,607.67959772498,607.67959772498,607.67959772498,607.67959772498,607.67959772498,607.67959772498,607.67959772498,607.67959772498,607.67959772498,607.67959772498,607.67959772498,607.67959772498,607.67959772498,607.67959772498,607.67959772498,607.67959772498,607.67959772498,607.67959772498,607.67959772498,607.67959772498,607.67959772498,607.67959772498,607.67959772498,607.67959772498,607.67959772498,607.67959772498,607.67959772498,607.67959772498,607.67959772498,607.67959772498,607.67959772498,607.67959772498,-4.6895903543841e-15,-2.3648876657698e-17,-3.1810160115744e-15,-1.345738789418e-15,1.0295069369062e-15,1.8128806289289e-14,-7.6081798519236e-15,4.2346567977191e-17,3.0061215426584e-16,8.8735590863219e-17,9.5861694058353e-16,-8.4273927984797e-14,-1.9861060733987e-18,-5.6622384209506e-17,1.3562920258366e-15,-6.8918608222618e-14,-1.4897926434716e-16,1.5302959763845e-15,1.697213039273e-14,-1.2469132073648e-14,-2.8836064381999e-16,2.345779230362e-16,4.1261600837664e-17,-3.627922732097e-14,2.7614777108085e-15,-6.3784933387819e-14,3.1201681187258e-16,9.1688487491224e-15,-2.3699683753962e-15,-1.3551758460881e-16,1.8248189738114e-16,1.36388554586e-15,1.517150728361e-16,-5.6118547591842e-14,-7.3844556377641e-16,-1.2885748020223e-16,2.8658070135437e-15,-2.2729331177037e-14,-2.7979177821499e-17,-3.2398216114906e-17,3.1512663528257e-16,-1.0103379644842e-13,-1.7108235635169e-16,-1.3860329209347e-16,-2.095060046765e-15,-3.1874851971013e-16,6.8998003775267e-16,2.0689174000427e-15,732.20212669302,732.20212669302,732.20212669302,732.20212669302,732.20212669302,732.20212669302,732.20212669302,732.20212669302,732.20212669302,732.20212669302,732.20212669302,732.20212669302,732.20212669302,732.20212669302,732.20212669302,732.20212669302,732.20212669302,732.20212669302,732.20212669302,732.20212669302,732.20212669302,732.20212669302,732.20212669302,732.20212669302,732.20212669302,732.20212669302,732.20212669302,732.20212669302,732.20212669302,732.20212669302,732.20212669302,732.20212669302,732.20212669302,732.20212669302,732.20212669302,732.20212669302,732.20212669302,732.20212669302,732.20212669302,732.20212669302,732.20212669302,732.20212669302,732.20212669302,732.20212669302,732.20212669302,732.20212669302,732.20212669302,732.20212669302,2.4525671560191e-09,373.13909769721,81.221554885109,391.70950542288,73.755382318232,0
8.5e-06,20000000,5.8436171204194e-07,2.5228479597843e-06,5.1919674106712e-07,1,607.67959772498,607.67959772498,607.67959772498,607.67959772498,607.67959772498,607.67959772498,607.67959772498,607.67959772498,607.67959772498,607.67959772498,607.67959772498,607.67959772498,607.67959772498,607.67959772498,607.67959772498,607.67959772498,607.67959772498,607.67959772498,607.67959772498,607.67959772498,607.67959772498,607.67959772498,607.67959772498,607.67959772498,607.67959772498,607.67959772498,607.67959772498,607.67959772498,607.67959772498,607.67959772498,607.67959772498,607.67959772498,607.67959772498,607.67959772498,607.67959772498,607.67959772498,607.67959772498,607.67959772498,607.67959772498,607.67959772498,607.67959772498,607.67959772498,607.67959772498,607.67959772498,607.67959772498,607.67959772498,607.67959772498,607.67959772498,-5.9424581545253e-15,-2.9966576222909e-17,-4.030801636385e-15,-1.7046307967591e-15,1.3045666679353e-15,2.2968050239503e-14,-9.6416781522848e-15,5.3661805285065e-17,3.8093725170924e-16,1.1244299727888e-16,1.2147348785933e-15,-1.0678860456905e-13,-2.5167671432854e-18,-7.1744676316305e-17,1.7186613981738e-15,-8.7332084130964e-14,-1.887890299669e-16,1.9391511043272e-15,2.1502717090774e-14,-1.5801861014433e-14,-3.6538149680377e-16,2.9725635915529e-16,5.228504401223e-17,-4.5972420152062e-14,3.4992438628282e-15,-8.0825757368355e-14,3.9538644723736e-16,1.1616254870709e-14,-3.003390442585e-15,-1.7171909011955e-16,2.3124107789516e-16,1.7283013154317e-15,1.922511378361e-16,-7.1111188049478e-14,-9.3571868162967e-16,-1.6327492806491e-16,3.6314728812956e-15,-2.8802049908055e-14,-3.5458392001455e-17,-4.1052261170715e-17,3.9932149049469e-16,-1.2802786922949e-13,-2.1679581415803e-16,-1.7563603849279e-16,-2.6547762840471e-15,-4.038060087427e-16,8.7432378147353e-16,2.6211391585172e-15,732.20212669302,732.20212669302,732.20212669302,732.20212669302,732.20212669302,732.20212669302,732.20212669302,732.20212669302,732.20212669302,732.20212669302,732.20212669302,732.20212669302,732.20212669302,732.20212669302,732.20212669302,732.20212669302,732.20212669302,732.20212669302,732.20212669302,732.20212669302,732.20212669302,732.20212669302,732.20212669302,732.20212669302,732.20212669302,732.20212669302,732.20212669302,732.20212669302,732.20212669302,732.20212669302,732.20212669302,732.20212669302,732.20212669302,732.20212669302,732.20212669302,732.20212669302,732.20212669302,732.20212669302,732.20212669302,732.20212669302,732.20212669302,732.20212669302,732.20212669302,732.20212669302,732.20212669302,732.20212669302,732.20212669302,732.20212669302,3.116529959923e-09,377.59052305984,82.187616781002,396.38495213,74.632680994351,0
8.6e-06,20000000,5.9123625017002e-07,2.5525284673577e-06,5.253053736152e-07,1,607.67959772498,607.67959772498,607.67959772498,607.67959772498,607.67959772498,607.67959772498,607.67959772498,607.67959772498,607.67959772498,607.67959772498,607.67959772498,607.67959772498,607.67959772498,607.67959772498,607.67959772498,607.67959772498,607.67959772498,607.67959772498,607.67959772498,607.67959772498,607.67959772498,607.67959772498,607.67959772498,607.67959772498,607.67959772498,607.67959772498,607.67959772498,607.67959772498,607.67959772498,607.67959772498,607.67959772498,607.67959772498,607.67959772498,607.67959772498,607.67959772498,607.67959772498,607.67959772498,607.67959772498,607.67959772498,607.67959772498,607.67959772498,607.67959772498,607.67959772498,607.67959772498,607.67959772498,607.67959772498,607.67959772498,607.67959772498,-7.5092242532777e-15,-3.7867048436202e-17,-5.0934812937996e-15,-2.1532652854569e-15,1.648545719692e-15,2.9018620976721e-14,-1.2184906661759e-14,6.7812546665107e-17,4.8139111405336e-16,1.4209038811019e-16,1.5350255956583e-15,-1.3494422518346e-13,-3.1803971109834e-18,-9.0654408120597e-17,2.1718266356237e-15,-1.1035928234842e-13,-2.3857525749003e-16,2.4504485298264e-15,2.7167397765334e-14,-1.9969995485559e-14,-4.6169464075196e-16,3.7564091477334e-16,6.6070348888026e-17,-5.8094420352287e-14,4.4218559958186e-15,-1.0213607800449e-13,4.9964699449023e-16,1.4676252525336e-14,-3.7955852931237e-15,-2.1698975165516e-16,2.9221862918286e-16,2.1840305650524e-15,2.4294436242336e-16,-8.9860155142109e-14,-1.1824147338527e-15,-2.063132335969e-16,4.5889823514115e-15,-3.6396352107792e-14,-4.4812671698669e-17,-5.1874125255509e-17,5.0461246339105e-16,-1.6178568051656e-13,-2.7396449250407e-16,-2.219481035972e-16,-3.3547263629031e-15,-5.1014671469243e-16,1.1048562427246e-15,3.3115759577428e-15,732.20212669302,732.20212669302,732.20212669302,732.20212669302,732.20212669302,732.20212669302,732.20212669302,732.20212669302,732.20212669302,732.20212669302,732.20212669302,732.20212669302,732.20212669302,732.20212669302,732.20212669302,732.20212669302,732.20212669302,732.20212669302,732.20212669302,732.20212669302,732.20212669302,732.20212669302,732.20212669302,732.20212669302,732.20212669302,732.20212669302,732.20212669302,732.20212669302,732.20212669302,732.20212669302,732.20212669302,732.20212669302,732.20212669302,732.20212669302,732.20212669302,732.20212669302,732.20212669302,732.20212669302,732.20212669302,732.20212669302,732.20212669302,732.20212669302,732.20212669302,732.20212669302,732.20212669302,732.20212669302,732.20212669302,732.20212669302,3.9490317402464e-09,382.04216727988,83.153658434311,401.06068707764,75.509962243221,0
8.7e-06,20000000,5.9811078116084e-07,2.5822089736147e-06,5.3141401640287e-07,1,607.67959772498,607.67959772498,607.67959772498,607.67959772498,607.67959772498,607.67959772498,607.67959772498,607.67959772498,607.67959772498,607.67959772498,607.67959772498,607.67959772498,607.67959772498,607.67959772498,607.67959772498,607.67959772498,607.67959772498,607.67959772498,607.67959772498,607.67959772498,607.67959772498,607.67959772498,607.67959772498,607.67959772498,607.67959772498,607.67959772498,607.67959772498,607.67959772498,607.67959772498,607.67959772498,607.67959772498,607.67959772498,607.67959772498,607.67959772498,607.67959772498,607.67959772498,607.67959772498,607.67959772498,607.67959772498,607.67959772498,607.67959772498,607.67959772498,607.67959772498,607.67959772498,607.67959772498,607.67959772498,607.67959772498,607.67959772498,-9.4634508979858e-15,-4.7721194109943e-17,-6.418943048386e-15,-2.7126277195921e-15,2.0775966243549e-15,3.6564103500521e-14,-1.5357385972044e-14,8.5463434859514e-17,6.0669191975661e-16,1.79069864696e-16,1.9345290635151e-15,-1.7006275631925e-13,-4.0081612313743e-18,-1.1423881519925e-16,2.7370674822452e-15,-1.3908151969714e-13,-3.0067655350082e-16,3.0881972693341e-15,3.4231683681542e-14,-2.5169420216831e-14,-5.8181998436348e-16,4.7341295905819e-16,8.326476091717e-17,-7.3214482187998e-14,5.5726337121198e-15,-1.2871646038347e-13,6.2969507417841e-16,1.849224925289e-14,-4.783780372201e-15,-2.7345469495959e-16,3.6827846925806e-16,2.7524756178189e-15,3.0617536878217e-16,-1.1324574958784e-13,-1.4901153299662e-15,-2.5999212182059e-16,5.7832968799451e-15,-4.5868848084234e-14,-5.6481750495326e-17,-6.5371734313063e-17,6.3594386219971e-16,-2.0389245686313e-13,-3.4527344831092e-16,-2.7971435956483e-16,-4.2277742673373e-15,-6.4275124601514e-16,1.3924024323657e-15,4.1725819825642e-15,732.20212669302,732.20212669302,732.20212669302,732.20212669302,732.20212669302,732.20212669302,732.20212669302,732.20212669302,732.20212669302,732.20212669302,732.20212669302,732.20212669302,732.20212669302,732.20212669302,732.20212669302,732.20212669302,732.20212669302,732.20212669302,732.20212669302,732.20212669302,732.20212669302,732.20212669302,732.20212669302,732.20212669302,732.20212669302,732.20212669302,732.20212669302,732.20212669302,732.20212669302,732.20212669302,732.20212669302,732.20212669302,732.20212669302,732.20212669302,732.20212669302,732.20212669302,732.20212669302,732.20212669302,732.20212669302,732.20212669302,732.20212669302,732.20212669302,732.20212669302,732.20212669302,732.20212669302,732.20212669302,732.20212669302,732.20212669302,4.990081752415e-09,386.49403036413,84.119679845938,405.73671027565,76.3872260655,0
8.8e-06,20000000,6.0498530501341e-07,2.6118894785553e-06,5.3752266943393e-07,1,607.67959772498,607.67959772498,607.67959772498,607.67959772498,607.67959772498,607.67959772498,607.67959772498,607.67959772498,607.67959772498,607.67959772498,607.67959772498,607.67959772498,607.67959772498,607.67959772498,607.67959772498,607.67959772498,607.67959772498,607.67959772498,607.67959772498,607.67959772498,607.67959772498,607.67959772498,607.67959772498,607.67959772498,607.67959772498,607.67959772498,607.67959772498,607.67959772498,607.67959772498,607.67959772498,607.67959772498,607.67959772498,607.67959772498,607.67959772498,607.67959772498,607.67959772498,607.67959772498,607.67959772498,607.67959772498,607.67959772498,607.67959772498,607.67959772498,607.67959772498,607.67959772498,607.67959772498,607.67959772498,607.67959772498,607.67959772498,-1.1894778390673e-14,-5.9980974025006e-17,-8.0679777757928e-15,-3.4082790585069e-15,2.6114025802638e-15,4.5949993508431e-14,-1.9304775448404e-14,1.0742441387733e-16,7.6258931284794e-16,2.2507780683535e-16,2.4315727044077e-15,-2.1375510063159e-13,-5.0380373172924e-18,-1.4357896466144e-16,3.4403150774106e-15,-1.7481647142725e-13,-3.7794281029348e-16,3.8816542363633e-15,4.3019052829022e-14,-3.163885940134e-14,-7.3126502018406e-16,5.950586298368e-16,1.0465699045281e-16,-9.2026293483064e-14,7.0043649225935e-15,-1.617861585295e-13,7.9149773250136e-16,2.3238958843062e-14,-6.0133443313008e-15,-3.4370346398179e-16,4.6291059613935e-16,3.4597172948977e-15,3.8484516710689e-16,-1.4234067493187e-13,-1.8729332349042e-15,-3.2677261577387e-16,7.2692055592678e-15,-5.7654096729769e-14,-7.1001547788543e-17,-8.2164003274779e-17,7.9934074547347e-16,-2.5627993248922e-13,-4.3399472193032e-16,-3.5158509032981e-16,-5.3139668883269e-15,-8.0768705509343e-16,1.750153478978e-15,5.2435739510659e-15,732.20212669302,732.20212669302,732.20212669302,732.20212669302,732.20212669302,732.20212669302,732.20212669302,732.20212669302,732.20212669302,732.20212669302,732.20212669302,732.20212669302,732.20212669302,732.20212669302,732.20212669302,732.20212669302,732.20212669302,732.20212669302,732.20212669302,732.20212669302,732.20212669302,732.20212669302,732.20212669302,732.20212669302,732.20212669302,732.20212669302,732.20212669302,732.20212669302,732.20212669302,732.20212669302,732.20212669302,732.20212669302,732.20212669302,732.20212669302,732.20212669302,732.20212669302,732.20212669302,732.20212669302,732.20212669302,732.20212669302,732.20212669302,732.20212669302,732.20212669302,732.20212669302,732.20212669302,732.20212669302,732.20212669302,732.20212669302,6.2885456023156e-09,390.94611231915,85.085681016646,410.41302173379,77.264472462006,0
8.9e-06,20000000,6.1185982172651e-07,2.6415699821795e-06,5.4363133271216e-07,1,607.67959772498,607.67959772498,607.67959772498,607.67959772498,607.67959772498,607.67959772498,607.67959772498,607.67959772498,607.67959772498,607.67959772498,607.67959772498,607.67959772498,607.67959772498,607.67959772498,607.67959772498,607.67959772498,607.67959772498,607.67959772498,607.67959772498,607.67959772498,607.67959772498,607.67959772498,607.67959772498,607.67959772498,607.67959772498,607.67959772498,607.67959772498,607.67959772498,607.67959772498,607.67959772498,607.67959772498,607.67959772498,607.67959772498,607.67959772498,607.67959772498,607.67959772498,607.67959772498,607.67959772498,607.67959772498,607.67959772498,607.67959772498,607.67959772498,607.67959772498,607.67959772498,607.67959772498,607.67959772498,607.67959772498,607.67959772498,-1.4912191651821e-14,-7.5195876539094e-17,-1.0114494066636e-14,-4.2712828033705e-15,3.2738948438245e-15,5.7596259591268e-14,-2.4204187450326e-14,1.346802575524e-16,9.560740200974e-16,2.8217669626674e-16,3.0484393576731e-15,-2.679798002861e-13,-6.3162000595075e-18,-1.7998911604823e-16,4.3130970693997e-15,-2.1916619686913e-13,-4.7383911773446e-16,4.8663905414367e-15,5.3922712258734e-14,-3.9668586320782e-14,-9.167254014283e-16,7.4603237292133e-16,1.3120595413147e-16,-1.1537326012163e-13,8.7812295612045e-15,-2.0282754657743e-13,9.9230996461403e-16,2.9128753249204e-14,-7.5394421277197e-15,-4.3088436313571e-16,5.8035831782786e-16,4.3374656067045e-15,4.8248089831645e-16,-1.7844912804514e-13,-2.3480265834676e-15,-4.0964666242038e-16,9.1133219461519e-15,-7.2280443733021e-14,-8.9023728115986e-17,-1.03003379812e-16,1.0021285206553e-15,-3.2129675676483e-13,-5.4410662299979e-16,-4.4078259501945e-16,-6.6619933742545e-15,-1.0123288549676e-15,2.1941473875423e-15,6.5724639662503e-15,732.20212669302,732.20212669302,732.20212669302,732.20212669302,732.20212669302,732.20212669302,732.20212669302,732.20212669302,732.20212669302,732.20212669302,732.20212669302,732.20212669302,732.20212669302,732.20212669302,732.20212669302,732.20212669302,732.20212669302,732.20212669302,732.20212669302,732.20212669302,732.20212669302,732.20212669302,732.20212669302,732.20212669302,732.20212669302,732.20212669302,732.20212669302,732.20212669302,732.20212669302,732.20212669302,732.20212669302,732.20212669302,732.20212669302,732.20212669302,732.20212669302,732.20212669302,732.20212669302,732.20212669302,732.20212669302,732.20212669302,732.20212669302,732.20212669302,732.20212669302,732.20212669302,732.20212669302,732.20212669302,732.20212669302,732.20212669302,7.9039672534002e-09,395.39841315195,86.051661947417,415.08962146191,78.141701433494,0
9e-06,20000000,6.1873433129919e-07,2.6712504844875e-06,5.4974000624132e-07,1,607.67959772498,607.67959772498,607.67959772498,607.67959772498,607.67959772498,607.67959772498,607.67959772498,607.67959772498,607.67959772498,607.67959772498,607.67959772498,607.67959772498,607.67959772498,607.67959772498,607.67959772498,607.67959772498,607.67959772498,607.67959772498,607.67959772498,607.67959772498,607.67959772498,607.67959772498,607.67959772498,607.67959772498,607.67959772498,607.67959772498,607.67959772498,607.67959772498,607.67959772498,607.67959772498,607.67959772498,607.67959772498,607.67959772498,607.67959772498,607.67959772498,607.67959772498,607.67959772498,607.67959772498,607.67959772498,607.67959772498,607.67959772498,607.67959772498,607.67959772498,607.67959772498,607.67959772498,607.67959772498,607.67959772498,607.67959772498,-1.8647901394075e-14,-9.4032483335896e-17,-1.2648149824067e-14,-5.3393059248605e-15,4.0941051149184e-15,7.2012265593848e-14,-3.0270502206633e-14,1.684256556283e-16,1.1956269198353e-15,3.5286857310356e-16,3.8121609379498e-15,-3.3511278554234e-13,-7.8986658559695e-18,-2.250634838675e-16,5.3936605739953e-15,-2.7407420224718e-13,-5.9256923367475e-16,6.0855584374768e-15,6.7419570395429e-14,-4.9610772976011e-14,-1.1463232428739e-15,9.3295125918116e-16,1.6407492402111e-16,-1.4427854861077e-13,1.098108526025e-14,-2.5363890982539e-13,1.2409331751338e-15,3.6419207807896e-14,-9.4290017597108e-15,-5.3881654742856e-16,7.2576942721507e-16,5.4241893535561e-15,6.0336147586533e-16,-2.2315324461197e-13,-2.9362098370748e-15,-5.1224361498072e-16,1.1396456630269e-14,-9.0388840091423e-14,-1.1133894430404e-16,-1.2880262850581e-16,1.2531938655639e-15,-4.0179215065706e-13,-6.8043546633215e-16,-5.5121597055547e-16,-8.3309190621762e-15,-1.265620423569e-15,2.7438402616005e-15,8.2173615279573e-15,732.20212669302,732.20212669302,732.20212669302,732.20212669302,732.20212669302,732.20212669302,732.20212669302,732.20212669302,732.20212669302,732.20212669302,732.20212669302,732.20212669302,732.20212669302,732.20212669302,732.20212669302,732.20212669302,732.20212669302,732.20212669302,732.20212669302,732.20212669302,732.20212669302,732.20212669302,732.20212669302,732.20212669302,732.20212669302,732.20212669302,732.20212669302,732.20212669302,732.20212669302,732.20212669302,732.20212669302,732.20212669302,732.20212669302,732.20212669302,732.20212669302,732.20212669302,732.20212669302,732.20212669302,732.20212669302,732.20212669302,732.20212669302,732.20212669302,732.20212669302,732.20212669302,732.20212669302,732.20212669302,732.20212669302,732.20212669302,9.9087381048471e-09,399.85093286908,87.017622639059,419.76650946964,79.01891298067,0
9.1e-06,20000000,6.2560883373029e-07,2.7009309854792e-06,5.5584869002519e-07,1,607.67959772498,607.67959772498,607.67959772498,607.67959772498,607.67959772498,607.67959772498,607.67959772498,607.67959772498,607.67959772498,607.67959772498,607.67959772498,607.67959772498,607.67959772498,607.67959772498,607.67959772498,607.67959772498,607.67959772498,607.67959772498,607.67959772498,607.67959772498,607.67959772498,607.67959772498,607.67959772498,607.67959772498,607.67959772498,607.67959772498,607.67959772498,607.67959772498,607.67959772498,607.67959772498,607.67959772498,607.67959772498,607.67959772498,607.67959772498,607.67959772498,607.67959772498,607.67959772498,607.67959772498,607.67959772498,607.67959772498,607.67959772498,607.67959772498,607.67959772498,607.67959772498,607.67959772498,607.67959772498,607.67959772498,607.67959772498,-2.326194654071e-14,-1.1729767078907e-16,-1.5777472842097e-14,-6.6579237326595e-15,5.107176340003e-15,8.9814461946537e-14,-3.7763857111892e-14,2.1010682191816e-16,1.4915144095762e-15,4.4018214367776e-16,4.7554595948845e-15,-4.1803008494364e-13,-9.8532433573293e-18,-2.8073168511548e-16,6.7283038378413e-15,-3.4189310881633e-13,-7.392220077584e-16,7.5913937262082e-15,8.4086802133911e-14,-6.1891764515872e-14,-1.4298896879848e-15,1.1638254207578e-15,2.0467202277912e-16,-1.7998071237454e-13,1.3698177788109e-14,-3.1639704612104e-13,1.5480216803526e-15,4.5422046441101e-14,-1.1763046750767e-14,-6.7212293914242e-16,9.0537547760673e-16,6.7664556835585e-15,7.5266657980801e-16,-2.7836817570646e-13,-3.6626782659775e-15,-6.3895649491025e-16,1.421643074006e-14,-1.1275515807059e-13,-1.3890440430777e-16,-1.6066659090184e-16,1.5632941432414e-15,-5.0121511117473e-13,-8.4882365412996e-16,-6.8761722814963e-16,-1.0392241629586e-14,-1.5783849594313e-15,3.4227836857801e-15,1.0248591318179e-14,732.20212669302,732.20212669302,732.20212669302,732.20212669302,732.20212669302,732.20212669302,732.20212669302,732.20212669302,732.20212669302,732.20212669302,732.20212669302,732.20212669302,732.20212669302,732.20212669302,732.20212669302,732.20212669302,732.20212669302,732.20212669302,732.20212669302,732.20212669302,732.20212669302,732.20212669302,732.20212669302,732.20212669302,732.20212669302,732.20212669302,732.20212669302,732.20212669302,732.20212669302,732.20212669302,732.20212669302,732.20212669302,732.20212669302,732.20212669302,732.20212669302,732.20212669302,732.20212669302,732.20212669302,732.20212669302,732.20212669302,732.20212669302,732.20212669302,732.20212669302,732.20212669302,732.20212669302,732.20212669302,732.20212669302,732.20212669302,1.239067409276e-08,404.30367147729,87.983563092527,424.44368576687,79.896107104355,0
9.2e-06,20000000,6.3248332901879e-07,2.7306114851548e-06,5.6195738406753e-07,1,607.67959772498,607.67959772498,607.67959772498,607.67959772498,607.67959772498,607.67959772498,607.67959772498,607.67959772498,607.67959772498,607.67959772498,607.67959772498,607.67959772498,607.67959772498,607.67959772498,607.67959772498,607.67959772498,607.67959772498,607.67959772498,607.67959772498,607.67959772498,607.67959772498,607.67959772498,607.67959772498,607.67959772498,607.67959772498,607.67959772498,607.67959772498,607.67959772498,607.67959772498,607.67959772498,607.67959772498,607.67959772498,607.67959772498,607.67959772498,607.67959772498,607.67959772498,607.67959772498,607.67959772498,607.67959772498,607.67959772498,607.67959772498,607.67959772498,607.67959772498,607.67959772498,607.67959772498,607.67959772498,607.67959772498,607.67959772498,-2.8947641498593e-14,-1.4596606996131e-16,-1.9633554158007e-14,-8.2821635122554e-15,6.3555590867141e-15,1.1174731973212e-13,-4.6998511901308e-14,2.6147074271438e-16,1.8561380100855e-15,5.4777587960996e-16,5.9178616566227e-15,-5.2020571854357e-13,-1.22618421349e-17,-3.4932435927808e-16,8.372952380157e-15,-4.2546474413557e-13,-9.1994469417967e-16,9.4469939843923e-15,1.0462145035822e-13,-7.7026608640107e-14,-1.7792993253659e-15,1.4483307984371e-15,2.546981524336e-16,-2.2397585890681e-13,1.7046349049428e-14,-3.9373135892939e-13,1.9264454880407e-15,5.6513726355824e-14,-1.4639457119084e-14,-8.3638753977125e-16,1.1267039763515e-15,8.4205155991134e-15,9.3665300610579e-16,-3.464072746954e-13,-4.557865411462e-15,-7.95091421843e-16,1.7691405963888e-14,-1.4031660408563e-13,-1.7287650361743e-16,-1.9992977395128e-16,1.9454236223856e-15,-6.23731828859e-13,-1.0563286212966e-15,-8.5570240068046e-16,-1.2932324690733e-14,-1.9636922903731e-15,4.2594264647348e-15,1.2751080778126e-14,732.20212669302,732.20212669302,732.20212669302,732.20212669302,732.20212669302,732.20212669302,732.20212669302,732.20212669302,732.20212669302,732.20212669302,732.20212669302,732.20212669302,732.20212669302,732.20212669302,732.20212669302,732.20212669302,732.20212669302,732.20212669302,732.20212669302,732.20212669302,732.20212669302,732.20212669302,732.20212669302,732.20212669302,732.20212669302,732.20212669302,732.20212669302,732.20212669302,732.20212669302,732.20212669302,732.20212669302,732.20212669302,732.20212669302,732.20212669302,732.20212669302,732.20212669302,732.20212669302,732.20212669302,732.20212669302,732.20212669302,732.20212669302,732.20212669302,732.20212669302,732.20212669302,732.20212669302,732.20212669302,732.20212669302,732.20212669302,1.5456071589031e-08,408.75662898329,88.94948330862,429.12115036345,80.773283805274,0
9.3e-06,20000000,6.3935781716359e-07,2.7602919835141e-06,5.6806608837214e-07,1,607.67959772498,607.67959772498,607.67959772498,607.67959772498,607.67959772498,607.67959772498,607.67959772498,607.67959772498,607.67959772498,607.67959772498,607.67959772498,607.67959772498,607.67959772498,607.67959772498,607.67959772498,607.67959772498,607.67959772498,607.67959772498,607.67959772498,607.67959772498,607.67959772498,607.67959772498,607.67959772498,607.67959772498,607.67959772498,607.67959772498,607.67959772498,607.67959772498,607.67959772498,607.67959772498,607.67959772498,607.67959772498,607.67959772498,607.67959772498,607.67959772498,607.67959772498,607.67959772498,607.67959772498,607.67959772498,607.67959772498,607.67959772498,607.67959772498,607.67959772498,607.67959772498,607.67959772498,607.67959772498,607.67959772498,607.67959772498,-3.5938011337804e-14,-1.8121250624843e-16,-2.4374411149381e-14,-1.0278327210765e-14,7.8904249151493e-15,1.3870805561769e-13,-5.8353322878803e-14,3.2462335955309e-16,2.3044473924461e-15,6.8005981595814e-16,7.3470136164406e-15,-6.4582734501384e-13,-1.5223200121629e-17,-4.336506821022e-16,1.0395021013484e-14,-5.2821476027968e-13,-1.1421477082581e-15,1.1728419317182e-14,1.298635771633e-13,-9.5636222135655e-14,-2.2088652296948e-15,1.7981313663685e-15,3.162036154629e-16,-2.7806746549579e-13,2.1162826898362e-14,-4.8881138789412e-13,2.3917188864714e-15,7.0147939348439e-14,-1.8176231444884e-14,-1.0383412670787e-15,1.3988290720278e-15,1.0454177066079e-14,1.1628630039291e-15,-4.3005910637706e-13,-5.6584560422567e-15,-9.8704413248972e-16,2.1963818552213e-14,-1.7420292229036e-13,-2.1464938194078e-16,-2.4820075337711e-16,2.4152461230916e-15,-7.7436440265086e-13,-1.3114578713127e-15,-1.0623618733013e-15,-1.6055272747019e-14,-2.4372925386425e-15,5.2880617768105e-15,1.5827179972735e-14,732.20212669302,732.20212669302,732.20212669302,732.20212669302,732.20212669302,732.20212669302,732.20212669302,732.20212669302,732.20212669302,732.20212669302,732.20212669302,732.20212669302,732.20212669302,732.20212669302,732.20212669302,732.20212669302,732.20212669302,732.20212669302,732.20212669302,732.20212669302,732.20212669302,732.20212669302,732.20212669302,732.20212669302,732.20212669302,732.20212669302,732.20212669302,732.20212669302,732.20212669302,732.20212669302,732.20212669302,732.20212669302,732.20212669302,732.20212669302,732.20212669302,732.20212669302,732.20212669302,732.20212669302,732.20212669302,732.20212669302,732.20212669302,732.20212669302,732.20212669302,732.20212669302,732.20212669302,732.20212669302,732.20212669302,732.20212669302,1.9233324133787e-08,413.20980539402,89.915383288203,433.79890326886,81.650443084235,0
9.4e-06,20000000,6.4623229816355e-07,2.7899724805574e-06,5.7417480294279e-07,1,607.67959772498,607.67959772498,607.67959772498,607.67959772498,607.67959772498,607.67959772498,607.67959772498,607.67959772498,607.67959772498,607.67959772498,607.67959772498,607.67959772498,607.67959772498,607.67959772498,607.67959772498,607.67959772498,607.67959772498,607.67959772498,607.67959772498,607.67959772498,607.67959772498,607.67959772498,607.67959772498,607.67959772498,607.67959772498,607.67959772498,607.67959772498,607.67959772498,607.67959772498,607.67959772498,607.67959772498,607.67959772498,607.67959772498,607.67959772498,607.67959772498,607.67959772498,607.67959772498,607.67959772498,607.67959772498,607.67959772498,607.67959772498,607.67959772498,607.67959772498,607.67959772498,607.67959772498,607.67959772498,607.67959772498,607.67959772498,-4.451338015998e-14,-2.2445025170277e-16,-3.019013241435e-14,-1.2726139683774e-14,9.7733330555194e-15,1.7177578080514e-13,-7.2284095649893e-14,4.0209818164081e-16,2.854427442946e-15,8.4233917716487e-16,9.1002339696369e-15,-7.999326329841e-13,-1.8856099903801e-17,-5.3708976169609e-16,1.2875609579348e-14,-6.5426420976031e-13,-1.4147460898954e-15,1.4527169605534e-14,1.6082355768078e-13,-1.1846763616155e-13,-2.7358047653153e-15,2.2272591144209e-15,3.9165488245659e-16,-3.4442512340386e-13,2.6212694109269e-14,-6.0545002508148e-13,2.9625058560818e-15,8.6870349800781e-14,-2.2515333944298e-14,-1.2860810888365e-15,1.7326671774304e-15,1.2949013854434e-14,1.4403699538433e-15,-5.3267825629207e-13,-7.0085806176963e-15,-1.2225081184365e-15,2.7205018361613e-14,-2.1577319048595e-13,-2.6590039650355e-16,-3.074145317479e-16,2.991605202895e-15,-9.5915441583623e-13,-1.6244461427973e-15,-1.3158848274464e-15,-1.988632133349e-14,-3.0181273345495e-15,6.5499440737232e-15,1.9599985930549e-14,732.20212669302,732.20212669302,732.20212669302,732.20212669302,732.20212669302,732.20212669302,732.20212669302,732.20212669302,732.20212669302,732.20212669302,732.20212669302,732.20212669302,732.20212669302,732.20212669302,732.20212669302,732.20212669302,732.20212669302,732.20212669302,732.20212669302,732.20212669302,732.20212669302,732.20212669302,732.20212669302,732.20212669302,732.20212669302,732.20212669302,732.20212669302,732.20212669302,732.20212669302,732.20212669302,732.20212669302,732.20212669302,732.20212669302,732.20212669302,732.20212669302,732.20212669302,732.20212669302,732.20212669302,732.20212669302,732.20212669302,732.20212669302,732.20212669302,732.20212669302,732.20212669302,732.20212669302,732.20212669302,732.20212669302,732.20212669302,2.3877194938354e-08,417.66320071592,90.88126303221,438.47694449334,82.527584941978,0
9.5e-06,20000000,6.5310677201767e-07,2.8196529762845e-06,5.8028352778323e-07,1,607.67959772498,607.67959772498,607.67959772498,607.67959772498,607.67959772498,607.67959772498,607.67959772498,607.67959772498,607.67959772498,607.67959772498,607.67959772498,607.67959772498,607.67959772498,607.67959772498,607.67959772498,607.67959772498,607.67959772498,607.67959772498,607.67959772498,607.67959772498,607.67959772498,607.67959772498,607.67959772498,607.67959772498,607.67959772498,607.67959772498,607.67959772498,607.67959772498,607.67959772498,607.67959772498,607.67959772498,607.67959772498,607.67959772498,607.67959772498,607.67959772498,607.67959772498,607.67959772498,607.67959772498,607.67959772498,607.67959772498,607.67959772498,607.67959772498,607.67959772498,607.67959772498,607.67959772498,607.67959772498,607.67959772498,607.67959772498,-5.5010303324443e-14,-2.7737605100924e-16,-3.7308933677957e-14,-1.5721276132407e-14,1.2078192278993e-14,2.1224580419563e-13,-8.9338127235961e-14,4.9693705297283e-16,3.5276716114727e-15,1.0409834400678e-15,1.1246339900479e-14,-9.8856978320679e-13,-2.3303154707434e-17,-6.6369821073171e-16,1.5912087582137e-14,-8.0856088332238e-13,-1.748443745715e-15,1.7953100503797e-14,1.9871420028788e-13,-1.4641782979032e-13,-3.3807878468969e-15,2.7525613405083e-15,4.8401318399108e-16,-4.2565368699876e-13,3.2394148799805e-14,-7.4822501041267e-13,3.6612150091207e-15,1.0733593850965e-13,-2.7827223357897e-14,-1.589327957425e-15,2.1413249603526e-15,1.6002965632979e-14,1.7800675620239e-15,-6.5829222195155e-13,-8.6612212648959e-15,-1.5107196082122e-15,3.3620729523361e-14,-2.6665913309566e-13,-3.28643656915e-16,-3.798941660429e-16,3.6971247053824e-15,-1.1853554842017e-12,-2.0075816749048e-15,-1.6262234397283e-15,-2.4575827543483e-14,-3.7289313692892e-15,8.0946037947685e-15,2.4217254708256e-14,732.20212669302,732.20212669302,732.20212669302,732.20212669302,732.20212669302,732.20212669302,732.20212669302,732.20212669302,732.20212669302,732.20212669302,732.20212669302,732.20212669302,732.20212669302,732.20212669302,732.20212669302,732.20212669302,732.20212669302,732.20212669302,732.20212669302,732.20212669302,732.20212669302,732.20212669302,732.20212669302,732.20212669302,732.20212669302,732.20212669302,732.20212669302,732.20212669302,732.20212669302,732.20212669302,732.20212669302,732.20212669302,732.20212669302,732.20212669302,732.20212669302,732.20212669302,732.20212669302,732.20212669302,732.20212669302,732.20212669302,732.20212669302,732.20212669302,732.20212669302,732.20212669302,732.20212669302,732.20212669302,732.20212669302,732.20212669302,2.9573854842085e-08,422.11681495583,91.847122541462,443.15527404646,83.404709379184,0
9.6e-06,20000000,6.5998123872485e-07,2.8493334706957e-06,5.8639226289721e-07,1,607.67959772498,607.67959772498,607.67959772498,607.67959772498,607.67959772498,607.67959772498,607.67959772498,607.67959772498,607.67959772498,607.67959772498,607.67959772498,607.67959772498,607.67959772498,607.67959772498,607.67959772498,607.67959772498,607.67959772498,607.67959772498,607.67959772498,607.67959772498,607.67959772498,607.67959772498,607.67959772498,607.67959772498,607.67959772498,607.67959772498,607.67959772498,607.67959772498,607.67959772498,607.67959772498,607.67959772498,607.67959772498,607.67959772498,607.67959772498,607.67959772498,607.67959772498,607.67959772498,607.67959772498,607.67959772498,607.67959772498,607.67959772498,607.67959772498,607.67959772498,607.67959772498,607.67959772498,607.67959772498,607.67959772498,607.67959772498,-6.7832063140454e-14,-3.4202302791856e-16,-4.6004273582495e-14,-1.9378330462258e-14,1.4893566208049e-14,2.6166993058388e-13,-1.1017129568366e-13,6.1278506117993e-16,4.350055648725e-15,1.2836249911378e-15,1.3867793739799e-14,-1.2189861482278e-12,-2.8735257196702e-17,-8.1833653637319e-16,1.9621131282826e-14,-9.9703363948269e-13,-2.1560674638222e-15,2.2137849895322e-14,2.4498848057231e-13,-1.8056173873382e-13,-4.1685811255942e-15,3.3942262557915e-15,5.9682685900961e-16,-5.248745284952e-13,3.9944685647592e-14,-9.2262169343569e-13,4.5146986920268e-15,1.3232937740867e-13,-3.4316175170536e-14,-1.9597298848812e-15,2.6405082627105e-15,1.973339327076e-14,2.1950096832456e-15,-8.11727014048e-13,-1.0679863831313e-14,-1.8627454116014e-15,4.1457467019438e-14,-3.2881601633589e-13,-4.0529294060365e-16,-4.6842317896394e-16,4.5589144403775e-15,-1.4616595116566e-12,-2.4755895978e-15,-2.0053033335937e-15,-3.0303959044954e-14,-4.5969390138314e-15,9.9813922253058e-15,2.9855997038525e-14,732.20212669302,732.20212669302,732.20212669302,732.20212669302,732.20212669302,732.20212669302,732.20212669302,732.20212669302,732.20212669302,732.20212669302,732.20212669302,732.20212669302,732.20212669302,732.20212669302,732.20212669302,732.20212669302,732.20212669302,732.20212669302,732.20212669302,732.20212669302,732.20212669302,732.20212669302,732.20212669302,732.20212669302,732.20212669302,732.20212669302,732.20212669302,732.20212669302,732.20212669302,732.20212669302,732.20212669302,732.20212669302,732.20212669302,732.20212669302,732.20212669302,732.20212669302,732.20212669302,732.20212669302,732.20212669302,732.20212669302,732.20212669302,732.20212669302,732.20212669302,732.20212669302,732.20212669302,732.20212669302,732.20212669302,732.20212669302,3.6546812251824e-08,426.57064812054,92.812961816842,447.833891938,84.281816396744,0
9.7e-06,20000000,6.6685569828403e-07,2.8790139637908e-06,5.9250100828855e-07,1,607.67959772498,607.67959772498,607.67959772498,607.67959772498,607.67959772498,607.67959772498,607.67959772498,607.67959772498,607.67959772498,607.67959772498,607.67959772498,607.67959772498,607.67959772498,607.67959772498,607.67959772498,607.67959772498,607.67959772498,607.67959772498,607.67959772498,607.67959772498,607.67959772498,607.67959772498,607.67959772498,607.67959772498,607.67959772498,607.67959772498,607.67959772498,607.67959772498,607.67959772498,607.67959772498,607.67959772498,607.67959772498,607.67959772498,607.67959772498,607.67959772498,607.67959772498,607.67959772498,607.67959772498,607.67959772498,607.67959772498,607.67959772498,607.67959772498,607.67959772498,607.67959772498,607.67959772498,607.67959772498,607.67959772498,607.67959772498,-8.3460980587791e-14,-4.2082274502719e-16,-5.6603200554152e-14,-2.3834295516235e-14,1.8325377552739e-14,3.21903720614e-13,-1.3556810908251e-13,7.5400187334431e-16,5.3525279549122e-15,1.5793921590299e-15,1.7063220855474e-14,-1.4998494884837e-12,-3.5356798180196e-17,-1.0068173856944e-15,2.4142286352937e-14,-1.2267734404809e-12,-2.6529587451058e-15,2.7238857274832e-14,3.0138379434582e-13,-2.221851143553e-13,-5.1288035892966e-15,4.1763995571207e-15,7.3433968195123e-16,-6.4582085424047e-13,4.9148346651333e-14,-1.1352004968388e-12,5.555073081735e-15,1.6278892388988e-13,-4.2226525431134e-14,-2.4112174489263e-15,3.2490017935592e-15,2.4280662897642e-14,2.700808952954e-15,-9.9875449008019e-13,-1.3140435760177e-14,-2.2918205468327e-15,5.1010063599595e-14,-4.0458235058822e-13,-4.987355059795e-16,-5.7633049539203e-16,5.6093979812173e-15,-1.7984620993434e-12,-3.0460816792964e-15,-2.4673877570577e-15,-3.7286194422852e-14,-5.6547129343756e-15,1.2281293680952e-14,3.6727867772047e-14,732.20212669302,732.20212669302,732.20212669302,732.20212669302,732.20212669302,732.20212669302,732.20212669302,732.20212669302,732.20212669302,732.20212669302,732.20212669302,732.20212669302,732.20212669302,732.20212669302,732.20212669302,732.20212669302,732.20212669302,732.20212669302,732.20212669302,732.20212669302,732.20212669302,732.20212669302,732.20212669302,732.20212669302,732.20212669302,732.20212669302,732.20212669302,732.20212669302,732.20212669302,732.20212669302,732.20212669302,732.20212669302,732.20212669302,732.20212669302,732.20212669302,732.20212669302,732.20212669302,732.20212669302,732.20212669302,732.20212669302,732.20212669302,732.20212669302,732.20212669302,732.20212669302,732.20212669302,732.20212669302,732.20212669302,732.20212669302,4.5063880786426e-08,431.02470021664,93.77878085928,452.51279817789,85.158905995371,0
9.8e-06,20000000,6.7373015069412e-07,2.90869445557e-06,5.98609763961e-07,1,607.67959772498,607.67959772498,607.67959772498,607.67959772498,607.67959772498,607.67959772498,607.67959772498,607.67959772498,607.67959772498,607.67959772498,607.67959772498,607.67959772498,607.67959772498,607.67959772498,607.67959772498,607.67959772498,607.67959772498,607.67959772498,607.67959772498,607.67959772498,607.67959772498,607.67959772498,607.67959772498,607.67959772498,607.67959772498,607.67959772498,607.67959772498,607.67959772498,607.67959772498,607.67959772498,607.67959772498,607.67959772498,607.67959772498,607.67959772498,607.67959772498,607.67959772498,607.67959772498,607.67959772498,607.67959772498,607.67959772498,607.67959772498,607.67959772498,607.67959772498,607.67959772498,607.67959772498,607.67959772498,607.67959772498,607.67959772498,-1.0247283309627e-13,-5.1667787856791e-16,-6.9496127327971e-14,-2.9252636619653e-14,2.250007499206e-14,3.9516182234162e-13,-1.6646518706782e-13,9.2579212327342e-16,6.5720351701702e-15,1.93918211271e-15,2.0950358302246e-14,-1.8415070771113e-12,-4.3411778207085e-17,-1.2360791345702e-15,2.9642140034393e-14,-1.5062453602944e-12,-3.2574326889205e-15,3.3444070762013e-14,3.6997376902278e-13,-2.7282300831421e-13,-6.2968113615826e-15,5.1279064989875e-15,9.0161772051075e-16,-7.9294932862391e-13,6.0344212252636e-14,-1.3937930267615e-12,6.820678604983e-15,1.9983439577337e-13,-5.1849983486293e-14,-2.9604201018664e-15,3.9892309026079e-15,2.9812343188661e-14,3.3161036224288e-15,-1.2262648912118e-12,-1.6133575430763e-14,-2.8137435971959e-15,6.2630484385112e-14,-4.9674980667248e-13,-6.1241854591086e-16,-7.0758990360952e-16,6.8872820845532e-15,-2.2081733620657e-12,-3.7400830286212e-15,-3.0295040685398e-15,-4.5779764421139e-14,-6.9411141392405e-15,1.5079047715179e-14,4.5085475635999e-14,732.20212669302,732.20212669302,732.20212669302,732.20212669302,732.20212669302,732.20212669302,732.20212669302,732.20212669302,732.20212669302,732.20212669302,732.20212669302,732.20212669302,732.20212669302,732.20212669302,732.20212669302,732.20212669302,732.20212669302,732.20212669302,732.20212669302,732.20212669302,732.20212669302,732.20212669302,732.20212669302,732.20212669302,732.20212669302,732.20212669302,732.20212669302,732.20212669302,732.20212669302,732.20212669302,732.20212669302,732.20212669302,732.20212669302,732.20212669302,732.20212669302,732.20212669302,732.20212669302,732.20212669302,732.20212669302,732.20212669302,732.20212669302,732.20212669302,732.20212669302,732.20212669302,732.20212669302,732.20212669302,732.20212669302,732.20212669302,5.5445352212394e-08,435.47897125104,94.744579669535,457.19199277566,86.035978175755,0
9.9e-06,20000000,6.8060459595399e-07,2.9383749460333e-06,6.0471852991836e-07,1,607.67959772498,607.67959772498,607.67959772498,607.67959772498,607.67959772498,607.67959772498,607.67959772498,607.67959772498,607.67959772498,607.67959772498,607.67959772498,607.67959772498,607.67959772498,607.67959772498,607.67959772498,607.67959772498,607.67959772498,607.67959772498,607.67959772498,607.67959772498,607.67959772498,607.67959772498,607.67959772498,607.67959772498,607.67959772498,607.67959772498,607.67959772498,607.67959772498,607.67959772498,607.67959772498,607.67959772498,607.67959772498,607.67959772498,607.67959772498,607.67959772498,607.67959772498,607.67959772498,607.67959772498,607.67959772498,607.67959772498,607.67959772498,607.67959772498,607.67959772498,607.67959772498,607.67959772498,607.67959772498,607.67959772498,607.67959772498,-1.255537109516e-13,-6.3304718427545e-16,-8.5148258545352e-14,-3.582805175869e-14,2.7568335767108e-14,4.8408264669813e-13,-2.0397871735738e-13,1.1343578597025e-15,8.0526043708151e-15,2.3759799209425e-15,2.5669502261313e-14,-2.2562886302149e-12,-5.3190953086582e-17,-1.5143888192611e-15,3.6319199067659e-14,-1.845536456361e-12,-3.9913145266981e-15,4.097745034364e-14,4.5322882481735e-13,-3.3430477204985e-13,-7.7147320915634e-15,6.2830961296368e-15,1.1046976502443e-15,-9.7157058130257e-13,7.3936328693114e-14,-1.7077313535608e-12,8.3572028457136e-15,2.4479987008635e-13,-6.3534182572947e-14,-3.6271528819635e-15,4.887918399932e-15,3.6528112731636e-14,4.0631033694076e-15,-1.5024685622273e-12,-1.9767285300663e-14,-3.4473389086322e-15,7.6738132523582e-14,-6.0864495915581e-13,-7.5045028001686e-16,-8.6693633407695e-16,8.4386901001615e-15,-2.705581323623e-12,-4.5826479138428e-15,-3.7119423720588e-15,-5.6091182664502e-14,-8.5024357342994e-15,1.8475630311709e-14,5.522975834686e-14,732.20212669302,732.20212669302,732.20212669302,732.20212669302,732.20212669302,732.20212669302,732.20212669302,732.20212669302,732.20212669302,732.20212669302,732.20212669302,732.20212669302,732.20212669302,732.20212669302,732.20212669302,732.20212669302,732.20212669302,732.20212669302,732.20212669302,732.20212669302,732.20212669302,732.20212669302,732.20212669302,732.20212669302,732.20212669302,732.20212669302,732.20212669302,732.20212669302,732.20212669302,732.20212669302,732.20212669302,732.20212669302,732.20212669302,732.20212669302,732.20212669302,732.20212669302,732.20212669302,732.20212669302,732.20212669302,732.20212669302,732.20212669302,732.20212669302,732.20212669302,732.20212669302,732.20212669302,732.20212669302,732.20212669302,732.20212669302,6.8073567109924e-08,439.93346123027,95.710358248587,461.8714757414,86.91303293877,0
1e-05,20000000,6.8747903406265e-07,2.9680554351808e-06,6.1082730616436e-07,1,607.67959772498,607.67959772498,607.67959772498,607.67959772498,607.67959772498,607.67959772498,607.67959772498,607.67959772498,607.67959772498,607.67959772498,607.67959772498,607.67959772498,607.67959772498,607.67959772498,607.67959772498,607.67959772498,607.67959772498,607.67959772498,607.67959772498,607.67959772498,607.67959772498,607.67959772498,607.67959772498,607.67959772498,607.67959772498,607.67959772498,607.67959772498,607.67959772498,607.67959772498,607.67959772498,607.67959772498,607.67959772498,607.67959772498,607.67959772498,607.67959772498,607.67959772498,607.67959772498,607.67959772498,607.67959772498,607.67959772498,607.67959772498,607.67959772498,607.67959772498,607.67959772498,607.67959772498,607.67959772498,607.67959772498,607.67959772498,-1.535196931394e-13,-7.7404467344926e-16,-1.0411292952805e-13,-4.3792025195222e-14,3.370938765281e-14,5.9180384333408e-13,-2.4943650865413e-13,1.3870765017851e-15,9.8466063355916e-15,2.9052309821399e-15,3.1387532168718e-14,-2.7588599063849e-12,-6.5040174814373e-17,-1.8515789895003e-15,4.4409583612669e-14,-2.2566451061222e-12,-4.8805659344578e-15,5.0105391695926e-14,5.5408684970003e-13,-4.0880658943385e-13,-9.4326722826638e-15,7.6828267738488e-15,1.3507598766777e-15,-1.1880015470494e-12,9.0405295892475e-14,-2.08811564294e-12,1.0218991321815e-14,2.9927184191113e-13,-7.7692661746092e-14,-4.4349845188933e-15,5.9768512689597e-15,4.4665488389517e-14,4.9682264193632e-15,-1.8371314118059e-12,-2.4170028776911e-14,-4.2149960606537e-15,9.3831878755854e-14,-7.4422470379045e-13,-9.1771797461888e-16,-1.0600015809959e-15,1.0318484982361e-14,-3.3082761028137e-12,-5.6035786134914e-15,-4.5388375707843e-15,-6.858503598954e-14,-1.039372588652e-14,2.2591150125896e-14,6.7518589106943e-14,732.20212669302,732.20212669302,732.20212669302,732.20212669302,732.20212669302,732.20212669302,732.20212669302,732.20212669302,732.20212669302,732.20212669302,732.20212669302,732.20212669302,732.20212669302,732.20212669302,732.20212669302,732.20212669302,732.20212669302,732.20212669302,732.20212669302,732.20212669302,732.20212669302,732.20212669302,732.20212669302,732.20212669302,732.20212669302,732.20212669302,732.20212669302,732.20212669302,732.20212669302,732.20212669302,732.20212669302,732.20212669302,732.20212669302,732.20212669302,732.20212669302,732.20212669302,732.20212669302,732.20212669302,732.20212669302,732.20212669302,732.20212669302,732.20212669302,732.20212669302,732.20212669302,732.20212669302,732.20212669302,732.20212669302,732.20212669302,8.3404103920074e-08,444.38817016109,96.67611659731,466.55124708472,87.790070285077,0
1.01e-05,20000000,6.9435346501901e-07,2.9977359230124e-06,6.1693609270284e-07,1,607.67959772498,607.67959772498,607.67959772498,607.67959772498,607.67959772498,607.67959772498,607.67959772498,607.67959772498,607.67959772498,607.67959772498,607.67959772498,607.67959772498,607.67959772498,607.67959772498,607.67959772498,607.67959772498,607.67959772498,607.67959772498,607.67959772498,607.67959772498,607.67959772498,607.67959772498,607.67959772498,607.67959772498,607.67959772498,607.67959772498,607.67959772498,607.67959772498,607.67959772498,607.67959772498,607.67959772498,607.67959772498,607.67959772498,607.67959772498,607.67959772498,607.67959772498,607.67959772498,607.67959772498,607.67959772498,607.67959772498,607.67959772498,607.67959772498,607.67959772498,607.67959772498,607.67959772498,607.67959772498,607.67959772498,607.67959772498,-1.8733977806354e-13,-9.4455519360227e-16,-1.2704715135407e-13,-5.3419296571423e-14,4.113604597924e-14,7.2205024180606e-13,-3.0441535047105e-13,1.692708242655e-15,1.2016227857315e-14,3.5452750677952e-15,3.830260060853e-14,-3.366634800941e-12,-7.9370112577321e-17,-2.2593237182976e-15,5.4193663205934e-14,-2.7538182132139e-12,-5.9560149963428e-15,6.1144212779956e-14,6.7603554730714e-13,-4.9891270715419e-13,-1.1510124256159e-14,9.375614583636e-15,1.6483302962392e-15,-1.4497430107395e-12,1.1032177231038e-13,-2.5481260603548e-12,1.2470575154739e-14,3.651336849416e-13,-9.4816500399281e-14,-5.4118995015086e-15,7.2937742505571e-15,5.4506501484045e-14,6.0628420826644e-15,-2.2418493240251e-12,-2.9494339338733e-14,-5.1432985388055e-15,1.1450408117249e-13,-9.0818746121391e-13,-1.1200255079682e-15,-1.293472468345e-15,1.2591811190533e-14,-4.0371442802012e-12,-6.8382632206174e-15,-5.5388477249994e-15,-8.3694228924334e-14,-1.2680329141972e-14,2.7568223882856e-14,8.2376804274921e-14,732.20212669302,732.20212669302,732.20212669302,732.20212669302,732.20212669302,732.20212669302,732.20212669302,732.20212669302,732.20212669302,732.20212669302,732.20212669302,732.20212669302,732.20212669302,732.20212669302,732.20212669302,732.20212669302,732.20212669302,732.20212669302,732.20212669302,732.20212669302,732.20212669302,732.20212669302,732.20212669302,732.20212669302,732.20212669302,732.20212669302,732.20212669302,732.20212669302,732.20212669302,732.20212669302,732.20212669302,732.20212669302,732.20212669302,732.20212669302,732.20212669302,732.20212669302,732.20212669302,732.20212669302,732.20212669302,732.20212669302,732.20212669302,732.20212669302,732.20212669302,732.20212669302,732.20212669302,732.20212669302,732.20212669302,732.20212669302,1.0197883902939e-07,448.8430980503,97.641854716496,471.23130681533,88.667090215506,0
1.02e-05,20000000,7.0122788882195e-07,3.0274164095283e-06,6.2304488953746e-07,1,607.67959772498,607.67959772498,607.67959772498,607.67959772498,607.67959772498,607.67959772498,607.67959772498,607.67959772498,607.67959772498,607.67959772498,607.67959772498,607.67959772498,607.67959772498,607.67959772498,607.67959772498,607.67959772498,607.67959772498,607.67959772498,607.67959772498,607.67959772498,607.67959772498,607.67959772498,607.67959772498,607.67959772498,607.67959772498,607.67959772498,607.67959772498,607.67959772498,607.67959772498,607.67959772498,607.67959772498,607.67959772498,607.67959772498,607.67959772498,607.67959772498,607.67959772498,607.67959772498,607.67959772498,607.67959772498,607.67959772498,607.67959772498,607.67959772498,607.67959772498,607.67959772498,607.67959772498,607.67959772498,607.67959772498,607.67959772498,-2.2816256636417e-13,-1.1503689194782e-15,-1.547296992304e-13,-6.5035384785295e-14,5.0100574951211e-14,8.7923615881119e-13,-3.7078449139864e-13,2.061637401417e-15,1.4635185046294e-14,4.3178513926897e-15,4.6649590687574e-14,-4.1002548708567e-12,-9.6667564701674e-17,-2.7514597457423e-15,6.6003778680732e-14,-3.3539435972538e-12,-7.254205660825e-15,7.4468865582326e-14,8.2320823777103e-13,-6.0768669286861e-13,-1.4017603230947e-14,1.1418970075189e-14,2.0075150709899e-15,-1.7656862087228e-12,1.3436218964615e-13,-3.1033857121161e-12,1.5188448775468e-14,4.4461737454411e-13,-1.1548785807198e-13,-6.5910684588833e-15,8.8834296858679e-15,6.6385466631699e-14,7.3841348147156e-15,-2.7303674714584e-12,-3.5921020157747e-14,-6.2637552281039e-15,1.3945689921786e-13,-1.106102578842e-12,-1.3642534703633e-15,-1.5752748877821e-15,1.5335888921518e-14,-4.9169441686112e-12,-8.3286505772404e-15,-6.7459434294331e-15,-1.0193190445607e-13,-1.5439679368157e-14,3.3575904137774e-14,1.0030786886538e-13,732.20212669302,732.20212669302,732.20212669302,732.20212669302,732.20212669302,732.20212669302,732.20212669302,732.20212669302,732.20212669302,732.20212669302,732.20212669302,732.20212669302,732.20212669302,732.20212669302,732.20212669302,732.20212669302,732.20212669302,732.20212669302,732.20212669302,732.20212669302,732.20212669302,732.20212669302,732.20212669302,732.20212669302,732.20212669302,732.20212669302,732.20212669302,732.20212669302,732.20212669302,732.20212669302,732.20212669302,732.20212669302,732.20212669302,732.20212669302,732.20212669302,732.20212669302,732.20212669302,732.20212669302,732.20212669302,732.20212669302,732.20212669302,732.20212669302,732.20212669302,732.20212669302,732.20212669302,732.20212669302,732.20212669302,732.20212669302,1.2444116677086e-07,453.29824490432,98.607572607049,475.91165494323,89.544092730811,0
1.03e-05,20000000,7.0810230547038e-07,3.0570968947284e-06,6.2915369667214e-07,1.0000000000001,607.67959772498,607.67959772498,607.67959772498,607.67959772498,607.67959772498,607.67959772498,607.67959772498,607.67959772498,607.67959772498,607.67959772498,607.67959772498,607.67959772498,607.67959772498,607.67959772498,607.67959772498,607.67959772498,607.67959772498,607.67959772498,607.67959772498,607.67959772498,607.67959772498,607.67959772498,607.67959772498,607.67959772498,607.67959772498,607.67959772498,607.67959772498,607.67959772498,607.67959772498,607.67959772498,607.67959772498,607.67959772498,607.67959772498,607.67959772498,607.67959772498,607.67959772498,607.67959772498,607.67959772498,607.67959772498,607.67959772498,607.67959772498,607.67959772498,607.67959772498,607.67959772498,607.67959772498,607.67959772498,607.67959772498,607.67959772498,-2.7734726286043e-13,-1.3983376118236e-15,-1.8808212845799e-13,-7.9025325413031e-14,6.0901497852471e-14,1.0685842384546e-12,-4.5075616132759e-13,2.5061528558056e-15,1.7790714058673e-14,5.2486854462269e-15,5.6706456890396e-14,-4.9841464807356e-12,-1.1750860203103e-16,-3.3443595726645e-15,8.0233214187943e-14,-4.0770059075502e-12,-8.8183847561985e-15,9.0523058169201e-14,1.0004951408246e-12,-7.387542379947e-13,-1.7038549277656e-14,1.3880951069868e-14,2.4402734062662e-15,-2.1463528783332e-12,1.6332701134432e-13,-3.7723823360347e-12,1.8463135463964e-14,5.4036356870621e-13,-1.4039570773084e-13,-8.0117432198283e-15,1.0798765728464e-14,8.0698008391798e-14,8.9761081680428e-15,-3.3189513155364e-12,-4.3664023440791e-14,-7.6136502580106e-15,1.6952124869407e-13,-1.344560681349e-12,-1.6585452090865e-15,-1.9147876167844e-15,1.8642098813014e-14,-5.976974215136e-12,-1.012438306985e-14,-8.2003249909522e-15,-1.2390529441232e-13,-1.8763382247339e-14,4.0814242881517e-14,1.2190742688114e-13,732.20212669302,732.20212669302,732.20212669302,732.20212669302,732.20212669302,732.20212669302,732.20212669302,732.20212669302,732.20212669302,732.20212669302,732.20212669302,732.20212669302,732.20212669302,732.20212669302,732.20212669302,732.20212669302,732.20212669302,732.20212669302,732.20212669302,732.20212669302,732.20212669302,732.20212669302,732.20212669302,732.20212669302,732.20212669302,732.20212669302,732.20212669302,732.20212669302,732.20212669302,732.20212669302,732.20212669302,732.20212669302,732.20212669302,732.20212669302,732.20212669302,732.20212669302,732.20212669302,732.20212669302,732.20212669302,732.20212669302,732.20212669302,732.20212669302,732.20212669302,732.20212669302,732.20212669302,732.20212669302,732.20212669302,732.20212669302,1.5155370920015e-07,457.75361073019,99.57327026987,480.59229147817,90.421077831698,0
1.04e-05,20000000,7.1497671496335e-07,3.0867773786128e-06,6.3526251411053e-07,1.0000000000001,607.67959772498,607.67959772498,607.67959772498,607.67959772498,607.67959772498,607.67959772498,607.67959772498,607.67959772498,607.67959772498,607.67959772498,607.67959772498,607.67959772498,607.67959772498,607.67959772498,607.67959772498,607.67959772498,607.67959772498,607.67959772498,607.67959772498,607.67959772498,607.67959772498,607.67959772498,607.67959772498,607.67959772498,607.67959772498,607.67959772498,607.67959772498,607.67959772498,607.67959772498,607.67959772498,607.67959772498,607.67959772498,607.67959772498,607.67959772498,607.67959772498,607.67959772498,607.67959772498,607.67959772498,607.67959772498,607.67959772498,607.67959772498,607.67959772498,607.67959772498,607.67959772498,607.67959772498,607.67959772498,607.67959772498,607.67959772498,-3.3649964337707e-13,-1.6965558981761e-15,-2.2819315563772e-13,-9.5843802338062e-14,7.3891498026082e-14,1.2962632927467e-12,-5.4694419189523e-13,3.0407734009448e-15,2.1585880744316e-14,6.3681698105448e-15,6.8801581521392e-14,-6.0471671752222e-12,-1.4257381661909e-16,-4.0573642655163e-15,9.7346606250916e-14,-4.9466155602565e-12,-1.0699647142212e-14,1.0983099794074e-13,1.213672451686e-12,-8.963992330267e-13,-2.0671533728659e-14,1.6841964404639e-14,2.9607340132234e-15,-2.6041737576796e-12,1.9816191524775e-13,-4.5769575254575e-12,2.2401583770683e-14,6.5549129399799e-13,-1.7035409080085e-13,-9.7202951881703e-15,1.3102338107738e-14,9.7911533840733e-14,1.0890749556276e-14,-4.0268170220705e-12,-5.2976111114262e-14,-9.2370288844402e-15,2.0567879267374e-13,-1.6313481023949e-12,-2.0125227022179e-15,-2.3230903678312e-15,2.261840055391e-14,-7.2518484619245e-12,-1.228411089664e-14,-9.9494865187213e-15,-1.5033178796057e-13,-2.275963049746e-14,4.9519586069697e-14,1.4787901768819e-13,732.20212669302,732.20212669302,732.20212669302,732.20212669302,732.20212669302,732.20212669302,732.20212669302,732.20212669302,732.20212669302,732.20212669302,732.20212669302,732.20212669302,732.20212669302,732.20212669302,732.20212669302,732.20212669302,732.20212669302,732.20212669302,732.20212669302,732.20212669302,732.20212669302,732.20212669302,732.20212669302,732.20212669302,732.20212669302,732.20212669302,732.20212669302,732.20212669302,732.20212669302,732.20212669302,732.20212669302,732.20212669302,732.20212669302,732.20212669302,732.20212669302,732.20212669302,732.20212669302,732.20212669302,732.20212669302,732.20212669302,732.20212669302,732.20212669302,732.20212669302,732.20212669302,732.20212669302,732.20212669302,732.20212669302,732.20212669302,1.8421889180572e-07,462.20919553435,100.53894770583,485.27321642977,91.298045519003,0
1.05e-05,20000000,7.2185111729966e-07,3.1164578611816e-06,6.4137134185643e-07,1.0000000000001,607.67959772498,607.67959772498,607.67959772498,607.67959772498,607.67959772498,607.67959772498,607.67959772498,607.67959772498,607.67959772498,607.67959772498,607.67959772498,607.67959772498,607.67959772498,607.67959772498,607.67959772498,607.67959772498,607.67959772498,607.67959772498,607.67959772498,607.67959772498,607.67959772498,607.67959772498,607.67959772498,607.67959772498,607.67959772498,607.67959772498,607.67959772498,607.67959772498,607.67959772498,607.67959772498,607.67959772498,607.67959772498,607.67959772498,607.67959772498,607.67959772498,607.67959772498,607.67959772498,607.67959772498,607.67959772498,607.67959772498,607.67959772498,607.67959772498,607.67959772498,607.67959772498,607.67959772498,607.67959772498,607.67959772498,607.67959772498,-4.0751372097085e-13,-2.0545712769353e-15,-2.7634690290763e-13,-1.1602687903464e-13,8.948657202304e-14,1.5695479479548e-12,-6.6243193437674e-13,3.6826246831052e-15,2.6142256413882e-14,7.7121528707635e-15,8.3322297002451e-14,-7.3233544783525e-12,-1.7266598727017e-16,-4.9132847997579e-15,1.1789200248077e-13,-5.9906215033578e-12,-1.2958262404153e-14,1.3301099595503e-13,1.4695518371918e-12,-1.0856750808424e-12,-2.5032815062711e-14,2.0396853226955e-14,3.5855617189813e-15,-3.1538112250448e-12,2.3998233301957e-13,-5.5428734778405e-12,2.7129943785877e-14,7.9367865471858e-13,-2.0632326735434e-13,-1.1771418231436e-14,1.5867934087727e-14,1.1857736503245e-13,1.3189379626419e-14,-4.8766300820176e-12,-6.4155412427065e-14,-1.118583952376e-14,2.4908741750645e-13,-1.9756489605524e-12,-2.4375366801192e-15,-2.8132511309261e-15,2.7392134807697e-14,-8.7823949061647e-12,-1.4877014663188e-14,-1.2049448665946e-14,-1.8205754637585e-13,-2.7556000914589e-14,5.9970707219404e-14,1.7905227821553e-13,732.20212669302,732.20212669302,732.20212669302,732.20212669302,732.20212669302,732.20212669302,732.20212669302,732.20212669302,732.20212669302,732.20212669302,732.20212669302,732.20212669302,732.20212669302,732.20212669302,732.20212669302,732.20212669302,732.20212669302,732.20212669302,732.20212669302,732.20212669302,732.20212669302,732.20212669302,732.20212669302,732.20212669302,732.20212669302,732.20212669302,732.20212669302,732.20212669302,732.20212669302,732.20212669302,732.20212669302,732.20212669302,732.20212669302,732.20212669302,732.20212669302,732.20212669302,732.20212669302,732.20212669302,732.20212669302,732.20212669302,732.20212669302,732.20212669302,732.20212669302,732.20212669302,732.20212669302,732.20212669302,732.20212669302,732.20212669302,2.2350281350367e-07,466.6649993236,101.50460491578,489.95442980816,92.174995793414,0
1.06e-05,20000000,7.2872551247826e-07,3.1461383424348e-06,6.4748017991362e-07,1.0000000000001,607.67959772498,607.67959772498,607.67959772498,607.67959772498,607.67959772498,607.67959772498,607.67959772498,607.67959772498,607.67959772498,607.67959772498,607.67959772498,607.67959772498,607.67959772498,607.67959772498,607.67959772498,607.67959772498,607.67959772498,607.67959772498,607.67959772498,607.67959772498,607.67959772498,607.67959772498,607.67959772498,607.67959772498,607.67959772498,607.67959772498,607.67959772498,607.67959772498,607.67959772498,607.67959772498,607.67959772498,607.67959772498,607.67959772498,607.67959772498,607.67959772498,607.67959772498,607.67959772498,607.67959772498,607.67959772498,607.67959772498,607.67959772498,607.67959772498,607.67959772498,607.67959772498,607.67959772498,607.67959772498,607.67959772498,607.67959772498,-4.9261994593399e-13,-2.4836270493976e-15,-3.3405557067001e-13,-1.4020556267747e-13,1.0817661826301e-13,1.8970032829211e-12,-8.0085083759184e-13,4.45187526197e-15,3.1603013345407e-14,9.3228512142349e-15,1.007247447265e-13,-8.8527921150521e-12,-2.0873051583825e-16,-5.9389819680659e-15,1.4251481149711e-13,-7.2418200839283e-12,-1.5665209680083e-14,1.6079120481682e-13,1.7761533359852e-12,-1.3125334811814e-12,-3.025929539979e-14,2.4657311696484e-14,4.334381566105e-15,-3.812532541314e-12,2.9010183777443e-13,-6.7004686173824e-12,3.2796778883839e-14,9.5925617571068e-13,-2.4943418572536e-13,-1.4229520162766e-14,1.9182451161697e-14,1.4334477441816e-13,1.594421327161e-14,-5.8950821226242e-12,-7.7553009767351e-14,-1.3521254786673e-14,3.0111070419392e-13,-2.3882789271631e-12,-2.9469560149329e-15,-3.4006585596891e-15,3.3113264574705e-14,-1.0616694754903e-11,-1.7984566816699e-14,-1.4566184719238e-14,-2.200790368512e-13,-3.3302688982695e-14,7.2495902928085e-14,2.1640399411036e-13,732.20212669302,732.20212669302,732.20212669302,732.20212669302,732.20212669302,732.20212669302,732.20212669302,732.20212669302,732.20212669302,732.20212669302,732.20212669302,732.20212669302,732.20212669302,732.20212669302,732.20212669302,732.20212669302,732.20212669302,732.20212669302,732.20212669302,732.20212669302,732.20212669302,732.20212669302,732.20212669302,732.20212669302,732.20212669302,732.20212669302,732.20212669302,732.20212669302,732.20212669302,732.20212669302,732.20212669302,732.20212669302,732.20212669302,732.20212669302,732.20212669302,732.20212669302,732.20212669302,732.20212669302,732.20212669302,732.20212669302,732.20212669302,732.20212669302,732.20212669302,732.20212669302,732.20212669302,732.20212669302,732.20212669302,732.20212669302,2.7066289815163e-07,471.12102210453,102.47024190053,494.63593162287,93.051928655762,0
1.07e-05,20000000,7.3559990049811e-07,3.1758188223724e-06,6.5358902828589e-07,1.0000000000001,607.67959772498,607.67959772498,607.67959772498,607.67959772498,607.67959772498,607.67959772498,607.67959772498,607.67959772498,607.67959772498,607.67959772498,607.67959772498,607.67959772498,607.67959772498,607.67959772498,607.67959772498,607.67959772498,607.67959772498,607.67959772498,607.67959772498,607.67959772498,607.67959772498,607.67959772498,607.67959772498,607.67959772498,607.67959772498,607.67959772498,607.67959772498,607.67959772498,607.67959772498,607.67959772498,607.67959772498,607.67959772498,607.67959772498,607.67959772498,607.67959772498,607.67959772498,607.67959772498,607.67959772498,607.67959772498,607.67959772498,607.67959772498,607.67959772498,607.67959772498,607.67959772498,607.67959772498,607.67959772498,607.67959772498,607.67959772498,-5.9444088625939e-13,-2.9969429499811e-15,-4.0309718036511e-13,-1.6912146554357e-13,1.3053766922926e-13,2.288698073524e-12,-9.6647123191601e-13,5.3722403721069e-15,3.8136500871122e-14,1.1249903641503e-14,1.2154526414695e-13,-1.0682610668398e-11,-2.5187903583685e-16,-7.1660362281364e-15,1.7197391811313e-13,-8.7387739438392e-12,-1.8903950792713e-14,1.9402779930139e-13,2.1429050474822e-12,-1.5839732202649e-12,-3.6511935620628e-14,2.9754674547639e-14,5.230268730949e-15,-4.600641028726e-12,3.5006493750991e-13,-8.0854149689293e-12,3.9576776058396e-14,1.1573146056742e-12,-3.0101675295296e-13,-1.7170330135222e-14,2.314806740467e-14,1.7297719901421e-13,1.9240162956083e-14,-7.1135572381174e-12,-9.3581701652497e-14,-1.6315197433453e-14,3.6335197409254e-13,-2.8819552785282e-12,-3.5565020753075e-15,-4.1034059248945e-15,3.9958119674053e-14,-1.2811282992085e-11,-2.1702566536784e-14,-1.7577268055735e-14,-2.6556790829304e-13,-4.0176244279812e-14,8.7481189701963e-14,2.6108241176424e-13,732.20212669302,732.20212669302,732.20212669302,732.20212669302,732.20212669302,732.20212669302,732.20212669302,732.20212669302,732.20212669302,732.20212669302,732.20212669302,732.20212669302,732.20212669302,732.20212669302,732.20212669302,732.20212669302,732.20212669302,732.20212669302,732.20212669302,732.20212669302,732.20212669302,732.20212669302,732.20212669302,732.20212669302,732.20212669302,732.20212669302,732.20212669302,732.20212669302,732.20212669302,732.20212669302,732.20212669302,732.20212669302,732.20212669302,732.20212669302,732.20212669302,732.20212669302,732.20212669302,732.20212669302,732.20212669302,732.20212669302,732.20212669302,732.20212669302,732.20212669302,732.20212669302,732.20212669302,732.20212669302,732.20212669302,732.20212669302,3.271798810072e-07,475.57726388369,103.43585866114,499.31772188363,93.928844106708,0
1.08e-05,20000000,7.4247428135816e-07,3.2054993009945e-06,6.5969788697699e-07,1.0000000000001,607.67959772498,607.67959772498,607.67959772498,607.67959772498,607.67959772498,607.67959772498,607.67959772498,607.67959772498,607.67959772498,607.67959772498,607.67959772498,607.67959772498,607.67959772498,607.67959772498,607.67959772498,607.67959772498,607.67959772498,607.67959772498,607.67959772498,607.67959772498,607.67959772498,607.67959772498,607.67959772498,607.67959772498,607.67959772498,607.67959772498,607.67959772498,607.67959772498,607.67959772498,607.67959772498,607.67959772498,607.67959772498,607.67959772498,607.67959772498,607.67959772498,607.67959772498,607.67959772498,607.67959772498,607.67959772498,607.67959772498,607.67959772498,607.67959772498,607.67959772498,607.67959772498,607.67959772498,607.67959772498,607.67959772498,607.67959772498,-7.1605546135484e-13,-3.610038880629e-15,-4.855591142868e-13,-2.036448631817e-13,1.5724600293214e-13,2.7564507376062e-12,-1.1643070717535e-12,6.4715630960641e-15,4.5940370992451e-14,1.3551587099651e-14,1.4641353158643e-13,-1.2868141952514e-11,-3.0341664840894e-16,-8.631520378579e-15,2.071602743536e-13,-1.0526756726104e-11,-2.2772475879065e-14,2.3372595007316e-13,2.5808734440213e-12,-1.908211837571e-12,-4.3979694847986e-14,3.5843135289429e-14,6.300313700192e-15,-5.5419734965651e-12,4.2168490620457e-13,-9.7395918756173e-12,4.7675026375266e-14,1.3938292504839e-12,-3.6263245168401e-13,-2.0682752906614e-14,2.7884745325437e-14,2.0837094586332e-13,2.3176919110873e-14,-8.568900678191e-12,-1.1272611169633e-13,-1.9652100622386e-14,4.3769356502947e-13,-3.4716084368879e-12,-4.2846345036362e-15,-4.9427340279551e-15,4.8133716509619e-14,-1.5432533396259e-11,-2.6143487314429e-14,-2.1173772722816e-14,-3.1989968838325e-13,-4.8383878301996e-14,1.0537976005354e-13,3.1443527782712e-13,732.20212669302,732.20212669302,732.20212669302,732.20212669302,732.20212669302,732.20212669302,732.20212669302,732.20212669302,732.20212669302,732.20212669302,732.20212669302,732.20212669302,732.20212669302,732.20212669302,732.20212669302,732.20212669302,732.20212669302,732.20212669302,732.20212669302,732.20212669302,732.20212669302,732.20212669302,732.20212669302,732.20212669302,732.20212669302,732.20212669302,732.20212669302,732.20212669302,732.20212669302,732.20212669302,732.20212669302,732.20212669302,732.20212669302,732.20212669302,732.20212669302,732.20212669302,732.20212669302,732.20212669302,732.20212669302,732.20212669302,732.20212669302,732.20212669302,732.20212669302,732.20212669302,732.20212669302,732.20212669302,732.20212669302,732.20212669302,3.9479475804354e-07,480.03372466778,104.40145519825,503.99980060046,94.805742147119,0
1.09e-05,20000000,7.4934865505727e-07,3.2351797783011e-06,6.6580675599074e-07,1.0000000000002,607.67959772498,607.67959772498,607.67959772498,607.67959772498,607.67959772498,607.67959772498,607.67959772498,607.67959772498,607.67959772498,607.67959772498,607.67959772498,607.67959772498,607.67959772498,607.67959772498,607.67959772498,607.67959772498,607.67959772498,607.67959772498,607.67959772498,607.67959772498,607.67959772498,607.67959772498,607.67959772498,607.67959772498,607.67959772498,607.67959772498,607.67959772498,607.67959772498,607.67959772498,607.67959772498,607.67959772498,607.67959772498,607.67959772498,607.67959772498,607.67959772498,607.67959772498,607.67959772498,607.67959772498,607.67959772498,607.67959772498,607.67959772498,607.67959772498,607.67959772498,607.67959772498,607.67959772498,607.67959772498,607.67959772498,607.67959772498,-8.6107294324056e-13,-4.3411078675195e-15,-5.8388827528901e-13,-2.4479548814659e-13,1.8909440047132e-13,3.3141126135887e-12,-1.4002366201008e-12,7.7824839436244e-15,5.5246331568265e-14,1.6296217526969e-14,1.760676971925e-13,-1.5474248923166e-11,-3.6487330074782e-16,-1.0378889649497e-14,2.4911831784212e-13,-1.2658841454676e-11,-2.7385660221771e-14,2.8106398707013e-13,3.1030286453238e-12,-2.2948834208579e-12,-5.2884068690092e-14,4.3103453914292e-14,7.5762733894678e-15,-6.6644733201887e-12,5.0708736777096e-13,-1.1712092576885e-11,5.7331956504581e-14,1.6758031783737e-12,-4.3611192115984e-13,-2.4871005013798e-14,3.3533116580498e-14,2.5057674254959e-13,2.7871346942953e-14,-1.030430442531e-11,-1.3555433460804e-13,-2.3630935694138e-14,5.263420804577e-13,-4.1747408907469e-12,-5.1529957256481e-15,-5.9435414411227e-15,5.7882734804046e-14,-1.8558254197996e-11,-3.143918162537e-14,-2.5462463081323e-14,-3.8468684439517e-13,-5.8168425744902e-14,1.2672287665912e-13,3.7804213423639e-13,732.20212669302,732.20212669302,732.20212669302,732.20212669302,732.20212669302,732.20212669302,732.20212669302,732.20212669302,732.20212669302,732.20212669302,732.20212669302,732.20212669302,732.20212669302,732.20212669302,732.20212669302,732.20212669302,732.20212669302,732.20212669302,732.20212669302,732.20212669302,732.20212669302,732.20212669302,732.20212669302,732.20212669302,732.20212669302,732.20212669302,732.20212669302,732.20212669302,732.20212669302,732.20212669302,732.20212669302,732.20212669302,732.20212669302,732.20212669302,732.20212669302,732.20212669302,732.20212669302,732.20212669302,732.20212669302,732.20212669302,732.20212669302,732.20212669302,732.20212669302,732.20212669302,732.20212669302,732.20212669302,732.20212669302,732.20212669302,4.7555140963847e-07,484.49040446323,105.36703151292,508.68216778302,95.682622777718,0
1.1e-05,20000000,7.562230215944e-07,3.2648602542923e-06,6.7191563533082e-07,1.0000000000002,607.67959772498,607.67959772498,607.67959772498,607.67959772498,607.67959772498,607.67959772498,607.67959772498,607.67959772498,607.67959772498,607.67959772498,607.67959772498,607.67959772498,607.67959772498,607.67959772498,607.67959772498,607.67959772498,607.67959772498,607.67959772498,607.67959772498,607.67959772498,607.67959772498,607.67959772498,607.67959772498,607.67959772498,607.67959772498,607.67959772498,607.67959772498,607.67959772498,607.67959772498,607.67959772498,607.67959772498,607.67959772498,607.67959772498,607.67959772498,607.67959772498,607.67959772498,607.67959772498,607.67959772498,607.67959772498,607.67959772498,607.67959772498,607.67959772498,607.67959772498,607.67959772498,607.67959772498,607.67959772498,607.67959772498,607.67959772498,-1.0337180980062e-12,-5.211445157482e-15,-7.0094879662948e-13,-2.9376644210196e-13,2.2701085136153e-13,3.9778938091795e-12,-1.6811413181672e-12,9.343211266656e-15,6.6325615312606e-14,1.956376159935e-14,2.1137180090767e-13,-1.8576855797328e-11,-4.3803988928818e-16,-1.2459005696801e-14,2.9907061497887e-13,-1.5197152783659e-11,-3.2877976042311e-14,3.3742120089872e-13,3.7245495593294e-12,-2.7552662055276e-12,-6.3484310353162e-14,5.1747222935015e-14,9.0953202827873e-15,-8.0008498083893e-12,6.087604414263e-13,-1.4060382319937e-11,6.882900286817e-14,2.0114319436961e-12,-5.2359820066736e-13,-2.985707246785e-14,4.0257801096134e-14,3.0082453273359e-13,3.3460244138544e-14,-1.2370326089145e-11,-1.6273133521979e-13,-2.8367545071478e-14,6.3188045120606e-13,-5.0118401544912e-12,-6.1869224583623e-15,-7.1349715330686e-15,6.9489243646799e-14,-2.2279523986663e-11,-3.7743992904613e-14,-3.0568313149562e-14,-4.6181682105276e-13,-6.9814050822826e-14,1.5213240671072e-13,4.537514655055e-13,732.20212669302,732.20212669302,732.20212669302,732.20212669302,732.20212669302,732.20212669302,732.20212669302,732.20212669302,732.20212669302,732.20212669302,732.20212669302,732.20212669302,732.20212669302,732.20212669302,732.20212669302,732.20212669302,732.20212669302,732.20212669302,732.20212669302,732.20212669302,732.20212669302,732.20212669302,732.20212669302,732.20212669302,732.20212669302,732.20212669302,732.20212669302,732.20212669302,732.20212669302,732.20212669302,732.20212669302,732.20212669302,732.20212669302,732.20212669302,732.20212669302,732.20212669302,732.20212669302,732.20212669302,732.20212669302,732.20212669302,732.20212669302,732.20212669302,732.20212669302,732.20212669302,732.20212669302,732.20212669302,732.20212669302,732.20212669302,5.7184570391857e-07,488.9473032768,106.33258760592,513.36482344117,96.55948599923,0
1.11e-05,20000000,7.6309738096846e-07,3.2945407289681e-06,6.7802452500112e-07,1.0000000000002,607.67959772498,607.67959772498,607.67959772498,607.67959772498,607.67959772498,607.67959772498,607.67959772498,607.67959772498,607.67959772498,607.67959772498,607.67959772498,607.67959772498,607.67959772498,607.67959772498,607.67959772498,607.67959772498,607.67959772498,607.67959772498,607.67959772498,607.67959772498,607.67959772498,607.67959772498,607.67959772498,607.67959772498,607.67959772498,607.67959772498,607.67959772498,607.67959772498,607.67959772498,607.67959772498,607.67959772498,607.67959772498,607.67959772498,607.67959772498,607.67959772498,607.67959772498,607.67959772498,607.67959772498,607.67959772498,607.67959772498,607.67959772498,607.67959772498,607.67959772498,607.67959772498,607.67959772498,607.67959772498,607.67959772498,607.67959772498,-1.2389290176912e-12,-6.2459412649617e-15,-8.4008835240742e-13,-3.5195165829178e-13,2.7208004728038e-13,4.7667375321103e-12,-2.0150653732481e-12,1.119840654745e-14,7.9495264250546e-14,2.3447688728626e-14,2.5333578462319e-13,-2.2264706241173e-11,-5.2500974531375e-16,-1.4931313118786e-14,3.5844617772653e-13,-1.8214305922229e-11,-3.9406608675254e-14,4.0440978853614e-13,4.4631744261475e-12,-3.3025441301361e-12,-7.6083429593412e-14,6.2021769469774e-14,1.0900903232511e-14,-9.5893358688095e-12,7.296123615423e-13,-1.6851629090863e-11,8.2495131770292e-14,2.4102928173808e-12,-6.2759642418243e-13,-3.5783534701722e-14,4.8251221070415e-14,3.6055196838116e-13,4.0103509691104e-14,-1.4826059669354e-11,-1.9503434445231e-13,-3.399732270813e-14,7.5732775795303e-13,-6.0068532880282e-12,-7.4160335520742e-15,-8.5510869603162e-15,8.3285281144855e-14,-2.6702801303437e-11,-4.523833152023e-14,-3.6637401536032e-14,-5.5349574802184e-13,-8.3652802009955e-14,1.8233522472363e-13,5.4372337198397e-13,732.20212669302,732.20212669302,732.20212669302,732.20212669302,732.20212669302,732.20212669302,732.20212669302,732.20212669302,732.20212669302,732.20212669302,732.20212669302,732.20212669302,732.20212669302,732.20212669302,732.20212669302,732.20212669302,732.20212669302,732.20212669302,732.20212669302,732.20212669302,732.20212669302,732.20212669302,732.20212669302,732.20212669302,732.20212669302,732.20212669302,732.20212669302,732.20212669302,732.20212669302,732.20212669302,732.20212669302,732.20212669302,732.20212669302,732.20212669302,732.20212669302,732.20212669302,732.20212669302,732.20212669302,732.20212669302,732.20212669302,732.20212669302,732.20212669302,732.20212669302,732.20212669302,732.20212669302,732.20212669302,732.20212669302,732.20212669302,6.8648199019414e-07,493.40442111485,107.29812347815,518.0477675846,97.436331812423,0
1.12e-05,20000000,7.6997173317844e-07,3.3242212023286e-06,6.8413342500528e-07,1.0000000000003,607.67959772498,607.67959772498,607.67959772498,607.67959772498,607.67959772498,607.67959772498,607.67959772498,607.67959772498,607.67959772498,607.67959772498,607.67959772498,607.67959772498,607.67959772498,607.67959772498,607.67959772498,607.67959772498,607.67959772498,607.67959772498,607.67959772498,607.67959772498,607.67959772498,607.67959772498,607.67959772498,607.67959772498,607.67959772498,607.67959772498,607.67959772498,607.67959772498,607.67959772498,607.67959772498,607.67959772498,607.67959772498,607.67959772498,607.67959772498,607.67959772498,607.67959772498,607.67959772498,607.67959772498,607.67959772498,607.67959772498,607.67959772498,607.67959772498,607.67959772498,607.67959772498,607.67959772498,607.67959772498,607.67959772498,607.67959772498,-1.482469391198e-12,-7.4736477800198e-15,-1.0052142534833e-12,-4.2097740144304e-13,3.2556804851643e-13,5.7027495695611e-12,-2.4113989225997e-12,1.340020039454e-14,9.512534203829e-14,2.8057096419221e-14,3.0313845829027e-13,-2.6641381052151e-11,-6.2822624478441e-16,-1.7865189493849e-14,4.2891296025082e-13,-2.1795057960752e-11,-4.7155032871087e-14,4.8391151446183e-13,5.3396030087616e-12,-3.9521070317648e-12,-9.1035076628406e-14,7.4215781043982e-14,1.3043735305559e-14,-1.1474557518458e-11,8.7303760191276e-13,-2.01642307507e-11,9.8714322120069e-14,2.8835618936242e-12,-7.5103085598293e-13,-4.28168052233e-14,5.773797806848e-14,4.3143710817926e-13,4.7987780515619e-14,-1.7740479112675e-11,-2.3337052733804e-13,-4.067828994716e-14,9.0620788386249e-13,-7.1877314597894e-12,-8.8749046989704e-15,-1.0231643671447e-14,9.9658405309773e-14,-3.1952345637336e-11,-5.4132778704037e-14,-4.3840233724881e-14,-6.6229859822408e-13,-1.0007213177292e-13,2.1817974128477e-13,6.5047852879064e-13,732.20212669302,732.20212669302,732.20212669302,732.20212669302,732.20212669302,732.20212669302,732.20212669302,732.20212669302,732.20212669302,732.20212669302,732.20212669302,732.20212669302,732.20212669302,732.20212669302,732.20212669302,732.20212669302,732.20212669302,732.20212669302,732.20212669302,732.20212669302,732.20212669302,732.20212669302,732.20212669302,732.20212669302,732.20212669302,732.20212669302,732.20212669302,732.20212669302,732.20212669302,732.20212669302,732.20212669302,732.20212669302,732.20212669302,732.20212669302,732.20212669302,732.20212669302,732.20212669302,732.20212669302,732.20212669302,732.20212669302,732.20212669302,732.20212669302,732.20212669302,732.20212669302,732.20212669302,732.20212669302,732.20212669302,732.20212669302,8.227380104479e-07,497.86175798382,108.2636391305,522.7310002232,98.313160218123,0
1.13e-05,20000000,7.7684607822322e-07,3.3539016743738e-06,6.9024233534714e-07,1.0000000000003,607.67959772498,607.67959772498,607.67959772498,607.67959772498,607.67959772498,607.67959772498,607.67959772498,607.67959772498,607.67959772498,607.67959772498,607.67959772498,607.67959772498,607.67959772498,607.67959772498,607.67959772498,607.67959772498,607.67959772498,607.67959772498,607.67959772498,607.67959772498,607.67959772498,607.67959772498,607.67959772498,607.67959772498,607.67959772498,607.67959772498,607.67959772498,607.67959772498,607.67959772498,607.67959772498,607.67959772498,607.67959772498,607.67959772498,607.67959772498,607.67959772498,607.67959772498,607.67959772498,607.67959772498,607.67959772498,607.67959772498,607.67959772498,607.67959772498,607.67959772498,607.67959772498,607.67959772498,607.67959772498,607.67959772498,607.67959772498,-1.7710571844282e-12,-8.9284258646056e-15,-1.2008806639017e-12,-5.0273835354431e-13,3.8895055608906e-13,6.8116904259048e-12,-2.8810879938318e-12,1.6009357089177e-14,1.1364720080782e-13,3.3519146286856e-14,3.6215382311497e-13,-3.1827610743615e-11,-7.5053737823809e-16,-2.1341492597629e-14,5.1241510585496e-13,-2.6038200585788e-11,-5.6337112045934e-14,5.7811973071203e-13,6.3779574636355e-12,-4.7218947595282e-12,-1.0875143169135e-13,8.8665753894315e-14,1.5582926011255e-14,-1.370853050424e-11,1.0429926649147e-12,-2.4089565376348e-11,1.1793414213136e-13,3.4442628683742e-12,-8.9731026995258e-13,-5.1150845821267e-14,6.8979870073666e-14,5.1543589624323e-13,5.7330599694761e-14,-2.1193978242278e-11,-2.7879723309199e-13,-4.8594620712096e-14,1.082628202427e-12,-8.5870541122258e-12,-1.0603841878174e-14,-1.2222977996971e-14,1.1906034873019e-13,-3.8172992323862e-11,-6.4672790507413e-14,-5.2375550040996e-14,-7.9122667720882e-13,-1.1952351259007e-13,2.6065484785799e-13,7.7695428615164e-13,732.20212669302,732.20212669302,732.20212669302,732.20212669302,732.20212669302,732.20212669302,732.20212669302,732.20212669302,732.20212669302,732.20212669302,732.20212669302,732.20212669302,732.20212669302,732.20212669302,732.20212669302,732.20212669302,732.20212669302,732.20212669302,732.20212669302,732.20212669302,732.20212669302,732.20212669302,732.20212669302,732.20212669302,732.20212669302,732.20212669302,732.20212669302,732.20212669302,732.20212669302,732.20212669302,732.20212669302,732.20212669302,732.20212669302,732.20212669302,732.20212669302,732.20212669302,732.20212669302,732.20212669302,732.20212669302,732.20212669302,732.20212669302,732.20212669302,732.20212669302,732.20212669302,732.20212669302,732.20212669302,732.20212669302,732.20212669302,9.8443938846944e-07,502.3193138901,109.22913456385,527.41452136664,99.189971216996,0
1.14e-05,20000000,7.8372041610174e-07,3.3835821451037e-06,6.9635125603052e-07,1.0000000000004,607.67959772498,607.67959772498,607.67959772498,607.67959772498,607.67959772498,607.67959772498,607.67959772498,607.67959772498,607.67959772498,607.67959772498,607.67959772498,607.67959772498,607.67959772498,607.67959772498,607.67959772498,607.67959772498,607.67959772498,607.67959772498,607.67959772498,607.67959772498,607.67959772498,607.67959772498,607.67959772498,607.67959772498,607.67959772498,607.67959772498,607.67959772498,607.67959772498,607.67959772498,607.67959772498,607.67959772498,607.67959772498,607.67959772498,607.67959772498,607.67959772498,607.67959772498,607.67959772498,607.67959772498,607.67959772498,607.67959772498,607.67959772498,607.67959772498,607.67959772498,607.67959772498,607.67959772498,607.67959772498,607.67959772498,607.67959772498,-2.1125119471579e-12,-1.0649688609819e-14,-1.4323884403898e-12,-5.9943890238327e-13,4.6394527688811e-13,8.123538568864e-12,-3.4368748869865e-12,1.9096607765494e-14,1.3556294510253e-13,3.998185272503e-14,4.3198120556263e-13,-3.7963922884723e-11,-8.9525822160094e-16,-2.5454331424552e-14,6.1121558625065e-13,-3.1058726808857e-11,-6.7201791184533e-14,6.8958748015802e-13,7.606309805209e-12,-5.632791147717e-12,-1.2971223605472e-13,1.0576337496439e-13,1.8587277422442e-14,-1.6351801214166e-11,1.2440828416952e-12,-2.8733994969851e-11,1.4067556789181e-13,4.107551760454e-12,-1.0704028012689e-12,-6.1011418304066e-14,8.2281635009477e-14,6.1482506728108e-13,6.8385188216356e-14,-2.5280133596822e-11,-3.3254517611435e-13,-5.7960676717418e-14,1.2913696568128e-12,-1.0242743488249e-11,-1.2649766898743e-14,-1.457902210084e-14,1.420169262183e-13,-4.5533329178751e-11,-7.7144082898846e-14,-6.2474684943602e-14,-9.4377343428307e-13,-1.4253229698142e-13,3.109116041891e-13,9.2656887401145e-13,732.20212669302,732.20212669302,732.20212669302,732.20212669302,732.20212669302,732.20212669302,732.20212669302,732.20212669302,732.20212669302,732.20212669302,732.20212669302,732.20212669302,732.20212669302,732.20212669302,732.20212669302,732.20212669302,732.20212669302,732.20212669302,732.20212669302,732.20212669302,732.20212669302,732.20212669302,732.20212669302,732.20212669302,732.20212669302,732.20212669302,732.20212669302,732.20212669302,732.20212669302,732.20212669302,732.20212669302,732.20212669302,732.20212669302,732.20212669302,732.20212669302,732.20212669302,732.20212669302,732.20212669302,732.20212669302,732.20212669302,732.20212669302,732.20212669302,732.20212669302,732.20212669302,732.20212669302,732.20212669302,732.20212669302,732.20212669302,1.1760450030702e-06,506.77708884021,110.19460977899,532.09833102485,100.0667648099,0
1.15e-05,20000000,7.9059474681292e-07,3.4132626145184e-06,7.0246018705912e-07,1.0000000000005,607.67959772498,607.67959772498,607.67959772498,607.67959772498,607.67959772498,607.67959772498,607.67959772498,607.67959772498,607.67959772498,607.67959772498,607.67959772498,607.67959772498,607.67959772498,607.67959772498,607.67959772498,607.67959772498,607.67959772498,607.67959772498,607.67959772498,607.67959772498,607.67959772498,607.67959772498,607.67959772498,607.67959772498,607.67959772498,607.67959772498,607.67959772498,607.67959772498,607.67959772498,607.67959772498,607.67959772498,607.67959772498,607.67959772498,607.67959772498,607.67959772498,607.67959772498,607.67959772498,607.67959772498,607.67959772498,607.67959772498,607.67959772498,607.67959772498,607.67959772498,607.67959772498,607.67959772498,607.67959772498,607.67959772498,607.67959772498,-2.5159232398328e-12,-1.2683249816166e-14,-1.7058992842816e-12,-7.1364032616826e-13,5.5254892976532e-13,9.673134282177e-12,-4.0935730547366e-12,2.2744174805797e-14,1.6145625320345e-13,4.7617271425475e-14,5.1447971233007e-13,-4.5213669003433e-11,-1.0662423657071e-15,-3.0313090945942e-14,7.2794495506436e-13,-3.6990308393303e-11,-8.0038462901626e-14,8.212824973556e-13,9.0572848598904e-12,-6.7090745296561e-12,-1.5447511722273e-13,1.259639626109e-13,2.2136766127068e-14,-1.947475119734e-11,1.4816614119345e-12,-3.422115645014e-11,1.6754421007897e-13,4.8910423757716e-12,-1.2749215396685e-12,-7.2660945705841e-14,9.7997518008e-14,7.3225120476241e-13,8.1445901001145e-14,-3.0107720015978e-11,-3.9604494019311e-13,-6.9025620925372e-14,1.537989755692e-12,-1.2198881615781e-11,-1.5067230067289e-14,-1.7362464967632e-14,1.6913936317377e-13,-5.422932865072e-11,-9.1878789212077e-14,-7.4406551462365e-14,-1.1239997092993e-12,-1.6970898757322e-13,3.7028803545432e-13,1.10329479319e-12,732.20212669302,732.20212669302,732.20212669302,732.20212669302,732.20212669302,732.20212669302,732.20212669302,732.20212669302,732.20212669302,732.20212669302,732.20212669302,732.20212669302,732.20212669302,732.20212669302,732.20212669302,732.20212669302,732.20212669302,732.20212669302,732.20212669302,732.20212669302,732.20212669302,732.20212669302,732.20212669302,732.20212669302,732.20212669302,732.20212669302,732.20212669302,732.20212669302,732.20212669302,732.20212669302,732.20212669302,732.20212669302,732.20212669302,732.20212669302,732.20212669302,732.20212669302,732.20212669302,732.20212669302,732.20212669302,732.20212669302,732.20212669302,732.20212669302,732.20212669302,732.20212669302,732.20212669302,732.20212669302,732.20212669302,732.20212669302,1.4027447157535e-06,511.23508284019,111.16006477689,536.78242920757,100.94354099754,0
1.16e-05,20000000,7.9746907035568e-07,3.4429430826179e-06,7.0856912843669e-07,1.0000000000006,607.67959772498,607.67959772498,607.67959772498,607.67959772498,607.67959772498,607.67959772498,607.67959772498,607.67959772498,607.67959772498,607.67959772498,607.67959772498,607.67959772498,607.67959772498,607.67959772498,607.67959772498,607.67959772498,607.67959772498,607.67959772498,607.67959772498,607.67959772498,607.67959772498,607.67959772498,607.67959772498,607.67959772498,607.67959772498,607.67959772498,607.67959772498,607.67959772498,607.67959772498,607.67959772498,607.67959772498,607.67959772498,607.67959772498,607.67959772498,607.67959772498,607.67959772498,607.67959772498,607.67959772498,607.67959772498,607.67959772498,607.67959772498,607.67959772498,607.67959772498,607.67959772498,607.67959772498,607.67959772498,607.67959772498,607.67959772498,-2.9918429805853e-12,-1.5082293305411e-14,-2.028566103256e-12,-8.4831465228322e-13,6.5707950801787e-13,1.1500914789918e-11,-4.8683810599117e-12,2.7047512813983e-14,1.9200473589795e-13,5.66251407746e-14,6.1180757928014e-13,-5.3766481379366e-11,-1.2679634926302e-15,-3.6044744219668e-14,8.6565702635182e-13,-4.3988125179954e-11,-9.5183095960584e-14,9.7665002163408e-13,1.0768748698167e-11,-7.9789322974423e-12,-1.8368737979104e-13,1.4979610644318e-13,2.6324235649515e-14,-2.3159086989885e-11,1.7619429326059e-12,-4.0694578018244e-11,1.9924313559485e-13,5.8151779048731e-12,-1.5162222899932e-12,-8.6404063746895e-14,1.1653877168533e-13,8.7078676813978e-13,9.6854457972231e-14,-3.5803012484401e-11,-4.7095724646585e-13,-8.2078685872702e-14,1.8289401982833e-12,-1.4506643336808e-11,-1.7919566858575e-14,-2.0646078213851e-14,2.0113723306088e-13,-6.4488495899309e-11,-1.0926249238771e-13,-8.8483333682441e-14,-1.3366196661235e-12,-2.0176210360658e-13,4.4033745151914e-13,1.3117426082745e-12,732.20212669302,732.20212669302,732.20212669302,732.20212669302,732.20212669302,732.20212669302,732.20212669302,732.20212669302,732.20212669302,732.20212669302,732.20212669302,732.20212669302,732.20212669302,732.20212669302,732.20212669302,732.20212669302,732.20212669302,732.20212669302,732.20212669302,732.20212669302,732.20212669302,732.20212669302,732.20212669302,732.20212669302,732.20212669302,732.20212669302,732.20212669302,732.20212669302,732.20212669302,732.20212669302,732.20212669302,732.20212669302,732.20212669302,732.20212669302,732.20212669302,732.20212669302,732.20212669302,732.20212669302,732.20212669302,732.20212669302,732.20212669302,732.20212669302,732.20212669302,732.20212669302,732.20212669302,732.20212669302,732.20212669302,732.20212669302,1.6705711059202e-06,515.69329589649,112.12549955833,541.46681592447,101.82029978067,0
1.17e-05,20000000,8.0434338672899e-07,3.4726235494022e-06,7.1467808016706e-07,1.0000000000007,607.67959772498,607.67959772498,607.67959772498,607.67959772498,607.67959772498,607.67959772498,607.67959772498,607.67959772498,607.67959772498,607.67959772498,607.67959772498,607.67959772498,607.67959772498,607.67959772498,607.67959772498,607.67959772498,607.67959772498,607.67959772498,607.67959772498,607.67959772498,607.67959772498,607.67959772498,607.67959772498,607.67959772498,607.67959772498,607.67959772498,607.67959772498,607.67959772498,607.67959772498,607.67959772498,607.67959772498,607.67959772498,607.67959772498,607.67959772498,607.67959772498,607.67959772498,607.67959772498,607.67959772498,607.67959772498,607.67959772498,607.67959772498,607.67959772498,607.67959772498,607.67959772498,607.67959772498,607.67959772498,607.67959772498,607.67959772498,-3.5525048542729e-12,-1.7908478593475e-14,-2.4086817116322e-12,-1.0069060628487e-12,7.8022448878606e-13,1.3653752615401e-11,-5.7812407488681e-12,3.2117294628633e-14,2.2799403471867e-13,6.7237035614766e-14,7.2646705723003e-13,-6.3842216191468e-11,-1.5056084319896e-15,-4.2796489563254e-14,1.0278923879054e-12,-5.2232092541322e-11,-1.1302522645348e-13,1.1596844486838e-12,1.2784593749094e-11,-9.4750479292932e-12,-2.1809945436775e-13,1.7787266385502e-13,3.1257326986394e-14,-2.7499539591952e-11,2.0921324663281e-12,-4.8320663633156e-11,2.3658749367933e-13,6.9036546998872e-12,-1.8005150998707e-12,-1.0259395319424e-13,1.3838221202124e-13,1.0339940047508e-12,1.1500705198996e-13,-4.2512411833116e-11,-5.5920747944226e-13,-9.7455182832007e-14,2.1717010504705e-12,-1.7225360625747e-11,-2.1280217532231e-14,-2.4514228363251e-14,2.3883321540117e-13,-7.6574600576762e-11,-1.297422469591e-13,-1.0506698030362e-13,-1.5870988165286e-12,-2.3951285295362e-13,5.2286075098761e-13,1.5572565053039e-12,732.20212669302,732.20212669302,732.20212669302,732.20212669302,732.20212669302,732.20212669302,732.20212669302,732.20212669302,732.20212669302,732.20212669302,732.20212669302,732.20212669302,732.20212669302,732.20212669302,732.20212669302,732.20212669302,732.20212669302,732.20212669302,732.20212669302,732.20212669302,732.20212669302,732.20212669302,732.20212669302,732.20212669302,732.20212669302,732.20212669302,732.20212669302,732.20212669302,732.20212669302,732.20212669302,732.20212669302,732.20212669302,732.20212669302,732.20212669302,732.20212669302,732.20212669302,732.20212669302,732.20212669302,732.20212669302,732.20212669302,732.20212669302,732.20212669302,732.20212669302,732.20212669302,732.20212669302,732.20212669302,732.20212669302,732.20212669302,1.9865270703641e-06,520.15172801504,113.09091412432,546.15149118554,102.69704116008,0
1.18e-05,20000000,8.1121769593174e-07,3.5023040148715e-06,7.2078704225399e-07,1.0000000000008,607.67959772498,607.67959772498,607.67959772498,607.67959772498,607.67959772498,607.67959772498,607.67959772498,607.67959772498,607.67959772498,607.67959772498,607.67959772498,607.67959772498,607.67959772498,607.67959772498,607.67959772498,607.67959772498,607.67959772498,607.67959772498,607.67959772498,607.67959772498,607.67959772498,607.67959772498,607.67959772498,607.67959772498,607.67959772498,607.67959772498,607.67959772498,607.67959772498,607.67959772498,607.67959772498,607.67959772498,607.67959772498,607.67959772498,607.67959772498,607.67959772498,607.67959772498,607.67959772498,607.67959772498,607.67959772498,607.67959772498,607.67959772498,607.67959772498,607.67959772498,607.67959772498,607.67959772498,607.67959772498,607.67959772498,607.67959772498,-4.2120743052791e-12,-2.123320066753e-14,-2.8558482553502e-12,-1.1934008245626e-12,9.2509576337865e-13,1.6185910580256e-11,-6.8552454010071e-12,3.808167427443e-14,2.7033388611315e-13,7.9721100053154e-14,8.6135555523791e-13,-7.5695446313137e-11,-1.7851831915442e-15,-5.0738755056971e-14,1.2187507690539e-12,-6.193053878285e-11,-1.3401592396339e-13,1.3750109709838e-12,1.5155633152555e-11,-1.1235269925524e-11,-2.5858022020941e-13,2.1090328986248e-13,3.7060678243715e-14,-3.2605800884697e-11,2.4805728237033e-12,-5.7292093502881e-11,2.8052118140456e-13,8.1839050059885e-12,-2.1349913479171e-12,-1.2163955471817e-13,1.6407996726349e-13,1.2259977727644e-12,1.3636244779163e-13,-5.0405436444066e-11,-6.6302502514147e-13,-1.1554334815787e-13,2.5749336260445e-12,-2.0423735284831e-11,-2.5234230930894e-14,-2.9064599841291e-14,2.8317991122598e-13,-9.0793068287373e-11,-1.5383571963093e-13,-1.245766035431e-13,-1.8817657078419e-12,-2.8391184389931e-13,6.1994322866148e-13,1.8460231415836e-12,732.20212669302,732.20212669302,732.20212669301,732.20212669301,732.20212669302,732.20212669302,732.20212669302,732.20212669302,732.20212669302,732.20212669302,732.20212669301,732.20212669302,732.20212669302,732.20212669302,732.20212669302,732.20212669302,732.20212669302,732.20212669302,732.20212669302,732.20212669301,732.20212669302,732.20212669302,732.20212669302,732.20212669302,732.20212669301,732.20212669301,732.20212669302,732.20212669302,732.20212669302,732.20212669302,732.20212669302,732.20212669302,732.20212669301,732.20212669302,732.20212669302,732.20212669302,732.20212669302,732.20212669302,732.20212669302,732.20212669302,732.20212669302,732.20212669301,732.20212669302,732.20212669302,732.20212669302,732.20212669302,732.20212669302,732.20212669302,2.3587313699116e-06,524.6103792019,114.05630847561,550.83645500029,103.57376513643,0
1.19e-05,20000000,8.1809199796294e-07,3.5319844790258e-06,7.2689601470125e-07,1.000000000001,607.67959772498,607.67959772498,607.67959772498,607.67959772498,607.67959772498,607.67959772498,607.67959772498,607.67959772498,607.67959772498,607.67959772498,607.67959772498,607.67959772498,607.67959772498,607.67959772498,607.67959772498,607.67959772498,607.67959772498,607.67959772498,607.67959772498,607.67959772498,607.67959772498,607.67959772498,607.67959772498,607.67959772498,607.67959772498,607.67959772498,607.67959772498,607.67959772498,607.67959772498,607.67959772498,607.67959772498,607.67959772498,607.67959772498,607.67959772498,607.67959772498,607.67959772498,607.67959772498,607.67959772498,607.67959772498,607.67959772498,607.67959772498,607.67959772498,607.67959772498,607.67959772498,607.67959772498,607.67959772498,607.67959772498,607.67959772498,-4.9869330574355e-12,-2.5139023734684e-14,-3.3811700334215e-12,-1.4124068366388e-12,1.0952921552621e-12,1.9160128451006e-11,-8.1171043059661e-12,4.5088862578613e-14,3.2007640513932e-13,9.4387433986244e-14,1.0198238483408e-12,-8.9620574625446e-11,-2.1136336353011e-15,-6.0068617700349e-14,1.442973404826e-12,-7.332439051521e-11,-1.5867685849157e-13,1.6279784951995e-12,1.7940618405101e-11,-1.3303373226831e-11,-3.0613444302134e-13,2.497086980211e-13,4.3878428072809e-14,-3.8604727544189e-11,2.9369121424345e-12,-6.7831694231115e-11,3.32135811604e-13,9.6876462318865e-12,-2.5279684010707e-12,-1.4401378000425e-13,1.942705737444e-13,1.4515684244631e-12,1.6145119974749e-13,-5.9678127149362e-11,-7.8498804172022e-13,-1.3679213469828e-13,3.0486544851958e-12,-2.4181219150485e-11,-2.9879976242435e-14,-3.4410155846677e-14,3.3527898131998e-13,-1.0749711679585e-10,-1.8214159273962e-13,-1.4749690014871e-13,-2.2279390361404e-12,-3.3605809890238e-13,7.3399646714302e-13,2.185195497491e-12,732.20212669302,732.20212669302,732.20212669301,732.20212669301,732.20212669302,732.20212669302,732.20212669301,732.20212669302,732.20212669302,732.20212669302,732.20212669301,732.20212669301,732.20212669301,732.20212669302,732.20212669302,732.20212669301,732.20212669302,732.20212669302,732.20212669302,732.20212669301,732.20212669301,732.20212669302,732.20212669302,732.20212669301,732.20212669301,732.20212669301,732.20212669302,732.20212669302,732.20212669301,732.20212669302,732.20212669302,732.20212669302,732.20212669301,732.20212669301,732.20212669302,732.20212669302,732.20212669302,732.20212669301,732.20212669302,732.20212669302,732.20212669302,732.20212669301,732.20212669302,732.20212669302,732.20212669302,732.20212669302,732.20212669302,732.20212669302,2.7965844581592e-06,529.06924946302,115.02168261302,555.5217073787,104.45047171065,0
1.2e-05,20000000,8.2496629282142e-07,3.561664941865e-06,7.3300499751262e-07,1.0000000000012,607.67959772498,607.67959772498,607.67959772498,607.67959772498,607.67959772498,607.67959772498,607.67959772498,607.67959772498,607.67959772498,607.67959772498,607.67959772498,607.67959772498,607.67959772498,607.67959772498,607.67959772498,607.67959772498,607.67959772498,607.67959772498,607.67959772498,607.67959772498,607.67959772498,607.67959772498,607.67959772498,607.67959772498,607.67959772498,607.67959772498,607.67959772498,607.67959772498,607.67959772498,607.67959772498,607.67959772498,607.67959772498,607.67959772498,607.67959772498,607.67959772498,607.67959772498,607.67959772498,607.67959772498,607.67959772498,607.67959772498,607.67959772498,607.67959772498,607.67959772498,607.67959772498,607.67959772498,607.67959772498,607.67959772498,607.67959772498,-5.8960025724421e-12,-2.9721311165888e-14,-3.9974727045671e-12,-1.6692440201424e-12,1.2949704952936e-12,2.2648858016231e-11,-9.5976709859538e-12,5.3310055414909e-14,3.7843687239478e-13,1.1159421687098e-13,1.2057422524491e-12,-1.0595764713069e-10,-2.4989826812969e-15,-7.1013690155483e-14,1.7060366739257e-12,-8.6691930912299e-11,-1.8761060886737e-13,1.9247652775482e-12,2.1207396018253e-11,-1.5729924944043e-11,-3.6192259800644e-13,2.9523687367612e-13,5.1877061720405e-14,-4.564284663788e-11,3.4722944016106e-12,-8.0196838626505e-11,3.9269227750219e-13,1.1451505241221e-11,-2.9890540881131e-12,-1.7026284638276e-13,2.2969159076904e-13,1.716216035622e-12,1.9088613141265e-13,-7.0556918117862e-11,-9.2807435660419e-13,-1.6172006894394e-13,3.6044332487485e-12,-2.8589583216982e-11,-3.5331089337515e-14,-4.068136747924e-14,3.9640290409418e-13,-1.2709473215881e-10,-2.1535139201273e-13,-1.7438772514254e-13,-2.6340721559082e-12,-3.9722066354992e-13,8.6780596224388e-13,2.5830336422894e-12,732.20212669301,732.20212669301,732.20212669301,732.20212669301,732.20212669302,732.20212669302,732.20212669301,732.20212669301,732.20212669302,732.20212669302,732.20212669301,732.20212669301,732.20212669301,732.20212669302,732.20212669302,732.20212669301,732.20212669301,732.20212669302,732.20212669302,732.20212669301,732.20212669301,732.20212669302,732.20212669302,732.20212669301,732.20212669301,732.20212669301,732.20212669302,732.20212669302,732.20212669301,732.20212669302,732.20212669302,732.20212669301,732.20212669301,732.20212669301,732.20212669301,732.20212669302,732.20212669302,732.20212669301,732.20212669301,732.20212669302,732.20212669301,732.20212669301,732.20212669301,732.20212669301,732.20212669302,732.20212669302,732.20212669302,732.20212669302,3.3109572064162e-06,533.52833880399,115.98703653765,560.20724833045,105.32716088336,0
1.21e-05,20000000,8.3184058050615e-07,3.5913454033893e-06,7.3911399069187e-07,1.0000000000014,607.67959772498,607.67959772498,607.67959772498,607.67959772498,607.67959772498,607.67959772498,607.67959772498,607.67959772498,607.67959772498,607.67959772498,607.67959772498,607.67959772498,607.67959772498,607.67959772498,607.67959772498,607.67959772498,607.67959772498,607.67959772498,607.67959772498,607.67959772498,607.67959772498,607.67959772498,607.67959772498,607.67959772498,607.67959772498,607.67959772498,607.67959772498,607.67959772498,607.67959772498,607.67959772498,607.67959772498,607.67959772498,607.67959772498,607.67959772498,607.67959772498,607.67959772498,607.67959772498,607.67959772498,607.67959772498,607.67959772498,607.67959772498,607.67959772498,607.67959772498,607.67959772498,607.67959772498,607.67959772498,607.67959772498,607.67959772498,-6.9611113770814e-12,-3.5090076475889e-14,-4.719552219384e-12,-1.9700469144287e-12,1.5289263378822e-12,2.6735665347483e-11,-1.1332543131343e-11,6.2942759246867e-14,4.468173412653e-13,1.3175466209831e-13,1.423575775343e-12,-1.2509895447351e-10,-2.9504861110029e-15,-8.3836534229818e-14,2.0142584381325e-12,-1.0235420340177e-10,-2.2151236992206e-13,2.2724988876758e-12,2.5034220753631e-11,-1.8573267622782e-11,-4.2728338000049e-13,3.4858148683026e-13,6.1248643073617e-14,-5.3889201109596e-11,4.099575775315e-12,-9.4684442238919e-11,4.636452429556e-13,1.351772714225e-11,-3.5293335011841e-12,-2.0101687718896e-13,2.7119392698523e-13,2.0262974179933e-12,2.2537423668294e-13,-8.33030327314e-11,-1.0957192657293e-12,-1.909253087712e-13,4.2556172438504e-12,-3.3754699600222e-11,-4.1718683426825e-14,-4.8028745074956e-14,4.6801968481668e-13,-1.5005659114434e-10,-2.5426291904421e-13,-2.0589496428617e-13,-3.1099171887536e-12,-4.6886313830118e-13,1.0245852082881e-12,3.0490645504549e-12,732.20212669301,732.20212669301,732.20212669301,732.20212669301,732.20212669302,732.20212669302,732.20212669301,732.20212669301,732.20212669302,732.20212669301,732.20212669301,732.20212669301,732.20212669301,732.20212669302,732.20212669301,732.20212669301,732.20212669301,732.20212669302,732.20212669302,732.20212669301,732.20212669301,732.20212669302,732.20212669302,732.20212669301,732.20212669301,732.20212669301,732.20212669302,732.20212669302,732.20212669301,732.20212669301,732.20212669302,732.20212669301,732.20212669301,732.20212669301,732.20212669301,732.20212669302,732.20212669301,732.20212669301,732.20212669301,732.20212669301,732.20212669301,732.20212669301,732.20212669301,732.20212669301,732.20212669301,732.20212669301,732.20212669302,732.20212669302,3.9144054492305e-06,537.98764723055,116.95237025016,564.89307786523,106.20383265539,0
1.22e-05,20000000,8.3871486101605e-07,3.6210258635987e-06,7.4522299424275e-07,1.0000000000017,607.67959772498,607.67959772498,607.67959772498,607.67959772498,607.67959772498,607.67959772498,607.67959772498,607.67959772498,607.67959772498,607.67959772498,607.67959772497,607.67959772498,607.67959772498,607.67959772498,607.67959772498,607.67959772498,607.67959772498,607.67959772498,607.67959772498,607.67959772498,607.67959772498,607.67959772498,607.67959772498,607.67959772498,607.67959772497,607.67959772498,607.67959772498,607.67959772498,607.67959772498,607.67959772498,607.67959772498,607.67959772498,607.67959772497,607.67959772498,607.67959772498,607.67959772498,607.67959772498,607.67959772498,607.67959772498,607.67959772498,607.67959772498,607.67959772498,607.67959772498,607.67959772498,607.67959772498,607.67959772498,607.67959772498,607.67959772498,-8.2074117638863e-12,-4.1372083068082e-14,-5.5644572074198e-12,-2.3218810054716e-12,1.8026855280465e-12,3.1516821176341e-11,-1.3362743258651e-11,7.4214563842824e-14,5.2683341955985e-13,1.5534490620637e-13,1.6784693702722e-12,-1.4749652080146e-10,-3.4788093266997e-15,-9.8839667141707e-14,2.3749186772999e-12,-1.206811417949e-10,-2.611832340444e-13,2.679392299287e-12,2.9511245040361e-11,-2.1900634808465e-11,-5.0375923767397e-13,4.1100278074942e-13,7.2214481135618e-14,-6.353857781365e-11,4.8335700680464e-12,-1.1163663150245e-10,5.4667092555112e-13,1.593497915441e-11,-4.1615809301556e-12,-2.3700192665429e-13,3.197580930886e-13,2.3891375194392e-12,2.657301809862e-13,-9.821747032741e-11,-1.2918811008847e-12,-2.2509705234566e-13,5.0175863486371e-12,-3.9798563054409e-11,-4.9193857256876e-14,-5.6625709653466e-14,5.5182088663695e-13,-1.7692504870728e-10,-2.9979548992764e-13,-2.4276286828238e-13,-3.6667111906612e-12,-5.526714986474e-13,1.2080370540201e-12,3.594263353166e-12,732.20212669301,732.20212669301,732.20212669301,732.20212669301,732.20212669302,732.20212669302,732.20212669301,732.20212669301,732.20212669302,732.20212669301,732.20212669301,732.20212669301,732.20212669301,732.20212669301,732.20212669301,732.20212669301,732.20212669301,732.20212669302,732.20212669302,732.20212669301,732.20212669301,732.20212669302,732.20212669302,732.20212669301,732.20212669301,732.20212669301,732.20212669302,732.20212669302,732.20212669301,732.20212669301,732.20212669301,732.20212669301,732.20212669301,732.20212669301,732.20212669301,732.20212669301,732.20212669301,732.20212669301,732.20212669301,732.20212669301,732.20212669301,732.20212669301,732.20212669301,732.20212669301,732.20212669301,732.20212669301,732.20212669302,732.20212669302,4.6214136188281e-06,542.44717474792,117.9176837515,569.57919599296,107.08048702748,0
1.23e-05,20000000,8.455891343501e-07,3.6507063224931e-06,7.5133200816908e-07,1.000000000002,607.67959772498,607.67959772498,607.67959772497,607.67959772497,607.67959772498,607.67959772498,607.67959772497,607.67959772498,607.67959772498,607.67959772498,607.67959772497,607.67959772497,607.67959772497,607.67959772498,607.67959772498,607.67959772497,607.67959772498,607.67959772498,607.67959772498,607.67959772497,607.67959772498,607.67959772498,607.67959772498,607.67959772497,607.67959772497,607.67959772497,607.67959772498,607.67959772498,607.67959772498,607.67959772498,607.67959772498,607.67959772498,607.67959772497,607.67959772498,607.67959772498,607.67959772498,607.67959772498,607.67959772497,607.67959772498,607.67959772498,607.67959772498,607.67959772497,607.67959772498,607.67959772498,607.67959772498,607.67959772498,607.67959772498,607.67959772498,-9.6638520062165e-12,-4.8713223684047e-14,-6.5518089794316e-12,-2.7328744853887e-12,2.1226079691404e-12,3.7103102732293e-11,-1.5735490142827e-11,8.7387417809035e-14,6.2034462052215e-13,1.8291294921438e-13,1.9763445488594e-12,-1.7367059033105e-10,-4.09622766269e-15,-1.1637123422787e-13,2.7963961981801e-12,-1.4209851721978e-10,-3.0754524304653e-13,3.1548981135399e-12,3.4742206439772e-11,-2.5789415386489e-11,-5.9312530768985e-13,4.839512443374e-13,8.5029284964241e-14,-7.4815165687934e-11,5.69132684915e-12,-1.3144716701814e-10,6.4369858224374e-13,1.8759261349297e-11,-4.9005000592225e-12,-2.7905360644999e-13,3.7651262054469e-13,2.8131670016993e-12,3.1289160156495e-13,-1.1564665729887e-10,-1.5211155311795e-12,-2.6502846612403e-13,5.9080417921862e-12,-4.6861581839735e-11,-5.7930537906209e-14,-6.6671846760306e-14,6.4975339660601e-13,-2.0832432300855e-10,-3.5300720478951e-13,-2.8584803055534e-13,-4.3173871212022e-12,-6.5058561140519e-13,1.4224232335062e-12,4.2312586843406e-12,732.20212669301,732.20212669301,732.20212669301,732.20212669301,732.20212669302,732.20212669302,732.20212669301,732.20212669301,732.20212669301,732.20212669301,732.20212669301,732.20212669301,732.20212669301,732.20212669301,732.20212669301,732.20212669301,732.20212669301,732.20212669302,732.20212669302,732.20212669301,732.20212669301,732.20212669302,732.20212669301,732.20212669301,732.20212669301,732.20212669301,732.20212669301,732.20212669301,732.20212669301,732.20212669301,732.20212669301,732.20212669301,732.20212669301,732.20212669301,732.20212669301,732.20212669301,732.20212669301,732.20212669301,732.20212669301,732.20212669301,732.20212669301,732.20212669301,732.20212669301,732.20212669301,732.20212669301,732.20212669301,732.20212669302,732.20212669302,5.4486711170779e-06,546.90692136144,118.88297704255,574.26560272328,107.95712400035,0
1.24e-05,20000000,8.524634005072e-07,3.6803867800728e-06,7.5744103247456e-07,1.0000000000024,607.67959772498,607.67959772498,607.67959772497,607.67959772497,607.67959772498,607.67959772498,607.67959772497,607.67959772497,607.67959772498,607.67959772498,607.67959772497,607.67959772497,607.67959772497,607.67959772498,607.67959772498,607.67959772497,607.67959772498,607.67959772498,607.67959772498,607.67959772497,607.67959772497,607.67959772498,607.67959772498,607.67959772497,607.67959772497,607.67959772497,607.67959772498,607.67959772498,607.67959772497,607.67959772498,607.67959772498,607.67959772498,607.67959772497,607.67959772497,607.67959772498,607.67959772498,607.67959772498,607.67959772497,607.67959772498,607.67959772498,607.67959772497,607.67959772497,607.67959772498,607.67959772498,607.67959772498,607.67959772498,607.67959772498,607.67959772498,-1.1363710931475e-11,-5.7281214033037e-14,-7.7041637813026e-12,-3.2123673362506e-12,2.4960050956832e-12,4.3621833052662e-11,-1.8505072227578e-11,1.0276246895513e-13,7.2948872345784e-13,2.1508877567633e-13,2.3240087539038e-12,-2.0421923461632e-10,-4.8168531551761e-15,-1.3683143018511e-13,3.2883233991204e-12,-1.6709580257673e-10,-3.6165842870991e-13,3.7098831510411e-12,4.084633752012e-11,-3.0328585060088e-11,-6.9742216771726e-13,5.69094411595e-13,9.9985867293034e-14,-8.7976697108498e-11,6.6924463175952e-12,-1.545687150704e-10,7.5694615418558e-13,2.2054937411009e-11,-5.7629959137271e-12,-3.2813251130076e-13,4.4275491346597e-13,3.3080779908425e-12,3.6793642870192e-13,-1.3598884445316e-10,-1.7886596752646e-12,-3.1163131912134e-13,6.9473330965919e-12,-5.5105171153778e-11,-6.8128699495974e-14,-7.8396589825499e-14,7.6405538725723e-13,-2.4497202564749e-10,-4.1511449869459e-13,-3.3613521129207e-13,-5.0768126724799e-12,-7.6483490138534e-13,1.6726430800101e-12,4.9745650843142e-12,732.20212669301,732.20212669301,732.20212669301,732.20212669301,732.20212669302,732.20212669301,732.20212669301,732.20212669301,732.20212669301,732.20212669301,732.20212669301,732.20212669301,732.20212669301,732.20212669301,732.20212669301,732.20212669301,732.20212669301,732.20212669302,732.20212669302,732.20212669301,732.20212669301,732.20212669301,732.20212669301,732.20212669301,732.20212669301,732.20212669301,732.20212669301,732.20212669301,732.20212669301,732.20212669301,732.20212669301,732.20212669301,732.20212669301,732.20212669301,732.20212669301,732.20212669301,732.20212669301,732.20212669301,732.20212669301,732.20212669301,732.20212669301,732.20212669301,732.20212669301,732.20212669301,732.20212669301,732.20212669301,732.20212669302,732.20212669302,6.4153854956642e-06,551.3668870758,119.84825012413,578.9522980659,108.83374357484,0
1.25e-05,20000000,8.5933765948629e-07,3.7100672363377e-06,7.6355006716301e-07,1.0000000000028,607.67959772497,607.67959772497,607.67959772497,607.67959772497,607.67959772498,607.67959772498,607.67959772497,607.67959772497,607.67959772498,607.67959772498,607.67959772497,607.67959772497,607.67959772497,607.67959772498,607.67959772497,607.67959772497,607.67959772497,607.67959772498,607.67959772498,607.67959772497,607.67959772497,607.67959772498,607.67959772498,607.67959772497,607.67959772497,607.67959772497,607.67959772498,607.67959772498,607.67959772497,607.67959772497,607.67959772498,607.67959772497,607.67959772497,607.67959772497,607.67959772497,607.67959772498,607.67959772498,607.67959772497,607.67959772497,607.67959772498,607.67959772497,607.67959772497,607.67959772497,607.67959772497,607.67959772498,607.67959772498,607.67959772498,607.67959772498,-1.3345202473497e-11,-6.7268638993724e-14,-9.0474224625193e-12,-3.7710798448241e-12,2.9312727264182e-12,5.1219186721343e-11,-2.1733835492158e-11,1.2068553855007e-13,8.5672063422306e-13,2.5259580076144e-13,2.7292790517725e-12,-2.3982921748798e-10,-5.6568910049572e-15,-1.6067976024267e-13,3.8617612975501e-12,-1.9623506666219e-10,-4.2474008519123e-13,4.3568259019924e-12,4.7960525263059e-11,-3.562032541746e-11,-8.1899287473984e-13,6.6834717047576e-13,1.174204638897e-13,-1.0331913148709e-10,7.8594353862822e-12,-1.8152107104466e-10,8.8896057919559e-13,2.5895900049202e-11,-6.7684824419867e-12,-3.8534166347072e-13,5.1997483112503e-13,3.8850002218928e-12,4.3210247494346e-13,-1.5970134183414e-10,-2.1005272231393e-12,-3.6595253183169e-13,8.1588278229885e-12,-6.471468610772e-11,-8.0018003826569e-14,-9.2063385506292e-14,8.9729698656702e-13,-2.8769220153191e-10,-4.8751425285355e-13,-3.9475523343706e-13,-5.9620603624633e-12,-8.9797867407247e-13,1.9643225452325e-12,5.8408457596928e-12,732.20212669301,732.20212669301,732.20212669301,732.20212669301,732.20212669301,732.20212669301,732.20212669301,732.20212669301,732.20212669301,732.20212669301,732.202126693,732.20212669301,732.20212669301,732.20212669301,732.20212669301,732.20212669301,732.20212669301,732.20212669301,732.20212669301,732.20212669301,732.20212669301,732.20212669301,732.20212669301,732.20212669301,732.202126693,732.20212669301,732.20212669301,732.20212669301,732.20212669301,732.20212669301,732.20212669301,732.20212669301,732.20212669301,732.20212669301,732.20212669301,732.20212669301,732.20212669301,732.20212669301,732.20212669301,732.20212669301,732.20212669301,732.20212669301,732.20212669301,732.20212669301,732.20212669301,732.20212669301,732.20212669301,732.20212669301,7.5436369801967e-06,555.82707189574,120.81350299716,583.6392820306,109.71034575164,0
1.26e-05,20000000,8.6621191128627e-07,3.7397476912878e-06,7.6965911223822e-07,1.0000000000033,607.67959772497,607.67959772497,607.67959772497,607.67959772497,607.67959772498,607.67959772498,607.67959772497,607.67959772497,607.67959772498,607.67959772497,607.67959772497,607.67959772497,607.67959772497,607.67959772497,607.67959772497,607.67959772497,607.67959772497,607.67959772498,607.67959772498,607.67959772497,607.67959772497,607.67959772498,607.67959772498,607.67959772497,607.67959772497,607.67959772497,607.67959772498,607.67959772498,607.67959772497,607.67959772497,607.67959772497,607.67959772497,607.67959772497,607.67959772497,607.67959772497,607.67959772497,607.67959772497,607.67959772497,607.67959772497,607.67959772497,607.67959772497,607.67959772497,607.67959772497,607.67959772497,607.67959772497,607.67959772497,607.67959772498,607.67959772498,-1.5652158682275e-11,-7.8896394097705e-14,-1.061129330251e-11,-4.4213028909672e-12,3.4380411613824e-12,6.0062794240926e-11,-2.5493299657529e-11,1.4155330631103e-13,1.0048562910184e-12,2.9626380191939e-13,3.2011218794624e-12,-2.8128827003542e-10,-6.6349293315802e-15,-1.8844324293705e-13,4.5293972756863e-12,-2.3016102273854e-10,-4.9818654384997e-13,5.1100396043567e-12,5.6241750165868e-11,-4.17818533419e-11,-9.605248074875e-13,7.8390600648393e-13,1.3771874325205e-13,-1.2118194682651e-10,9.2181099798298e-12,-2.1290045007399e-10,1.0426633376255e-12,3.0366887339194e-11,-7.9392300541013e-12,-4.5194622066561e-13,6.0988133207809e-13,4.5567000493905e-12,5.0680956716121e-13,-1.8730869246933e-10,-2.4636159012095e-12,-4.2919287162574e-13,9.5693293082971e-12,-7.5902735393115e-11,-9.3861914139103e-14,-1.0797439938197e-13,1.0524262268586e-12,-3.3743006132997e-10,-5.7180877646098e-13,-4.6300520172777e-13,-6.9927126806897e-12,-1.0529516565807e-12,2.3039147726454e-12,6.8492093677495e-12,732.20212669301,732.20212669301,732.202126693,732.202126693,732.20212669301,732.20212669301,732.20212669301,732.20212669301,732.20212669301,732.20212669301,732.202126693,732.20212669301,732.202126693,732.20212669301,732.20212669301,732.202126693,732.20212669301,732.20212669301,732.20212669301,732.202126693,732.20212669301,732.20212669301,732.20212669301,732.202126693,732.202126693,732.202126693,732.20212669301,732.20212669301,732.20212669301,732.20212669301,732.20212669301,732.20212669301,732.202126693,732.20212669301,732.20212669301,732.20212669301,732.20212669301,732.20212669301,732.20212669301,732.20212669301,732.20212669301,732.202126693,732.20212669301,732.20212669301,732.20212669301,732.20212669301,732.20212669301,732.20212669301,8.8587793897151e-06,560.28747582562,121.77873566254,588.32655462712,110.58693053153,0
1.27e-05,20000000,8.7308615590612e-07,3.7694281449232e-06,7.7576816770393e-07,1.0000000000039,607.67959772497,607.67959772497,607.67959772496,607.67959772496,607.67959772498,607.67959772498,607.67959772497,607.67959772497,607.67959772497,607.67959772497,607.67959772496,607.67959772497,607.67959772497,607.67959772497,607.67959772497,607.67959772497,607.67959772497,607.67959772498,607.67959772498,607.67959772497,607.67959772497,607.67959772498,607.67959772497,607.67959772497,607.67959772496,607.67959772497,607.67959772498,607.67959772498,607.67959772497,607.67959772497,607.67959772497,607.67959772497,607.67959772496,607.67959772497,607.67959772497,607.67959772497,607.67959772497,607.67959772497,607.67959772497,607.67959772497,607.67959772497,607.67959772497,607.67959772497,607.67959772497,607.67959772497,607.67959772497,607.67959772498,607.67959772498,-1.8334800615565e-11,-9.2417569771711e-14,-1.2429814379489e-11,-5.1771126113843e-12,4.0273445946803e-12,7.0344680831065e-11,-2.9865418167768e-11,1.6582029152983e-13,1.1771222218059e-12,3.4704351459235e-13,3.7498107752266e-12,-3.2949894501131e-10,-7.7722662191979e-15,-2.2072566749978e-13,5.3057682739431e-12,-2.6961237024685e-10,-5.8359775126783e-13,5.9859240289346e-12,6.5869838564607e-11,-4.8947486063681e-11,-1.1250968897688e-12,9.1828765383691e-13,1.6132258956688e-13,-1.4195411227769e-10,1.0798049097567e-11,-2.4938997311329e-10,1.2214018604746e-12,3.5564968076658e-11,-9.3007579231728e-12,-5.2939571916407e-13,7.1443254780471e-13,5.3378050712978e-12,5.9368452699706e-13,-2.1941189782914e-10,-2.8858287631598e-12,-5.0272805230642e-13,1.1209548158269e-11,-8.8912921375645e-11,-1.0996233892263e-13,-1.2647582688069e-13,1.232820906904e-12,-3.9526860985578e-10,-6.6983400413619e-13,-5.4237132390647e-13,-8.1912064968787e-12,-1.2331153817629e-12,2.698813613001e-12,8.0215449024346e-12,732.20212669301,732.20212669301,732.202126693,732.202126693,732.20212669301,732.20212669301,732.202126693,732.20212669301,732.20212669301,732.20212669301,732.202126693,732.202126693,732.202126693,732.20212669301,732.20212669301,732.202126693,732.20212669301,732.20212669301,732.20212669301,732.202126693,732.202126693,732.20212669301,732.20212669301,732.202126693,732.202126693,732.202126693,732.20212669301,732.20212669301,732.202126693,732.20212669301,732.20212669301,732.20212669301,732.202126693,732.202126693,732.20212669301,732.20212669301,732.20212669301,732.202126693,732.20212669301,732.20212669301,732.20212669301,732.202126693,732.20212669301,732.20212669301,732.20212669301,732.20212669301,732.20212669301,732.20212669301,1.0389893070125e-05,564.7480988693,122.74394812111,593.01411586509,111.46349791532,0
1.28e-05,20000000,8.7996039334476e-07,3.799108597244e-06,7.8187723356396e-07,1.0000000000046,607.67959772497,607.67959772497,607.67959772496,607.67959772496,607.67959772498,607.67959772498,607.67959772496,607.67959772497,607.67959772497,607.67959772497,607.67959772496,607.67959772496,607.67959772496,607.67959772497,607.67959772497,607.67959772496,607.67959772497,607.67959772498,607.67959772498,607.67959772496,607.67959772497,607.67959772497,607.67959772497,607.67959772496,607.67959772496,607.67959772496,607.67959772497,607.67959772497,607.67959772497,607.67959772497,607.67959772497,607.67959772497,607.67959772496,607.67959772497,607.67959772497,607.67959772497,607.67959772497,607.67959772496,607.67959772497,607.67959772497,607.67959772497,607.67959772496,607.67959772497,607.67959772497,607.67959772497,607.67959772497,607.67959772498,607.67959772498,-2.1450607579183e-11,-1.0812183106313e-13,-1.4541942571921e-11,-6.0546123276718e-12,4.7118121439344e-12,8.2284579388673e-11,-3.4943999091154e-11,1.9400672521241e-13,1.3772114268054e-12,4.0602309018763e-13,4.3871042349199e-12,-3.854942387738e-10,-9.0932784966472e-15,-2.5821803134549e-13,6.2075124633754e-12,-3.1543458370143e-10,-6.8280498452548e-13,7.0032493909598e-12,7.7050565396246e-11,-5.7270969952825e-11,-1.3162328351158e-12,1.0743726793526e-12,1.8873775102927e-13,-1.66080822827e-10,1.2633106807146e-11,-2.9177149082175e-10,1.4290074982449e-12,4.160121622662e-11,-1.0882276386213e-11,-6.193491540644e-13,8.3586969451273e-13,6.2450574178594e-12,6.9458933902254e-13,-2.5669882025985e-10,-3.3762109529813e-12,-5.881325239655e-13,1.3114633900132e-11,-1.0402405741016e-10,-1.2866486899785e-13,-1.479638814876e-13,1.4423470716039e-12,-4.6244739623735e-10,-7.8369129212024e-13,-6.3455464410687e-13,-9.5832214088429e-12,-1.4423161090938e-12,3.1574816236747e-12,9.382899207822e-12,732.202126693,732.202126693,732.202126693,732.202126693,732.20212669301,732.20212669301,732.202126693,732.202126693,732.20212669301,732.20212669301,732.202126693,732.202126693,732.202126693,732.20212669301,732.20212669301,732.202126693,732.202126693,732.20212669301,732.20212669301,732.202126693,732.202126693,732.20212669301,732.20212669301,732.202126693,732.202126693,732.202126693,732.20212669301,732.20212669301,732.202126693,732.20212669301,732.20212669301,732.202126693,732.202126693,732.202126693,732.202126693,732.20212669301,732.20212669301,732.202126693,732.202126693,732.20212669301,732.202126693,732.202126693,732.202126693,732.202126693,732.20212669301,732.20212669301,732.20212669301,732.20212669301,1.2170296087536e-05,569.20894103011,123.70914037367,597.70196575418,112.34004790371,0
1.29e-05,20000000,8.8683462360112e-07,3.8287890482501e-06,7.8798630982206e-07,1.0000000000054,607.67959772497,607.67959772497,607.67959772496,607.67959772496,607.67959772497,607.67959772497,607.67959772496,607.67959772496,607.67959772497,607.67959772497,607.67959772496,607.67959772496,607.67959772496,607.67959772497,607.67959772497,607.67959772496,607.67959772497,607.67959772498,607.67959772498,607.67959772496,607.67959772496,607.67959772497,607.67959772497,607.67959772496,607.67959772496,607.67959772496,607.67959772497,607.67959772497,607.67959772496,607.67959772497,607.67959772497,607.67959772497,607.67959772496,607.67959772496,607.67959772497,607.67959772497,607.67959772497,607.67959772496,607.67959772497,607.67959772497,607.67959772496,607.67959772496,607.67959772497,607.67959772497,607.67959772497,607.67959772497,607.67959772498,607.67959772498,-2.5065296331341e-11,-1.2634035135858e-13,-1.699221706117e-11,-7.0722049416876e-12,5.5058830498094e-12,9.6133661699878e-11,-4.0836305970097e-11,2.2670741850369e-13,1.6093463334192e-12,4.7444663627415e-13,5.1264460714321e-12,-4.5045518952182e-10,-1.0625837182183e-14,-3.0171029691041e-13,7.2536527611747e-12,-3.685943197269e-10,-7.979020744742e-13,8.1834761829566e-12,9.0019148697313e-11,-6.6928104241016e-11,-1.5379611235069e-12,1.2554545818533e-12,2.2054245572349e-13,-1.9407108614861e-10,1.4761989011124e-11,-3.4093890325544e-10,1.6698608256492e-12,4.8602596746354e-11,-1.2717185368634e-11,-7.2370323160609e-13,9.7675527658716e-13,7.2975990919206e-12,8.1165288320653e-13,-2.9995590139678e-10,-3.9451037673852e-12,-6.8720627067325e-13,1.532477390068e-11,-1.2155491875274e-10,-1.5036467805641e-13,-1.7289154018664e-13,1.6854248909529e-12,-5.4038363652147e-10,-9.1578323843333e-13,-7.4150003244711e-13,-1.1198117218831e-11,-1.6849500518618e-12,3.689594262633e-12,1.0961902141037e-11,732.202126693,732.202126693,732.20212669299,732.20212669299,732.20212669301,732.20212669301,732.202126693,732.202126693,732.20212669301,732.202126693,732.20212669299,732.202126693,732.202126693,732.20212669301,732.202126693,732.202126693,732.202126693,732.20212669301,732.20212669301,732.202126693,732.202126693,732.20212669301,732.20212669301,732.202126693,732.20212669299,732.20212669299,732.20212669301,732.20212669301,732.202126693,732.202126693,732.20212669301,732.202126693,732.20212669299,732.202126693,732.202126693,732.202126693,732.202126693,732.202126693,732.202126693,732.202126693,732.202126693,732.20212669299,732.202126693,732.202126693,732.20212669301,732.20212669301,732.20212669301,732.20212669301,1.4238120617886e-05,573.6700023112,124.67431242116,602.39010430408,113.21658049746,0
1.3e-05,20000000,8.9370884667414e-07,3.8584694979417e-06,7.9409539648197e-07,1.0000000000063,607.67959772496,607.67959772496,607.67959772495,607.67959772495,607.67959772497,607.67959772497,607.67959772496,607.67959772496,607.67959772497,607.67959772497,607.67959772495,607.67959772496,607.67959772496,607.67959772497,607.67959772496,607.67959772496,607.67959772496,607.67959772497,607.67959772497,607.67959772496,607.67959772496,607.67959772497,607.67959772497,607.67959772496,607.67959772495,607.67959772495,607.67959772497,607.67959772497,607.67959772496,607.67959772496,607.67959772497,607.67959772496,607.67959772495,607.67959772496,607.67959772496,607.67959772497,607.67959772497,607.67959772496,607.67959772496,607.67959772497,607.67959772496,607.67959772495,607.67959772496,607.67959772496,607.67959772497,607.67959772497,607.67959772497,607.67959772497,-2.9253923129174e-11,-1.4745136497024e-13,-1.9831506058415e-11,-8.2508993484429e-12,6.4260488768414e-12,1.1217873677174e-10,-4.7664859719757e-11,2.6460174414183e-13,1.8783496522845e-12,5.5373508289291e-13,5.9831909128907e-12,-5.2573068327412e-10,-1.2401775059924e-14,-3.5210462221817e-13,8.4659159194295e-12,-4.3019563177053e-10,-9.3128054809262e-13,9.5511151365026e-12,1.050441816114e-10,-7.8119694254545e-11,-1.7948824980111e-12,1.4652950532958e-12,2.5739710838495e-13,-2.265062614456e-10,1.7228902572222e-11,-3.979131505499e-10,1.9489651416684e-12,5.6714087476341e-11,-1.4843635400891e-11,-8.4462416500857e-13,1.1400160845219e-12,8.5172931156023e-12,9.4730664921089e-13,-3.5008135067554e-10,-4.6043180431954e-12,-8.0200496803783e-13,1.788586742926e-11,-1.4186958956795e-10,-1.7551316447755e-13,-2.0177613477817e-13,1.9671028050774e-12,-6.3069598660624e-10,-1.0688539984772e-12,-8.6542881228321e-13,-1.3069426292477e-11,-1.9660367635475e-12,4.3062021739631e-12,1.2791244950294e-11,732.202126693,732.202126693,732.20212669299,732.20212669299,732.20212669301,732.20212669301,732.20212669299,732.202126693,732.20212669301,732.202126693,732.20212669299,732.20212669299,732.20212669299,732.202126693,732.202126693,732.20212669299,732.202126693,732.20212669301,732.20212669301,732.20212669299,732.20212669299,732.20212669301,732.20212669301,732.20212669299,732.20212669299,732.20212669299,732.20212669301,732.20212669301,732.202126693,732.202126693,732.202126693,732.202126693,732.20212669299,732.202126693,732.202126693,732.202126693,732.202126693,732.20212669299,732.202126693,732.202126693,732.202126693,732.20212669299,732.202126693,732.202126693,732.202126693,732.202126693,732.20212669301,732.20212669301,1.6636962230039e-05,578.13128271477,125.63946426444,607.07853152448,114.09309569735,0
1.31e-05,20000000,9.0058306256275e-07,3.8881499463187e-06,8.0020449354752e-07,1.0000000000074,607.67959772496,607.67959772496,607.67959772495,607.67959772495,607.67959772497,607.67959772497,607.67959772495,607.67959772496,607.67959772497,607.67959772496,607.67959772495,607.67959772495,607.67959772495,607.67959772496,607.67959772496,607.67959772495,607.67959772496,607.67959772497,607.67959772497,607.67959772495,607.67959772495,607.67959772497,607.67959772497,607.67959772495,607.67959772495,607.67959772495,607.67959772497,607.67959772497,607.67959772496,607.67959772496,607.67959772496,607.67959772496,607.67959772495,607.67959772496,607.67959772496,607.67959772496,607.67959772496,607.67959772495,607.67959772496,607.67959772496,607.67959772496,607.67959772495,607.67959772496,607.67959772496,607.67959772496,607.67959772496,607.67959772497,607.67959772497,-3.4102122886251e-11,-1.7188641045856e-13,-2.3117846421633e-11,-9.6146547967179e-12,7.4911258522892e-12,1.3074697041091e-10,-5.5569464957994e-11,3.0846486027414e-13,2.1897240526172e-12,6.4550964517136e-13,6.9748577603242e-12,-6.1285972403828e-10,-1.4457412444418e-14,-4.1043023618721e-13,9.8690913195558e-12,-5.0149820249091e-10,-1.0856691454142e-12,1.1134131974539e-11,1.2243205260503e-10,-9.1074872481684e-11,-2.0922458543364e-12,1.7081861175992e-12,3.0005519358433e-13,-2.6404966087948e-10,2.0084285203046e-11,-4.6385906869022e-10,2.2720291171795e-12,6.6101064450354e-11,-1.7305158506367e-11,-9.8458342527812e-13,1.3289915444576e-12,9.9290846434518e-12,1.1043248951899e-12,-4.0809997470419e-10,-5.3673291141114e-12,-9.3487389061912e-13,2.0850283594626e-11,-1.6538347528007e-10,-2.0462542067362e-13,-2.3520788727629e-13,2.2931408955932e-12,-7.3523127339801e-10,-1.2460346184604e-12,-1.0088754477653e-12,-1.5235407174737e-11,-2.2913016279156e-12,5.0199136665708e-12,1.490821803281e-11,732.202126693,732.202126693,732.20212669298,732.20212669298,732.20212669301,732.20212669301,732.20212669299,732.20212669299,732.202126693,732.202126693,732.20212669298,732.20212669299,732.20212669299,732.202126693,732.202126693,732.20212669299,732.20212669299,732.20212669301,732.20212669301,732.20212669299,732.20212669299,732.20212669301,732.202126693,732.20212669299,732.20212669298,732.20212669299,732.202126693,732.202126693,732.20212669299,732.202126693,732.202126693,732.20212669299,732.20212669298,732.20212669299,732.202126693,732.202126693,732.202126693,732.20212669299,732.202126693,732.202126693,732.20212669299,732.20212669299,732.20212669299,732.202126693,732.202126693,732.202126693,732.20212669301,732.20212669301,1.9416610595442e-05,582.59278224283,126.60459590442,611.76724742488,114.9695935041,0
1.32e-05,20000000,9.0745727126588e-07,3.9178303933813e-06,8.0631360102246e-07,1.0000000000087,607.67959772496,607.67959772496,607.67959772494,607.67959772494,607.67959772497,607.67959772497,607.67959772495,607.67959772495,607.67959772496,607.67959772496,607.67959772494,607.67959772495,607.67959772495,607.67959772496,607.67959772496,607.67959772495,607.67959772495,607.67959772497,607.67959772497,607.67959772494,607.67959772495,607.67959772497,607.67959772496,607.67959772495,607.67959772494,607.67959772494,607.67959772497,607.67959772497,607.67959772495,607.67959772496,607.67959772496,607.67959772495,607.67959772494,607.67959772495,607.67959772496,607.67959772496,607.67959772496,607.67959772495,607.67959772496,607.67959772496,607.67959772495,607.67959772494,607.67959772495,607.67959772496,607.67959772496,607.67959772496,607.67959772497,607.67959772497,-3.9707501234763e-11,-2.0013734425151e-13,-2.691738686029e-11,-1.1190767545682e-11,8.7225608155406e-12,1.5221118595478e-10,-6.4709486651938e-11,3.5918031983495e-13,2.5497416732579e-12,7.5161818138646e-13,8.1214148372264e-12,-7.1359645202103e-10,-1.6834147838771e-14,-4.7786014797383e-13,1.1491434047181e-11,-5.8393782630695e-10,-1.2641782152469e-12,1.2964402114845e-11,1.4253191000391e-10,-1.060548298997e-10,-2.4360334893916e-12,1.9890199397518e-12,3.4937552431584e-13,-3.0745733603099e-10,2.3385625423342e-11,-5.4010432521035e-10,2.6455596444136e-12,7.6951980895327e-11,-2.0151377018567e-11,-1.1463979024545e-12,1.5474880360536e-12,1.1561406647803e-11,1.2858697631534e-12,-4.7517983650615e-10,-6.2494958211702e-12,-1.0884860008866e-12,2.427771281893e-11,-1.9257005693003e-10,-2.3828862542559e-13,-2.7385949808544e-13,2.6701045463445e-12,-8.5609452505573e-10,-1.4508939649262e-12,-1.1747287595442e-12,-1.7739666519353e-11,-2.6672684980827e-12,5.8450997125849e-12,1.7355314895266e-11,732.20212669299,732.20212669299,732.20212669298,732.20212669298,732.20212669301,732.202126693,732.20212669298,732.20212669299,732.202126693,732.202126693,732.20212669297,732.20212669298,732.20212669298,732.202126693,732.20212669299,732.20212669298,732.20212669299,732.20212669301,732.20212669301,732.20212669298,732.20212669299,732.202126693,732.202126693,732.20212669298,732.20212669297,732.20212669298,732.202126693,732.202126693,732.20212669299,732.20212669299,732.202126693,732.20212669299,732.20212669298,732.20212669299,732.20212669299,732.202126693,732.202126693,732.20212669298,732.20212669299,732.202126693,732.20212669299,732.20212669298,732.20212669299,732.20212669299,732.202126693,732.202126693,732.20212669301,732.20212669301,2.2633871079919e-05,587.05450089611,127.56970734194,616.45625201505,115.84607391855,0
1.33e-05,20000000,9.1433147278239e-07,3.9475108391294e-06,8.1242271891063e-07,1.0000000000102,607.67959772495,607.67959772495,607.67959772494,607.67959772494,607.67959772497,607.67959772497,607.67959772494,607.67959772495,607.67959772496,607.67959772496,607.67959772493,607.67959772494,607.67959772494,607.67959772496,607.67959772495,607.67959772494,607.67959772495,607.67959772497,607.67959772497,607.67959772494,607.67959772494,607.67959772496,607.67959772496,607.67959772494,607.67959772493,607.67959772494,607.67959772496,607.67959772496,607.67959772495,607.67959772495,607.67959772496,607.67959772495,607.67959772493,607.67959772494,607.67959772495,607.67959772496,607.67959772496,607.67959772494,607.67959772495,607.67959772496,607.67959772495,607.67959772494,607.67959772495,607.67959772495,607.67959772496,607.67959772496,607.67959772497,607.67959772497,-4.6181196964377e-11,-2.3276421256558e-13,-3.1305446562517e-11,-1.3010304625649e-11,1.0144774618903e-11,1.7699581239619e-10,-7.5266405719247e-11,4.1775422385317e-13,2.9655445938762e-12,8.741647773183e-13,9.4455993074272e-12,-8.299382238967e-10,-1.9579120902768e-14,-5.5572989971578e-13,1.3365117308067e-11,-6.7914939925168e-10,-1.4703495475129e-12,1.5078221032809e-11,1.6574123289635e-10,-1.2335700449824e-10,-2.8330567776237e-12,2.3133671820112e-12,4.0633598971137e-13,-3.5759018482422e-10,2.7198382877424e-11,-6.2816067249249e-10,3.0769660542291e-12,8.948137339276e-11,-2.3438799242708e-11,-1.3332749811406e-12,1.7998398609866e-12,1.3446635270564e-11,1.495541917465e-12,-5.5265095373142e-10,-7.2683063249744e-12,-1.265884697188e-12,2.8236122538438e-11,-2.2396847233171e-10,-2.7717146486933e-13,-3.1849690719438e-13,3.1054695694396e-12,-9.9568267734366e-10,-1.6874958901168e-12,-1.3662781861883e-12,-2.0631857137816e-11,-3.1013636402582e-12,6.7981240389009e-12,2.0180909860585e-11,732.20212669299,732.20212669299,732.20212669297,732.20212669297,732.202126693,732.202126693,732.20212669298,732.20212669298,732.202126693,732.20212669299,732.20212669297,732.20212669298,732.20212669298,732.20212669299,732.20212669299,732.20212669297,732.20212669299,732.20212669301,732.202126693,732.20212669297,732.20212669298,732.202126693,732.202126693,732.20212669298,732.20212669297,732.20212669297,732.202126693,732.202126693,732.20212669298,732.20212669299,732.20212669299,732.20212669298,732.20212669297,732.20212669298,732.20212669299,732.20212669299,732.20212669299,732.20212669298,732.20212669299,732.20212669299,732.20212669298,732.20212669297,732.20212669298,732.20212669299,732.20212669299,732.20212669299,732.202126693,732.202126693,2.6353487680968e-05,591.51643867508,128.53479857784,621.14554530425,116.72253694137,0
1.34e-05,20000000,9.2120566711136e-07,3.9771912835631e-06,8.1853184721573e-07,1.000000000012,607.67959772495,607.67959772495,607.67959772493,607.67959772493,607.67959772496,607.67959772496,607.67959772493,607.67959772494,607.67959772496,607.67959772495,607.67959772492,607.67959772493,607.67959772493,607.67959772495,607.67959772495,607.67959772493,607.67959772494,607.67959772497,607.67959772497,607.67959772493,607.67959772494,607.67959772496,607.67959772496,607.67959772493,607.67959772492,607.67959772493,607.67959772496,607.67959772496,607.67959772494,607.67959772495,607.67959772495,607.67959772494,607.67959772492,607.67959772494,607.67959772495,607.67959772495,607.67959772495,607.67959772494,607.67959772495,607.67959772495,607.67959772494,607.67959772493,607.67959772494,607.67959772495,607.67959772495,607.67959772495,607.67959772497,607.67959772497,-5.3649634146667e-11,-2.7040407888528e-13,-3.6367702324006e-11,-1.510859001072e-11,1.1785547225492e-11,2.05583553103e-10,-8.7446685241309e-11,4.8533109378543e-13,3.4452575090633e-12,1.0155429226224e-12,1.097327581363e-11,-9.6415710216252e-10,-2.2745955929763e-14,-6.4555859404432e-13,1.5526739778328e-11,-7.8899270036148e-10,-1.7082122587367e-12,1.7516876593056e-11,1.9251207697056e-10,-1.4331977888515e-10,-3.2910634562078e-12,2.6875648762332e-12,4.7204897179326e-13,-4.1542752861373e-10,3.1597020386499e-11,-7.2974778132589e-10,3.5746769902702e-12,1.0393323218981e-10,-2.7231711816189e-11,-1.5488630871122e-12,2.09097761612e-12,1.5621600472643e-11,1.7374373325901e-12,-6.420262669145e-10,-8.4436537568776e-12,-1.4705317483957e-12,3.2802828945388e-11,-2.6019201775277e-10,-3.2203469889006e-13,-3.6999136126419e-13,3.6077400963223e-12,-1.1567223728259e-09,-1.9604633402153e-12,-1.5872656632866e-12,-2.3968460794883e-11,-3.6020322591398e-12,7.8976011563284e-12,2.3440017857539e-11,732.20212669298,732.20212669298,732.20212669296,732.20212669296,732.202126693,732.202126693,732.20212669297,732.20212669298,732.20212669299,732.20212669299,732.20212669296,732.20212669297,732.20212669297,732.20212669299,732.20212669298,732.20212669297,732.20212669298,732.202126693,732.202126693,732.20212669297,732.20212669297,732.202126693,732.20212669299,732.20212669297,732.20212669296,732.20212669297,732.202126693,732.202126693,732.20212669297,732.20212669298,732.20212669299,732.20212669298,732.20212669296,732.20212669297,732.20212669298,732.20212669299,732.20212669299,732.20212669297,732.20212669298,732.20212669299,732.20212669298,732.20212669296,732.20212669298,732.20212669298,732.20212669299,732.20212669299,732.202126693,732.202126693,3.0649178888458e-05,595.97859557868,129.49986961298,625.83512730242,117.59898257336,0
1.35e-05,20000000,9.280798542516e-07,4.0068717266825e-06,8.2464098594157e-07,1.000000000014,607.67959772494,607.67959772494,607.67959772492,607.67959772492,607.67959772496,607.67959772496,607.67959772493,607.67959772494,607.67959772495,607.67959772494,607.67959772491,607.67959772493,607.67959772492,607.67959772495,607.67959772494,607.67959772492,607.67959772494,607.67959772497,607.67959772496,607.67959772492,607.67959772493,607.67959772496,607.67959772495,607.67959772492,607.67959772491,607.67959772492,607.67959772496,607.67959772496,607.67959772493,607.67959772494,607.67959772495,607.67959772494,607.67959772491,607.67959772493,607.67959772494,607.67959772495,607.67959772495,607.67959772493,607.67959772494,607.67959772495,607.67959772494,607.67959772492,607.67959772494,607.67959772494,607.67959772495,607.67959772495,607.67959772496,607.67959772496,-6.2256485272958e-11,-3.1378091442919e-13,-4.2201518623051e-11,-1.7525749068694e-11,1.3676449192905e-11,2.3852285594967e-10,-1.0148498225427e-10,5.6321165623364e-13,3.9981139780414e-12,1.1784726830958e-12,1.273383820191e-11,-1.118835136898e-09,-2.6395594886197e-14,-7.4907245189534e-13,1.8017894066273e-11,-9.1558127850288e-10,-1.9823454116997e-12,2.032729031807e-11,2.2335807098687e-10,-1.6632774428105e-10,-3.8188578233522e-12,3.1188148827245e-12,5.4777861891903e-13,-4.8208232476128e-10,3.6666160298642e-11,-8.4681994484761e-10,4.1482713634841e-12,1.2058477649617e-10,-3.1603179653055e-11,-1.79730831997e-12,2.4265048042679e-12,1.8128158199814e-11,2.0162109216593e-12,-7.4502513302179e-10,-9.7981450634079e-12,-1.7063609980204e-12,3.8065697819279e-11,-3.0193767362876e-10,-3.7374300193363e-13,-4.2933293337143e-13,4.1865806693148e-12,-1.3423123131432e-09,-2.2750501874604e-12,-1.8419437521163e-12,-2.7813665278742e-11,-4.1788690146706e-12,9.1646854678255e-12,2.7195145496335e-11,732.20212669298,732.20212669298,732.20212669295,732.20212669295,732.202126693,732.202126693,732.20212669296,732.20212669297,732.20212669299,732.20212669298,732.20212669295,732.20212669296,732.20212669296,732.20212669298,732.20212669298,732.20212669296,732.20212669297,732.202126693,732.202126693,732.20212669296,732.20212669296,732.20212669299,732.20212669299,732.20212669296,732.20212669295,732.20212669296,732.20212669299,732.20212669299,732.20212669297,732.20212669298,732.20212669298,732.20212669297,732.20212669295,732.20212669297,732.20212669298,732.20212669298,732.20212669298,732.20212669296,732.20212669298,732.20212669298,732.20212669297,732.20212669296,732.20212669297,732.20212669298,732.20212669298,732.20212669298,732.202126693,732.202126693,3.5604799259195e-05,600.44097160494,130.46492044836,630.52499801865,118.4754108153,0
1.36e-05,20000000,9.3495403420218e-07,4.0365521684875e-06,8.3075013509199e-07,1.0000000000163,607.67959772493,607.67959772493,607.67959772491,607.67959772491,607.67959772496,607.67959772496,607.67959772492,607.67959772493,607.67959772495,607.67959772494,607.6795977249,607.67959772492,607.67959772491,607.67959772494,607.67959772493,607.67959772491,607.67959772493,607.67959772496,607.67959772496,607.67959772491,607.67959772492,607.67959772495,607.67959772495,607.67959772491,607.6795977249,607.67959772491,607.67959772495,607.67959772495,607.67959772492,607.67959772493,607.67959772494,607.67959772493,607.6795977249,607.67959772492,607.67959772493,607.67959772494,607.67959772494,607.67959772492,607.67959772493,607.67959772494,607.67959772493,607.67959772491,607.67959772493,607.67959772493,607.67959772494,607.67959772494,607.67959772496,607.67959772496,-7.2164868941357e-11,-3.6371667014707e-13,-4.8917436584131e-11,-2.0307317747959e-11,1.585332471772e-11,2.7643627403036e-10,-1.1764774371663e-10,6.5287275345685e-13,4.6345977649625e-12,1.3660423146118e-12,1.4760659250236e-11,-1.2969038629258e-09,-3.0597230006036e-14,-8.6823118256162e-13,2.0885803103782e-11,-1.0613147911268e-09,-2.297948120824e-12,2.3562735284473e-11,2.5886224741046e-10,-1.928175941673e-10,-4.426435289227e-12,3.615294116927e-12,6.3496018301179e-13,-5.5881819719227e-10,4.2501879002087e-11,-9.8159597302305e-10,4.8086249582466e-12,1.3975067982207e-10,-3.663616548725e-11,-2.0833178505244e-12,2.81278360177e-12,2.1013830929521e-11,2.3371477691294e-12,-8.6359962595297e-10,-1.1357446746072e-11,-1.9778384808326e-12,4.4124488848997e-11,-3.4999676856571e-10,-4.3327822060687e-13,-4.9764565734945e-13,4.8529641179067e-12,-1.5559706723878e-09,-2.6372216480069e-12,-2.1351407150458e-12,-3.224034626182e-11,-4.8427640853077e-12,1.0623394922906e-11,3.1517243584818e-11,732.20212669297,732.20212669297,732.20212669294,732.20212669294,732.20212669299,732.20212669299,732.20212669295,732.20212669296,732.20212669298,732.20212669297,732.20212669294,732.20212669295,732.20212669295,732.20212669298,732.20212669297,732.20212669295,732.20212669297,732.202126693,732.202126693,732.20212669295,732.20212669296,732.20212669299,732.20212669298,732.20212669295,732.20212669294,732.20212669295,732.20212669299,732.20212669299,732.20212669296,732.20212669297,732.20212669298,732.20212669296,732.20212669294,732.20212669296,732.20212669297,732.20212669298,732.20212669298,732.20212669295,732.20212669297,732.20212669298,732.20212669296,732.20212669295,732.20212669296,732.20212669297,732.20212669298,732.20212669298,732.202126693,732.202126693,4.1315640837339e-05,604.90356675111,131.42995108467,635.21515746264,119.35182166785,0
1.37e-05,20000000,9.4182820696184e-07,4.0662326089783e-06,8.3685929467074e-07,1.000000000019,607.67959772492,607.67959772492,607.67959772489,607.67959772489,607.67959772495,607.67959772495,607.67959772491,607.67959772492,607.67959772494,607.67959772493,607.67959772489,607.6795977249,607.6795977249,607.67959772494,607.67959772493,607.6795977249,607.67959772492,607.67959772496,607.67959772496,607.6795977249,607.67959772491,607.67959772495,607.67959772494,607.6795977249,607.67959772489,607.6795977249,607.67959772495,607.67959772495,607.67959772491,607.67959772493,607.67959772494,607.67959772492,607.67959772489,607.67959772491,607.67959772493,607.67959772493,607.67959772493,607.67959772491,607.67959772492,607.67959772493,607.67959772492,607.6795977249,607.67959772492,607.67959772493,607.67959772493,607.67959772493,607.67959772496,607.67959772496,-8.3559808046418e-11,-4.2114366097198e-13,-5.6640839408625e-11,-2.3504923629324e-11,1.8356831947312e-11,3.2002981527462e-10,-1.3623722921855e-10,7.5598961504089e-13,5.3666009405429e-12,1.5817548102717e-12,1.7091593713749e-11,-1.5016884788319e-09,-3.5429346962125e-14,-1.0052574769059e-12,2.4184031985597e-11,-1.2289151769462e-09,-2.660917972229e-12,2.7283639127621e-11,2.9968579930172e-10,-2.2328471734846e-10,-5.125132866621e-12,4.1862778466656e-12,7.3522164895962e-13,-6.4706848613034e-10,4.9213154890971e-11,-1.1365926307193e-09,5.5680744226765e-12,1.6178779503737e-10,-4.2424782265004e-11,-2.4122308312374e-12,3.2570307966375e-12,2.4332524167295e-11,2.7062428092132e-12,-9.9996395459775e-10,-1.3150671578373e-11,-2.2900296611511e-12,5.1092359326272e-11,-4.0526690759306e-10,-5.0175420512806e-13,-5.7620445530773e-13,5.6193369669044e-12,-1.8016881316612e-09,-3.0537442361231e-12,-2.4723333066856e-12,-3.7331165547783e-11,-5.6060664926079e-12,1.2300973041611e-11,3.648677228099e-11,732.20212669296,732.20212669296,732.20212669293,732.20212669293,732.20212669299,732.20212669299,732.20212669294,732.20212669295,732.20212669298,732.20212669297,732.20212669292,732.20212669294,732.20212669294,732.20212669297,732.20212669296,732.20212669294,732.20212669296,732.20212669299,732.20212669299,732.20212669294,732.20212669295,732.20212669298,732.20212669298,732.20212669294,732.20212669292,732.20212669293,732.20212669298,732.20212669298,732.20212669295,732.20212669296,732.20212669297,732.20212669295,732.20212669293,732.20212669295,732.20212669296,732.20212669297,732.20212669297,732.20212669294,732.20212669296,732.20212669297,732.20212669295,732.20212669293,732.20212669296,732.20212669296,732.20212669297,732.20212669297,732.20212669299,732.20212669299,4.7889890011523e-05,609.36638101227,132.39496152287,639.90560564365,120.22821513194,0
1.38e-05,20000000,9.4870237252966e-07,4.0959130481549e-06,8.429684646816e-07,1.0000000000221,607.67959772491,607.67959772491,607.67959772488,607.67959772488,607.67959772495,607.67959772495,607.67959772489,607.67959772491,607.67959772494,607.67959772492,607.67959772487,607.67959772489,607.67959772489,607.67959772493,607.67959772492,607.67959772489,607.67959772491,607.67959772495,607.67959772495,607.67959772489,607.6795977249,607.67959772494,607.67959772494,607.67959772489,607.67959772487,607.67959772488,607.67959772494,607.67959772494,607.6795977249,607.67959772492,607.67959772493,607.67959772491,607.67959772487,607.6795977249,607.67959772492,607.67959772493,607.67959772492,607.67959772489,607.67959772491,607.67959772493,607.67959772491,607.67959772488,607.67959772491,607.67959772492,607.67959772493,607.67959772493,607.67959772495,607.67959772495,-9.6650977077583e-11,-4.8711840639823e-13,-6.5513813644766e-11,-2.717704668969e-11,2.123304684815e-11,3.7010338925451e-10,-1.5759600735299e-10,8.7446075008846e-13,6.2076005863032e-12,1.8295799224916e-12,1.9769540541838e-11,-1.7369572219622e-09,-4.0980890756543e-14,-1.1626699663092e-12,2.7973283542059e-11,-1.421467083648e-09,-3.0779386719186e-12,3.1558481500874e-11,3.4657786490129e-10,-2.5829056733061e-10,-5.9277973503385e-12,4.8422774956747e-12,8.5040790785121e-13,-7.4845753880189e-10,5.692348663299e-11,-1.3146620084899e-09,6.4406005527559e-12,1.8710043386597e-10,-4.9075692991979e-11,-2.7900976444744e-12,3.7674250144293e-12,2.814532723542e-11,3.1302898776764e-12,-1.1566273407905e-09,-1.5210810798973e-11,-2.6486745741676e-12,5.9097544711877e-11,-4.6876530352751e-10,-5.8043338771944e-13,-6.6645405513241e-13,6.4998043017302e-12,-2.0839871522397e-09,-3.5322863022172e-12,-2.8597281282123e-12,-4.3179798484183e-11,-6.4827665752058e-12,1.4228293521513e-11,4.2194891212855e-11,732.20212669295,732.20212669295,732.20212669292,732.20212669292,732.20212669298,732.20212669298,732.20212669293,732.20212669294,732.20212669297,732.20212669296,732.20212669291,732.20212669293,732.20212669293,732.20212669296,732.20212669295,732.20212669292,732.20212669295,732.20212669299,732.20212669299,732.20212669292,732.20212669293,732.20212669298,732.20212669297,732.20212669293,732.20212669291,732.20212669292,732.20212669298,732.20212669298,732.20212669294,732.20212669295,732.20212669296,732.20212669294,732.20212669291,732.20212669294,732.20212669295,732.20212669296,732.20212669296,732.20212669293,732.20212669295,732.20212669296,732.20212669294,732.20212669292,732.20212669294,732.20212669295,732.20212669296,732.20212669296,732.20212669299,732.20212669299,5.5450256999312e-05,613.82941438246,133.35995176385,644.59634257106,121.1045912082,0
1.39e-05,20000000,9.5557653090453e-07,4.1255934860172e-06,8.4907764512838e-07,1.0000000000258,607.6795977249,607.6795977249,607.67959772486,607.67959772486,607.67959772494,607.67959772494,607.67959772488,607.6795977249,607.67959772493,607.67959772491,607.67959772485,607.67959772488,607.67959772487,607.67959772492,607.67959772491,607.67959772487,607.6795977249,607.67959772495,607.67959772495,607.67959772487,607.67959772488,607.67959772494,607.67959772493,607.67959772487,607.67959772485,607.67959772487,607.67959772493,607.67959772493,607.67959772489,607.67959772491,607.67959772492,607.6795977249,607.67959772486,607.67959772489,607.67959772491,607.67959772492,607.67959772491,607.67959772488,607.6795977249,607.67959772492,607.6795977249,607.67959772487,607.6795977249,607.67959772491,607.67959772492,607.67959772492,607.67959772495,607.67959772495,-1.1167577001797e-10,-5.6283708601458e-13,-7.569722762885e-11,-3.1389868410261e-11,2.4534137556051e-11,4.2756247043372e-10,-1.8211197741757e-10,1.0104357456091e-12,7.172856129125e-12,2.1140122565609e-12,2.2843070714711e-11,-2.0069765053977e-09,-4.7352567706646e-14,-1.3433200245412e-12,3.2322286769512e-11,-1.6424630142292e-09,-3.5565779281242e-12,3.6464796281621e-11,4.00386451613e-10,-2.984708927003e-10,-6.8489731110717e-12,5.595194534459e-12,9.8260775119497e-13,-8.6482448528718e-10,6.5772700293747e-11,-1.5190332544715e-09,7.4420329730426e-12,2.1614626106928e-10,-5.6709674118195e-11,-3.2237683966161e-12,4.3532264622009e-12,3.2521407539536e-11,3.6169811584999e-12,-1.3364307340452e-09,-1.7575216734364e-11,-3.0602717306713e-12,6.828523534684e-11,-5.4164366431506e-10,-6.7074529857182e-13,-7.7003011462885e-13,7.5103362111593e-12,-2.4079881670646e-09,-4.0815303083331e-12,-3.3043524779584e-12,-4.9892304612429e-11,-7.4886996915668e-12,1.6440312067716e-11,4.8744788143945e-11,732.20212669294,732.20212669294,732.2021266929,732.2021266929,732.20212669298,732.20212669298,732.20212669291,732.20212669293,732.20212669296,732.20212669295,732.20212669289,732.20212669291,732.20212669291,732.20212669295,732.20212669294,732.20212669291,732.20212669293,732.20212669299,732.20212669298,732.20212669291,732.20212669292,732.20212669297,732.20212669296,732.20212669291,732.20212669289,732.2021266929,732.20212669297,732.20212669297,732.20212669292,732.20212669294,732.20212669295,732.20212669293,732.20212669289,732.20212669292,732.20212669294,732.20212669295,732.20212669295,732.20212669292,732.20212669294,732.20212669295,732.20212669293,732.2021266929,732.20212669293,732.20212669294,732.20212669295,732.20212669295,732.20212669298,732.20212669298,6.4135796913143e-05,618.29266685372,134.32492180846,649.28736825401,121.9809498974,0
1.4e-05,20000000,9.6245068208538e-07,4.1552739225655e-06,8.5518683601489e-07,1.0000000000299,607.67959772489,607.67959772489,607.67959772484,607.67959772484,607.67959772494,607.67959772494,607.67959772486,607.67959772488,607.67959772492,607.6795977249,607.67959772483,607.67959772486,607.67959772486,607.67959772491,607.67959772489,607.67959772485,607.67959772488,607.67959772494,607.67959772494,607.67959772485,607.67959772487,607.67959772493,607.67959772492,607.67959772486,607.67959772483,607.67959772485,607.67959772492,607.67959772493,607.67959772487,607.67959772489,607.67959772491,607.67959772488,607.67959772484,607.67959772487,607.67959772489,607.67959772491,607.6795977249,607.67959772486,607.67959772489,607.67959772491,607.67959772488,607.67959772485,607.67959772488,607.67959772489,607.67959772491,607.67959772491,607.67959772494,607.67959772494,-1.2890272350626e-10,-6.4965278454811e-13,-8.7373050570693e-11,-3.6218218732011e-11,2.8319116829133e-11,4.9343110903195e-10,-2.1022397331418e-10,1.1663462853884e-12,8.279629537517e-12,2.4401360921088e-12,2.6367127794385e-11,-2.3165724398822e-09,-5.4658298240107e-14,-1.5504328276357e-12,3.7308788158347e-11,-1.8958537021912e-09,-4.1053966749009e-12,4.2090289849391e-11,4.6207062225932e-10,-3.445449217063e-10,-7.9051116228356e-12,6.4584921983627e-12,1.1341839910879e-12,-9.9824976825891e-10,7.5918965734997e-11,-1.7533591389027e-09,8.5902785279829e-12,2.4944286959427e-10,-6.546336016288e-11,-3.7209916573281e-12,5.0249105444025e-12,3.7539008422289e-11,4.1750181494606e-12,-1.5425877778976e-09,-2.0286141302003e-11,-3.5321717319701e-12,7.8819670515819e-11,-6.2520480459866e-10,-7.7430722924284e-13,-8.8878279076779e-13,8.6689981404498e-12,-2.7794834386633e-09,-4.711298110583e-12,-3.8141557252669e-12,-5.7588657039994e-11,-8.6417734382754e-12,1.8976570551628e-11,5.6253161120806e-11,732.20212669293,732.20212669293,732.20212669288,732.20212669288,732.20212669297,732.20212669297,732.2021266929,732.20212669292,732.20212669295,732.20212669294,732.20212669287,732.20212669289,732.20212669289,732.20212669294,732.20212669293,732.20212669289,732.20212669292,732.20212669298,732.20212669298,732.20212669289,732.2021266929,732.20212669297,732.20212669295,732.20212669289,732.20212669287,732.20212669289,732.20212669296,732.20212669296,732.20212669291,732.20212669293,732.20212669294,732.20212669292,732.20212669287,732.20212669291,732.20212669293,732.20212669294,732.20212669294,732.2021266929,732.20212669293,732.20212669294,732.20212669292,732.20212669288,732.20212669292,732.20212669293,732.20212669294,732.20212669294,732.20212669298,732.20212669298,7.4103943261214e-05,622.75613841604,135.28987165755,653.97868270174,122.85729120034,0
1.41e-05,20000000,9.6932482607109e-07,4.1849543577996e-06,8.61296037345e-07,1.0000000000347,607.67959772488,607.67959772488,607.67959772482,607.67959772482,607.67959772493,607.67959772493,607.67959772484,607.67959772487,607.67959772491,607.67959772489,607.67959772481,607.67959772484,607.67959772484,607.6795977249,607.67959772488,607.67959772483,607.67959772487,607.67959772494,607.67959772493,607.67959772483,607.67959772485,607.67959772492,607.67959772491,607.67959772484,607.67959772481,607.67959772483,607.67959772491,607.67959772492,607.67959772485,607.67959772488,607.6795977249,607.67959772487,607.67959772481,607.67959772485,607.67959772488,607.67959772489,607.67959772489,607.67959772484,607.67959772488,607.67959772489,607.67959772487,607.67959772483,607.67959772487,607.67959772488,607.67959772489,607.67959772489,607.67959772493,607.67959772493,-1.4863533337203e-10,-7.4909471837464e-13,-1.0074693809501e-10,-4.1746631288234e-11,3.2654680984045e-11,5.6886643370086e-10,-2.4242801219362e-10,1.3449407350506e-12,9.5474308335397e-12,2.8136976543298e-12,3.0403808992445e-11,-2.6711994256522e-09,-6.3026836688515e-14,-1.7876531280797e-12,4.3020656960748e-11,-2.1861042767034e-09,-4.7340708544477e-12,4.8534087890448e-11,5.3271407868207e-10,-3.9732560355892e-10,-9.1148050539031e-12,7.4473869461763e-12,1.3078070416775e-12,-1.1510847221428e-09,8.7541044739135e-11,-2.0217679696899e-09,9.9055759285432e-12,2.8757510954193e-10,-7.5491189048249e-11,-4.2905245428217e-12,5.7943168396498e-12,4.3286561721095e-11,4.8142353827978e-12,-1.7787304839435e-09,-2.3391336388369e-11,-4.0726816359063e-12,9.0886473185458e-11,-7.2092116653594e-10,-8.9294727422655e-13,-1.0248030161937e-12,9.9962077208553e-12,-3.2050194061957e-09,-5.4326906445902e-12,-4.3981223368926e-12,-6.6404447563528e-11,-9.962220897468e-12,2.1881759113118e-11,6.4851870519637e-11,732.20212669291,732.20212669291,732.20212669286,732.20212669286,732.20212669297,732.20212669296,732.20212669288,732.2021266929,732.20212669294,732.20212669292,732.20212669284,732.20212669287,732.20212669287,732.20212669293,732.20212669292,732.20212669287,732.2021266929,732.20212669297,732.20212669297,732.20212669287,732.20212669288,732.20212669296,732.20212669294,732.20212669287,732.20212669284,732.20212669286,732.20212669295,732.20212669295,732.20212669289,732.20212669292,732.20212669293,732.2021266929,732.20212669285,732.20212669289,732.20212669291,732.20212669293,732.20212669293,732.20212669288,732.20212669291,732.20212669293,732.2021266929,732.20212669286,732.2021266929,732.20212669291,732.20212669293,732.20212669293,732.20212669297,732.20212669297,8.553277684718e-05,627.21982905708,136.25480131196,658.67028592334,123.73361511772,0
1.42e-05,20000000,9.7619896286065e-07,4.2146347917197e-06,8.6740524912234e-07,1.0000000000403,607.67959772486,607.67959772486,607.67959772479,607.67959772479,607.67959772492,607.67959772492,607.67959772482,607.67959772485,607.6795977249,607.67959772487,607.67959772478,607.67959772482,607.67959772481,607.67959772488,607.67959772486,607.67959772481,607.67959772485,607.67959772493,607.67959772493,607.67959772481,607.67959772483,607.67959772491,607.6795977249,607.67959772481,607.67959772478,607.6795977248,607.6795977249,607.67959772491,607.67959772483,607.67959772486,607.67959772488,607.67959772485,607.67959772479,607.67959772483,607.67959772486,607.67959772488,607.67959772488,607.67959772482,607.67959772486,607.67959772488,607.67959772485,607.6795977248,607.67959772485,607.67959772486,607.67959772488,607.67959772488,607.67959772493,607.67959772493,-1.7121630642758e-10,-8.6288965444869e-13,-1.1605111260244e-10,-4.8070518386427e-11,3.7616144525329e-11,6.5517480444922e-10,-2.7928425657584e-10,1.549322673203e-12,1.0998291616982e-11,3.2411856282309e-12,3.5023235328309e-11,-3.0770165669326e-09,-7.2603575860122e-14,-2.0590962447526e-12,4.9557116530563e-11,-2.5182568342346e-09,-5.453527096156e-12,5.5908124415622e-11,6.135402911037e-10,-4.5773101909374e-10,-1.0499046481481e-11,8.5790617618948e-12,1.5064923304611e-12,-1.3259845264271e-09,1.0084079553229e-10,-2.328921428769e-09,1.141077945088e-11,3.3120325100579e-10,-8.6967569536389e-11,-4.9422553504461e-12,6.6748150744558e-12,4.9863927246156e-11,5.5457382593194e-12,-2.0489601148192e-09,-2.6944722688055e-11,-4.6911812178215e-12,1.0469525104427e-10,-8.3045545315369e-10,-1.0287300043558e-12,-1.1804517710928e-12,1.151502089473e-11,-3.6919884255501e-09,-6.2582435481561e-12,-5.0663977968372e-12,-7.6492786253786e-11,-1.1472882675035e-11,2.520634237647e-11,7.4689779032005e-11,732.20212669289,732.20212669289,732.20212669283,732.20212669283,732.20212669296,732.20212669295,732.20212669285,732.20212669288,732.20212669293,732.20212669291,732.20212669281,732.20212669285,732.20212669285,732.20212669292,732.2021266929,732.20212669284,732.20212669289,732.20212669297,732.20212669296,732.20212669284,732.20212669286,732.20212669295,732.20212669293,732.20212669285,732.20212669281,732.20212669284,732.20212669294,732.20212669294,732.20212669287,732.2021266929,732.20212669292,732.20212669288,732.20212669282,732.20212669287,732.2021266929,732.20212669291,732.20212669291,732.20212669286,732.20212669289,732.20212669291,732.20212669288,732.20212669284,732.20212669288,732.2021266929,732.20212669292,732.20212669292,732.20212669296,732.20212669296,9.8623555307275e-05,631.68373876209,137.21971077265,663.36217792787,124.60992165037,0
1.43e-05,20000000,9.8307309245298e-07,4.2443152243257e-06,8.7351447135093e-07,1.0000000000466,607.67959772484,607.67959772484,607.67959772476,607.67959772476,607.67959772491,607.67959772491,607.67959772479,607.67959772482,607.67959772488,607.67959772485,607.67959772475,607.67959772479,607.67959772478,607.67959772487,607.67959772484,607.67959772478,607.67959772483,607.67959772492,607.67959772492,607.67959772478,607.6795977248,607.6795977249,607.67959772488,607.67959772478,607.67959772475,607.67959772477,607.67959772489,607.67959772489,607.67959772481,607.67959772484,607.67959772487,607.67959772483,607.67959772475,607.67959772481,607.67959772484,607.67959772486,607.67959772486,607.6795977248,607.67959772484,607.67959772486,607.67959772482,607.67959772477,607.67959772483,607.67959772484,607.67959772486,607.67959772486,607.67959772492,607.67959772492,-1.9703229350552e-10,-9.9298575323313e-13,-1.3354756959779e-10,-5.5297478310001e-11,4.3288480581187e-11,7.5382978973879e-10,-3.2142476544822e-10,1.7829937858204e-12,1.2657069563531e-11,3.7299207870213e-12,4.0304520294038e-11,-3.5409727356384e-09,-8.3552555926095e-14,-2.3694048192233e-12,5.7030115060301e-11,-2.8980000937956e-09,-6.276093761785e-12,6.4338688020794e-11,7.0592933617011e-10,-5.2679708454616e-10,-1.2081519541485e-11,9.872903608817e-12,1.7336419440945e-12,-1.5259448897722e-09,1.160459608013e-10,-2.6800789548567e-09,1.3131674758007e-11,3.8107206865183e-10,-1.0008929427115e-10,-5.6873400706801e-12,7.6814898909918e-12,5.7383772594723e-11,6.3820564878191e-12,-2.3579038264975e-09,-3.1007134237295e-11,-5.3982523825175e-12,1.204824919893e-10,-9.5568359752286e-10,-1.18398505064e-12,-1.3583926667662e-12,1.3251450432637e-11,-4.2487308953133e-09,-7.2021004059915e-12,-5.8304287826138e-12,-8.8026416052276e-11,-1.3199520760646e-11,2.900725655557e-11,8.5934799390694e-11,732.20212669287,732.20212669287,732.2021266928,732.2021266928,732.20212669295,732.20212669294,732.20212669283,732.20212669286,732.20212669292,732.20212669289,732.20212669278,732.20212669282,732.20212669282,732.2021266929,732.20212669288,732.20212669281,732.20212669286,732.20212669296,732.20212669295,732.20212669281,732.20212669284,732.20212669294,732.20212669292,732.20212669282,732.20212669278,732.20212669281,732.20212669293,732.20212669293,732.20212669285,732.20212669288,732.2021266929,732.20212669286,732.20212669279,732.20212669284,732.20212669288,732.2021266929,732.20212669289,732.20212669283,732.20212669287,732.2021266929,732.20212669286,732.20212669281,732.20212669286,732.20212669288,732.2021266929,732.2021266929,732.20212669295,732.20212669295,0.00011360353102606,636.14786751297,138.18460004038,668.05435872401,125.48621079893,0
1.44e-05,20000000,9.8994721484695e-07,4.2739956556179e-06,8.7962370403443e-07,1.000000000054,607.67959772482,607.67959772482,607.67959772473,607.67959772473,607.6795977249,607.6795977249,607.67959772476,607.6795977248,607.67959772487,607.67959772483,607.67959772471,607.67959772476,607.67959772475,607.67959772485,607.67959772482,607.67959772475,607.6795977248,607.67959772491,607.67959772491,607.67959772474,607.67959772477,607.67959772489,607.67959772487,607.67959772475,607.67959772471,607.67959772474,607.67959772488,607.67959772488,607.67959772478,607.67959772482,607.67959772485,607.6795977248,607.67959772472,607.67959772478,607.67959772482,607.67959772484,607.67959772484,607.67959772477,607.67959772481,607.67959772484,607.6795977248,607.67959772474,607.6795977248,607.67959772482,607.67959772485,607.67959772485,607.67959772491,607.67959772491,-2.2651915421762e-10,-1.141579089874e-12,-1.5353164416564e-10,-6.3548748742833e-11,4.9767478244372e-11,8.6649215858893e-10,-3.6956211719637e-10,2.0499015817285e-12,1.4551787146943e-11,4.2881556906259e-12,4.6336847358428e-11,-4.070901191489e-09,-9.6058699053009e-14,-2.7238119425317e-12,6.5565850337398e-11,-3.3317468788547e-09,-7.2156689693863e-12,7.3968141883808e-11,8.1143662244162e-10,-6.0569168423605e-10,-1.388892059845e-11,1.1350767570034e-11,1.9930909528263e-12,-1.7543428563083e-09,1.3341326893767e-10,-3.0811693592276e-09,1.5097330214803e-11,4.3802094445838e-10,-1.150782242141e-10,-6.5383542313323e-12,8.8313463806782e-12,6.5973108025529e-11,7.337314766912e-12,-2.7107776739834e-09,-3.5647146579649e-11,-6.2058231054336e-12,1.3851478494412e-10,-1.0987203127749e-09,-1.3613389042842e-12,-1.5616281880571e-12,1.5234820240315e-11,-4.8846488581004e-09,-8.280205465598e-12,-6.7031190934299e-12,-1.0120006492812e-10,-1.5171167535381e-11,3.3348684884274e-11,9.8776171562486e-11,732.20212669285,732.20212669285,732.20212669277,732.20212669277,732.20212669294,732.20212669293,732.2021266928,732.20212669283,732.2021266929,732.20212669287,732.20212669274,732.20212669279,732.20212669279,732.20212669288,732.20212669286,732.20212669278,732.20212669284,732.20212669295,732.20212669294,732.20212669278,732.20212669281,732.20212669292,732.2021266929,732.20212669279,732.20212669274,732.20212669278,732.20212669291,732.20212669292,732.20212669282,732.20212669286,732.20212669288,732.20212669284,732.20212669275,732.20212669281,732.20212669286,732.20212669288,732.20212669287,732.2021266928,732.20212669285,732.20212669288,732.20212669284,732.20212669277,732.20212669284,732.20212669286,732.20212669288,732.20212669288,732.20212669294,732.20212669294,0.00013072908788429,640.61221528877,139.14946911616,672.74682832078,126.36248256431,0
1.45e-05,20000000,9.9682133004155e-07,4.3036760855961e-06,8.8573294717677e-07,1.0000000000624,607.67959772479,607.67959772479,607.67959772469,607.67959772469,607.67959772489,607.67959772488,607.67959772473,607.67959772477,607.67959772485,607.67959772481,607.67959772466,607.67959772472,607.67959772472,607.67959772483,607.6795977248,607.67959772471,607.67959772478,607.6795977249,607.6795977249,607.67959772471,607.67959772474,607.67959772487,607.67959772485,607.67959772472,607.67959772466,607.6795977247,607.67959772486,607.67959772486,607.67959772475,607.6795977248,607.67959772483,607.67959772477,607.67959772468,607.67959772475,607.67959772479,607.67959772482,607.67959772482,607.67959772473,607.67959772479,607.67959772482,607.67959772477,607.6795977247,607.67959772477,607.67959772479,607.67959772482,607.67959772482,607.6795977249,607.6795977249,-2.6016780878467e-10,-1.3111431323538e-12,-1.7633597507746e-10,-7.2960821441959e-11,5.7161028991757e-11,9.9503209687956e-10,-4.2449899525633e-10,2.354492431394e-12,1.6714008150086e-11,4.9251855027801e-12,5.3220667642728e-11,-4.675624753319e-09,-1.1033029329394e-13,-3.1282113150037e-12,7.5306464557766e-11,-3.8267202408483e-09,-8.2879073647406e-12,8.495683558858e-11,9.3181369929361e-10,-6.9573038112151e-10,-1.5951316818285e-11,1.3037270454724e-11,2.2891589006292e-12,-2.0149821633578e-09,1.5323188111768e-10,-3.5388704274591e-09,1.7340487393361e-11,5.0299509430315e-10,-1.321842727667e-10,-7.5094616698716e-12,1.0143538546569e-11,7.5774992540439e-11,8.427422504793e-12,-3.1134566428069e-09,-4.0941997268255e-11,-7.1273274144985e-12,1.5909239988349e-10,-1.2619474916729e-09,-1.5637502683329e-12,-1.7935399753295e-12,1.7498159182356e-11,-5.6103322720972e-09,-9.5105178523162e-12,-7.6990029707419e-12,-1.1623306032813e-10,-1.7420513571794e-11,3.8302919527329e-11,1.1342699322284e-10,732.20212669283,732.20212669283,732.20212669273,732.20212669273,732.20212669292,732.20212669292,732.20212669276,732.20212669281,732.20212669288,732.20212669285,732.2021266927,732.20212669276,732.20212669275,732.20212669286,732.20212669283,732.20212669274,732.20212669281,732.20212669294,732.20212669293,732.20212669274,732.20212669278,732.20212669291,732.20212669288,732.20212669275,732.2021266927,732.20212669274,732.2021266929,732.2021266929,732.20212669279,732.20212669283,732.20212669286,732.20212669281,732.20212669271,732.20212669278,732.20212669283,732.20212669286,732.20212669285,732.20212669277,732.20212669282,732.20212669286,732.20212669281,732.20212669274,732.20212669281,732.20212669283,732.20212669286,732.20212669286,732.20212669293,732.20212669293,0.00015028923027151,645.07678206466,140.11431800069,677.43958672662,127.23873694719,0
1.46e-05,20000000,1.0036954380357e-06,4.3333565142604e-06,8.9184220078176e-07,1.000000000072,607.67959772476,607.67959772476,607.67959772464,607.67959772464,607.67959772487,607.67959772487,607.67959772469,607.67959772474,607.67959772483,607.67959772478,607.67959772461,607.67959772468,607.67959772468,607.6795977248,607.67959772477,607.67959772467,607.67959772474,607.67959772489,607.67959772488,607.67959772466,607.6795977247,607.67959772485,607.67959772483,607.67959772468,607.67959772461,607.67959772466,607.67959772484,607.67959772485,607.67959772471,607.67959772477,607.6795977248,607.67959772474,607.67959772463,607.67959772471,607.67959772476,607.6795977248,607.67959772479,607.67959772469,607.67959772476,607.67959772479,607.67959772474,607.67959772466,607.67959772474,607.67959772476,607.6795977248,607.6795977248,607.67959772488,607.67959772488,-2.9853073759939e-10,-1.5044614821483e-12,-2.0233490761366e-10,-8.3687234711855e-11,6.5590555521878e-11,1.1415538771284e-09,-4.8713883610455e-10,2.7017704792814e-12,1.9179255871752e-11,5.6514710757599e-12,6.1069030188633e-11,-5.3650726118529e-09,-1.2660175149787e-13,-3.5892351650488e-12,8.6411926772014e-11,-4.3910491174623e-09,-9.5104275788285e-12,9.7485228600291e-11,1.0690313640059e-09,-7.9839386849769e-10,-1.8302543851841e-11,1.4960116916458e-11,2.6267069948057e-12,-2.3121436210375e-09,1.7582721995864e-10,-4.0606973323322e-09,1.9897994819347e-11,5.7705803423183e-10,-1.5168872058389e-10,-8.6166019824264e-12,1.1639623064884e-11,8.6950428871586e-11,9.6702845448936e-12,-3.5725524322981e-09,-4.6978608245262e-11,-8.1778830689298e-12,1.8255326418719e-10,-1.448045750256e-09,-1.7945493285848e-12,-2.0579335631759e-12,2.0078638506676e-11,-6.4376992623978e-09,-1.0913249506196e-11,-8.8344376088429e-12,-1.3337223302244e-10,-1.998433822106e-11,4.3951318909231e-11,1.3012702961536e-10,732.20212669279,732.20212669279,732.20212669268,732.20212669268,732.20212669291,732.2021266929,732.20212669272,732.20212669277,732.20212669286,732.20212669282,732.20212669265,732.20212669272,732.20212669271,732.20212669284,732.2021266928,732.2021266927,732.20212669278,732.20212669293,732.20212669292,732.2021266927,732.20212669274,732.20212669289,732.20212669286,732.20212669271,732.20212669265,732.2021266927,732.20212669288,732.20212669288,732.20212669275,732.2021266928,732.20212669284,732.20212669277,732.20212669266,732.20212669274,732.2021266928,732.20212669283,732.20212669283,732.20212669273,732.20212669279,732.20212669283,732.20212669277,732.20212669269,732.20212669278,732.2021266928,732.20212669283,732.20212669283,732.20212669292,732.20212669292,0.00017260946100941,649.54156781109,141.07914669492,682.13263394993,128.11497394829,0
1.47e-05,20000000,1.0105695388282e-06,4.3630369416109e-06,8.9795146485331e-07,1.0000000000831,607.67959772472,607.67959772472,607.67959772459,607.67959772459,607.67959772486,607.67959772485,607.67959772464,607.6795977247,607.6795977248,607.67959772475,607.67959772456,607.67959772463,607.67959772463,607.67959772477,607.67959772474,607.67959772462,607.67959772471,607.67959772488,607.67959772487,607.67959772461,607.67959772466,607.67959772483,607.6795977248,607.67959772463,607.67959772456,607.67959772461,607.67959772482,607.67959772482,607.67959772467,607.67959772473,607.67959772477,607.6795977247,607.67959772457,607.67959772467,607.67959772473,607.67959772477,607.67959772476,607.67959772465,607.67959772472,607.67959772477,607.6795977247,607.6795977246,607.6795977247,607.67959772473,607.67959772477,607.67959772477,607.67959772487,607.67959772487,-3.4222919497733e-10,-1.7246642119838e-12,-2.3194938009414e-10,-9.590056182737e-11,7.5192597625045e-11,1.3084232327335e-09,-5.5849764872432e-10,3.0973630327907e-12,2.1987477308904e-11,6.4787755613781e-12,7.000905842215e-11,-6.150409978359e-09,-1.4513667346449e-13,-4.1143407221226e-12,9.9062122216659e-11,-5.033874503988e-09,-1.0903042494839e-11,1.1175624710951e-10,1.2253053021599e-09,-9.1534734171317e-10,-2.0980647189129e-11,1.7150461420079e-11,3.0112015797712e-12,-2.6506410290444e-09,2.0156521889501e-10,-4.6551007619231e-09,2.2811289398001e-11,6.6140541321352e-10,-1.7390789505001e-10,-9.8776985649487e-12,1.3343840942343e-11,9.9680466759574e-11,1.1086035052872e-11,-4.0954997859669e-09,-5.3854720547627e-11,-9.3744887491053e-12,2.092773759868e-10,-1.660029438145e-09,-2.0574813465664e-12,-2.3590880328462e-12,2.3018057343636e-11,-7.3801517865478e-09,-1.2511129275394e-11,-1.0127816824681e-11,-1.5289514003369e-10,-2.2903987359813e-11,5.0385370251383e-11,1.4914583136691e-10,732.20212669276,732.20212669276,732.20212669263,732.20212669263,732.20212669289,732.20212669289,732.20212669268,732.20212669273,732.20212669284,732.20212669279,732.20212669259,732.20212669267,732.20212669266,732.20212669281,732.20212669277,732.20212669265,732.20212669274,732.20212669291,732.2021266929,732.20212669265,732.20212669269,732.20212669287,732.20212669284,732.20212669266,732.20212669259,732.20212669265,732.20212669285,732.20212669286,732.20212669271,732.20212669277,732.20212669281,732.20212669274,732.20212669261,732.2021266927,732.20212669277,732.2021266928,732.2021266928,732.20212669268,732.20212669276,732.2021266928,732.20212669274,732.20212669264,732.20212669274,732.20212669277,732.20212669281,732.20212669281,732.2021266929,732.2021266929,0.00019805608835547,654.00657249461,142.04395519971,686.82596999916,128.99119356848,0
1.48e-05,20000000,1.0174436324181e-06,4.3927173676476e-06,9.0406073939512e-07,1.0000000000958,607.67959772468,607.67959772468,607.67959772453,607.67959772453,607.67959772484,607.67959772483,607.67959772459,607.67959772466,607.67959772478,607.67959772472,607.67959772449,607.67959772458,607.67959772457,607.67959772474,607.6795977247,607.67959772456,607.67959772467,607.67959772486,607.67959772485,607.67959772456,607.67959772461,607.67959772481,607.67959772478,607.67959772457,607.67959772449,607.67959772455,607.67959772479,607.6795977248,607.67959772463,607.6795977247,607.67959772474,607.67959772466,607.67959772451,607.67959772462,607.67959772469,607.67959772473,607.67959772473,607.6795977246,607.67959772468,607.67959772473,607.67959772466,607.67959772455,607.67959772466,607.67959772469,607.67959772474,607.67959772474,607.67959772485,607.67959772485,-3.9196120980927e-10,-1.975268167037e-12,-2.6565234336863e-10,-1.0979461522398e-10,8.6120571079012e-11,1.4982977113688e-09,-6.3971712500783e-10,3.5475930875141e-12,2.5183557998836e-11,7.4203159258527e-12,8.0183587704392e-11,-7.0441818760277e-09,-1.6623124223185e-13,-4.7119061141292e-12,1.1345916960345e-10,-5.7654672085927e-09,-1.2488014649187e-11,1.2799789801259e-10,1.4031245186657e-09,-1.048461985693e-09,-2.4028371628823e-11,1.9643309709563e-11,3.4487845349444e-12,-3.0358831946722e-09,2.3085703512219e-10,-5.3315757520061e-09,2.6126930376659e-11,7.5738035115682e-10,-1.9919725160055e-10,-1.1312889342965e-11,1.5283429911341e-11,1.1416853574171e-10,1.2697296924358e-11,-4.6906522391802e-09,-6.1680152776184e-11,-1.0736242743133e-11,2.396916990157e-10,-1.9012854686057e-09,-2.356755015489e-12,-2.7018110784767e-12,2.6363381176642e-11,-8.4527482843827e-09,-1.4329695831204e-11,-1.159980804257e-11,-1.7511363914524e-10,-2.6225903081287e-11,5.7707868032677e-11,1.7078619152777e-10,732.20212669272,732.20212669272,732.20212669257,732.20212669257,732.20212669287,732.20212669286,732.20212669262,732.20212669269,732.20212669281,732.20212669275,732.20212669253,732.20212669262,732.20212669261,732.20212669278,732.20212669273,732.2021266926,732.2021266927,732.2021266929,732.20212669288,732.20212669259,732.20212669264,732.20212669285,732.20212669281,732.20212669261,732.20212669253,732.20212669259,732.20212669283,732.20212669284,732.20212669266,732.20212669273,732.20212669278,732.20212669269,732.20212669255,732.20212669265,732.20212669273,732.20212669277,732.20212669276,732.20212669263,732.20212669272,732.20212669277,732.20212669269,732.20212669258,732.2021266927,732.20212669273,732.20212669277,732.20212669277,732.20212669288,732.20212669288,0.00022704100610117,658.47179607598,143.00874351597,691.51959488214,129.86739580831,0
1.49e-05,20000000,1.0243177188042e-06,4.4223977923706e-06,9.1017002441126e-07,1.0000000001103,607.67959772464,607.67959772464,607.67959772446,607.67959772446,607.67959772481,607.67959772481,607.67959772453,607.67959772461,607.67959772475,607.67959772468,607.67959772442,607.67959772452,607.67959772451,607.6795977247,607.67959772465,607.6795977245,607.67959772462,607.67959772484,607.67959772483,607.67959772449,607.67959772455,607.67959772478,607.67959772474,607.67959772451,607.67959772442,607.67959772449,607.67959772476,607.67959772477,607.67959772457,607.67959772465,607.6795977247,607.67959772461,607.67959772444,607.67959772456,607.67959772465,607.6795977247,607.67959772469,607.67959772454,607.67959772464,607.67959772469,607.67959772461,607.67959772448,607.67959772461,607.67959772465,607.6795977247,607.6795977247,607.67959772483,607.67959772483,-4.4851045268888e-10,-2.2602216301375e-12,-3.0397476714246e-10,-1.2558688814809e-10,9.8546717069187e-11,1.7141603079678e-09,-7.3207917181225e-10,4.0595597108475e-12,2.8817892646082e-11,8.4909308756303e-12,9.1752980259511e-11,-8.0604725042785e-09,-1.9021798829448e-13,-5.3913366409876e-12,1.2982998941946e-10,-6.5973583629608e-09,-1.4290339309427e-11,1.4646616603301e-10,1.6052828408663e-09,-1.1998387925166e-09,-2.7493703724203e-11,2.2477963772466e-11,3.9463512968517e-12,-3.4739426691e-09,2.6416427298069e-10,-6.1007823052588e-09,2.9897191158294e-11,8.6649043396521e-10,-2.2795589757525e-10,-1.2944782483225e-11,1.7488970672334e-11,1.3064303066373e-10,1.4529469294677e-11,-5.3673882364725e-09,-7.0578195839996e-11,-1.2284585301582e-11,2.7427558765253e-10,-2.1756163546511e-09,-2.6970960616744e-12,-3.0915000342118e-12,3.0167338641237e-11,-9.6723950297699e-09,-1.6397622320063e-11,-1.3273614951587e-11,-2.00377850535e-10,-3.0002210563436e-11,6.6034220096555e-11,1.9538797603887e-10,732.20212669268,732.20212669268,732.2021266925,732.2021266925,732.20212669285,732.20212669284,732.20212669256,732.20212669264,732.20212669278,732.20212669271,732.20212669245,732.20212669256,732.20212669255,732.20212669274,732.20212669269,732.20212669253,732.20212669265,732.20212669288,732.20212669286,732.20212669253,732.20212669259,732.20212669282,732.20212669278,732.20212669255,732.20212669245,732.20212669252,732.2021266928,732.20212669281,732.20212669261,732.20212669269,732.20212669274,732.20212669264,732.20212669247,732.2021266926,732.20212669268,732.20212669273,732.20212669272,732.20212669257,732.20212669267,732.20212669273,732.20212669264,732.20212669252,732.20212669265,732.20212669268,732.20212669274,732.20212669274,732.20212669286,732.20212669286,0.00026002699488542,662.93723851006,143.97351164451,696.21350860693,130.74358066872,0
1.5e-05,20000000,1.0311917979856e-06,4.4520782157799e-06,9.1627931990543e-07,1.0000000001269,607.67959772459,607.67959772459,607.67959772438,607.67959772438,607.67959772479,607.67959772478,607.67959772446,607.67959772455,607.67959772471,607.67959772463,607.67959772433,607.67959772445,607.67959772444,607.67959772466,607.6795977246,607.67959772442,607.67959772456,607.67959772482,607.6795977248,607.67959772442,607.67959772449,607.67959772475,607.67959772471,607.67959772444,607.67959772433,607.67959772441,607.67959772473,607.67959772474,607.67959772451,607.6795977246,607.67959772466,607.67959772455,607.67959772436,607.6795977245,607.6795977246,607.67959772465,607.67959772464,607.67959772447,607.67959772459,607.67959772465,607.67959772455,607.6795977244,607.67959772456,607.6795977246,607.67959772466,607.67959772466,607.6795977248,607.6795977248,-5.127560564808e-10,-2.5839537890253e-12,-3.4751229203188e-10,-1.4352125745428e-10,1.1266426126165e-10,1.9593567055688e-09,-8.3702200756875e-10,4.6412270732124e-12,3.2947017137062e-11,9.7072668417044e-12,1.0489713528816e-10,-9.215081739022e-09,-2.1746995869603e-13,-6.1631824649674e-12,1.4842914844005e-10,-7.5424839690328e-09,-1.6338058009263e-11,1.6744822240966e-10,1.8349138012361e-09,-1.3718349432612e-09,-3.1430472519221e-11,2.5698514669183e-11,4.5116372707886e-12,-3.9716318765644e-09,3.0200476902139e-10,-6.9746789802968e-09,3.4180714775823e-11,9.9042653147665e-10,-2.6063160307962e-10,-1.4798739594129e-11,1.9994770382852e-11,1.4936017529342e-10,1.6611045972282e-11,-6.136228659253e-09,-8.0687157652641e-11,-1.4043567034721e-11,3.1356679538838e-10,-2.487287873484e-09,-3.0838066189003e-12,-3.5342094602352e-12,3.4489082509092e-11,-1.1058058062094e-08,-1.874707594013e-11,-1.5175268413503e-11,-2.2908054439502e-10,-3.429136783125e-11,7.5493894219845e-11,2.2333236498887e-10,732.20212669262,732.20212669262,732.20212669242,732.20212669242,732.20212669282,732.20212669281,732.20212669249,732.20212669258,732.20212669274,732.20212669267,732.20212669237,732.20212669248,732.20212669248,732.2021266927,732.20212669264,732.20212669246,732.2021266926,732.20212669286,732.20212669284,732.20212669245,732.20212669252,732.20212669279,732.20212669274,732.20212669248,732.20212669237,732.20212669245,732.20212669277,732.20212669278,732.20212669254,732.20212669264,732.2021266927,732.20212669259,732.20212669239,732.20212669253,732.20212669263,732.20212669269,732.20212669268,732.20212669251,732.20212669262,732.20212669268,732.20212669259,732.20212669244,732.20212669259,732.20212669263,732.20212669269,732.20212669269,732.20212669284,732.20212669284,0.00029753359742963,667.40289974492,144.93825958615,700.90771118098,131.61974815047,0
1.51e-05,20000000,1.0380658699609e-06,4.4817586378756e-06,9.2238862588163e-07,1.0000000001458,607.67959772453,607.67959772453,607.6795977243,607.6795977243,607.67959772476,607.67959772475,607.67959772438,607.67959772448,607.67959772467,607.67959772458,607.67959772423,607.67959772437,607.67959772436,607.67959772461,607.67959772455,607.67959772434,607.6795977245,607.6795977248,607.67959772478,607.67959772433,607.67959772441,607.67959772472,607.67959772467,607.67959772436,607.67959772423,607.67959772433,607.67959772469,607.6795977247,607.67959772444,607.67959772455,607.67959772461,607.67959772449,607.67959772426,607.67959772443,607.67959772454,607.6795977246,607.67959772459,607.67959772439,607.67959772453,607.6795977246,607.67959772448,607.67959772432,607.67959772449,607.67959772454,607.67959772461,607.67959772461,607.67959772478,607.67959772478,-5.8568348536767e-10,-2.9514294842395e-12,-3.969325917001e-10,-1.6387097342961e-10,1.286898034303e-10,2.2376364827109e-09,-9.5615797962096e-10,5.3015229892401e-12,3.7634308064496e-11,1.1087983822604e-11,1.1981771372452e-10,-1.0525720476988e-08,-2.4840533136497e-13,-7.0392688546495e-12,1.6954200799172e-10,-8.6153448808733e-09,-1.8662605578638e-11,1.912659762126e-10,2.0955292357002e-09,-1.5670930100708e-09,-3.5899014380959e-11,2.9354388000093e-11,5.1533134681998e-12,-4.5365873733712e-09,3.4495899473931e-10,-7.9666707433601e-09,3.904323937501e-11,1.1310836194905e-09,-2.9772634746693e-10,-1.6903189154124e-11,2.2839287107366e-11,1.7060719176299e-10,1.897396787908e-11,-7.0089669013048e-09,-9.2162072723951e-11,-1.6040145946247e-11,3.5816812487985e-10,-2.8410818205957e-09,-3.5228309522637e-12,-4.0367259411601e-12,3.9394921255845e-11,-1.2630997748802e-08,-2.1414115925261e-11,-1.733394843839e-11,-2.6166199699754e-10,-3.9158884658953e-11,8.6232019145304e-11,2.5504654549314e-10,732.20212669256,732.20212669256,732.20212669233,732.20212669233,732.20212669279,732.20212669278,732.20212669242,732.20212669252,732.2021266927,732.20212669261,732.20212669227,732.2021266924,732.20212669239,732.20212669265,732.20212669258,732.20212669237,732.20212669253,732.20212669283,732.20212669281,732.20212669237,732.20212669245,732.20212669276,732.2021266927,732.20212669239,732.20212669227,732.20212669236,732.20212669273,732.20212669274,732.20212669247,732.20212669258,732.20212669265,732.20212669252,732.2021266923,732.20212669246,732.20212669257,732.20212669264,732.20212669263,732.20212669243,732.20212669256,732.20212669263,732.20212669252,732.20212669235,732.20212669253,732.20212669257,732.20212669264,732.20212669264,732.20212669281,732.20212669281,0.00034014362525277,671.86877972137,145.90298734185,705.60220261155,132.49589825417,0
1.52e-05,20000000,1.0449399347292e-06,4.5114390586576e-06,9.2849794234376e-07,1.0000000001674,607.67959772446,607.67959772446,607.67959772419,607.67959772419,607.67959772472,607.67959772471,607.67959772429,607.67959772441,607.67959772462,607.67959772452,607.67959772412,607.67959772428,607.67959772427,607.67959772456,607.67959772448,607.67959772424,607.67959772443,607.67959772477,607.67959772475,607.67959772424,607.67959772433,607.67959772468,607.67959772462,607.67959772427,607.67959772412,607.67959772423,607.67959772465,607.67959772466,607.67959772436,607.67959772448,607.67959772456,607.67959772441,607.67959772415,607.67959772434,607.67959772447,607.67959772455,607.67959772453,607.67959772431,607.67959772446,607.67959772454,607.67959772441,607.67959772422,607.67959772442,607.67959772447,607.67959772455,607.67959772455,607.67959772475,607.67959772475,-6.6839655612582e-10,-3.3682097601328e-12,-4.5298351533326e-10,-1.8694196485055e-10,1.4686596046009e-10,2.5531986788401e-09,-1.0912932728328e-09,6.0504479106164e-12,4.2950756446259e-11,1.2653983051665e-11,1.367405988848e-10,-1.2012226688858e-08,-2.834925187716e-13,-8.0328402232177e-12,1.9348820603174e-10,-9.8321837501448e-09,-2.1299193985862e-11,2.1828000220169e-10,2.3910619642915e-09,-1.7885732579781e-09,-4.0966908266802e-11,3.3500947222093e-11,5.8810922829189e-12,-5.1773630418117e-09,3.936771381097e-10,-9.0917724940546e-09,4.4558400637956e-11,1.290583803641e-09,-3.3980245451741e-10,-1.9289973158912e-11,2.6065599283587e-11,1.9470580612369e-10,2.1654012864596e-11,-7.9988127337334e-09,-1.051765929658e-10,-1.8304515934645e-11,4.0875478309326e-10,-3.2423543575212e-09,-4.0208281609298e-12,-4.6066508100284e-12,4.4959128199743e-11,-1.441502822007e-08,-2.4439133739185e-11,-1.9782340302819e-11,-2.9861536156877e-10,-4.4678117428175e-11,9.8411155368198e-11,2.9100890074972e-10,732.2021266925,732.2021266925,732.20212669223,732.20212669223,732.20212669276,732.20212669275,732.20212669233,732.20212669244,732.20212669266,732.20212669255,732.20212669216,732.20212669231,732.2021266923,732.20212669259,732.20212669252,732.20212669228,732.20212669246,732.2021266928,732.20212669278,732.20212669227,732.20212669236,732.20212669272,732.20212669266,732.2021266923,732.20212669216,732.20212669226,732.20212669268,732.2021266927,732.20212669239,732.20212669252,732.20212669259,732.20212669245,732.20212669219,732.20212669238,732.20212669251,732.20212669258,732.20212669257,732.20212669234,732.20212669249,732.20212669258,732.20212669245,732.20212669225,732.20212669245,732.20212669251,732.20212669259,732.20212669259,732.20212669278,732.20212669278,0.00038851035979258,676.33487837154,146.8676949124,710.29698290581,133.37203098069,0
1.53e-05,20000000,1.0518139922894e-06,4.5411194781262e-06,9.3460726929574e-07,1.0000000001921,607.67959772438,607.67959772438,607.67959772408,607.67959772408,607.67959772469,607.67959772467,607.67959772419,607.67959772432,607.67959772457,607.67959772445,607.67959772399,607.67959772417,607.67959772416,607.67959772449,607.67959772441,607.67959772413,607.67959772434,607.67959772474,607.67959772471,607.67959772413,607.67959772423,607.67959772464,607.67959772457,607.67959772416,607.67959772399,607.67959772412,607.6795977246,607.67959772462,607.67959772426,607.67959772441,607.67959772449,607.67959772433,607.67959772403,607.67959772425,607.6795977244,607.67959772448,607.67959772447,607.6795977242,607.67959772438,607.67959772448,607.67959772433,607.6795977241,607.67959772433,607.6795977244,607.67959772449,607.67959772449,607.67959772471,607.67959772471,-7.6213072487477e-10,-3.840518789242e-12,-5.1650208713095e-10,-2.1307649008388e-10,1.6746428763271e-10,2.9107421448342e-09,-1.244449695615e-09,6.8991953984772e-12,4.8975822935052e-11,1.4428658633598e-11,1.5591861619256e-10,-1.3696804216573e-08,-3.2325580901916e-13,-9.1587193157349e-12,2.2062550586119e-10,-1.1211180601969e-08,-2.4287236612485e-11,2.4889388223977e-10,2.7259129542647e-09,-2.0395893515577e-09,-4.6709788343393e-11,3.8200160502988e-11,6.7058444026031e-12,-5.9035330970115e-09,4.4888693063824e-10,-1.036678980566e-08,5.0808618711767e-11,1.4713017608835e-09,-3.8748937425531e-10,-2.1994730250773e-11,2.9721924632021e-11,2.2201612304926e-10,2.4691226567734e-11,-9.1205513146563e-09,-1.1992507751542e-10,-2.0870469853269e-11,4.6608251085084e-10,-3.6971005028493e-09,-4.5852525471365e-12,-5.2524915765226e-12,5.126483583705e-11,-1.6436804119512e-08,-2.7867339630706e-11,-2.2557028168022e-11,-3.4049260456495e-10,-5.0931147377968e-11,1.1221325236167e-10,3.317547438847e-10,732.20212669242,732.20212669242,732.20212669211,732.20212669211,732.20212669272,732.20212669271,732.20212669222,732.20212669236,732.2021266926,732.20212669249,732.20212669203,732.20212669221,732.2021266922,732.20212669253,732.20212669244,732.20212669217,732.20212669238,732.20212669277,732.20212669275,732.20212669216,732.20212669226,732.20212669267,732.2021266926,732.2021266922,732.20212669203,732.20212669215,732.20212669264,732.20212669265,732.2021266923,732.20212669244,732.20212669253,732.20212669236,732.20212669207,732.20212669228,732.20212669243,732.20212669252,732.2021266925,732.20212669224,732.20212669241,732.20212669251,732.20212669236,732.20212669214,732.20212669237,732.20212669243,732.20212669252,732.20212669252,732.20212669275,732.20212669275,0.00044336551659721,680.80119561845,147.83238229869,714.99205207014,134.24814633077,0
1.54e-05,20000000,1.0586880426404e-06,4.5707998962812e-06,9.407166067415e-07,1.0000000002201,607.67959772429,607.67959772429,607.67959772394,607.67959772394,607.67959772464,607.67959772463,607.67959772407,607.67959772423,607.67959772451,607.67959772437,607.67959772385,607.67959772405,607.67959772404,607.67959772442,607.67959772432,607.67959772401,607.67959772425,607.6795977247,607.67959772467,607.679597724,607.67959772412,607.67959772458,607.6795977245,607.67959772404,607.67959772385,607.67959772399,607.67959772454,607.67959772456,607.67959772416,607.67959772432,607.67959772442,607.67959772423,607.67959772389,607.67959772414,607.67959772431,607.67959772441,607.67959772439,607.67959772409,607.67959772429,607.6795977244,607.67959772423,607.67959772397,607.67959772424,607.67959772431,607.67959772442,607.67959772442,607.67959772467,607.67959772467,-8.6826776278993e-10,-4.3753177919289e-12,-5.8842444643457e-10,-2.4265716776904e-10,1.9078850535916e-10,3.3155211443854e-09,-1.4178887463859e-09,7.8602851960622e-12,5.5798382475836e-11,1.643817549008e-11,1.7763453727122e-10,-1.560428653424e-08,-3.6828159682593e-13,-1.0433483022011e-11,2.513540472547e-10,-1.2772668860268e-08,-2.767081690938e-11,2.8355900062892e-10,3.1050034019869e-09,-2.323847799167e-09,-5.3212241501237e-11,4.3521337317031e-11,7.6397279421702e-12,-6.7258058649541e-09,5.1140229268907e-10,-1.1810518559853e-08,5.78860778936e-11,1.6758928338691e-09,-4.4149117458799e-10,-2.5057318889692e-11,3.3862193336092e-11,2.5294090573688e-10,2.8130398333764e-11,-1.0390718821498e-08,-1.3662490099779e-10,-2.3775800498743e-11,5.3099656235883e-10,-4.2120253662986e-09,-5.2244424008549e-12,-5.983762908315e-12,5.8405023689474e-11,-1.8726137338196e-08,-3.1749300076483e-11,-2.5698929858308e-11,-3.8791106252833e-10,-5.8009750353869e-11,1.2784181043996e-10,3.7788264959775e-10,732.20212669233,732.20212669233,732.20212669198,732.20212669198,732.20212669268,732.20212669266,732.20212669211,732.20212669226,732.20212669254,732.20212669241,732.20212669188,732.20212669209,732.20212669207,732.20212669246,732.20212669236,732.20212669204,732.20212669228,732.20212669273,732.20212669271,732.20212669203,732.20212669215,732.20212669262,732.20212669254,732.20212669207,732.20212669188,732.20212669202,732.20212669258,732.2021266926,732.20212669219,732.20212669236,732.20212669246,732.20212669227,732.20212669192,732.20212669217,732.20212669235,732.20212669244,732.20212669243,732.20212669213,732.20212669233,732.20212669244,732.20212669226,732.20212669201,732.20212669227,732.20212669235,732.20212669245,732.20212669245,732.20212669271,732.20212669271,0.00050552804756624,685.26773137434,148.7970495015,719.6874101108,135.12424430511,0
1.55e-05,20000000,1.0655620857809e-06,4.6004803131228e-06,9.4682595468508e-07,1.0000000002521,607.67959772419,607.67959772419,607.67959772379,607.67959772379,607.67959772459,607.67959772458,607.67959772394,607.67959772411,607.67959772444,607.67959772428,607.67959772368,607.67959772392,607.6795977239,607.67959772434,607.67959772423,607.67959772387,607.67959772414,607.67959772466,607.67959772463,607.67959772385,607.67959772399,607.67959772453,607.67959772443,607.6795977239,607.67959772368,607.67959772384,607.67959772448,607.6795977245,607.67959772404,607.67959772422,607.67959772434,607.67959772412,607.67959772373,607.67959772402,607.67959772421,607.67959772432,607.6795977243,607.67959772396,607.67959772419,607.67959772432,607.67959772412,607.67959772383,607.67959772413,607.67959772421,607.67959772433,607.67959772433,607.67959772463,607.67959772463,-9.8835195539062e-10,-4.9803866291448e-12,-6.6979681964341e-10,-2.7611142364731e-10,2.1717806096943e-10,3.7734067137416e-09,-1.6141381818494e-09,8.9477101237442e-12,6.3517767085635e-11,1.8711776164369e-11,2.0220439597034e-10,-1.7762427892205e-08,-4.1922526160338e-13,-1.1875656424839e-11,2.8612103902483e-10,-1.4539373804846e-08,-3.1499205738853e-11,3.227798373716e-10,3.5338322090335e-09,-2.6454914976043e-09,-6.0568797986627e-11,4.9541941544422e-11,8.6963309837978e-12,-7.6561493757358e-09,5.8213287640404e-10,-1.344396530719e-08,6.5893808065939e-11,1.9073240345802e-09,-5.0259481167179e-10,-2.852228444596e-11,3.8546680755729e-11,2.8793030028413e-10,3.202158655472e-11,-1.1827796316963e-08,-1.5551900139577e-10,-2.7062743201183e-11,6.0444161712538e-10,-4.7946227795064e-09,-5.9477180174715e-12,-6.811098090905e-12,6.6483608730612e-11,-2.13163466383e-08,-3.614153104634e-11,-2.9253776790909e-11,-4.4156067967619e-10,-6.6016466890159e-11,1.4552426709595e-10,4.3006144136492e-10,732.20212669223,732.20212669223,732.20212669183,732.20212669183,732.20212669263,732.20212669261,732.20212669197,732.20212669215,732.20212669247,732.20212669232,732.20212669172,732.20212669195,732.20212669194,732.20212669238,732.20212669226,732.2021266919,732.20212669218,732.20212669269,732.20212669266,732.20212669189,732.20212669203,732.20212669256,732.20212669247,732.20212669194,732.20212669172,732.20212669188,732.20212669251,732.20212669253,732.20212669207,732.20212669226,732.20212669238,732.20212669216,732.20212669176,732.20212669205,732.20212669225,732.20212669236,732.20212669234,732.202126692,732.20212669222,732.20212669235,732.20212669215,732.20212669186,732.20212669216,732.20212669225,732.20212669237,732.20212669237,732.20212669266,732.20212669266,0.00057591386294828,689.73448553977,149.76169652183,724.38305703382,136.00032490456,0
1.56e-05,20000000,1.07243612171e-06,4.630160728651e-06,9.5293531313048e-07,1.0000000002884,607.67959772408,607.67959772408,607.67959772362,607.67959772362,607.67959772454,607.67959772452,607.67959772378,607.67959772399,607.67959772436,607.67959772418,607.67959772349,607.67959772376,607.67959772374,607.67959772425,607.67959772412,607.6795977237,607.67959772402,607.67959772461,607.67959772457,607.67959772369,607.67959772385,607.67959772446,607.67959772436,607.67959772374,607.67959772349,607.67959772368,607.67959772441,607.67959772443,607.6795977239,607.67959772411,607.67959772425,607.679597724,607.67959772355,607.67959772387,607.6795977241,607.67959772423,607.6795977242,607.67959772381,607.67959772407,607.67959772422,607.67959772399,607.67959772366,607.67959772401,607.6795977241,607.67959772424,607.67959772424,607.67959772458,607.67959772458,-1.1241079720542e-09,-5.6644138068246e-12,-7.6178762321298e-10,-3.1391639332973e-10,2.4701205781819e-10,4.2909543325136e-09,-1.836021328242e-09,1.0177098127561e-11,7.2244916206013e-11,2.1282119263219e-11,2.299811463562e-10,-2.0202224479889e-08,-4.7681875492175e-13,-1.3505926836755e-11,3.2542593551548e-10,-1.6536675619848e-08,-3.5827432092343e-11,3.6711980729519e-10,4.0185393702941e-09,-3.0091477724278e-09,-6.8885024107615e-11,5.6348488442219e-11,9.8908288139265e-12,-8.7079299097935e-09,6.620945926148e-10,-1.529059034814e-08,7.4946877681057e-11,2.1689082364294e-09,-5.7167925405862e-10,-3.2439374440711e-11,4.3842705407826e-11,3.2748704734716e-10,3.6420698192013e-11,-1.3452423603683e-08,-1.7687869058577e-10,-3.0778464017109e-11,6.8747271402238e-10,-5.4532620356156e-09,-6.7654898388132e-12,-7.7463719739973e-12,7.561664826616e-11,-2.424464333312e-08,-4.1107152467121e-11,-3.3272643403991e-11,-5.0221199174479e-10,-7.5065782243881e-11,1.6551462942411e-10,4.8903789710506e-10,732.20212669211,732.20212669211,732.20212669165,732.20212669165,732.20212669257,732.20212669255,732.20212669182,732.20212669202,732.20212669239,732.20212669222,732.20212669153,732.2021266918,732.20212669178,732.20212669228,732.20212669215,732.20212669174,732.20212669206,732.20212669265,732.20212669261,732.20212669173,732.20212669188,732.20212669249,732.20212669239,732.20212669178,732.20212669153,732.20212669171,732.20212669244,732.20212669246,732.20212669193,732.20212669215,732.20212669228,732.20212669203,732.20212669158,732.20212669191,732.20212669214,732.20212669226,732.20212669224,732.20212669185,732.20212669211,732.20212669226,732.20212669203,732.20212669169,732.20212669204,732.20212669214,732.20212669227,732.20212669227,732.20212669261,732.20212669261,0.00065554656221711,694.20145800201,150.72632336043,729.07899284416,136.87638812977,0
1.57e-05,20000000,1.0793101504264e-06,4.6598411428658e-06,9.5904468208168e-07,1.0000000003297,607.67959772395,607.67959772395,607.67959772342,607.67959772342,607.67959772447,607.67959772445,607.67959772361,607.67959772385,607.67959772427,607.67959772406,607.67959772328,607.67959772359,607.67959772356,607.67959772414,607.67959772399,607.67959772352,607.67959772388,607.67959772456,607.67959772451,607.67959772351,607.67959772368,607.67959772438,607.67959772426,607.67959772356,607.67959772328,607.67959772349,607.67959772432,607.67959772435,607.67959772374,607.67959772399,607.67959772414,607.67959772386,607.67959772334,607.67959772371,607.67959772397,607.67959772412,607.67959772409,607.67959772364,607.67959772394,607.67959772411,607.67959772385,607.67959772347,607.67959772386,607.67959772397,607.67959772413,607.67959772413,607.67959772452,607.67959772452,-1.2774605654243e-09,-6.437095695919e-12,-8.657008058495e-10,-3.5660432431549e-10,2.8071358682901e-10,4.8754785072461e-09,-2.0866893981727e-09,1.1565890931053e-11,8.2103644918236e-11,2.4185652561333e-11,2.6135869536763e-10,-2.2958268477347e-08,-5.4187896523815e-13,-1.5347379734389e-11,3.6982614330576e-10,-1.8792899384996e-08,-4.0716912290278e-11,4.1720769723364e-10,4.5659758377728e-09,-3.4199813443893e-09,-7.8278726764272e-11,6.4037533508706e-11,1.124015726243e-11,-9.8960647357079e-09,7.5242121582975e-10,-1.7376575706941e-08,8.5173708963618e-11,2.4643418587726e-09,-6.497255423605e-10,-3.686410653597e-11,4.9825398456326e-11,3.7217222768126e-10,4.139012766322e-11,-1.5287634978515e-08,-2.010067526466e-10,-3.4975597881835e-11,7.8126730523642e-10,-6.1972835130008e-09,-7.6893776872322e-12,-8.8028365019104e-12,8.5933666023295e-11,-2.755255647107e-08,-4.6716609738887e-11,-3.7812530817636e-11,-5.7072492743469e-10,-8.5285426852322e-11,1.8809637615906e-10,5.556452417837e-10,732.20212669198,732.20212669198,732.20212669145,732.20212669145,732.20212669251,732.20212669249,732.20212669165,732.20212669188,732.2021266923,732.2021266921,732.20212669131,732.20212669162,732.2021266916,732.20212669218,732.20212669203,732.20212669155,732.20212669192,732.20212669259,732.20212669255,732.20212669154,732.20212669172,732.20212669242,732.2021266923,732.2021266916,732.20212669131,732.20212669152,732.20212669236,732.20212669239,732.20212669178,732.20212669202,732.20212669218,732.20212669189,732.20212669138,732.20212669175,732.20212669201,732.20212669216,732.20212669213,732.20212669168,732.20212669198,732.20212669215,732.20212669188,732.2021266915,732.2021266919,732.20212669201,732.20212669217,732.20212669217,732.20212669255,732.20212669255,0.00074556927084594,698.66864863406,151.69093001819,733.77521754662,137.7524339815,0
1.58e-05,20000000,1.0861841719289e-06,4.6895215557674e-06,9.6515406154273e-07,1.0000000003766,607.6795977238,607.6795977238,607.67959772319,607.67959772319,607.6795977244,607.67959772437,607.67959772341,607.67959772368,607.67959772416,607.67959772393,607.67959772303,607.67959772339,607.67959772336,607.67959772402,607.67959772385,607.67959772331,607.67959772372,607.6795977245,607.67959772445,607.67959772329,607.6795977235,607.6795977243,607.67959772416,607.67959772336,607.67959772303,607.67959772327,607.67959772423,607.67959772426,607.67959772356,607.67959772385,607.67959772402,607.6795977237,607.6795977231,607.67959772353,607.67959772383,607.679597724,607.67959772396,607.67959772345,607.67959772379,607.67959772399,607.67959772369,607.67959772325,607.6795977237,607.67959772383,607.67959772401,607.67959772401,607.67959772445,607.67959772445,-1.4505562744381e-09,-7.309245843048e-12,-9.8299054754321e-10,-4.0476852432262e-10,3.187544987018e-10,5.5351349222652e-09,-2.369657098895e-09,1.3133540867359e-11,9.3232041219577e-11,2.7463024059681e-11,2.967763457168e-10,-2.6069138117778e-08,-6.1531693367371e-13,-1.7425758667514e-11,4.1994330847282e-10,-2.1339634568684e-08,-4.6236143221379e-11,4.73744758069e-10,5.183780473261e-09,-3.8837526904467e-09,-8.8881280415399e-11,7.271676197139e-11,1.2763203672865e-11,-1.1237190387587e-08,8.5437716966265e-10,-1.9731120361412e-08,9.6717526942574e-11,2.7977463744584e-09,-7.3782787339339e-10,-4.1858394281509e-11,5.6578551505641e-11,4.2261159227619e-10,4.6999460731261e-11,-1.73591189655e-08,-2.2824085726494e-10,-3.9712841461731e-11,8.8713853645473e-10,-7.0371040269685e-09,-8.732342148117e-12,-9.9952700221806e-12,9.7579113148459e-11,-3.1286401275938e-08,-5.3048468673948e-11,-4.2937009878515e-11,-6.4805850509066e-10,-9.6817808602364e-11,2.1358565493562e-10,6.3081250143995e-10,732.20212669184,732.20212669184,732.20212669123,732.20212669123,732.20212669243,732.20212669241,732.20212669145,732.20212669172,732.2021266922,732.20212669197,732.20212669107,732.20212669142,732.2021266914,732.20212669206,732.20212669188,732.20212669135,732.20212669176,732.20212669253,732.20212669248,732.20212669133,732.20212669153,732.20212669233,732.2021266922,732.2021266914,732.20212669107,732.20212669131,732.20212669226,732.20212669229,732.2021266916,732.20212669188,732.20212669206,732.20212669173,732.20212669114,732.20212669157,732.20212669186,732.20212669203,732.202126692,732.20212669149,732.20212669183,732.20212669202,732.20212669172,732.20212669129,732.20212669174,732.20212669186,732.20212669205,732.20212669205,732.20212669249,732.20212669249,0.0008472576886773,703.13605729228,152.65551649595,738.47173114515,138.62846246058,0
1.59e-05,20000000,1.0930581862166e-06,4.7192019673557e-06,9.7126345151781e-07,1.0000000004298,607.67959772363,607.67959772363,607.67959772294,607.67959772294,607.67959772432,607.67959772429,607.67959772319,607.6795977235,607.67959772405,607.67959772378,607.67959772276,607.67959772316,607.67959772313,607.67959772388,607.67959772369,607.67959772307,607.67959772354,607.67959772443,607.67959772437,607.67959772305,607.67959772329,607.6795977242,607.67959772405,607.67959772313,607.67959772276,607.67959772303,607.67959772412,607.67959772416,607.67959772336,607.67959772368,607.67959772388,607.67959772351,607.67959772284,607.67959772333,607.67959772366,607.67959772386,607.67959772382,607.67959772323,607.67959772362,607.67959772384,607.6795977235,607.679597723,607.67959772352,607.67959772366,607.67959772387,607.67959772387,607.67959772438,607.67959772438,-1.6457873199654e-09,-8.2929153232157e-12,-1.1152774433902e-09,-4.590699071545e-10,3.6166065835322e-10,6.279010869494e-09,-2.6888418429405e-09,1.4901727608004e-11,1.0578400454062e-10,3.1159534578319e-11,3.3672368774071e-10,-2.9577827158e-08,-6.9814800119035e-13,-1.9769751401176e-11,4.7647023919597e-10,-2.4212086806096e-08,-5.2461465666057e-11,5.3751251340799e-10,5.8804647566379e-09,-4.4068823089746e-09,-1.008390880185e-10,8.2506188393411e-11,1.4481017166898e-11,-1.2749847948178e-08,9.6937160405603e-10,-2.2386765299894e-08,1.0973795494064e-10,3.1737139999166e-09,-8.3720580557071e-10,-4.7491236064976e-11,6.4195550087369e-11,4.7950253224829e-10,5.3326249529806e-11,-1.9695504289401e-08,-2.5895731794911e-10,-4.5055605860516e-11,1.0065498689832e-09,-7.9843328271014e-09,-9.9088292489435e-12,-1.1340141671146e-11,1.1071397684488e-10,-3.5497794924215e-08,-6.0190290787764e-11,-4.8716929190953e-11,-7.352815090639e-10,-1.0982158929368e-10,2.423348026211e-10,7.1557479962792e-10,732.20212669167,732.20212669167,732.20212669098,732.20212669098,732.20212669235,732.20212669232,732.20212669123,732.20212669153,732.20212669208,732.20212669182,732.20212669079,732.2021266912,732.20212669117,732.20212669192,732.20212669172,732.20212669111,732.20212669158,732.20212669246,732.20212669241,732.20212669109,732.20212669132,732.20212669224,732.20212669208,732.20212669117,732.20212669079,732.20212669107,732.20212669216,732.20212669219,732.2021266914,732.20212669172,732.20212669192,732.20212669155,732.20212669087,732.20212669136,732.2021266917,732.20212669189,732.20212669186,732.20212669127,732.20212669166,732.20212669188,732.20212669154,732.20212669104,732.20212669156,732.2021266917,732.20212669191,732.20212669191,732.20212669241,732.20212669241,0.00096203446479008,707.6036838147,153.62008279452,743.16853364347,139.50447356767,0
1.6e-05,20000000,1.0999321932881e-06,4.7488823776308e-06,9.7737285201098e-07,1.0000000004901,607.67959772344,607.67959772344,607.67959772265,607.67959772265,607.67959772422,607.67959772419,607.67959772294,607.67959772329,607.67959772392,607.67959772361,607.67959772244,607.6795977229,607.67959772287,607.67959772373,607.67959772351,607.6795977228,607.67959772334,607.67959772435,607.67959772429,607.67959772278,607.67959772305,607.67959772409,607.67959772391,607.67959772287,607.67959772244,607.67959772275,607.679597724,607.67959772404,607.67959772313,607.6795977235,607.67959772373,607.6795977233,607.67959772253,607.67959772309,607.67959772348,607.6795977237,607.67959772366,607.67959772298,607.67959772343,607.67959772368,607.67959772329,607.67959772272,607.67959772332,607.67959772348,607.67959772371,607.67959772371,607.67959772429,607.67959772429,-1.8658178984385e-09,-9.4015251691723e-12,-1.2643663112899e-09,-5.2024419167205e-10,4.1001772677858e-10,7.1172247307631e-09,-3.0486068990838e-09,1.6894596652866e-11,1.1993093874399e-10,3.5325635775603e-11,3.8174598227254e-10,-3.3532217448131e-08,-7.9150297439976e-13,-2.2411304746011e-11,5.4017852322731e-10,-2.7449464987299e-08,-5.9477904274435e-11,6.093813520439e-10,6.665505974473e-09,-4.9965214431e-09,-1.1431518848818e-10,9.3539476721068e-11,1.6417040010362e-11,-1.4454686931194e-08,1.0989738853337e-09,-2.5379751199125e-08,1.2441277024862e-10,3.59735795852e-09,-9.4921769073168e-10,-5.3839473183707e-11,7.2780400871608e-11,5.4362174844649e-10,6.045686539153e-11,-2.2328674547717e-08,-2.9357522735066e-10,-5.1076734783401e-11,1.1411311695208e-09,-9.0518992377024e-09,-1.1234929682933e-11,-1.2855792248061e-11,1.2551755048155e-10,-4.0244224094893e-08,-6.8239596473242e-11,-5.5231194225829e-11,-8.3358423752894e-10,-1.2447341875364e-10,2.7473621899006e-10,8.1108468429562e-10,732.20212669148,732.20212669148,732.20212669069,732.20212669069,732.20212669226,732.20212669222,732.20212669097,732.20212669132,732.20212669195,732.20212669165,732.20212669048,732.20212669094,732.2021266909,732.20212669176,732.20212669154,732.20212669084,732.20212669138,732.20212669238,732.20212669232,732.20212669082,732.20212669108,732.20212669213,732.20212669195,732.2021266909,732.20212669048,732.20212669079,732.20212669203,732.20212669207,732.20212669117,732.20212669154,732.20212669176,732.20212669134,732.20212669057,732.20212669113,732.20212669151,732.20212669173,732.20212669169,732.20212669102,732.20212669147,732.20212669172,732.20212669133,732.20212669076,732.20212669135,732.20212669151,732.20212669175,732.20212669175,732.20212669233,732.20212669233,0.0010914850239476,712.0715280191,154.58462891487,747.86562504381,140.38046730356,0
1.61e-05,20000000,1.1068061931424e-06,4.7785627865928e-06,9.8348226302648e-07,1.0000000005585,607.67959772322,607.67959772322,607.67959772232,607.67959772232,607.67959772411,607.67959772408,607.67959772265,607.67959772305,607.67959772377,607.67959772342,607.67959772209,607.67959772261,607.67959772257,607.67959772355,607.6795977233,607.67959772249,607.67959772311,607.67959772426,607.67959772419,607.67959772247,607.67959772277,607.67959772397,607.67959772376,607.67959772257,607.67959772208,607.67959772244,607.67959772386,607.67959772391,607.67959772287,607.67959772329,607.67959772355,607.67959772307,607.67959772219,607.67959772283,607.67959772327,607.67959772352,607.67959772347,607.6795977227,607.67959772322,607.6795977235,607.67959772306,607.67959772241,607.67959772308,607.67959772327,607.67959772354,607.67959772354,607.67959772419,607.67959772419,-2.1136130966434e-09,-1.0650012001006e-11,-1.4322657745969e-09,-5.891098142703e-10,4.6447751943827e-10,8.0610353525588e-09,-3.4538088509447e-09,1.9139021608577e-11,1.358636139915e-10,4.0017477821114e-11,4.3245008023632e-10,-3.7985598611708e-08,-8.9664040492205e-13,-2.5385970744644e-11,6.119269049258e-10,-3.1095406943209e-08,-6.7380091339587e-11,6.9031997717389e-10,7.549449675844e-09,-5.6606298641824e-09,-1.2949102429417e-10,1.0596539198672e-10,1.8597362045123e-11,-1.6374689494783e-08,1.2449306305663e-09,-2.8750411759164e-08,1.4093983490187e-10,4.0743677415005e-09,-1.0753754467133e-09,-6.0988623470899e-11,8.2448861332794e-11,6.1583368592252e-10,6.8487436722145e-11,-2.5294114252061e-08,-3.3256100478667e-10,-5.7857294247502e-11,1.2926964042303e-09,-1.0254193025443e-08,-1.2728553933805e-11,-1.4562633111655e-11,1.4218938020901e-10,-4.5589669112516e-08,-7.7304924243718e-11,-6.256762412376e-11,-9.4429142149222e-10,-1.4096984121382e-10,3.1122662663838e-10,9.186245806764e-10,732.20212669126,732.20212669126,732.20212669036,732.20212669036,732.20212669215,732.20212669211,732.20212669069,732.20212669109,732.2021266918,732.20212669146,732.20212669012,732.20212669065,732.20212669061,732.20212669159,732.20212669133,732.20212669053,732.20212669115,732.20212669229,732.20212669222,732.20212669051,732.20212669081,732.202126692,732.2021266918,732.20212669061,732.20212669012,732.20212669048,732.2021266919,732.20212669194,732.20212669091,732.20212669133,732.20212669159,732.2021266911,732.20212669023,732.20212669086,732.2021266913,732.20212669155,732.2021266915,732.20212669074,732.20212669125,732.20212669153,732.20212669109,732.20212669044,732.20212669112,732.2021266913,732.20212669157,732.20212669157,732.20212669223,732.20212669223,0.0012373749804974,716.53958970101,155.54915485774,752.56300534826,141.25644366894,0
1.62e-05,20000000,1.1136801857781e-06,4.8082431942417e-06,9.8959168456853e-07,1.0000000006358,607.67959772298,607.67959772298,607.67959772195,607.67959772195,607.67959772399,607.67959772395,607.67959772233,607.67959772278,607.6795977236,607.6795977232,607.67959772168,607.67959772228,607.67959772224,607.67959772335,607.67959772306,607.67959772215,607.67959772285,607.67959772416,607.67959772408,607.67959772212,607.67959772247,607.67959772382,607.67959772359,607.67959772224,607.67959772168,607.67959772209,607.6795977237,607.67959772376,607.67959772258,607.67959772306,607.67959772335,607.6795977228,607.6795977218,607.67959772253,607.67959772303,607.67959772331,607.67959772326,607.67959772239,607.67959772297,607.67959772329,607.67959772279,607.67959772205,607.67959772282,607.67959772303,607.67959772333,607.67959772333,607.67959772408,607.67959772408,-2.3924706699633e-09,-1.2054988076252e-11,-1.6212097838445e-09,-6.6657662028311e-10,5.2576499447819e-10,9.1229622252715e-09,-3.9098497621856e-09,2.1664892455138e-11,1.5379421309993e-10,4.5297511315692e-11,4.8951092860891e-10,-4.2997239190943e-08,-1.0149600851801e-12,-2.8733287108362e-11,6.9267049208505e-10,-3.5198447297606e-08,-7.627328211765e-11,7.8140579158896e-10,8.5440222498626e-09,-6.4080613692945e-09,-1.4656838400128e-10,1.1994939584515e-10,2.1051000319232e-11,-1.8535416865927e-08,1.4091844290719e-09,-3.2543605991301e-08,1.5953921775332e-10,4.6110698271113e-09,-1.2173607948375e-09,-6.90337974579e-11,9.3329681344543e-11,6.9709980400601e-10,7.7524879787598e-11,-2.8631289138578e-08,-3.7643339406601e-10,-6.5487440445472e-11,1.4632630854367e-09,-1.1607218670755e-08,-1.4409624774519e-11,-1.6483364763866e-11,1.6095140440108e-10,-5.1605289915528e-08,-8.750699492943e-11,-7.0823893379451e-11,-1.0688764232613e-09,-1.5952938981138e-10,3.5229175284732e-10,1.0396204739831e-09,732.20212669102,732.20212669102,732.20212668999,732.20212668999,732.20212669203,732.20212669199,732.20212669036,732.20212669082,732.20212669163,732.20212669124,732.20212668972,732.20212669032,732.20212669027,732.20212669139,732.2021266911,732.20212669018,732.20212669088,732.20212669219,732.20212669211,732.20212669016,732.2021266905,732.20212669186,732.20212669163,732.20212669027,732.20212668972,732.20212669012,732.20212669174,732.20212669179,732.20212669062,732.20212669109,732.20212669139,732.20212669084,732.20212668984,732.20212669056,732.20212669106,732.20212669135,732.20212669129,732.20212669042,732.202126691,732.20212669133,732.20212669082,732.20212669008,732.20212669085,732.20212669106,732.20212669137,732.20212669137,732.20212669212,732.20212669212,0.0014016692873343,721.00786863039,156.51366062398,757.26067455729,142.13240266466,0
1.63e-05,20000000,1.1205541711941e-06,4.8379236005777e-06,9.9570111664147e-07,1.0000000007233,607.6795977227,607.6795977227,607.67959772153,607.67959772153,607.67959772386,607.67959772381,607.67959772196,607.67959772248,607.6795977234,607.67959772296,607.67959772122,607.67959772191,607.67959772186,607.67959772313,607.6795977228,607.67959772175,607.67959772255,607.67959772404,607.67959772395,607.67959772172,607.67959772212,607.67959772366,607.6795977234,607.67959772186,607.67959772122,607.67959772169,607.67959772353,607.67959772359,607.67959772225,607.67959772279,607.67959772312,607.6795977225,607.67959772136,607.67959772219,607.67959772275,607.67959772308,607.67959772302,607.67959772203,607.67959772269,607.67959772306,607.67959772248,607.67959772164,607.67959772252,607.67959772275,607.67959772311,607.67959772311,607.67959772396,607.67959772396,-2.7060559470685e-09,-1.3634917084819e-11,-1.8336812555477e-09,-7.5365540547928e-10,5.9468592865137e-10,1.0316917456443e-08,-4.4227344811362e-09,2.4505432190076e-11,1.7395857934403e-10,5.1235148439522e-11,5.5367871660595e-10,-4.8633013984321e-08,-1.1480178725423e-12,-3.2497195047792e-11,7.8347086881132e-10,-3.9812531359651e-08,-8.6274470111019e-11,8.8383630483056e-10,9.6622545519386e-09,-7.2486577021466e-09,-1.6577153579715e-10,1.3567539916276e-10,2.3810206229951e-11,-2.0965280016773e-08,1.5938944059867e-09,-3.6809193037026e-08,1.8045552542496e-10,5.2144943578523e-09,-1.3770430970109e-09,-7.8080704653282e-11,1.0556596699305e-10,7.8848875876437e-10,8.7688030949602e-11,-3.2384063894982e-08,-4.2576895296667e-10,-7.4067372937289e-11,1.6550736320025e-09,-1.3128764820493e-08,-1.6300288738857e-11,-1.8643216928232e-11,1.8205030364488e-10,-5.8370179530806e-08,-9.8979990474917e-11,-8.0108566205365e-11,-1.2089768319205e-09,-1.8039488642415e-10,3.9847147216586e-10,1.1756569344895e-09,732.20212669074,732.20212669074,732.20212668957,732.20212668957,732.20212669189,732.20212669184,732.20212668999,732.20212669051,732.20212669144,732.20212669099,732.20212668926,732.20212668994,732.20212668989,732.20212669116,732.20212669083,732.20212668979,732.20212669059,732.20212669208,732.20212669199,732.20212668976,732.20212669015,732.2021266917,732.20212669144,732.20212668989,732.20212668926,732.20212668972,732.20212669156,732.20212669162,732.20212669028,732.20212669083,732.20212669116,732.20212669054,732.2021266894,732.20212669022,732.20212669079,732.20212669112,732.20212669106,732.20212669006,732.20212669073,732.20212669109,732.20212669052,732.20212668968,732.20212669055,732.20212669079,732.20212669114,732.20212669114,732.20212669199,732.20212669199,0.0015865532801889,725.47636454942,157.47814621436,761.95863267064,143.00834429135,0
1.64e-05,20000000,1.1274281493891e-06,4.8676040056006e-06,1.0018105592496e-06,1.0000000008221,607.67959772239,607.67959772239,607.67959772106,607.67959772106,607.6795977237,607.67959772365,607.67959772154,607.67959772213,607.67959772319,607.67959772268,607.67959772071,607.67959772148,607.67959772143,607.67959772287,607.6795977225,607.67959772131,607.67959772222,607.67959772391,607.67959772381,607.67959772128,607.67959772172,607.67959772348,607.67959772318,607.67959772143,607.67959772071,607.67959772123,607.67959772333,607.67959772339,607.67959772187,607.67959772249,607.67959772287,607.67959772216,607.67959772086,607.6795977218,607.67959772245,607.67959772282,607.67959772275,607.67959772162,607.67959772237,607.67959772279,607.67959772214,607.67959772118,607.67959772218,607.67959772245,607.67959772285,607.67959772285,607.67959772382,607.67959772382,-3.0584401463087e-09,-1.5410307125591e-11,-2.0724380213049e-09,-8.5146838457266e-10,6.7213534371401e-10,1.165835061111e-08,-4.9991335547033e-09,2.769754444104e-11,1.9661868409877e-10,5.790748873599e-11,6.2578672054096e-10,-5.4966092703301e-08,-1.2975419629051e-12,-3.6726497905732e-11,8.855071971227e-10,-4.4997579259775e-08,-9.7513611444129e-11,9.9894165559299e-10,1.0918617584144e-08,-8.1933516675157e-09,-1.8734956943257e-10,1.533476859966e-10,2.691080269036e-11,-2.3695836806748e-08,1.8014587960569e-09,-4.1602553398359e-08,2.0396046120732e-10,5.8924483177896e-09,-1.5564989386666e-09,-8.8246758157362e-11,1.1931667776607e-10,8.9118758114514e-10,9.9108889612388e-11,-3.6601160717999e-08,-4.8120807923835e-10,-8.3708380950026e-11,1.8706188179915e-09,-1.4838590307693e-08,-1.8425148301711e-11,-2.1070212083038e-11,2.0576008048845e-10,-6.5972191216766e-08,-1.1187295780091e-10,-9.0542232035726e-11,-1.3664115832691e-09,-2.0383596550054e-10,4.5036545175986e-10,1.3284936070977e-09,732.20212669042,732.20212669042,732.2021266891,732.2021266891,732.20212669174,732.20212669168,732.20212668958,732.20212669017,732.20212669122,732.20212669071,732.20212668874,732.20212668952,732.20212668946,732.20212669091,732.20212669053,732.20212668935,732.20212669025,732.20212669195,732.20212669185,732.20212668931,732.20212668976,732.20212669152,732.20212669122,732.20212668946,732.20212668874,732.20212668927,732.20212669136,732.20212669143,732.20212668991,732.20212669052,732.2021266909,732.20212669019,732.2021266889,732.20212668984,732.20212669048,732.20212669086,732.20212669079,732.20212668965,732.20212669041,732.20212669083,732.20212669018,732.20212668922,732.20212669021,732.20212669048,732.20212669088,732.20212669088,732.20212669185,732.20212669185,0.0017944557912094,729.94507716925,158.44261162983,766.65687968702,143.88426854987,0
1.65e-05,20000000,1.1343021203619e-06,4.8972844093107e-06,1.0079200123973e-06,1.0000000009338,607.67959772203,607.67959772203,607.67959772052,607.67959772052,607.67959772353,607.67959772346,607.67959772107,607.67959772174,607.67959772294,607.67959772236,607.67959772012,607.679597721,607.67959772094,607.67959772258,607.67959772216,607.67959772081,607.67959772184,607.67959772377,607.67959772365,607.67959772077,607.67959772128,607.67959772328,607.67959772294,607.67959772094,607.67959772012,607.67959772072,607.6795977231,607.67959772318,607.67959772145,607.67959772215,607.67959772258,607.67959772177,607.6795977203,607.67959772137,607.6795977221,607.67959772252,607.67959772244,607.67959772116,607.67959772202,607.67959772249,607.67959772175,607.67959772066,607.67959772179,607.6795977221,607.67959772256,607.67959772256,607.67959772366,607.67959772366,-3.4541424130699e-09,-1.7403922421781e-11,-2.3405412965698e-09,-9.6126067017607e-10,7.5910675135138e-10,1.3164407582456e-08,-5.6464522609045e-09,3.1282194856209e-11,2.2206533426656e-10,6.540011539087e-11,7.0675991070578e-10,-6.2077695506982e-08,-1.4654507453789e-12,-4.1475364286992e-11,1.0000883969734e-09,-5.0820104884097e-08,-1.1013496822892e-10,1.1281983505052e-09,1.2329171319488e-08,-9.2542802740181e-09,-2.1157896544845e-10,1.7319302451239e-10,3.0392554041737e-11,-2.676211799048e-08,2.0345397098885e-09,-4.6985160787069e-08,2.303556325847e-10,6.6535957975014e-09,-1.7580336160545e-09,-9.9662286527625e-11,1.3475826921762e-10,1.0065139411069e-09,1.119339819204e-10,-4.1336662402546e-08,-5.4346162174571e-10,-9.453399121961e-11,2.1126634990631e-09,-1.6758628240349e-08,-2.0811516647573e-11,-2.3795454574221e-11,2.323848897941e-10,-7.4508845954452e-08,-1.2635134907525e-10,-1.0225875134373e-10,-1.543199742477e-09,-2.301518421074e-10,5.0863934512125e-10,1.5000832977424e-09,732.20212669007,732.20212669007,732.20212668856,732.20212668856,732.20212669156,732.2021266915,732.20212668911,732.20212668978,732.20212669098,732.2021266904,732.20212668816,732.20212668904,732.20212668897,732.20212669062,732.20212669019,732.20212668884,732.20212668988,732.2021266918,732.20212669168,732.2021266888,732.20212668931,732.20212669131,732.20212669097,732.20212668897,732.20212668816,732.20212668876,732.20212669114,732.20212669121,732.20212668948,732.20212669018,732.20212669062,732.20212668981,732.20212668833,732.2021266894,732.20212669014,732.20212669056,732.20212669048,732.20212668919,732.20212669005,732.20212669053,732.20212668979,732.2021266887,732.20212668983,732.20212669014,732.20212669059,732.20212669059,732.20212669169,732.20212669169,0.0020280745204544,734.41400616671,159.40705687118,771.3554156037,144.76017544088,0
1.66e-05,20000000,1.1411760841111e-06,4.926964811708e-06,1.0140294760891e-06,1.0000000010598,607.67959772163,607.67959772163,607.67959771992,607.67959771992,607.67959772333,607.67959772326,607.67959772054,607.6795977213,607.67959772266,607.67959772201,607.67959771946,607.67959772046,607.67959772039,607.67959772226,607.67959772177,607.67959772024,607.67959772141,607.6795977236,607.67959772347,607.6795977202,607.67959772077,607.67959772304,607.67959772266,607.67959772039,607.67959771946,607.67959772014,607.67959772284,607.67959772293,607.67959772096,607.67959772176,607.67959772225,607.67959772134,607.67959771966,607.67959772088,607.67959772171,607.67959772219,607.6795977221,607.67959772064,607.67959772162,607.67959772216,607.67959772131,607.67959772007,607.67959772136,607.67959772171,607.67959772223,607.67959772223,607.67959772348,607.67959772348,-3.8981759132183e-09,-1.9641015462928e-11,-2.6413868960692e-09,-1.0844128526244e-09,8.5670229038625e-10,1.4854104752895e-08,-6.3729063120669e-09,3.5304829316953e-11,2.5062114110372e-10,7.3807968358659e-11,7.9762438894358e-10,-7.0057921437945e-08,-1.6538723803678e-12,-4.6803879689946e-11,1.1286665018329e-09,-5.7353894544958e-08,-1.2429858164859e-10,1.2732443288898e-09,1.3911727850703e-08,-1.0444908809935e-08,-2.3876641215437e-10,1.9546298168989e-10,3.4299571661776e-11,-3.0202984692354e-08,2.2960902902048e-09,-5.3025209151711e-08,2.5997562979241e-10,7.5075459831386e-09,-1.9842046996968e-09,-1.1247186255149e-10,1.5208649422155e-10,1.135929595593e-09,1.2632585609039e-10,-4.6650563973282e-08,-6.1331812946786e-10,-1.0668122651657e-10,2.3842748217477e-09,-1.8913209787313e-08,-2.3489697067955e-11,-2.6853447610876e-11,2.6226214226671e-10,-8.4088327526176e-08,-1.4259871068902e-10,-1.1540662171548e-10,-1.7415810992089e-09,-2.5967434610598e-10,5.7403158354575e-10,1.6925918000045e-09,732.20212668967,732.20212668967,732.20212668795,732.20212668795,732.20212669136,732.20212669129,732.20212668858,732.20212668934,732.2021266907,732.20212669004,732.2021266875,732.2021266885,732.20212668843,732.20212669029,732.20212668981,732.20212668828,732.20212668945,732.20212669164,732.2021266915,732.20212668823,732.20212668881,732.20212669108,732.20212669069,732.20212668843,732.2021266875,732.20212668818,732.20212669088,732.20212669097,732.202126689,732.2021266898,732.20212669029,732.20212668937,732.2021266877,732.20212668891,732.20212668975,732.20212669023,732.20212669013,732.20212668868,732.20212668965,732.20212669019,732.20212668935,732.20212668811,732.2021266894,732.20212668975,732.20212669026,732.20212669026,732.20212669151,732.20212669151,0.0022904038697964,738.88315118006,160.37148193924,776.0542404161,145.63606496509,0
1.67e-05,20000000,1.1480500406355e-06,4.9566452127926e-06,1.0201389503296e-06,1.0000000012019,607.67959772118,607.67959772118,607.67959771923,607.67959771923,607.67959772311,607.67959772303,607.67959771994,607.6795977208,607.67959772235,607.67959772161,607.67959771872,607.67959771985,607.67959771977,607.67959772189,607.67959772134,607.6795977196,607.67959772093,607.67959772342,607.67959772326,607.67959771955,607.6795977202,607.67959772278,607.67959772234,607.67959771977,607.67959771871,607.67959771949,607.67959772256,607.67959772266,607.67959772042,607.67959772133,607.67959772189,607.67959772084,607.67959771894,607.67959772032,607.67959772127,607.67959772181,607.67959772171,607.67959772005,607.67959772116,607.67959772177,607.67959772082,607.67959771941,607.67959772087,607.67959772127,607.67959772185,607.67959772185,607.67959772327,607.67959772327,-4.3960983456449e-09,-2.2149581402372e-11,-2.978739441659e-09,-1.2224547783546e-09,9.6614383616635e-10,1.6748519810118e-08,-7.18760482681e-09,3.9815832271796e-11,2.8264377385732e-10,8.3236301216453e-11,8.995177312821e-10,-7.90066562843e-08,-1.8651662555266e-12,-5.2778650974962e-11,1.2728512951175e-09,-6.4680750737494e-08,-1.4018188638029e-10,1.435895472221e-09,1.5686030141968e-08,-1.1780166832511e-08,-2.6925189251339e-10,2.2043646006481e-10,3.8680758463621e-11,-3.406152016617e-08,2.5893844720478e-09,-5.9798299821264e-08,2.9319139968349e-10,8.464949558812e-09,-2.2378478601177e-09,-1.2683575938986e-10,1.7151837701485e-10,1.2810551263917e-09,1.4246472116366e-10,-5.26093772032e-08,-6.9165179544014e-10,-1.203019847517e-10,2.6888531379788e-09,-2.1329309425312e-08,-2.6493289196334e-11,-3.0282440637182e-11,2.9576590562822e-10,-9.4830573026265e-08,-1.6081853425686e-10,-1.301504749431e-10,-1.9640387375002e-09,-2.9277124617508e-10,6.473608188954e-10,1.9084196171679e-09,732.20212668922,732.20212668922,732.20212668727,732.20212668727,732.20212669114,732.20212669106,732.20212668798,732.20212668884,732.20212669039,732.20212668964,732.20212668675,732.20212668789,732.20212668781,732.20212668992,732.20212668937,732.20212668764,732.20212668897,732.20212669145,732.2021266913,732.20212668759,732.20212668824,732.20212669082,732.20212669038,732.20212668781,732.20212668675,732.20212668752,732.20212669059,732.20212669069,732.20212668846,732.20212668936,732.20212668992,732.20212668888,732.20212668698,732.20212668836,732.2021266893,732.20212668985,732.20212668975,732.20212668809,732.2021266892,732.20212668981,732.20212668885,732.20212668745,732.20212668891,732.2021266893,732.20212668989,732.20212668989,732.20212669131,732.20212669131,0.0025847654607618,743.35251180553,161.3358868348,780.75335411844,146.51193712326,0
1.68e-05,20000000,1.1549239899338e-06,4.9863256125644e-06,1.0262484351235e-06,1.000000001362,607.67959772067,607.67959772067,607.67959771846,607.67959771846,607.67959772285,607.67959772276,607.67959771927,607.67959772024,607.679597722,607.67959772115,607.67959771788,607.67959771917,607.67959771907,607.67959772147,607.67959772085,607.67959771888,607.67959772039,607.67959772321,607.67959772303,607.67959771882,607.67959771956,607.67959772249,607.67959772199,607.67959771907,607.67959771787,607.67959771875,607.67959772223,607.67959772234,607.67959771981,607.67959772084,607.67959772147,607.67959772029,607.67959771813,607.6795977197,607.67959772077,607.67959772139,607.67959772127,607.67959771939,607.67959772065,607.67959772134,607.67959772026,607.67959771866,607.67959772032,607.67959772077,607.67959772144,607.67959772144,607.67959772304,607.67959772304,-4.9540672668336e-09,-2.4960636688108e-11,-3.3567698286907e-09,-1.3770806326996e-09,1.0887851686129e-09,1.887100069522e-08,-8.1006412182541e-09,4.4871028761738e-11,3.1852952356293e-10,9.3801729191789e-11,1.0137003161388e-09,-8.9034566929849e-08,-2.1019464865868e-12,-5.9473468365529e-11,1.4344263413823e-09,-7.2891306769753e-08,-1.5798147893669e-10,1.6181636867997e-09,1.7673947767514e-08,-1.3276597131784e-08,-3.034120649191e-10,2.4842247626843e-10,4.3590295745359e-11,-3.8385458888932e-08,2.9180495785242e-09,-6.738819411047e-08,3.3041394118005e-10,9.5376042683522e-09,-2.5221051573628e-09,-1.4293154541528e-10,1.9329437541155e-10,1.4436860826124e-09,1.6055024193954e-10,-5.9286792721518e-08,-7.794311574222e-10,-1.3556454938193e-10,3.030165865462e-09,-2.4036813555359e-08,-2.9859524471671e-11,-3.4124809780929e-11,3.333106299075e-10,-1.0686846729009e-07,-1.812362840599e-10,-1.466727168023e-10,-2.2133237559913e-09,-3.298498893552e-10,7.2953407558709e-10,2.150225747791e-09,732.20212668871,732.20212668871,732.2021266865,732.2021266865,732.20212669089,732.2021266908,732.2021266873,732.20212668828,732.20212669003,732.20212668919,732.20212668591,732.2021266872,732.20212668711,732.20212668951,732.20212668889,732.20212668691,732.20212668843,732.20212669124,732.20212669107,732.20212668686,732.2021266876,732.20212669052,732.20212669003,732.20212668711,732.20212668591,732.20212668679,732.20212669027,732.20212669038,732.20212668785,732.20212668887,732.20212668951,732.20212668832,732.20212668617,732.20212668773,732.20212668881,732.20212668942,732.20212668931,732.20212668743,732.20212668868,732.20212668938,732.20212668829,732.2021266867,732.20212668836,732.20212668881,732.20212668947,732.20212668947,732.20212669108,732.20212669108,0.0029148415763652,747.82208759233,162.30027155868,785.45275670329,147.38779191617,0
1.69e-05,20000000,1.1617979320045e-06,5.0160060110237e-06,1.0323579304755e-06,1.0000000015423,607.6795977201,607.6795977201,607.67959771759,607.67959771759,607.67959772257,607.67959772247,607.6795977185,607.67959771961,607.6795977216,607.67959772064,607.67959771693,607.67959771839,607.67959771828,607.67959772101,607.6795977203,607.67959771807,607.67959771978,607.67959772297,607.67959772277,607.679597718,607.67959771884,607.67959772215,607.67959772159,607.67959771828,607.67959771693,607.67959771792,607.67959772186,607.67959772199,607.67959771912,607.67959772029,607.679597721,607.67959771966,607.67959771722,607.67959771899,607.67959772021,607.67959772091,607.67959772078,607.67959771865,607.67959772007,607.67959772086,607.67959771963,607.67959771782,607.6795977197,607.67959772021,607.67959772096,607.67959772096,607.67959772279,607.67959772279,-5.5789006526096e-09,-2.8108524069531e-11,-3.780096238914e-09,-1.5501654414226e-09,1.2261252925316e-09,2.1247394280424e-08,-9.1231926993825e-09,5.0532234000317e-11,3.587172044349e-10,1.0563337642581e-10,1.1415677252456e-09,-1.0026418983465e-07,-2.3671076438967e-12,-6.6970030059417e-11,1.6153665356199e-09,-8.2085918532913e-08,-1.7791505354225e-10,1.8222766987309e-09,1.9899691133797e-08,-1.4952518817775e-08,-3.4166396382931e-10,2.7976320274821e-10,4.9088176132666e-11,-4.3227656290017e-08,3.2861020027941e-09,-7.5887637171481e-08,3.7209835074963e-10,1.0738570443354e-08,-2.8404560124227e-09,-1.6095582999898e-10,2.176807478264e-10,1.6258106519948e-09,1.8080350390123e-10,-6.6764404799382e-08,-8.7772862217944e-10,-1.5265524270781e-10,3.4123845543702e-09,-2.7068814554827e-08,-3.3629633420498e-11,-3.842747429924e-11,3.7535522551124e-10,-1.2034915042989e-07,-2.0410161653601e-10,-1.6517532212409e-10,-2.4924823286047e-09,-3.7136118388291e-10,8.2155567450204e-10,2.4209537164945e-09,732.20212668813,732.20212668813,732.20212668563,732.20212668563,732.20212669061,732.2021266905,732.20212668654,732.20212668765,732.20212668964,732.20212668868,732.20212668497,732.20212668643,732.20212668632,732.20212668904,732.20212668834,732.2021266861,732.20212668781,732.202126691,732.20212669081,732.20212668604,732.20212668688,732.20212669019,732.20212668963,732.20212668632,732.20212668496,732.20212668596,732.2021266899,732.20212669003,732.20212668716,732.20212668832,732.20212668904,732.2021266877,732.20212668526,732.20212668703,732.20212668824,732.20212668894,732.20212668881,732.20212668668,732.20212668811,732.2021266889,732.20212668766,732.20212668586,732.20212668773,732.20212668824,732.202126689,732.202126689,732.20212669082,732.20212669082,0.0032847117865243,752.29187803754,163.26463611176,790.15244816063,148.26362934449,0
1.7e-05,20000000,1.1686718668463e-06,5.0456864081705e-06,1.0384674363906e-06,1.0000000017452,607.67959771945,607.67959771945,607.67959771662,607.67959771662,607.67959772225,607.67959772213,607.67959771765,607.6795977189,607.67959772115,607.67959772007,607.67959771586,607.67959771752,607.6795977174,607.67959772048,607.67959771968,607.67959771715,607.67959771909,607.6795977227,607.67959772248,607.67959771708,607.67959771803,607.67959772178,607.67959772114,607.6795977174,607.67959771586,607.67959771698,607.67959772145,607.6795977216,607.67959771834,607.67959771966,607.67959772047,607.67959771896,607.67959771619,607.6795977182,607.67959771958,607.67959772037,607.67959772022,607.67959771781,607.67959771942,607.67959772031,607.67959771892,607.67959771687,607.679597719,607.67959771958,607.67959772043,607.67959772043,607.6795977225,607.6795977225,-6.278143156983e-09,-3.163124629626e-11,-4.2538290112379e-09,-1.7437831146097e-09,1.3798230114e-09,2.3906296504085e-08,-1.0267629163536e-08,5.6867854690381e-11,4.0369242251263e-10,1.1887413118649e-10,1.2846643115054e-09,-1.1283112191218e-07,-2.6638529002437e-12,-7.5358734944425e-11,1.8178573040126e-09,-9.237564018967e-08,-2.0022352027024e-10,2.0506997116166e-09,2.2390045804017e-08,-1.6828205773434e-08,-3.8446904831197e-10,3.1483729579103e-10,5.5240786663578e-11,-4.8646602686459e-08,3.6979862473068e-09,-8.5399259348373e-08,4.1874824866047e-10,1.2082297370052e-08,-3.1967510964315e-09,-1.8112617350399e-10,2.4497214310476e-10,1.8296289953892e-09,2.0346916306684e-10,-7.5132504317488e-08,-9.8773088569544e-10,-1.7178023460608e-10,3.8401254420072e-09,-3.0461932500066e-08,-3.784924755692e-11,-4.3242352181509e-11,4.224075250611e-10,-1.3543544841581e-07,-2.2969080869492e-10,-1.8588179880731e-10,-2.8048853112525e-09,-4.1780395533171e-10,9.2453699663071e-10,2.7238600465556e-09,732.20212668749,732.20212668749,732.20212668465,732.20212668465,732.20212669029,732.20212669017,732.20212668568,732.20212668694,732.20212668919,732.2021266881,732.2021266839,732.20212668555,732.20212668543,732.20212668851,732.20212668771,732.20212668519,732.20212668712,732.20212669074,732.20212669052,732.20212668511,732.20212668606,732.20212668982,732.20212668918,732.20212668543,732.2021266839,732.20212668502,732.20212668949,732.20212668963,732.20212668638,732.2021266877,732.20212668851,732.20212668699,732.20212668423,732.20212668623,732.20212668761,732.2021266884,732.20212668826,732.20212668584,732.20212668746,732.20212668835,732.20212668695,732.20212668491,732.20212668704,732.20212668761,732.20212668847,732.20212668847,732.20212669053,732.20212669053,0.0036988930380603,756.76188258087,164.22898049468,794.85242847878,149.13944940895,0
1.71e-05,20000000,1.1755457944577e-06,5.0753668040048e-06,1.0445769528737e-06,1.0000000019734,607.67959771872,607.67959771872,607.67959771551,607.67959771551,607.67959772189,607.67959772176,607.67959771668,607.6795977181,607.67959772065,607.67959771942,607.67959771466,607.67959771654,607.6795977164,607.67959771989,607.67959771898,607.67959771612,607.67959771831,607.6795977224,607.67959772215,607.67959771603,607.67959771711,607.67959772136,607.67959772064,607.6795977164,607.67959771466,607.67959771593,607.67959772099,607.67959772115,607.67959771747,607.67959771896,607.67959771988,607.67959771817,607.67959771504,607.67959771731,607.67959771887,607.67959771976,607.67959771959,607.67959771686,607.67959771869,607.6795977197,607.67959771812,607.67959771581,607.67959771821,607.67959771887,607.67959771983,607.67959771983,607.67959772217,607.67959772217,-7.0601385650891e-09,-3.5570831012396e-11,-4.7836197071609e-09,-1.9602261664247e-09,1.5517128640983e-09,2.6879325830454e-08,-1.1547632259878e-08,6.3953546592904e-11,4.539922436529e-10,1.3368201845927e-10,1.4446980356935e-09,-1.2688532273647e-07,-2.9957248113869e-12,-8.4739549354379e-11,2.0443156003279e-09,-1.0388329110303e-07,-2.2517332136348e-10,2.3061590896159e-09,2.5174628674622e-08,-1.8926081816886e-08,-4.3233762886849e-10,3.540635348641e-10,6.2121546392381e-11,-5.4706985282203e-08,4.158617613453e-09,-9.6036561796512e-08,4.7092061927951e-10,1.3584761438255e-08,-3.5952493928037e-09,-2.0368317580769e-10,2.7549443262482e-10,2.0575743895996e-09,2.2881779691742e-10,-8.4490945863804e-08,-1.1107503274952e-09,-1.9316752024965e-10,4.3184937999401e-09,-3.4256666973848e-08,-4.256883893003e-11,-4.8626858323864e-11,4.750291625084e-10,-1.5230743743914e-07,-2.5830941370623e-10,-2.090393355263e-10,-3.1542606167642e-09,-4.6972970851598e-10,1.0397071597666e-09,3.0625453867139e-09,732.20212668676,732.20212668676,732.20212668355,732.20212668355,732.20212668993,732.2021266898,732.20212668472,732.20212668613,732.20212668869,732.20212668746,732.2021266827,732.20212668457,732.20212668443,732.20212668792,732.20212668702,732.20212668415,732.20212668635,732.20212669044,732.20212669019,732.20212668407,732.20212668515,732.20212668939,732.20212668867,732.20212668443,732.2021266827,732.20212668397,732.20212668902,732.20212668919,732.20212668551,732.202126687,732.20212668792,732.2021266862,732.20212668307,732.20212668534,732.2021266869,732.2021266878,732.20212668763,732.2021266849,732.20212668672,732.20212668773,732.20212668616,732.20212668384,732.20212668625,732.2021266869,732.20212668787,732.20212668787,732.2021266902,732.2021266902,0.0041623835131877,761.23210059827,165.19330470839,799.55269764355,150.01525211027,0
1.72e-05,20000000,1.1824197148373e-06,5.1050471985267e-06,1.05068647993e-06,1.0000000022298,607.6795977179,607.6795977179,607.67959771428,607.67959771428,607.67959772149,607.67959772134,607.67959771559,607.6795977172,607.67959772008,607.6795977187,607.67959771331,607.67959771543,607.67959771527,607.67959771922,607.6795977182,607.67959771496,607.67959771744,607.67959772206,607.67959772178,607.67959771486,607.67959771608,607.67959772089,607.67959772007,607.67959771527,607.67959771331,607.67959771475,607.67959772046,607.67959772065,607.67959771649,607.67959771818,607.67959771921,607.67959771727,607.67959771374,607.6795977163,607.67959771807,607.67959771908,607.67959771889,607.6795977158,607.67959771787,607.67959771901,607.67959771722,607.67959771461,607.67959771733,607.67959771807,607.67959771916,607.67959771916,607.6795977218,607.6795977218,-7.9341089773606e-09,-3.9973729552415e-11,-5.3757147345231e-09,-2.2020272548307e-09,1.7438225428154e-09,3.0201422050977e-08,-1.2978325549357e-08,7.1872933233015e-11,5.1021029551896e-10,1.502317000939e-10,1.6235566820701e-09,-1.4259253773365e-07,-3.3666389577436e-12,-9.5222954283279e-11,2.2974128537835e-09,-1.1674462192702e-07,-2.5305896294214e-10,2.5916682415768e-09,2.8286167893381e-08,-2.1270934024524e-08,-4.8583370529849e-10,3.9790480028166e-10,6.9811603241172e-11,-6.1480302404217e-08,4.673428858224e-09,-1.0792499367407e-07,5.2923110133934e-10,1.5263617090939e-08,-4.0406587078399e-09,-2.2889275884176e-10,3.0960780569319e-10,2.3123363355725e-09,2.5714847384823e-10,-9.4950095389821e-08,-1.2482374635805e-09,-2.1706908146746e-10,4.8531324027094e-09,-3.8497781569607e-08,-4.7844200589026e-11,-5.4644448965634e-11,5.3384090573478e-10,-1.711641536724e-07,-2.9029516337691e-10,-2.3492114907198e-10,-3.5447285982443e-09,-5.2774783019419e-10,1.168424687464e-09,3.4409885216191e-09,732.20212668594,732.20212668594,732.20212668231,732.20212668231,732.20212668952,732.20212668937,732.20212668363,732.20212668523,732.20212668812,732.20212668673,732.20212668135,732.20212668347,732.20212668331,732.20212668726,732.20212668623,732.202126683,732.20212668548,732.2021266901,732.20212668982,732.2021266829,732.20212668412,732.20212668892,732.20212668811,732.20212668331,732.20212668135,732.20212668278,732.2021266885,732.20212668869,732.20212668452,732.20212668621,732.20212668725,732.20212668531,732.20212668177,732.20212668434,732.2021266861,732.20212668711,732.20212668692,732.20212668384,732.2021266859,732.20212668704,732.20212668526,732.20212668264,732.20212668536,732.2021266861,732.20212668719,732.20212668719,732.20212668984,732.20212668984,0.0046807105846888,765.70253139536,166.15760875354,804.2532556376,150.89103744925,0
1.73e-05,20000000,1.1892936279834e-06,5.1347275917365e-06,1.056796017565e-06,1.0000000025177,607.67959771698,607.67959771698,607.67959771289,607.67959771289,607.67959772103,607.67959772087,607.67959771437,607.67959771619,607.67959771945,607.67959771788,607.6795977118,607.67959771419,607.67959771401,607.67959771847,607.67959771731,607.67959771366,607.67959771646,607.67959772169,607.67959772137,607.67959771355,607.67959771493,607.67959772035,607.67959771943,607.67959771401,607.67959771179,607.67959771342,607.67959771988,607.67959772009,607.67959771538,607.67959771729,607.67959771846,607.67959771627,607.67959771228,607.67959771517,607.67959771717,607.67959771831,607.6795977181,607.67959771461,607.67959771694,607.67959771823,607.67959771622,607.67959771326,607.67959771633,607.67959771717,607.6795977184,607.6795977184,607.67959772139,607.67959772139,-8.9102413050097e-09,-4.4891252561399e-11,-6.0370139225977e-09,-2.4719826969006e-09,1.958391919887e-09,3.3911172605006e-08,-1.4576416698416e-08,8.0718391019021e-11,5.7300234101789e-10,1.6871611351064e-10,1.8233255718274e-09,-1.6013585278489e-07,-3.7809206940441e-12,-1.0693097998283e-10,2.5801000366407e-09,-1.3110958840441e-07,-2.8420578068596e-10,2.9105558960752e-09,3.1760808559607e-08,-2.3890145783738e-08,-5.4558025102973e-10,4.4687241838988e-10,7.8400595208954e-11,-6.9045534477783e-08,5.2484211599805e-09,-1.2120312879838e-07,5.9435976699691e-10,1.7138361674387e-08,-4.5381799277133e-09,-2.5704865986529e-10,3.4771015095211e-10,2.5968858013724e-09,2.8879155999138e-10,-1.066318653678e-07,-1.4017945491931e-09,-2.4376324755641e-10,5.4502744734611e-09,-4.3234723909883e-08,-5.3736971503015e-11,-6.1365216372364e-11,5.9952848174238e-10,-1.9222546095661e-07,-3.2602113881947e-10,-2.6382904854322e-10,-3.9808407001743e-09,-5.9253127040279e-10,1.3121902558363e-09,3.863583513637e-09,732.20212668502,732.20212668502,732.20212668092,732.20212668092,732.20212668907,732.2021266889,732.20212668241,732.20212668422,732.20212668748,732.20212668591,732.20212667983,732.20212668223,732.20212668205,732.20212668651,732.20212668535,732.20212668169,732.2021266845,732.20212668972,732.2021266894,732.20212668159,732.20212668296,732.20212668839,732.20212668747,732.20212668205,732.20212667983,732.20212668145,732.20212668791,732.20212668812,732.20212668342,732.20212668533,732.2021266865,732.20212668431,732.20212668031,732.20212668321,732.2021266852,732.20212668635,732.20212668613,732.20212668264,732.20212668498,732.20212668627,732.20212668425,732.20212668129,732.20212668437,732.2021266852,732.20212668644,732.20212668644,732.20212668942,732.20212668942,0.0052599832226293,770.17317420033,167.12189263091,808.95410244121,151.7668054265,0
1.74e-05,20000000,1.1961675338945e-06,5.164407983634e-06,1.0629055657838e-06,1.0000000028408,607.67959771595,607.67959771595,607.67959771132,607.67959771132,607.67959772052,607.67959772033,607.679597713,607.67959771505,607.67959771873,607.67959771696,607.67959771009,607.6795977128,607.6795977126,607.67959771763,607.67959771632,607.67959771219,607.67959771536,607.67959772126,607.6795977209,607.67959771207,607.67959771363,607.67959771975,607.67959771872,607.6795977126,607.67959771009,607.67959771192,607.67959771922,607.67959771946,607.67959771414,607.6795977163,607.67959771762,607.67959771515,607.67959771063,607.67959771391,607.67959771616,607.67959771745,607.67959771721,607.67959771327,607.6795977159,607.67959771736,607.67959771508,607.67959771174,607.67959771521,607.67959771616,607.67959771755,607.67959771755,607.67959772092,607.67959772092,-9.9997817028914e-09,-5.0380045593599e-11,-6.7751344727141e-09,-2.7731781272679e-09,2.1978938214555e-09,3.8051168771732e-08,-1.6360352743393e-08,9.0591906464224e-11,6.430923636082e-10,1.8934826083707e-10,2.0463069027584e-09,-1.7971739149327e-07,-4.2433452734206e-12,-1.1999833542533e-10,2.8956350332606e-09,-1.4714374210677e-07,-3.1897295955636e-10,3.2664969722683e-09,3.5638446409998e-08,-2.6813951268319e-08,-6.1226498214516e-10,5.0153090577875e-10,8.7987481451848e-11,-7.7489876606032e-08,5.8902197626148e-09,-1.3602395028411e-07,6.6705743158189e-10,1.9230515376725e-08,-5.0935553432674e-09,-2.8847515352987e-10,3.9024074832028e-10,2.914502782994e-09,3.2411178376038e-10,-1.1967084494172e-07,-1.5731904299593e-09,-2.7355727262794e-10,6.1168014903102e-09,-4.8522084224142e-08,-6.0315209754129e-11,-6.8866538067173e-11,6.7284893666598e-10,-2.1573408995689e-07,-3.6589923230458e-10,-2.9609623498169e-10,-4.4676216573525e-09,-6.6482274328506e-10,1.4726606105667e-09,4.3351802435569e-09,732.20212668398,732.20212668398,732.20212667936,732.20212667936,732.20212668856,732.20212668837,732.20212668104,732.20212668309,732.20212668677,732.202126685,732.20212667813,732.20212668083,732.20212668063,732.20212668567,732.20212668436,732.20212668023,732.2021266834,732.2021266893,732.20212668894,732.20212668011,732.20212668166,732.20212668779,732.20212668675,732.20212668063,732.20212667812,732.20212667996,732.20212668725,732.20212668749,732.20212668218,732.20212668433,732.20212668566,732.20212668318,732.20212667867,732.20212668194,732.20212668419,732.20212668548,732.20212668524,732.2021266813,732.20212668394,732.2021266854,732.20212668312,732.20212667978,732.20212668325,732.20212668419,732.20212668559,732.20212668559,732.20212668896,732.20212668896,0.0059069492355238,774.64402815514,168.0861563414,813.65523803102,152.64255604276,0
1.75e-05,20000000,1.2030414325689e-06,5.1940883742195e-06,1.0690151245923e-06,1.0000000032032,607.67959771479,607.67959771479,607.67959770957,607.67959770957,607.67959771995,607.67959771974,607.67959771147,607.67959771378,607.67959771793,607.67959771593,607.67959770818,607.67959771123,607.67959771101,607.67959771669,607.67959771521,607.67959771055,607.67959771412,607.67959772078,607.67959772038,607.67959771041,607.67959771217,607.67959771908,607.67959771791,607.67959771101,607.67959770818,607.67959771025,607.67959771848,607.67959771875,607.67959771275,607.67959771518,607.67959771668,607.67959771388,607.67959770879,607.67959771248,607.67959771502,607.67959771648,607.67959771621,607.67959771176,607.67959771474,607.67959771638,607.67959771381,607.67959771004,607.67959771396,607.67959771502,607.6795977166,607.6795977166,607.6795977204,607.6795977204,-1.1215138615479e-08,-5.6502608094428e-11,-7.5984807420756e-09,-3.1090164809158e-09,2.4650566967673e-09,4.2668394268194e-08,-1.8350489540852e-08,1.0160601166153e-10,7.2127920810013e-10,2.1236316129076e-10,2.2950408536653e-09,-2.0156016726187e-07,-4.7591816333143e-12,-1.3457364070057e-10,3.2476125066278e-09,-1.6502974807504e-07,-3.5775682920992e-10,3.663546267689e-09,3.996309186522e-08,-3.0075713164327e-08,-6.8664665233612e-10,5.6250314652105e-10,9.868144918557e-11,-8.6909538000591e-08,6.6061346965467e-09,-1.5255625235829e-07,7.4815253926558e-10,2.1563817534943e-08,-5.7131213896796e-09,-3.2353002220994e-10,4.3768429792896e-10,3.2688063804508e-09,3.6351158007123e-10,-1.342155331595e-07,-1.7643767476646e-09,-3.067901479138e-10,6.8603062673772e-09,-5.4420095769283e-08,-6.7654018119548e-11,-7.7233785252029e-11,7.5463757615534e-10,-2.4195786338865e-07,-4.1038392511238e-10,-3.3209035650703e-10,-5.0106155437657e-09,-7.4544149142117e-10,1.6516637538109e-09,4.8611286385062e-09,732.20212668282,732.20212668282,732.2021266776,732.2021266776,732.20212668799,732.20212668777,732.2021266795,732.20212668181,732.20212668596,732.20212668397,732.20212667622,732.20212667927,732.20212667904,732.20212668472,732.20212668325,732.20212667859,732.20212668216,732.20212668882,732.20212668841,732.20212667845,732.20212668021,732.20212668712,732.20212668595,732.20212667904,732.20212667621,732.20212667828,732.20212668651,732.20212668678,732.20212668079,732.20212668322,732.20212668471,732.20212668192,732.20212667683,732.20212668052,732.20212668306,732.20212668452,732.20212668425,732.2021266798,732.20212668277,732.20212668442,732.20212668185,732.20212667808,732.202126682,732.20212668306,732.20212668463,732.20212668463,732.20212668844,732.20212668844,0.0066290577592098,779.11509230761,169.05039988565,818.35666238013,153.51828929869,0
1.76e-05,20000000,1.2099153240049e-06,5.2237687634931e-06,1.0751246939964e-06,1.0000000036094,607.67959771349,607.67959771349,607.6795977076,607.6795977076,607.67959771931,607.67959771907,607.67959770974,607.67959771235,607.67959771703,607.67959771478,607.67959770604,607.67959770948,607.67959770922,607.67959771563,607.67959771397,607.67959770871,607.67959771274,607.67959772025,607.67959771979,607.67959770856,607.67959771054,607.67959771833,607.67959771701,607.67959770922,607.67959770603,607.67959770837,607.67959771765,607.67959771795,607.67959771119,607.67959771393,607.67959771562,607.67959771247,607.67959770672,607.67959771089,607.67959771375,607.6795977154,607.67959771509,607.67959771008,607.67959771343,607.67959771528,607.67959771239,607.67959770814,607.67959771255,607.67959771375,607.67959771553,607.67959771553,607.67959771982,607.67959771982,-1.2569995164479e-08,-6.3327859437711e-11,-8.5163203545574e-09,-3.4832484945761e-09,2.762889343645e-09,4.7814648988945e-08,-2.0569276606728e-08,1.1388480463684e-10,8.0844382401027e-10,2.3801998062981e-10,2.5723286029491e-09,-2.2591010327674e-07,-5.3342401534225e-12,-1.5082077104958e-10,3.6399964738813e-09,-1.8496904010584e-07,-4.0099445846474e-10,4.1061752015491e-09,4.4783267000229e-08,-3.3712225618126e-08,-7.6956191828444e-10,6.3047603912166e-10,1.1060290283096e-10,-9.7410613924497e-08,7.4042270064121e-09,-1.7098616926287e-07,8.3855867342895e-10,2.416444069208e-08,-6.4038661752793e-09,-3.6260779561591e-10,4.9057531460142e-10,3.6637876021778e-09,4.0743473792745e-10,-1.5042968400515e-07,-1.9775056153332e-09,-3.4383566890268e-10,7.6891617572664e-09,-6.0995180635738e-08,-7.5836226491501e-11,-8.6561095424204e-11,8.4581553528647e-10,-2.7119212307016e-07,-4.5997640815232e-10,-3.7221684059172e-10,-5.6159359974172e-09,-8.3529066118895e-10,1.851215508547e-09,5.4473268981869e-09,732.20212668152,732.20212668152,732.20212667564,732.20212667564,732.20212668734,732.2021266871,732.20212667778,732.20212668038,732.20212668506,732.20212668281,732.20212667407,732.20212667751,732.20212667726,732.20212668366,732.202126682,732.20212667675,732.20212668077,732.20212668828,732.20212668782,732.20212667659,732.20212667857,732.20212668637,732.20212668505,732.20212667726,732.20212667407,732.2021266764,732.20212668568,732.20212668599,732.20212667923,732.20212668197,732.20212668365,732.2021266805,732.20212667476,732.20212667893,732.20212668179,732.20212668343,732.20212668313,732.20212667811,732.20212668146,732.20212668332,732.20212668042,732.20212667617,732.20212668059,732.20212668179,732.20212668356,732.20212668356,732.20212668785,732.20212668785,0.0074345274394419,783.58636560087,170.01462326441,823.0583754576,154.39400519508,0
1.77e-05,20000000,1.2167892082007e-06,5.2534491514549e-06,1.0812342740021e-06,1.0000000040643,607.67959771203,607.67959771203,607.6795977054,607.6795977054,607.67959771859,607.67959771832,607.67959770781,607.67959771074,607.67959771602,607.67959771348,607.67959770364,607.67959770751,607.67959770722,607.67959771444,607.67959771257,607.67959770665,607.67959771119,607.67959771965,607.67959771913,607.67959770647,607.6795977087,607.67959771749,607.679597716,607.67959770722,607.67959770363,607.67959770626,607.67959771672,607.67959771706,607.67959770944,607.67959771253,607.67959771443,607.67959771088,607.67959770441,607.6795977091,607.67959771233,607.67959771418,607.67959771384,607.67959770819,607.67959771196,607.67959771405,607.67959771079,607.679597706,607.67959771098,607.67959771233,607.67959771433,607.67959771433,607.67959771916,607.67959771916,-1.4079431663663e-08,-7.0931755977417e-11,-9.5388671707731e-09,-3.9000059372774e-09,3.0947078631834e-09,5.354701083432e-08,-2.3041458641402e-08,1.2756506173136e-10,9.0555716220917e-10,2.6660435256863e-10,2.8812574225174e-09,-2.5303823451691e-07,-5.9749247201685e-12,-1.6892032191992e-10,4.077155818854e-09,-2.0718362526865e-07,-4.491675740054e-10,4.5993118706795e-09,5.015243819966e-08,-3.77640445322e-08,-8.6193282342692e-10,7.0620665272253e-10,1.2388454232071e-10,-1.0911003625044e-07,8.2933809488968e-09,-1.915188419347e-07,9.392827443258e-10,2.7061223892752e-08,-7.1734922032093e-09,-4.0614328233407e-10,5.4950291865657e-10,4.103845127376e-09,4.5637037691213e-10,-1.6849377263312e-07,-2.2149488852297e-09,-3.8510577873679e-10,8.6125960564518e-09,-6.8320544759114e-08,-8.4953135926298e-11,-9.6952214584686e-11,9.4739803099152e-10,-3.0376237578847e-07,-5.1522907421331e-10,-4.1692252680487e-10,-6.2903209724379e-09,-9.3536534030927e-10,2.0735375762758e-09,6.1002740546465e-09,732.20212668007,732.20212668007,732.20212667343,732.20212667343,732.20212668662,732.20212668636,732.20212667584,732.20212667878,732.20212668406,732.20212668152,732.20212667167,732.20212667554,732.20212667526,732.20212668248,732.20212668061,732.20212667468,732.20212667922,732.20212668768,732.20212668717,732.20212667451,732.20212667674,732.20212668552,732.20212668403,732.20212667526,732.20212667166,732.20212667429,732.20212668475,732.20212668509,732.20212667748,732.20212668057,732.20212668247,732.20212667892,732.20212667244,732.20212667714,732.20212668036,732.20212668222,732.20212668187,732.20212667622,732.20212668,732.20212668209,732.20212667883,732.20212667403,732.20212667901,732.20212668036,732.20212668237,732.20212668237,732.2021266872,732.2021266872,0.0083324207885789,788.05784686299,170.9788264783,827.76037722815,155.26970373259,0
1.78e-05,20000000,1.2236630851545e-06,5.2831295381049e-06,1.087343864616e-06,1.0000000045736,607.6795977104,607.6795977104,607.67959770293,607.67959770293,607.67959771778,607.67959771748,607.67959770564,607.67959770895,607.67959771489,607.67959771203,607.67959770094,607.67959770531,607.67959770498,607.67959771311,607.67959771101,607.67959770433,607.67959770945,607.67959771897,607.67959771839,607.67959770414,607.67959770665,607.67959771654,607.67959771487,607.67959770498,607.67959770093,607.6795977039,607.67959771567,607.67959771606,607.67959770748,607.67959771096,607.6795977131,607.6795977091,607.67959770182,607.6795977071,607.67959771073,607.67959771282,607.67959771243,607.67959770607,607.67959771032,607.67959771268,607.679597709,607.6795977036,607.67959770921,607.67959771073,607.67959771299,607.67959771299,607.67959771843,607.67959771843,-1.5760059107276e-08,-7.9397963379832e-11,-1.0677371691091e-08,-4.3638377952706e-09,3.4641650302161e-09,5.9928338804932e-08,-2.5794295139062e-08,1.42797449712e-10,1.013688779539e-09,2.9843090822641e-10,3.2252280206163e-09,-2.8324310700385e-07,-6.6882894578582e-12,-1.8907120515385e-10,4.5639029873594e-09,-2.3191805013434e-07,-5.0280683047092e-10,5.1483846953186e-09,5.6129487475553e-08,-4.2275847500941e-08,-9.6477495179706e-10,7.9052893518267e-10,1.386725380288e-10,-1.2213660921114e-07,9.2833826601176e-09,-2.1438023397789e-07,1.0514339107311e-09,3.0285926821853e-08,-8.0304847210139e-09,-4.5461541771485e-10,6.1511605620299e-10,4.5938242738364e-09,5.1085728010161e-10,-1.886065929342e-07,-2.4793191429605e-09,-4.3105421095882e-10,9.6407741326051e-09,-7.6476826252116e-08,-9.5105329489564e-11,-1.0852141485354e-10,1.0605033541069e-09,-3.4002717628021e-07,-5.7675041294907e-10,-4.6669962517491e-10,-7.0411923972794e-09,-1.0467613127628e-09,2.3210772130399e-09,6.8271272269872e-09,732.20212667843,732.20212667843,732.20212667096,732.20212667096,732.20212668582,732.20212668552,732.20212667368,732.20212667698,732.20212668293,732.20212668007,732.20212666898,732.20212667334,732.20212667302,732.20212668115,732.20212667904,732.20212667237,732.20212667748,732.20212668701,732.20212668643,732.20212667217,732.20212667469,732.20212668458,732.2021266829,732.20212667302,732.20212666897,732.20212667193,732.20212668371,732.2021266841,732.20212667552,732.202126679,732.20212668114,732.20212667714,732.20212666985,732.20212667514,732.20212667877,732.20212668085,732.20212668047,732.2021266741,732.20212667836,732.20212668071,732.20212667704,732.20212667164,732.20212667725,732.20212667877,732.20212668102,732.20212668102,732.20212668647,732.20212668647,0.0093327252346276,792.5295347955,171.94300952818,832.46266765176,156.14538491179,0
1.79e-05,20000000,1.2305369548642e-06,5.3128099234434e-06,1.0934534658443e-06,1.0000000051432,607.67959770857,607.67959770857,607.67959770016,607.67959770016,607.67959771688,607.67959771654,607.67959770322,607.67959770694,607.67959771362,607.67959771041,607.67959769793,607.67959770284,607.67959770248,607.67959771162,607.67959770925,607.67959770175,607.6795977075,607.67959771822,607.67959771757,607.67959770153,607.67959770435,607.67959771549,607.6795977136,607.67959770248,607.67959769792,607.67959770126,607.67959771451,607.67959771494,607.67959770529,607.67959770921,607.67959771161,607.67959770711,607.67959769891,607.67959770486,607.67959770895,607.67959771129,607.67959771086,607.6795977037,607.67959770849,607.67959771113,607.679597707,607.67959770093,607.67959770724,607.67959770895,607.67959771148,607.67959771148,607.67959771761,607.67959771761,-1.7630164543623e-08,-8.8818588833179e-11,-1.1944219509423e-08,-4.8797496549737e-09,3.8752822804584e-09,6.7027820779944e-08,-2.8857799587084e-08,1.5974784591098e-10,1.1340162103268e-09,3.3384603090015e-10,3.607984320645e-09,-3.1685339067766e-07,-7.4821005148891e-12,-2.1149238719621e-10,5.1055361299793e-09,-2.594415421701e-07,-5.6249646116862e-10,5.7593699532934e-09,6.277922564955e-08,-4.7296825854176e-08,-1.0792063075992e-09,8.8436101896205e-10,1.5512781035559e-10,-1.3663213742904e-07,1.0385005830516e-08,-2.3981910933313e-07,1.1762332966307e-09,3.3873506512308e-08,-8.9841861667218e-09,-5.0855145440171e-10,6.8812918466609e-10,5.1390594378783e-09,5.7148861305537e-10,-2.1098699734308e-07,-2.7734925712179e-09,-4.8218045647067e-10,1.0784886832945e-08,-8.5552801493424e-08,-1.0640355546286e-10,-1.2139449375386e-10,1.186362662571e-09,-3.8038126705495e-07,-6.4521034210821e-10,-5.2209002724219e-10,-7.8767211469268e-09,-1.1706845903994e-09,2.5965286583558e-09,7.635763959614e-09,732.2021266766,732.2021266766,732.2021266682,732.2021266682,732.20212668491,732.20212668458,732.20212667125,732.20212667498,732.20212668166,732.20212667844,732.20212666597,732.20212667088,732.20212667051,732.20212667966,732.20212667729,732.20212666978,732.20212667554,732.20212668626,732.2021266856,732.20212666956,732.20212667239,732.20212668352,732.20212668164,732.20212667051,732.20212666596,732.20212666929,732.20212668254,732.20212668298,732.20212667333,732.20212667724,732.20212667965,732.20212667515,732.20212666695,732.20212667289,732.20212667698,732.20212667933,732.20212667889,732.20212667173,732.20212667652,732.20212667917,732.20212667503,732.20212666896,732.20212667527,732.20212667698,732.20212667952,732.20212667952,732.20212668565,732.20212668565,0.010446441420425,797.00142796048,172.90717241461,837.16524668256,157.02104873345,0
1.8e-05,20000000,1.2374108173278e-06,5.3424903074705e-06,1.0995630776943e-06,1.00000000578,607.67959770652,607.67959770652,607.67959769707,607.67959769707,607.67959771587,607.67959771549,607.6795977005,607.67959770469,607.67959771221,607.67959770859,607.67959769456,607.67959770008,607.67959769967,607.67959770996,607.67959770729,607.67959769885,607.67959770532,607.67959771738,607.67959771665,607.6795976986,607.67959770178,607.6795977143,607.67959771218,607.67959769967,607.67959769455,607.6795976983,607.6795977132,607.67959771369,607.67959770284,607.67959770724,607.67959770995,607.67959770489,607.67959769566,607.67959770235,607.67959770695,607.67959770959,607.6795977091,607.67959770105,607.67959770643,607.67959770941,607.67959770476,607.67959769793,607.67959770503,607.67959770695,607.6795977098,607.6795977098,607.67959771669,607.67959771669,-1.9709869315177e-08,-9.9294978083194e-11,-1.3353038483314e-08,-5.4532465444345e-09,4.3324845307206e-09,7.4921569663686e-08,-3.2264999878658e-08,1.785987753357e-10,1.2678351682171e-09,3.7323085479384e-10,4.0336458773972e-09,-3.5423072353874e-07,-8.3649033231615e-12,-2.3642478105359e-10,5.7078849773808e-09,-2.9005034076904e-07,-6.2887934090764e-10,6.4388435241216e-09,7.0172950852131e-08,-5.2881111468698e-08,-1.2064569804635e-09,9.887131742366e-10,1.7342742262023e-10,-1.5275265385105e-07,1.1610104966705e-08,-2.6810918499574e-07,1.3150245687295e-09,3.7862418482568e-08,-1.0044877216554e-08,-5.6853152381048e-10,7.6932846202735e-10,5.7454202934506e-09,6.389170608118e-10,-2.3587579063241e-07,-3.1006338375713e-09,-5.3903408149415e-10,1.2057247775554e-08,-9.5646153743413e-08,-1.1896968890681e-10,-1.3570986190868e-10,1.3263306420102e-09,-4.2525899627918e-07,-7.2134601109899e-10,-5.8368999899151e-10,-8.8058977683873e-09,-1.3084617851986e-09,2.9028564619811e-09,8.5348500631612e-09,732.20212667456,732.20212667456,732.20212666511,732.20212666511,732.20212668391,732.20212668353,732.20212666854,732.20212667273,732.20212668025,732.20212667663,732.2021266626,732.20212666812,732.20212666771,732.20212667799,732.20212667533,732.20212666689,732.20212667336,732.20212668541,732.20212668468,732.20212666664,732.20212666982,732.20212668234,732.20212668022,732.20212666771,732.20212666258,732.20212666634,732.20212668124,732.20212668173,732.20212667087,732.20212667528,732.20212667798,732.20212667292,732.2021266637,732.20212667039,732.20212667498,732.20212667762,732.20212667714,732.20212666908,732.20212667447,732.20212667744,732.20212667279,732.20212666596,732.20212667306,732.20212667498,732.20212667784,732.20212667784,732.20212668473,732.20212668473,0.011685679353601,801.47352476628,173.87131513842,841.86811426947,157.89669519827,0
1.81e-05,20000000,1.2442846725431e-06,5.3721706901864e-06,1.1056727001732e-06,1.0000000064915,607.67959770424,607.67959770424,607.67959769361,607.67959769361,607.67959771474,607.67959771431,607.67959769747,607.67959770218,607.67959771063,607.67959770657,607.67959769079,607.679597697,607.67959769654,607.6795977081,607.6795977051,607.67959769561,607.67959770289,607.67959771644,607.67959771561,607.67959769534,607.67959769891,607.67959771298,607.6795977106,607.67959769654,607.67959769078,607.679597695,607.67959771174,607.6795977123,607.67959770009,607.67959770504,607.67959770808,607.6795977024,607.67959769203,607.67959769955,607.67959770471,607.67959770768,607.67959770713,607.67959769808,607.67959770413,607.67959770748,607.67959770225,607.67959769458,607.67959770255,607.67959770471,607.67959770792,607.67959770792,607.67959771567,607.67959771567,-2.2021301221427e-08,-1.1093858261908e-10,-1.4918815336492e-08,-6.090379515477e-09,4.8406380650721e-09,8.3693271860771e-08,-3.6052221683502e-08,1.995509743528e-10,1.4165706466141e-09,4.1700452775401e-10,4.5067431475015e-09,-3.95772806044e-07,-9.3460957802439e-12,-2.6413330462106e-10,6.3773607550173e-09,-3.2407023351292e-07,-7.0266249484498e-10,7.1940371891088e-09,7.8389056049218e-08,-5.9088241207863e-08,-1.3478796609274e-09,1.1046964624757e-09,1.9376609657453e-10,-1.7066975580365e-07,1.297171686376e-08,-2.9955147315721e-07,1.4692854455407e-09,4.2294944303839e-08,-1.1223864977151e-08,-6.3519359904792e-10,8.5957848119629e-10,6.419362059467e-09,7.1386041725082e-10,-2.635377903353e-07,-3.4642231727433e-09,-6.0221942534625e-10,1.3471398771741e-08,-1.0686430943036e-07,-1.3293777803499e-10,-1.5161972640592e-10,1.4818971050135e-09,-4.7513803659044e-07,-8.059681157206e-10,-6.5215528703783e-10,-9.8386094323771e-09,-1.4615513909316e-09,3.2433208645491e-09,9.5339134083173e-09,732.20212667227,732.20212667227,732.20212666165,732.20212666165,732.20212668278,732.20212668235,732.20212666551,732.20212667021,732.20212667866,732.2021266746,732.20212665883,732.20212666503,732.20212666457,732.20212667613,732.20212667314,732.20212666365,732.20212667092,732.20212668447,732.20212668365,732.20212666337,732.20212666695,732.20212668102,732.20212667863,732.20212666457,732.20212665881,732.20212666303,732.20212667978,732.20212668033,732.20212666813,732.20212667308,732.20212667612,732.20212667044,732.20212666007,732.20212666758,732.20212667275,732.20212667572,732.20212667517,732.20212666612,732.20212667217,732.20212667551,732.20212667029,732.20212666261,732.20212667059,732.20212667275,732.20212667596,732.20212667596,732.2021266837,732.2021266837,0.013063763053554,805.94582345255,174.83543770007,846.5712703543,158.77232430687,0
1.82e-05,20000000,1.251158520508e-06,5.4018510715912e-06,1.1117823332885e-06,1.0000000072858,607.67959770168,607.67959770168,607.67959768975,607.67959768975,607.67959771348,607.679597713,607.67959769408,607.67959769937,607.67959770886,607.6795977043,607.67959768658,607.67959769355,607.67959769304,607.67959770602,607.67959770266,607.679597692,607.67959770017,607.67959771539,607.67959771446,607.67959769168,607.6795976957,607.6795977115,607.67959770883,607.67959769304,607.67959768657,607.6795976913,607.67959771011,607.67959771073,607.67959769703,607.67959770259,607.679597706,607.67959769962,607.67959768797,607.67959769642,607.67959770222,607.67959770555,607.67959770494,607.67959769477,607.67959770157,607.67959770532,607.67959769946,607.67959769083,607.67959769979,607.67959770222,607.67959770582,607.67959770582,607.67959771452,607.67959771452,-2.4588781740307e-08,-1.2387190274523e-10,-1.6658022464262e-08,-6.7977962669242e-09,5.4050917375313e-09,9.3434892341574e-08,-4.0259396657074e-08,2.2282509131756e-10,1.5817889912034e-09,4.6562775958432e-10,5.0322558473644e-09,-4.4191676617275e-07,-1.0436007839066e-11,-2.9490911895081e-10,7.1210104673407e-09,-3.6185931442651e-07,-7.8462308982052e-10,8.0328998597489e-09,8.7513689589787e-08,-6.5983662070925e-08,-1.5049610754905e-09,1.2335321477447e-09,2.1635786055344e-10,-1.9057205800115e-07,1.4484170958888e-08,-3.3447682822366e-07,1.6406402142368e-09,4.7217547749148e-08,-1.2533578907471e-08,-7.0923889204021e-10,9.5982959408027e-10,7.1679801678589e-09,7.9710766381003e-10,-2.942640673894e-07,-3.8680858181205e-09,-6.7240070903223e-10,1.5042224476533e-08,-1.193253476319e-07,-1.4845518234095e-10,-1.6929137763625e-10,1.6546996058315e-09,-5.3054342941774e-07,-8.9996776586291e-10,-7.2820667185409e-10,-1.0985723619815e-08,-1.6315560481699e-09,3.621505399871e-09,1.0643424157286e-08,732.20212666972,732.20212666972,732.20212665779,732.20212665779,732.20212668152,732.20212668104,732.20212666212,732.20212666741,732.2021266769,732.20212667233,732.20212665462,732.20212666159,732.20212666107,732.20212667405,732.20212667069,732.20212666003,732.2021266682,732.20212668342,732.2021266825,732.20212665972,732.20212666374,732.20212667954,732.20212667686,732.20212666107,732.2021266546,732.20212665934,732.20212667815,732.20212667877,732.20212666506,732.20212667063,732.20212667404,732.20212666766,732.20212665601,732.20212666445,732.20212667025,732.20212667359,732.20212667297,732.2021266628,732.2021266696,732.20212667336,732.20212666749,732.20212665887,732.20212666783,732.20212667025,732.20212667386,732.20212667386,732.20212668256,732.20212668256,0.014595344390829,810.41832207345,175.79954010027,851.27471487209,159.64793605984,0
1.83e-05,20000000,1.2580323612198e-06,5.431531451685e-06,1.1178919770483e-06,1.0000000081723,607.67959769883,607.67959769883,607.67959768544,607.67959768544,607.67959771207,607.67959771154,607.6795976903,607.67959769624,607.67959770689,607.67959770177,607.67959768188,607.6795976897,607.67959768912,607.6795977037,607.67959769992,607.67959768796,607.67959769713,607.67959771421,607.67959771317,607.67959768761,607.67959769212,607.67959770985,607.67959770685,607.67959768912,607.67959768186,607.67959768718,607.67959770829,607.67959770899,607.67959769361,607.67959769985,607.67959770368,607.67959769652,607.67959768344,607.67959769292,607.67959769943,607.67959770317,607.67959770248,607.67959769107,607.6795976987,607.67959770292,607.67959769633,607.67959768665,607.67959769671,607.67959769943,607.67959770348,607.67959770348,607.67959771324,607.67959771324,-2.7439029529547e-08,-1.3822951269607e-10,-1.8588755770328e-08,-7.5827961338307e-09,6.0317217606826e-09,1.042474408797e-07,-4.49303975086e-08,2.4866353525945e-10,1.7652110235824e-09,5.1960667913492e-10,5.6156546493515e-09,-4.9314281711941e-07,-1.16459880254e-11,-3.2907206107032e-10,7.9465759065736e-09,-4.038109822531e-07,-8.7561494740643e-10,8.9641641348133e-09,9.764147306743e-08,-7.3639280363371e-08,-1.6793344159181e-09,1.3765619273189e-09,2.4143784104278e-10,-2.1266677200588e-07,1.6163209287756e-08,-3.7324871533352e-07,1.8308733371179e-09,5.2681261837882e-08,-1.3987675099056e-08,-7.914377201529e-10,1.0711258732987e-09,7.9990696897962e-09,8.8952557729485e-10,-3.2837438162062e-07,-4.3164240349371e-09,-7.503075880119e-10,1.6786077017205e-08,-1.3315898869655e-07,-1.6568380995172e-10,-1.8890858799845e-10,1.8465371529919e-09,-5.9205198124569e-07,-1.0043239511153e-09,-8.1263600437348e-10,-1.225917909037e-08,-1.8202358721493e-09,4.0413468994663e-09,1.1874881953876e-08,732.20212666687,732.20212666687,732.20212665347,732.20212665347,732.20212668011,732.20212667957,732.20212665834,732.20212666427,732.20212667492,732.2021266698,732.20212664992,732.20212665774,732.20212665716,732.20212667173,732.20212666796,732.20212665599,732.20212666516,732.20212668225,732.20212668121,732.20212665564,732.20212666015,732.20212667789,732.20212667489,732.20212665716,732.2021266499,732.20212665522,732.20212667633,732.20212667703,732.20212666164,732.20212666789,732.20212667172,732.20212666455,732.20212665148,732.20212666096,732.20212666747,732.20212667121,732.20212667052,732.2021266591,732.20212666674,732.20212667095,732.20212666437,732.20212665469,732.20212666474,732.20212666747,732.20212667152,732.20212667152,732.20212668128,732.20212668128,0.016296526866054,814.8910184792,176.76362233968,855.97844775005,160.52353045784,0
1.84e-05,20000000,1.2649061946761e-06,5.4612118304682e-06,1.1240016314613e-06,1.0000000091609,607.67959769565,607.67959769565,607.67959768062,607.67959768062,607.6795977105,607.6795977099,607.67959768608,607.67959769274,607.67959770469,607.67959769894,607.67959767664,607.67959768541,607.67959768476,607.67959770111,607.67959769688,607.67959768345,607.67959769374,607.6795977129,607.67959771174,607.67959768306,607.67959768812,607.67959770801,607.67959770464,607.67959768476,607.67959767661,607.67959768258,607.67959770626,607.67959770705,607.67959768979,607.67959769679,607.67959770109,607.67959769305,607.67959767839,607.67959768902,607.67959769632,607.67959770052,607.67959769975,607.67959768694,607.6795976955,607.67959770023,607.67959769284,607.67959768199,607.67959769327,607.67959769632,607.67959770086,607.67959770086,607.67959771181,607.67959771181,-3.0601381520696e-08,-1.5415917442367e-10,-2.0730884426157e-08,-8.4533897902331e-09,6.7269803701341e-09,1.162418043856e-07,-5.0113402101069e-08,2.7733248460527e-10,1.9687263009225e-09,5.7949702510456e-10,6.2629464860807e-09,-5.4997823121155e-07,-1.298849744287e-11,-3.6697328702863e-10,8.862557767657e-09,-4.5035719815035e-07,-9.7657562084179e-10,9.9974186167945e-09,1.0887628110965e-07,-8.2134058450226e-08,-1.8727928430405e-09,1.5352590478085e-09,2.692642092401e-10,-2.3718142236004e-07,1.8026116819544e-08,-4.1626621823849e-07,2.0419442358493e-09,5.8742109262614e-08,-1.5601149590758e-08,-8.8263588018148e-10,1.1946137630452e-09,8.9211899046071e-09,9.9206590956789e-10,-3.6621982777809e-07,-4.813851882059e-09,-8.3674118495882e-10,1.8720911405682e-08,-1.4850766840155e-07,-1.8480146223301e-10,-2.1067313148958e-10,2.0593851085272e-09,-6.6029704026609e-07,-1.1201116526071e-09,-9.0631276500593e-10,-1.3672084721012e-08,-2.0295229289458e-09,4.5071680933498e-09,1.3240910632038e-08,732.20212666369,732.20212666369,732.20212664866,732.20212664866,732.20212667854,732.20212667794,732.20212665412,732.20212666077,732.20212667272,732.20212666698,732.20212664467,732.20212665345,732.2021266528,732.20212666914,732.20212666491,732.20212665149,732.20212666177,732.20212668094,732.20212667977,732.20212665109,732.20212665615,732.20212667605,732.20212667268,732.2021266528,732.20212664465,732.20212665062,732.2021266743,732.20212667508,732.20212665782,732.20212666483,732.20212666912,732.20212666109,732.20212664642,732.20212665705,732.20212666436,732.20212666855,732.20212666778,732.20212665498,732.20212666354,732.20212666827,732.20212666088,732.20212665002,732.2021266613,732.20212666436,732.2021266689,732.2021266689,732.20212667985,732.20212667985,0.018185000131147,819.36391029627,177.72768441889,860.68246890684,161.39910750151,0
1.85e-05,20000000,1.2717800208743e-06,5.4908922079409e-06,1.1301112965361e-06,1.0000000102627,607.6795976921,607.6795976921,607.67959767526,607.67959767526,607.67959770875,607.67959770808,607.67959768137,607.67959768884,607.67959770223,607.67959769579,607.67959767078,607.67959768062,607.67959767989,607.67959769822,607.67959769347,607.67959767842,607.67959768996,607.67959771144,607.67959771014,607.67959767799,607.67959768366,607.67959770596,607.67959770218,607.67959767989,607.67959767076,607.67959767745,607.679597704,607.67959770488,607.67959768553,607.67959769338,607.6795976982,607.67959768919,607.67959767275,607.67959768467,607.67959769285,607.67959769756,607.67959769669,607.67959768234,607.67959769193,607.67959769724,607.67959768896,607.67959767678,607.67959768943,607.67959769285,607.67959769795,607.67959769795,607.67959771022,607.67959771022,-3.410803301546e-08,-1.7182304717414e-10,-2.3106213509476e-08,-9.4183640382658e-09,7.4979486757928e-09,1.2953965062476e-07,-5.5861288918464e-08,3.0912406878793e-10,2.1944086029875e-09,6.4590869736172e-10,6.9807237524329e-09,-6.1300165539525e-07,-1.4477211867272e-11,-4.0899814204431e-10,9.8782852796099e-09,-5.0197202361057e-07,-1.0885340811749e-09,1.1143186449964e-08,1.2133208805052e-07,-9.155466291945e-08,-2.0873041511993e-09,1.7112403779546e-09,3.0012029506319e-10,-2.6436571035536e-07,2.0091863003688e-08,-4.6396730573285e-07,2.2760033479556e-09,6.5461558868402e-08,-1.7390461444688e-08,-9.8376157046862e-10,1.3315514745052e-09,9.9437344242795e-09,1.1057731850266e-09,-4.0818570899186e-07,-5.3654329843457e-09,-9.3258064104224e-10,2.0866432601185e-08,-1.6552770450557e-07,-2.0600329428291e-10,-2.3480643387145e-10,2.2954113691467e-09,-7.359736839279e-07,-1.2485106530077e-09,-1.0101911870481e-09,-1.5238826846744e-08,-2.2615369516751e-09,5.0237130155989e-09,1.4755361044283e-08,732.20212666014,732.20212666014,732.20212664329,732.20212664329,732.20212667679,732.20212667611,732.20212664941,732.20212665687,732.20212667027,732.20212666383,732.20212663882,732.20212664866,732.20212664793,732.20212666625,732.20212666151,732.20212664646,732.20212665799,732.20212667948,732.20212667817,732.20212664602,732.20212665169,732.202126674,732.20212667022,732.20212664793,732.2021266388,732.20212664548,732.20212667203,732.20212667291,732.20212665356,732.20212666142,732.20212666623,732.20212665722,732.20212664078,732.2021266527,732.20212666089,732.20212666559,732.20212666473,732.20212665037,732.20212665997,732.20212666527,732.20212665699,732.20212664482,732.20212665747,732.20212666089,732.20212666598,732.20212666598,732.20212667825,732.20212667825,0.020280186115597,823.83699490541,178.69172633829,865.38677825131,162.27466719144,0
1.86e-05,20000000,1.2786538398113e-06,5.5205725841033e-06,1.1362209722825e-06,1.00000001149,607.67959768814,607.67959768814,607.67959766927,607.67959766927,607.6795977068,607.67959770604,607.67959767613,607.67959768449,607.67959769949,607.67959769228,607.67959766426,607.67959767528,607.67959767447,607.679597695,607.67959768968,607.67959767282,607.67959768575,607.67959770981,607.67959770835,607.67959767233,607.67959767868,607.67959770367,607.67959769944,607.67959767447,607.67959766424,607.67959767173,607.67959770147,607.67959770246,607.67959768078,607.67959768958,607.67959769497,607.67959768488,607.67959766646,607.67959767982,607.67959768899,607.67959769426,607.67959769329,607.67959767721,607.67959768796,607.6795976939,607.67959768462,607.67959767098,607.67959768515,607.67959768899,607.6795976947,607.6795976947,607.67959770844,607.67959770844,-3.7994298298855e-08,-1.9139900050066e-10,-2.5738660550751e-08,-1.0487352083813e-08,8.3523940347615e-09,1.4427440900253e-07,-6.2232066409431e-08,3.4435873657022e-10,2.4445327445615e-09,7.1951069755844e-10,7.7762177167942e-09,-6.8284779551273e-07,-1.6127132576273e-11,-4.555692758605e-10,1.1003991793863e-08,-5.5917546099956e-07,-1.2126190612973e-09,1.2413010577364e-08,1.3513388681084e-07,-1.0199616826795e-07,-2.325026686002e-09,1.9062795145301e-09,3.3431688197075e-10,-2.944935372361e-07,2.2381255424216e-08,-5.1683237724142e-07,2.5354095573802e-09,7.290702105412e-08,-1.9373666364125e-08,-1.0958329048766e-09,1.483319185296e-09,1.1077007317283e-08,1.2317931652509e-09,-4.5469465577896e-07,-5.9767215305142e-09,-1.0387902270881e-09,2.3244255153498e-08,-1.8439056308039e-07,-2.295034005842e-10,-2.6155136382211e-10,2.5569939317352e-09,-8.1984435021936e-07,-1.3908151004676e-09,-1.1253179895686e-09,-1.6975185782332e-08,-2.5186023953155e-09,5.5961854387468e-09,1.643342265597e-08,732.20212665618,732.20212665618,732.20212663731,732.20212663731,732.20212667483,732.20212667408,732.20212664416,732.20212665253,732.20212666753,732.20212666032,732.2021266323,732.20212664332,732.2021266425,732.20212666303,732.20212665772,732.20212664086,732.20212665378,732.20212667785,732.20212667639,732.20212664037,732.20212664672,732.20212667171,732.20212666748,732.2021266425,732.20212663227,732.20212663976,732.20212666951,732.20212667049,732.20212664881,732.20212665761,732.20212666301,732.20212665292,732.2021266345,732.20212664785,732.20212665702,732.20212666229,732.20212666133,732.20212664524,732.202126656,732.20212666193,732.20212665266,732.20212663902,732.20212665319,732.20212665702,732.20212666273,732.20212666273,732.20212667648,732.20212667648,0.022603397682886,828.31026941796,179.6557480985,870.09137568233,163.1502095282,0
1.87e-05,20000000,1.2855276514841e-06,5.5502529589557e-06,1.1423306587105e-06,1.0000000128563,607.67959768374,607.67959768374,607.67959766261,607.67959766261,607.67959770462,607.67959770378,607.67959767028,607.67959767965,607.67959769645,607.67959768837,607.679597657,607.67959766934,607.67959766843,607.67959769141,607.67959768546,607.67959766658,607.67959768105,607.679597708,607.67959770636,607.67959766603,607.67959767315,607.67959770112,607.67959769639,607.67959766843,607.67959765697,607.67959766536,607.67959769866,607.67959769977,607.67959767549,607.67959768534,607.67959769138,607.67959768009,607.67959765946,607.67959767441,607.67959768468,607.67959769058,607.6795976895,607.67959767149,607.67959768353,607.67959769018,607.67959767979,607.67959766452,607.67959768039,607.67959768468,607.67959769107,607.67959769107,607.67959770647,607.67959770647,-4.2298893393723e-08,-2.1308203892721e-10,-2.8654447090927e-08,-1.1670909726578e-08,9.2988323045874e-09,1.6059233451269e-07,-6.9289338901455e-08,3.8338782589903e-10,2.7215928185839e-09,8.0103648995638e-10,8.6573564755459e-09,-7.6021249858149e-07,-1.7954706608307e-11,-5.0715002275246e-10,1.2250896802622e-08,-6.2253762071765e-07,-1.3500681101573e-09,1.381954624994e-08,1.5041868569874e-07,-1.1356282052601e-07,-2.5883266147512e-09,2.1223210033948e-09,3.7219469695647e-10,-3.2786519948779e-07,2.4917106522349e-08,-5.7538810968011e-07,2.8227491081092e-09,8.1152385174455e-08,-2.1570561691562e-08,-1.2199660656122e-09,1.6514301068103e-09,1.2332305708089e-08,1.3713820337703e-09,-5.0621001004287e-07,-6.6538067566236e-09,-1.1564270590383e-09,2.5878076425847e-08,-2.0528423253488e-07,-2.5553653578082e-10,-2.9117417623953e-10,2.8467399531159e-09,-9.1274494788463e-07,-1.5484438864068e-09,-1.2528407681713e-09,-1.8898462253987e-08,-2.8032669358931e-09,6.2302905774948e-09,1.8291744598672e-08,732.20212665177,732.20212665177,732.20212663064,732.20212663064,732.20212667266,732.20212667182,732.20212663832,732.20212664768,732.20212666448,732.2021266564,732.20212662503,732.20212663737,732.20212663646,732.20212665944,732.2021266535,732.20212663462,732.20212664909,732.20212667603,732.2021266744,732.20212663407,732.20212664118,732.20212666916,732.20212666442,732.20212663646,732.20212662501,732.20212663339,732.2021266667,732.2021266678,732.20212664353,732.20212665338,732.20212665942,732.20212664812,732.2021266275,732.20212664245,732.20212665272,732.20212665862,732.20212665754,732.20212663952,732.20212665157,732.20212665821,732.20212664783,732.20212663256,732.20212664842,732.20212665272,732.20212665911,732.20212665911,732.2021266745,732.2021266745,0.025178010810476,832.78373064989,180.61974969976,874.79626108742,164.0257345124,0
1.88e-05,20000000,1.2924014558895e-06,5.5799333324984e-06,1.1484403558309e-06,1.0000000143765,607.67959767883,607.67959767883,607.67959765519,607.67959765519,607.6795977022,607.67959770126,607.67959766377,607.67959767425,607.67959769305,607.67959768401,607.67959764891,607.67959766272,607.6795976617,607.67959768742,607.67959768076,607.67959765963,607.67959767583,607.67959770598,607.67959770415,607.67959765902,607.67959766698,607.67959769829,607.67959769299,607.6795976617,607.67959764888,607.67959765827,607.67959769553,607.67959769677,607.6795976696,607.67959768063,607.67959768739,607.67959767475,607.67959765167,607.6795976684,607.67959767989,607.67959768649,607.67959768528,607.67959766513,607.6795976786,607.67959768604,607.67959767442,607.67959765733,607.67959767508,607.67959767989,607.67959768704,607.67959768704,607.67959770427,607.67959770427,-4.706424270047e-08,-2.3708584706715e-10,-3.1882306435749e-08,-1.2980597924993e-08,1.0346595362567e-08,1.786536613905e-07,-7.7102811977628e-08,4.2659635123735e-10,3.0283219830575e-09,8.9128981562894e-10,9.6328278097972e-09,-8.4585826442504e-07,-1.9977957195566e-11,-5.64248067045e-10,1.3631294895101e-08,-6.926832407745e-07,-1.5022374132467e-09,1.537666136081e-08,1.6733658926008e-07,-1.2636886555934e-07,-2.8797966562634e-09,2.3614957638342e-09,4.14127111123e-10,-3.6480976979835e-07,2.7724414419742e-08,-6.4021162932401e-07,3.1408561181546e-09,9.0278602245322e-08,-2.4002843687006e-08,-1.3573841452931e-09,1.8375424880425e-09,1.3722009363574e-08,1.5259163578654e-09,-5.6323949493729e-07,-7.4033611902969e-09,-1.2866494653515e-09,2.8793864469855e-08,-2.2841471383544e-07,-2.8435998125131e-10,-3.2396661968492e-10,3.1675064220942e-09,-1.0155914833919e-06,-1.7229519014251e-09,-1.3940170956032e-09,-2.10276145234e-08,-3.1183215274452e-09,6.9322803199458e-09,2.0348566926305e-08,732.20212664687,732.20212664687,732.20212662323,732.20212662323,732.20212667024,732.2021266693,732.20212663181,732.20212664229,732.20212666109,732.20212665205,732.20212661695,732.20212663075,732.20212662973,732.20212665545,732.2021266488,732.20212662767,732.20212664386,732.20212667402,732.20212667219,732.20212662705,732.20212663502,732.20212666632,732.20212666102,732.20212662973,732.20212661691,732.2021266263,732.20212666357,732.2021266648,732.20212663764,732.20212664867,732.20212665542,732.20212664278,732.2021266197,732.20212663643,732.20212664792,732.20212665453,732.20212665332,732.20212663316,732.20212664664,732.20212665407,732.20212664245,732.20212662537,732.20212664312,732.20212664792,732.20212665508,732.20212665508,732.2021266723,732.2021266723,0.028029651357946,837.2573750935,181.58373114276,879.50143434125,164.90124214453,0
1.89e-05,20000000,1.299275253024e-06,5.6096137047316e-06,1.154550063655e-06,1.000000016067,607.67959767337,607.67959767337,607.67959764693,607.67959764693,607.67959769951,607.67959769846,607.67959765653,607.67959766825,607.67959768928,607.67959767917,607.67959763991,607.67959765535,607.67959765421,607.67959768297,607.67959767553,607.6795976519,607.67959767001,607.67959770373,607.67959770169,607.67959765122,607.67959766012,607.67959769513,607.67959768921,607.67959765421,607.67959763988,607.67959765037,607.67959769205,607.67959769343,607.67959766305,607.67959767539,607.67959768294,607.6795976688,607.679597643,607.67959766171,607.67959767455,607.67959768194,607.67959768058,607.67959765804,607.67959767312,607.67959768143,607.67959766844,607.67959764933,607.67959766918,607.67959767455,607.67959768255,607.67959768255,607.67959770182,607.67959770182,-5.2336811391001e-08,-2.6364446466308e-10,-3.5453708877998e-08,-1.4429072224323e-08,1.1505904304435e-08,1.9863385349195e-07,-8.5748840420041e-08,4.7440602542699e-10,3.3677139129824e-09,9.9115099564162e-10,1.0712147329269e-08,-9.4062022025757e-07,-2.2216625169881e-11,-6.2741941655157e-10,1.5158652196468e-08,-7.7029658642828e-07,-1.6706124396148e-09,1.7099545218931e-08,1.8605196975778e-07,-1.405394471371e-07,-3.2022763846052e-09,2.6261378106624e-09,4.6052306736804e-10,-4.0568767826692e-07,3.0830558949362e-08,-7.1193503412339e-07,3.4928348194907e-09,1.0037431649841e-07,-2.6694278052061e-08,-1.5094267323981e-09,2.0434726294499e-09,1.5259677815074e-08,1.6969038884226e-09,-6.2633919296393e-07,-8.2326929507583e-09,-1.4307260575291e-09,3.2020061703181e-08,-2.5400763603824e-07,-3.1625556898085e-10,-3.6024822082408e-10,3.5224225703937e-09,-1.1293872452048e-06,-1.9160422383564e-09,-1.5502243879472e-09,-2.338340704377e-08,-3.466822138558e-09,7.7090022633162e-09,2.2623862872192e-08,732.20212664141,732.20212664141,732.20212661497,732.20212661497,732.20212666754,732.20212666649,732.20212662457,732.20212663629,732.20212665731,732.20212664721,732.20212660795,732.20212662339,732.20212662225,732.20212665101,732.20212664357,732.20212661994,732.20212663805,732.20212667177,732.20212666972,732.20212661925,732.20212662816,732.20212666317,732.20212665724,732.20212662225,732.20212660791,732.20212661841,732.20212666008,732.20212666147,732.20212663109,732.20212664342,732.20212665098,732.20212663684,732.20212661103,732.20212662974,732.20212664259,732.20212664997,732.20212664862,732.20212662608,732.20212664115,732.20212664947,732.20212663647,732.20212661736,732.20212663722,732.20212664259,732.20212665059,732.20212665059,732.20212666985,732.20212666985,0.031186397564614,841.7311988864,182.5476924278,884.20689530543,165.77673242524,0
1.9e-05,20000000,1.3061490428838e-06,5.6392940756557e-06,1.1606597821951e-06,1.0000000179457,607.6795976673,607.6795976673,607.67959763775,607.67959763775,607.67959769651,607.67959769534,607.67959764848,607.67959766158,607.67959768508,607.67959767378,607.67959762991,607.67959764716,607.67959764589,607.67959767803,607.67959766972,607.67959764331,607.67959766355,607.67959770123,607.67959769895,607.67959764254,607.67959765249,607.67959769162,607.679597685,607.67959764589,607.67959762986,607.6795976416,607.67959768817,607.67959768972,607.67959765577,607.67959766955,607.679597678,607.6795976622,607.67959763335,607.67959765426,607.67959766862,607.67959767687,607.67959767536,607.67959765017,607.67959766702,607.67959767631,607.67959766179,607.67959764043,607.67959766262,607.67959766862,607.67959767756,607.67959767756,607.67959769909,607.67959769909,-5.8167465561795e-08,-2.9301410167899e-10,-3.9403105750644e-08,-1.603017957649e-08,1.2787948766097e-08,2.2072495891921e-07,-9.5311022048329e-08,5.2727853444452e-10,3.7430460474134e-09,1.1015837613628e-09,1.1905732316125e-08,-1.045412594272e-06,-2.4692322198945e-11,-6.9727270790444e-10,1.6847710873764e-08,-8.5612675953462e-07,-1.8568194799394e-09,1.9004826421373e-08,2.0674473632723e-07,-1.5621158022017e-07,-3.5588742294003e-09,2.9188023754978e-09,5.1183025291957e-10,-4.5089350947972e-07,3.4265514081153e-08,-7.9125029376286e-07,3.8820836588614e-09,1.115365495819e-07,-2.9670884735769e-08,-1.6775602980513e-09,2.271208985754e-09,1.6960155603918e-08,1.8859952632827e-09,-6.9611785630182e-07,-9.1498024209692e-09,-1.59004555854e-09,3.5587805623572e-08,-2.8231000690778e-07,-3.5153187500199e-10,-4.0036875964438e-10,3.9149141582828e-09,-1.2552305888256e-06,-2.1295794164136e-09,-1.7229705961988e-09,-2.5988571547766e-08,-3.8521132988238e-09,8.5679528512953e-09,2.5139492962099e-08,732.20212663534,732.20212663534,732.20212660579,732.20212660579,732.20212666455,732.20212666337,732.20212661651,732.20212662962,732.20212665311,732.20212664182,732.20212659794,732.2021266152,732.20212661392,732.20212664607,732.20212663775,732.20212661134,732.20212663158,732.20212666927,732.20212666699,732.20212661057,732.20212662053,732.20212665966,732.20212665303,732.20212661392,732.2021265979,732.20212660963,732.20212665621,732.20212665776,732.2021266238,732.20212663759,732.20212664603,732.20212663023,732.20212660139,732.2021266223,732.20212663665,732.20212664491,732.2021266434,732.2021266182,732.20212663505,732.20212664434,732.20212662982,732.20212660846,732.20212663065,732.20212663665,732.2021266456,732.2021266456,732.20212666713,732.20212666713,0.034678999498704,846.20519777825,183.51163355507,888.9126438261,166.65220535489,0
1.91e-05,20000000,1.3130228254649e-06,5.668974445271e-06,1.1667695114642e-06,1.0000000200325,607.67959766056,607.67959766056,607.67959762755,607.67959762755,607.67959769318,607.67959769187,607.67959763953,607.67959765417,607.67959768041,607.6795976678,607.67959761878,607.67959763806,607.67959763664,607.67959767254,607.67959766326,607.67959763375,607.67959765636,607.67959769846,607.67959769591,607.67959763289,607.67959764401,607.67959768772,607.67959768032,607.67959763664,607.67959761874,607.67959763184,607.67959768387,607.6795976856,607.67959764767,607.67959766307,607.6795976725,607.67959765485,607.67959762263,607.67959764599,607.67959766202,607.67959767125,607.67959766956,607.67959764142,607.67959766024,607.67959767062,607.6795976544,607.67959763054,607.67959765532,607.67959766202,607.67959767202,607.67959767202,607.67959769607,607.67959769607,-6.4611862292433e-08,-3.2547510432304e-10,-4.376819377316e-08,-1.7799063110847e-08,1.4204972843966e-08,2.4513707696008e-07,-1.0588084102332e-07,5.8571908466931e-10,4.1579047711423e-09,1.2236426528544e-09,1.3224981711484e-08,-1.1612357268229e-06,-2.7428696771473e-11,-7.7447386955762e-10,1.8714602335338e-08,-9.509934494428e-07,-2.0626381449661e-09,2.1110700530823e-08,2.2961170936718e-07,-1.7353520532112e-07,-3.9529913044499e-09,3.2422855358937e-09,5.6853853572698e-10,-5.0085903222869e-07,3.8062078015739e-08,-8.7891455668386e-07,4.3123214039895e-09,1.2387144148099e-07,-3.296113813282e-08,-1.8633894463861e-09,2.522927442321e-09,1.8839686281772e-08,2.0949966842725e-09,-7.732415750574e-07,-1.0163443631465e-08,-1.7661274480204e-09,3.9531167882578e-08,-3.1359210911837e-07,-3.9052659563834e-10,-4.4471095022497e-10,4.3487297804731e-09,-1.3943233692983e-06,-2.3656037058155e-09,-1.913905787352e-09,-2.8867981533048e-08,-4.2778535950996e-09,9.5173349315436e-09,2.7919371900201e-08,732.20212662859,732.20212662859,732.20212659558,732.20212659558,732.20212666122,732.20212665991,732.20212660757,732.2021266222,732.20212664845,732.20212663583,732.20212658682,732.2021266061,732.20212660467,732.20212664057,732.20212663129,732.20212660179,732.2021266244,732.20212666649,732.20212666394,732.20212660093,732.20212661205,732.20212665576,732.20212664836,732.20212660467,732.20212658677,732.20212659988,732.2021266519,732.20212665364,732.2021266157,732.20212663111,732.20212664054,732.20212662289,732.20212659067,732.20212661403,732.20212663006,732.20212663928,732.2021266376,732.20212660945,732.20212662827,732.20212663865,732.20212662243,732.20212659857,732.20212662336,732.20212663006,732.20212664006,732.20212664006,732.2021266641,732.2021266641,0.038541116767371,850.67936709403,184.47555452505,893.61867973343,167.52766093407,0
1.92e-05,20000000,1.3198966007631e-06,5.698654813578e-06,1.1728792514764e-06,1.0000000223491,607.67959765306,607.67959765306,607.67959761621,607.67959761621,607.67959768948,607.67959768803,607.67959762959,607.67959764593,607.67959767523,607.67959766114,607.67959760643,607.67959762795,607.67959762636,607.67959766644,607.67959765608,607.67959762314,607.67959764838,607.67959769537,607.67959769253,607.67959762218,607.67959763459,607.67959768339,607.67959767513,607.67959762636,607.67959760638,607.67959762101,607.67959767909,607.67959768102,607.67959763867,607.67959765587,607.6795976664,607.6795976467,607.67959761073,607.6795976368,607.6795976547,607.67959766499,607.67959766312,607.67959763169,607.67959765271,607.67959766429,607.67959764619,607.67959761955,607.67959764722,607.6795976547,607.67959766586,607.67959766586,607.67959769271,607.67959769271,-7.1730871910021e-08,-3.6133408364144e-10,-4.8590201256907e-08,-1.9752275457211e-08,1.577036812334e-08,2.7209994598413e-07,-1.1755836444072e-07,6.502802437317e-10,4.6162126804614e-09,1.3584810291737e-09,1.4682362718971e-08,-1.2891836605671e-06,-3.045161391655e-11,-8.5975117000448e-10,2.0776969795467e-08,-1.0557931594445e-06,-2.2900148984587e-09,2.3437068315346e-08,2.5486810826538e-07,-1.9267433020469e-07,-4.3883472055712e-09,3.5996454688353e-09,6.3118368508096e-10,-5.5605647980147e-07,4.2256122310238e-08,-9.7575589539069e-07,4.7876154100845e-09,1.374950525224e-07,-3.6596183864276e-08,-2.0686690951565e-09,2.8010078557508e-09,2.0916035841006e-08,2.3258836431285e-09,-8.5843883096962e-07,-1.1283190718856e-08,-1.9606334871799e-09,4.3887413137232e-08,-3.4814955324853e-07,-4.3360912065217e-10,-4.9369334287843e-10,4.8279693483941e-09,-1.5479800710426e-06,-2.6263466378501e-09,-2.1248346836485e-09,-3.2048841180005e-08,-4.7480432673965e-09,1.0566120074651e-08,3.0989649210625e-08,732.2021266211,732.2021266211,732.20212658425,732.20212658425,732.20212665752,732.20212665606,732.20212659762,732.20212661397,732.20212664326,732.20212662918,732.20212657446,732.20212659599,732.2021265944,732.20212663447,732.20212662411,732.20212659117,732.20212661642,732.20212666341,732.20212666056,732.20212659022,732.20212660263,732.20212665142,732.20212664317,732.2021265944,732.20212657441,732.20212658905,732.20212664712,732.20212664906,732.20212660671,732.20212662391,732.20212663443,732.20212661473,732.20212657876,732.20212660484,732.20212662274,732.20212663303,732.20212663115,732.20212659973,732.20212662074,732.20212663233,732.20212661422,732.20212658758,732.20212661526,732.20212662274,732.2021266339,732.2021266339,732.20212666074,732.20212666074,0.042809575886878,855.15370169431,185.43945533781,898.3250028397,168.4030991632,0
1.93e-05,20000000,1.3267703687735e-06,5.7283351805769e-06,1.1789890022466e-06,1.0000000249195,607.67959764474,607.67959764474,607.67959760363,607.67959760363,607.67959768538,607.67959768375,607.67959761855,607.67959763679,607.67959766947,607.67959765376,607.67959759271,607.67959761673,607.67959761495,607.67959765966,607.67959764811,607.67959761135,607.67959763952,607.67959769195,607.67959768878,607.67959761029,607.67959762414,607.67959767858,607.67959766937,607.67959761495,607.67959759266,607.67959760898,607.67959767378,607.67959767594,607.67959762869,607.67959764788,607.67959765962,607.67959763764,607.67959759751,607.6795976266,607.67959764657,607.67959765805,607.67959765596,607.6795976209,607.67959764435,607.67959765727,607.67959763707,607.67959760735,607.67959763823,607.67959764657,607.67959765902,607.67959765902,607.67959768898,607.67959768898,-7.9591034921035e-08,-4.0092621918557e-10,-5.391419784884e-08,-2.1907901261139e-08,1.7498774361178e-08,3.018646615392e-07,-1.3045299631652e-07,7.2156609751414e-10,5.1222580931748e-09,1.5073597375765e-09,1.629150453374e-08,-1.4304523538294e-06,-3.378934971166e-11,-9.5390068076487e-10,2.3054100923067e-08,-1.1715059453442e-06,-2.5410777042537e-09,2.6005685362184e-08,2.8274916112053e-07,-2.1380826565057e-07,-4.8690079288972e-09,3.9942254533716e-09,7.0035139829877e-10,-6.1700210010394e-07,4.6886861498423e-08,-1.0826795235614e-06,5.3124122127309e-09,1.5253423112984e-07,-4.0610073417126e-08,-2.2953176579192e-09,3.1080519558482e-09,2.3208626299606e-08,2.5808157769106e-09,-9.525059660344e-07,-1.2519509849028e-08,-2.1753801909337e-09,4.8697279197813e-08,-3.8630549962564e-07,-4.8118331849372e-10,-5.477734646075e-10,5.3571149159227e-09,-1.7176376886399e-06,-2.9142477915589e-09,-2.3577302336719e-09,-3.5560889809213e-08,-5.2670540645509e-09,1.172411602046e-08,3.4378904684978e-08,732.20212661278,732.20212661278,732.20212657167,732.20212657167,732.20212665341,732.20212665179,732.20212658659,732.20212660482,732.20212663751,732.2021266218,732.20212656075,732.20212658476,732.20212658299,732.2021266277,732.20212661614,732.20212657939,732.20212660755,732.20212665999,732.20212665681,732.20212657832,732.20212659217,732.20212664661,732.2021266374,732.20212658299,732.20212656069,732.20212657702,732.20212664181,732.20212664398,732.20212659672,732.20212661591,732.20212662765,732.20212660568,732.20212656554,732.20212659464,732.2021266146,732.20212662609,732.202126624,732.20212658894,732.20212661238,732.20212662531,732.20212660511,732.20212657539,732.20212660626,732.2021266146,732.20212662706,732.20212662706,732.20212665701,732.20212665701,0.047524648810808,859.62819593174,186.40333599353,903.03161293714,169.27852004268,0
1.94e-05,20000000,1.3336441294914e-06,5.7580155462683e-06,1.1850987637908e-06,1.0000000277699,607.67959763551,607.67959763551,607.67959758967,607.67959758967,607.67959768082,607.67959767901,607.67959760631,607.67959762664,607.67959766309,607.67959764557,607.67959757749,607.67959760427,607.67959760229,607.67959765215,607.67959763926,607.67959759828,607.67959762969,607.67959768815,607.67959768462,607.67959759709,607.67959761253,607.67959767324,607.67959766297,607.67959760229,607.67959757743,607.67959759564,607.67959766789,607.6795976703,607.67959761761,607.67959763901,607.6795976521,607.67959762759,607.67959758284,607.67959761528,607.67959763755,607.67959765035,607.67959764802,607.67959760892,607.67959763507,607.67959764948,607.67959762696,607.67959759382,607.67959762824,607.67959763755,607.67959765144,607.67959765144,607.67959768484,607.67959768484,-8.8265056245483e-08,-4.4461775109138e-10,-5.9789429609557e-08,-2.4285689576282e-08,1.9406188407771e-08,3.3470553457151e-07,-1.4468429335212e-07,8.0023674744073e-10,5.6807269744339e-09,1.6716564919367e-09,1.8067299740993e-08,-1.5863485645716e-06,-3.7472801710234e-11,-1.057792185805e-09,2.556707134543e-08,-1.299202705154e-06,-2.8181518725231e-09,2.8840323934118e-08,3.1351184575945e-07,-2.3713296247023e-07,-5.3994160712885e-09,4.4296787561263e-09,7.7668165684072e-10,-6.8425999618206e-07,5.1997144769638e-08,-1.2006745208415e-06,5.891570624886e-09,1.6912755234098e-07,-4.5040018007947e-08,-2.5454313043995e-09,3.4469027130431e-09,2.5738680215486e-08,2.8621529391648e-09,-1.0563130975852e-06,-1.3883837021406e-08,-2.412352319586e-09,5.4005280099879e-08,-4.2841306187867e-07,-5.3369054985045e-10,-6.0745121602251e-10,5.9410640277048e-09,-1.9048664157742e-06,-3.2319729545283e-09,-2.614748294064e-09,-3.9436623066749e-08,-5.8396615317167e-09,1.3002039643261e-08,3.8118359764107e-08,732.20212660355,732.20212660355,732.2021265577,732.2021265577,732.20212664886,732.20212664705,732.20212657434,732.20212659468,732.20212663112,732.2021266136,732.20212654553,732.20212657231,732.20212657033,732.20212662018,732.2021266073,732.20212656631,732.20212659772,732.20212665619,732.20212665265,732.20212656512,732.20212658057,732.20212664127,732.20212663101,732.20212657033,732.20212654546,732.20212656367,732.20212663592,732.20212663834,732.20212658564,732.20212660704,732.20212662014,732.20212659563,732.20212655087,732.20212658332,732.20212660558,732.20212661839,732.20212661606,732.20212657696,732.20212660311,732.20212661752,732.202126595,732.20212656185,732.20212659628,732.20212660558,732.20212661947,732.20212661947,732.20212665287,732.20212665287,0.052730354215895,864.10284360475,187.36719649244,907.73850979746,170.15392357289,0
1.95e-05,20000000,1.3405178829113e-06,5.7876959106527e-06,1.1912085361264e-06,1.0000000309291,607.67959762527,607.67959762527,607.67959757418,607.67959757418,607.67959767577,607.67959767376,607.67959759272,607.67959761539,607.679597656,607.67959763648,607.67959756061,607.67959759046,607.67959758825,607.67959764381,607.67959762946,607.67959758378,607.67959761878,607.67959768394,607.67959768,607.67959758245,607.67959759967,607.67959766732,607.67959765588,607.67959758825,607.67959756054,607.67959758083,607.67959766135,607.67959766405,607.67959760532,607.67959762917,607.67959764376,607.67959761645,607.67959756657,607.67959760273,607.67959762754,607.67959764181,607.67959763922,607.67959759564,607.67959762478,607.67959764084,607.67959761575,607.6795975788,607.67959761718,607.67959762754,607.67959764303,607.67959764303,607.67959768025,607.67959768025,-9.7832339570004e-08,-4.9280867490982e-10,-6.6269681350707e-08,-2.6907196859985e-08,2.1510081993409e-08,3.7092210035691e-07,-1.6038284718265e-07,8.8701317397073e-10,6.2967374619641e-09,1.8528760142311e-09,2.0026013967029e-08,-1.7582994556239e-06,-4.1535716497709e-11,-1.172375571207e-09,2.8338899831347e-08,-1.4400530618088e-06,-3.1237771964614e-09,3.1966947998767e-08,3.4743677197117e-07,-2.6286245748672e-07,-5.9844234861524e-09,4.9099955427153e-09,8.608734368919e-10,-7.5844627921494e-07,5.7633771383081e-08,-1.3308211036865e-06,6.5303975282801e-09,1.8742633243146e-07,-4.9926663134067e-08,-2.8212993807387e-09,3.8206652825903e-09,2.8529376960562e-08,3.1724725792679e-09,-1.1708105135465e-06,-1.5388662201095e-08,-2.6737174673446e-09,5.9860033841103e-08,-4.7485790601058e-07,-5.9161292689958e-10,-6.7327254410761e-10,6.585165781674e-09,-2.1113812037621e-06,-3.5824337622976e-09,-2.8982435062921e-09,-4.3711532106741e-08,-6.4710799130406e-09,1.441159585532e-08,4.2242106057218e-08,732.20212659331,732.20212659331,732.20212654222,732.20212654222,732.20212664381,732.20212664179,732.20212656076,732.20212658342,732.20212662404,732.20212660452,732.20212652865,732.20212655849,732.20212655629,732.20212661185,732.20212659749,732.20212655181,732.20212658682,732.20212665198,732.20212664804,732.20212655049,732.2021265677,732.20212663536,732.20212662391,732.20212655629,732.20212652858,732.20212654887,732.20212662939,732.20212663208,732.20212657336,732.20212659721,732.2021266118,732.20212658449,732.20212653461,732.20212657077,732.20212659557,732.20212660985,732.20212660726,732.20212656368,732.20212659282,732.20212660888,732.20212658378,732.20212654684,732.20212658521,732.20212659557,732.20212661106,732.20212661106,732.20212664828,732.20212664828,0.058474783255659,868.57763790557,188.33103683438,912.44569316822,171.02930975426,0
1.96e-05,20000000,1.3473916290276e-06,5.8173762737305e-06,1.1973183192719e-06,1.0000000344288,607.67959761393,607.67959761393,607.67959755702,607.67959755702,607.67959767017,607.67959766793,607.67959757767,607.67959760292,607.67959764816,607.67959762642,607.67959754191,607.67959757515,607.67959757269,607.67959763458,607.67959761859,607.67959756771,607.6795976067,607.67959767927,607.67959767489,607.67959756623,607.67959758541,607.67959766076,607.67959764802,607.67959757269,607.67959754183,607.67959756443,607.67959765411,607.67959765712,607.6795975917,607.67959761827,607.67959763452,607.6795976041,607.67959754854,607.67959758882,607.67959761645,607.67959763235,607.67959762946,607.67959758092,607.67959761338,607.67959763127,607.67959760331,607.67959756217,607.67959760491,607.67959761645,607.6795976337,607.6795976337,607.67959767516,607.67959767516,-1.0837956483388e-07,-5.4593565447116e-10,-7.3413668290358e-08,-2.9795941353486e-08,2.3829529050066e-08,4.1084128949728e-07,-1.7769123813765e-07,9.8268249393267e-10,6.9758771873297e-09,2.0526609967237e-09,2.2185404406334e-08,-1.9478629753847e-06,-4.6014935671265e-11,-1.2986877313756e-09,3.1394716036376e-08,-1.5953338836073e-06,-3.4607264769424e-09,3.5413902426333e-08,3.8483021559688e-07,-2.9123043671882e-07,-6.6293265799768e-09,5.4395319682903e-09,9.536898011872e-10,-8.4023355754791e-07,6.3847831610504e-08,-1.4742984833082e-06,7.2346865629983e-09,2.0759572537884e-07,-5.5314385377072e-08,-3.1254210773773e-09,4.2327296448658e-09,3.1606021642247e-08,3.5145885288078e-09,-1.2970355839358e-06,-1.7047620256146e-08,-2.9618418305546e-09,6.6314616647358e-08,-5.2606105972916e-07,-6.5547683683879e-10,-7.4583341160854e-10,7.2952598109061e-09,-2.3390542552389e-06,-3.9688089281303e-09,-3.2107864587559e-09,-4.8424362131799e-08,-7.1669998663111e-09,1.5965562897466e-08,4.6787352288707e-08,732.20212658196,732.20212658196,732.20212652506,732.20212652506,732.20212663821,732.20212663597,732.20212654571,732.20212657095,732.20212661619,732.20212659445,732.20212650994,732.20212654318,732.20212654073,732.20212660261,732.20212658662,732.20212653574,732.20212657473,732.20212664731,732.20212664292,732.20212653427,732.20212655344,732.2021266288,732.20212661605,732.20212654073,732.20212650986,732.20212653247,732.20212662215,732.20212662515,732.20212655974,732.20212658631,732.20212660255,732.20212657214,732.20212651658,732.20212655685,732.20212658448,732.20212660038,732.2021265975,732.20212654896,732.20212658142,732.2021265993,732.20212657135,732.2021265302,732.20212657294,732.20212658448,732.20212660174,732.20212660174,732.20212664319,732.20212664319,0.06481045160348,873.05257136536,189.2948570193,917.15316277218,171.90467858713,0
1.97e-05,20000000,1.3542653678338e-06,5.8470566355023e-06,1.2034281132475e-06,1.0000000383036,607.67959760136,607.67959760136,607.67959753801,607.67959753801,607.67959766397,607.67959766148,607.67959756099,607.6795975891,607.67959763946,607.67959761526,607.67959752118,607.67959755819,607.67959755545,607.67959762434,607.67959760655,607.6795975499,607.67959759331,607.6795976741,607.67959766922,607.67959754826,607.67959756961,607.67959765349,607.67959763931,607.67959755545,607.67959752109,607.67959754626,607.67959764609,607.67959764944,607.67959757661,607.67959760619,607.67959762428,607.67959759042,607.67959752857,607.6795975734,607.67959760416,607.67959762186,607.67959761865,607.67959756461,607.67959760075,607.67959762066,607.67959758954,607.67959754373,607.67959759132,607.67959760416,607.67959762337,607.67959762337,607.67959766952,607.67959766952,-1.2000131206599e-07,-6.0447516919671e-10,-8.1285459228911e-08,-3.2977569668354e-08,2.6385343285013e-08,4.548197731064e-07,-1.9676506590069e-07,1.088103641361e-09,7.7242436034007e-09,2.2728039465149e-09,2.4564847891921e-08,-2.1567390718627e-06,-5.0950661628213e-11,-1.4378600305006e-09,3.4761941754956e-08,-1.766438490274e-06,-3.8320255396045e-09,3.921211742106e-08,4.2602631583813e-07,-3.2249192459765e-07,-7.3399044478157e-09,6.0230416110124e-09,1.0559634007381e-09,-9.3035578700647e-07,7.0695075125883e-08,-1.6323933545561e-06,8.0107599331685e-09,2.2981590728749e-07,-6.1251613134819e-08,-3.4605234382198e-09,4.6867950691887e-09,3.499622762253e-08,3.8915713007893e-09,-1.4361202271341e-06,-1.8875589210943e-08,-3.2793072441402e-09,7.3426945762799e-08,-5.8248194782493e-07,-7.2585674963626e-10,-8.2578408521178e-10,8.0777184043345e-09,-2.5899285232369e-06,-4.3945671828016e-09,-3.5551822309005e-09,-5.3617391746176e-08,-7.9336291995231e-09,1.7677884496902e-08,5.1794691050756e-08,732.20212656939,732.20212656939,732.20212650604,732.20212650604,732.20212663201,732.20212662951,732.20212652903,732.20212655714,732.2021266075,732.2021265833,732.20212648922,732.20212652622,732.20212652349,732.20212659238,732.20212657458,732.20212651794,732.20212656135,732.20212664214,732.20212663725,732.20212651629,732.20212653764,732.20212662153,732.20212660734,732.20212652349,732.20212648913,732.20212651429,732.20212661413,732.20212661748,732.20212654465,732.20212657423,732.20212659231,732.20212655846,732.2021264966,732.20212654144,732.2021265722,732.2021265899,732.20212658669,732.20212653265,732.20212656879,732.20212658869,732.20212655758,732.20212651177,732.20212655935,732.2021265722,732.20212659141,732.20212659141,732.20212663756,732.20212663756,0.071794679733644,877.52763579379,190.25865704707,921.86091830391,172.7800300716,0
1.98e-05,20000000,1.3611390993213e-06,5.8767369959688e-06,1.2095379180776e-06,1.0000000425915,607.67959758744,607.67959758744,607.67959751695,607.67959751695,607.6795976571,607.67959765433,607.67959754253,607.67959757381,607.67959762983,607.67959760291,607.67959749823,607.67959753941,607.67959753636,607.67959761301,607.67959759321,607.67959753019,607.67959757849,607.67959766838,607.67959766295,607.67959752836,607.67959755212,607.67959764545,607.67959762967,607.67959753636,607.67959749813,607.67959752613,607.67959763721,607.67959764094,607.6795975599,607.67959759282,607.67959761294,607.67959757527,607.67959750645,607.67959755634,607.67959759056,607.67959761025,607.67959760668,607.67959754655,607.67959758677,607.67959760891,607.6795975743,607.67959752333,607.67959757627,607.67959759056,607.67959761194,607.67959761194,607.67959766328,607.67959766328,-1.3280072938286e-07,-6.6894691333448e-10,-8.9954933602927e-08,-3.6480030931258e-08,2.9200226772305e-08,5.0324649516888e-07,-2.1777406283141e-07,1.2042135030899e-09,8.5484875430201e-09,2.5152599783241e-09,2.7185479222689e-08,-2.3867817015826e-06,-5.6386744646903e-11,-1.5911263606844e-09,3.8470486688971e-08,-1.9548865957687e-06,-4.2409748546784e-09,4.3395329324578e-08,4.7138944794937e-07,-3.5692510868331e-07,-8.122460060231e-09,6.6657094236974e-09,1.1686024170806e-09,-1.0296135094483e-06,7.8236308894831e-08,-1.8065089930321e-06,8.8655135616098e-09,2.5428335532988e-07,-6.7791173071996e-08,-3.8295808118143e-09,5.1868965377076e-09,3.873011364981e-08,4.306770014822e-09,-1.5892989023339e-06,-2.088879636176e-08,-3.6289295810228e-09,8.126019289578e-08,-6.4462167044966e-07,-8.0337932922886e-10,-9.1383374560279e-10,8.9394920010236e-09,-2.866232290643e-06,-4.863492051885e-09,-3.9344904220836e-09,-5.9336734676985e-08,-8.7777368535906e-09,1.9563769405424e-08,5.7308386836779e-08,732.20212655547,732.20212655547,732.20212648499,732.20212648499,732.20212662514,732.20212662237,732.20212651056,732.20212654184,732.20212659787,732.20212657095,732.20212646627,732.20212650744,732.2021265044,732.20212658105,732.20212656125,732.20212649822,732.20212654652,732.20212663641,732.20212663098,732.2021264964,732.20212652015,732.20212661348,732.2021265977,732.2021265044,732.20212646617,732.20212649417,732.20212660524,732.20212660898,732.20212652794,732.20212656086,732.20212658098,732.20212654331,732.20212647449,732.20212652437,732.20212655859,732.20212657828,732.20212657472,732.20212651459,732.2021265548,732.20212657695,732.20212654233,732.20212649136,732.2021265443,732.20212655859,732.20212657997,732.20212657997,732.20212663132,732.20212663132,0.079490003512147,882.00281757166,191.22243691726,926.56895942676,173.65536420817,0
1.99e-05,20000000,1.3680128234867e-06,5.9064173551307e-06,1.2156477337799e-06,1.0000000473341,607.67959757203,607.67959757203,607.67959749366,607.67959749366,607.6795976495,607.67959764643,607.67959752209,607.67959755688,607.67959761918,607.67959758924,607.67959747284,607.67959751863,607.67959751524,607.67959760047,607.67959757846,607.67959750837,607.67959756208,607.67959766204,607.679597656,607.67959750634,607.67959753276,607.67959763654,607.679597619,607.67959751524,607.67959747273,607.67959750386,607.67959762738,607.67959763153,607.67959754141,607.67959757802,607.6795976004,607.67959755851,607.67959748198,607.67959753745,607.6795975755,607.6795975974,607.67959759344,607.67959752657,607.67959757129,607.67959759591,607.67959755742,607.67959750074,607.67959755961,607.6795975755,607.67959759928,607.67959759928,607.67959765638,607.67959765638,-1.4689028143218e-07,-7.399174659441e-10,-9.9498274927469e-08,-4.0333791474183e-08,3.2298930383213e-08,5.565454058826e-07,-2.409032960558e-07,1.3320335453224e-09,9.4558602492716e-09,2.7821606261235e-09,3.0070340508998e-08,-2.6400122808444e-06,-6.2370992832994e-11,-1.7598318415044e-09,4.2552959811197e-08,-2.1623350427279e-06,-4.6911728863998e-09,4.800031901116e-08,5.213167842594e-07,-3.9483330976226e-07,-8.9838647261621e-09,7.3731883912254e-09,1.2925969778789e-09,-1.1388795084556e-06,8.6537826752093e-08,-1.9981754135903e-06,9.8064658432622e-09,2.8121222817617e-07,-7.4990664206179e-08,-4.2358358487557e-09,5.737433275015e-09,4.2840516691064e-08,4.7638360690009e-09,-1.7579175763119e-06,-2.3104932838715e-08,-4.0137786157899e-09,8.9883230598601e-08,-7.130265423931e-07,-8.8872788266031e-10,-1.0107555642758e-09,9.8881583084918e-09,-3.1703949105005e-06,-5.3797086094817e-09,-4.3520467789699e-09,-6.5632665525576e-08,-9.706700374287e-09,2.1639798868018e-08,6.3376686926872e-08,732.20212654007,732.20212654007,732.20212646169,732.20212646169,732.20212661754,732.20212661446,732.20212649013,732.20212652491,732.20212658722,732.20212655728,732.20212644087,732.20212648666,732.20212648327,732.20212656851,732.2021265465,732.2021264764,732.20212653012,732.20212663008,732.20212662404,732.20212647437,732.20212650079,732.20212660458,732.20212658703,732.20212648327,732.20212644076,732.2021264719,732.20212659541,732.20212659957,732.20212650945,732.20212654606,732.20212656843,732.20212652654,732.20212645001,732.20212650549,732.20212654354,732.20212656543,732.20212656148,732.2021264946,732.20212653933,732.20212656395,732.20212652546,732.20212646878,732.20212652765,732.20212654354,732.20212656732,732.20212656732,732.20212662441,732.20212662441,0.087964604778977,886.47811570561,192.18619662975,931.27728577362,174.53068099687,0
2e-05,20000000,1.3748865403202e-06,5.9360977129886e-06,1.2217575603822e-06,1.000000052577,607.679597555,607.679597555,607.67959746789,607.67959746789,607.6795976411,607.67959763768,607.67959749949,607.67959753815,607.6795976074,607.67959757413,607.67959744475,607.67959749564,607.67959749187,607.6795975866,607.67959756214,607.67959748423,607.67959754394,607.67959765503,607.67959764833,607.67959748198,607.67959751134,607.67959762669,607.67959760719,607.67959749187,607.67959744462,607.67959747923,607.67959761651,607.67959762113,607.67959752096,607.67959756166,607.67959758652,607.67959753997,607.6795974549,607.67959751656,607.67959755885,607.67959758318,607.67959757879,607.67959750446,607.67959755417,607.67959758153,607.67959753876,607.67959747576,607.67959754119,607.67959755885,607.67959758528,607.67959758528,607.67959764874,607.67959764874,-1.6239250332814e-07,-8.1800425144143e-10,-1.0999850333496e-07,-4.4572013545015e-08,3.5708426928736e-08,6.1517841089533e-07,-2.6635446503036e-07,1.4726769617317e-09,1.0454264134245e-08,3.0758287486567e-09,3.3244542355816e-08,-2.9186332436112e-06,-6.8955506646155e-11,-1.9454422071924e-09,4.7044897480923e-08,-2.3905893865761e-06,-5.186541281629e-09,5.3067169172017e-08,5.7624105748784e-07,-4.3654710861674e-07,-9.9316060787386e-09,8.1516390932481e-09,1.4290260807338e-09,-1.2591049128243e-06,9.567187302378e-08,-2.209059668672e-06,1.0841810262546e-08,3.1083585544163e-07,-8.2912861674872e-08,-4.6828221669682e-09,6.3431995396529e-09,4.736322162019e-08,5.2667486883683e-09,-1.9434427338966e-06,-2.5543277236836e-08,-4.4371994606575e-09,9.937111402376e-08,-7.8829191247843e-07,-9.8264714315925e-10,-1.1173919850212e-09,1.093197531423e-08,-3.5050637923366e-06,-5.9477123493311e-09,-4.8114865315329e-09,-7.2559971330436e-08,-1.0728557122053e-08,2.3924042606277e-08,7.0052156814745e-08,732.20212652303,732.20212652303,732.20212643592,732.20212643592,732.20212660913,732.20212660572,732.20212646752,732.20212650619,732.20212657543,732.20212654216,732.20212641278,732.20212646367,732.20212645991,732.20212655463,732.20212653018,732.20212645227,732.20212651197,732.20212662307,732.20212661636,732.20212645002,732.20212647938,732.20212659473,732.20212657523,732.20212645991,732.20212641266,732.20212644727,732.20212658454,732.20212658917,732.202126489,732.20212652969,732.20212655455,732.202126508,732.20212642294,732.2021264846,732.20212652688,732.20212655122,732.20212654683,732.20212647249,732.20212652221,732.20212654957,732.20212650679,732.20212644379,732.20212650923,732.20212652688,732.20212655332,732.20212655332,732.20212661677,732.20212661677,0.097292836865912,890.953515187,193.14993618393,935.98589693884,175.40598043782,0
2.01e-05,20000000,1.3817602498133e-06,5.9657780695435e-06,1.2278673979117e-06,1.00000005837,607.67959753616,607.67959753616,607.67959743939,607.67959743939,607.67959763181,607.67959762801,607.6795974745,607.67959751745,607.67959759437,607.67959755741,607.67959741369,607.67959747023,607.67959746604,607.67959757126,607.6795975441,607.67959745755,607.67959752388,607.67959764728,607.67959763984,607.67959745505,607.67959748767,607.67959761581,607.67959759415,607.67959746604,607.67959741355,607.679597452,607.67959760449,607.67959760963,607.67959749835,607.67959754356,607.67959757118,607.67959751947,607.67959742497,607.67959749347,607.67959754043,607.67959756747,607.6795975626,607.67959748002,607.67959753525,607.67959756564,607.67959751813,607.67959744814,607.67959752083,607.67959754043,607.67959756981,607.67959756981,607.6795976403,607.6795976403,-1.7944086613264e-07,-9.0387981234484e-10,-1.2154605006439e-07,-4.9230799222099e-08,3.9458097952975e-08,6.7964855211777e-07,-2.943473014469e-07,1.6273563890686e-09,1.1552307540967e-08,3.3987946095914e-09,3.6735437748918e-08,-3.2250435975905e-06,-7.6197039789886e-11,-2.1495539335223e-09,5.1985009540385e-08,-2.6416163921963e-06,-5.7313520571729e-09,5.863954188405e-08,6.3663354106179e-07,-4.8242664033035e-07,-1.0973839836715e-08,9.0077723870413e-09,1.5790650627991e-09,-1.3913257809299e-06,1.0571714268257e-07,-2.4409776027775e-06,1.1980472160483e-08,3.4340834406672e-07,-9.1626152372797e-08,-5.1743887979145e-09,7.0094178436612e-09,5.2337209006597e-08,5.8198424872033e-09,-2.1474717448098e-06,-2.8224828983748e-08,-4.9028356895016e-09,1.0980560065227e-07,-8.7106628382131e-07,-1.085948449722e-09,-1.2346606123892e-09,1.2079938475767e-08,-3.8731227266752e-06,-6.5724003361683e-09,-5.316769574157e-09,-8.0178330835417e-08,-1.1852059503437e-08,2.6436183946196e-08,7.7392041964295e-08,732.2021265042,732.2021265042,732.20212640743,732.20212640743,732.20212659984,732.20212659605,732.20212644253,732.20212648549,732.2021265624,732.20212652545,732.20212638172,732.20212643826,732.20212643408,732.2021265393,732.20212651214,732.20212642559,732.20212649191,732.20212661532,732.20212660787,732.20212642308,732.20212645571,732.20212658384,732.20212656218,732.20212643408,732.20212638159,732.20212642003,732.20212657252,732.20212657766,732.20212646639,732.2021265116,732.20212653921,732.2021264875,732.20212639301,732.2021264615,732.20212650847,732.20212653551,732.20212653063,732.20212644805,732.20212650328,732.20212653367,732.20212648616,732.20212641617,732.20212648886,732.20212650847,732.20212653784,732.20212653784,732.20212660833,732.20212660833,0.1075556719891,895.42900422529,194.11365557924,940.69479247822,176.28126253106,0
2.02e-05,20000000,1.3886339519569e-06,5.9954584247962e-06,1.2339772463977e-06,1.0000000647677,607.67959751535,607.67959751535,607.67959740791,607.67959740791,607.67959762154,607.67959761733,607.67959744688,607.67959749458,607.67959757997,607.67959753895,607.67959737937,607.67959744214,607.6795974375,607.67959755432,607.67959752417,607.67959742807,607.67959750171,607.67959763872,607.67959763046,607.67959742529,607.67959746151,607.67959760378,607.67959757973,607.6795974375,607.67959737922,607.67959742191,607.6795975912,607.67959759692,607.67959747337,607.67959752357,607.67959755422,607.67959749682,607.6795973919,607.67959746795,607.67959752009,607.67959755011,607.6795975447,607.67959745301,607.67959751434,607.67959754807,607.67959749533,607.67959741762,607.67959749832,607.67959752009,607.67959755271,607.67959755271,607.67959763097,607.67959763097,-1.9818068422151e-07,-9.9827641684863e-10,-1.3423937698717e-07,-5.4349427804562e-08,4.3579935174469e-08,7.5050343709829e-07,-3.2512107910566e-07,1.7973922262162e-09,1.2759363801657e-08,3.7538132179742e-09,4.0572809578345e-08,-3.5618552372223e-06,-8.4157388411056e-11,-2.3739051573216e-09,5.7415444710758e-08,-2.917557509455e-06,-6.3302569145262e-09,6.4764977944164e-08,7.0300726234367e-07,-5.3286406891199e-07,-1.2119445622358e-08,9.9488954382574e-09,1.7439936559983e-09,-1.5366702009748e-06,1.167593207225e-07,-2.6959062076277e-06,1.3232169954512e-08,3.7920631020655e-07,-1.0120500479437e-07,-5.714726551124e-09,7.7417747783552e-09,5.7804922323379e-08,6.427837193245e-09,-2.3717437216113e-06,-3.1172452154405e-08,-5.4146542732549e-09,1.212757107784e-07,-9.6205575679498e-07,-1.1995153243644e-09,-1.3635604662458e-09,1.3341842395846e-08,-4.2777116450241e-06,-7.2591047992039e-09,-5.8722076189727e-09,-8.8552723494564e-08,-1.308673450926e-08,2.9197654757582e-08,8.5458657821055e-08,732.20212648338,732.20212648338,732.20212637595,732.20212637595,732.20212658957,732.20212658537,732.20212641492,732.20212646262,732.20212654801,732.20212650698,732.20212634741,732.20212641018,732.20212640553,732.20212652235,732.2021264922,732.2021263961,732.20212646975,732.20212660676,732.2021265985,732.20212639333,732.20212642955,732.20212657181,732.20212654777,732.20212640553,732.20212634726,732.20212638994,732.20212655924,732.20212656496,732.2021264414,732.2021264916,732.20212652226,732.20212646485,732.20212635994,732.20212643598,732.20212648812,732.20212651814,732.20212651274,732.20212642105,732.20212648237,732.20212651611,732.20212646336,732.20212638565,732.20212646636,732.20212648812,732.20212652074,732.20212652074,732.202126599,732.202126599,0.11884129994404,899.90456992168,195.07735481481,945.40397190507,177.15652727668,0
2.03e-05,20000000,1.3955076467409e-06,6.0251387787476e-06,1.240087105872e-06,1.0000000718297,607.67959749236,607.67959749236,607.67959737314,607.67959737314,607.6795976102,607.67959760554,607.67959741639,607.67959746932,607.67959756408,607.67959751855,607.67959734147,607.67959741113,607.67959740597,607.6795975356,607.67959750215,607.6795973955,607.67959747723,607.67959762927,607.67959762011,607.67959739243,607.67959743262,607.67959759049,607.67959756381,607.67959740597,607.6795973413,607.67959738867,607.67959757654,607.67959758289,607.67959744577,607.67959750149,607.6795975355,607.6795974718,607.67959735537,607.67959743976,607.67959749762,607.67959753093,607.67959752494,607.67959742318,607.67959749124,607.67959752868,607.67959747014,607.67959738391,607.67959747347,607.67959749762,607.67959753382,607.67959753382,607.67959762067,607.67959762067,-2.1877009807226e-07,-1.101991025713e-09,-1.4818564443972e-07,-5.9970616160381e-08,4.8108757643642e-08,8.2833893491585e-07,-3.5893624172577e-07,1.9842216030076e-09,1.4085634905399e-08,4.1438830207932e-09,4.4789072790477e-08,-3.9319106123359e-06,-9.2903810669221e-11,-2.6203874467149e-09,6.3382076693665e-08,-3.2207433988304e-06,-6.9883188440965e-09,7.1495219556503e-08,7.7592046559945e-07,-5.8828625518885e-07,-1.3378087128585e-08,1.098296134387e-08,1.9252046705564e-09,-1.6963659446563e-06,1.2889166360353e-07,-2.9759969986681e-06,1.4607481135925e-08,4.1853074569431e-07,-1.117304755758e-07,-6.3083964338819e-09,8.5464596360233e-09,6.3812555988609e-08,7.0958696910678e-09,-2.6181512824143e-06,-3.4411030492492e-08,-5.9769724585219e-09,1.3387833171943e-07,-1.0620288181913e-06,-1.3243094870211e-09,-1.5051787407854e-09,1.4728347309461e-08,-4.722247919809e-06,-8.013629347759e-09,-6.482493468241e-09,-9.7753870378429e-08,-1.4442947873652e-08,3.2231780920782e-08,9.4319810119789e-08,732.2021264604,732.2021264604,732.20212634118,732.20212634118,732.20212657823,732.20212657357,732.20212638442,732.20212643735,732.20212653211,732.20212648659,732.2021263095,732.20212637916,732.20212637401,732.20212650364,732.20212647018,732.20212636354,732.20212644527,732.20212659731,732.20212658814,732.20212636046,732.20212640066,732.20212655853,732.20212653185,732.20212637401,732.20212630934,732.20212635671,732.20212654457,732.20212655092,732.20212641381,732.20212646952,732.20212650354,732.20212643983,732.20212632341,732.2021264078,732.20212646565,732.20212649896,732.20212649297,732.20212639122,732.20212645928,732.20212649671,732.20212643818,732.20212635194,732.20212644151,732.20212646565,732.20212650186,732.20212650186,732.2021265887,732.2021265887,0.13124571594411,904.38019817169,196.04103388972,950.1134346857,178.03177467453,0
2.04e-05,20000000,1.4023813341545e-06,6.0548191313988e-06,1.2461969763689e-06,1.0000000796211,607.67959746698,607.67959746698,607.67959733476,607.67959733476,607.67959759768,607.67959759252,607.67959738272,607.67959744143,607.67959754653,607.67959749604,607.67959729963,607.67959737689,607.67959737117,607.67959751494,607.67959747785,607.67959735956,607.67959745021,607.67959761884,607.67959760867,607.67959735614,607.67959740073,607.67959757582,607.67959754624,607.67959737117,607.67959729944,607.67959735198,607.67959756034,607.6795975674,607.67959741531,607.67959747711,607.67959751483,607.67959744418,607.67959731505,607.67959740865,607.67959747281,607.67959750976,607.67959750312,607.67959739026,607.67959746575,607.67959750726,607.67959744235,607.6795973467,607.67959744604,607.67959747281,607.67959751298,607.67959751298,607.67959760929,607.67959760929,-2.4138113286268e-07,-1.2158906444189e-09,-1.6350143086508e-07,-6.6140798695925e-08,5.3082445754652e-08,9.1380315785108e-07,-3.9607615726205e-07,2.189408045361e-09,1.5542220109417e-08,4.5722660454031e-09,4.9419492229161e-08,-4.3383017602502e-06,-1.0250947887181e-10,-2.8910584835176e-09,6.9934812476534e-08,-3.5537095829035e-06,-7.7110461836153e-09,7.8886558064e-08,8.5598034275682e-07,-6.4915763202511e-07,-1.4760276951088e-08,1.2118622607458e-08,2.124213352353e-09,-1.8717487142205e-06,1.4221562581545e-07,-3.2835904241841e-06,1.6117913390985e-08,4.6170902880159e-07,-1.2329075540095e-07,-6.9603602753126e-09,9.430206030414e-09,7.0410365745309e-08,7.8295285527182e-09,-2.8887532210545e-06,-3.7967634448156e-08,-6.5944867299472e-09,1.4771886891503e-07,-1.1718215015465e-06,-1.4613773379997e-09,-1.660698085889e-09,1.6251050730921e-08,-5.210449315396e-06,-8.8422879986661e-09,-7.1527325587904e-09,-1.0785870929118e-07,-1.593197318674e-08,3.5563939083274e-08,1.0404924767634e-07,732.20212643502,732.20212643502,732.20212630279,732.20212630279,732.20212656572,732.20212656055,732.20212635075,732.20212640947,732.20212651456,732.20212646408,732.20212626766,732.20212634493,732.20212633921,732.20212648298,732.20212644588,732.20212632759,732.20212641824,732.20212658687,732.20212657671,732.20212632418,732.20212636877,732.20212654386,732.20212651427,732.20212633921,732.20212626748,732.20212632002,732.20212652838,732.20212653543,732.20212638334,732.20212644515,732.20212648287,732.20212641222,732.20212628308,732.20212637669,732.20212644085,732.20212647779,732.20212647116,732.20212635829,732.20212643378,732.2021264753,732.20212641038,732.20212631473,732.20212641407,732.20212644085,732.20212648101,732.20212648101,732.20212657733,732.20212657733,0.1448733646831,908.85587355909,197.00469280295,954.82318023603,178.90700472447,0
2.05e-05,20000000,1.409255014186e-06,6.0844994827509e-06,1.2523068579257e-06,1.0000000882131,607.67959743899,607.67959743899,607.67959729241,607.67959729241,607.67959758387,607.67959757815,607.67959734557,607.67959741066,607.67959752716,607.6795974712,607.67959725346,607.67959733912,607.67959733277,607.67959749215,607.67959745103,607.67959731989,607.67959742039,607.67959760732,607.67959759606,607.67959731611,607.67959736555,607.67959755964,607.67959752685,607.67959733277,607.67959725326,607.6795973115,607.67959754248,607.6795975503,607.6795973817,607.67959745022,607.67959749203,607.67959741371,607.67959727056,607.67959737432,607.67959744544,607.6795974864,607.67959747905,607.67959735392,607.67959743762,607.67959748363,607.67959741168,607.67959730564,607.67959741576,607.67959744544,607.67959748998,607.67959748998,607.67959759675,607.67959759675,-2.6620083826218e-07,-1.3409180883982e-09,-1.8031350799412e-07,-7.2910428269609e-08,5.8542193326833e-08,1.0076007493026e-06,-4.3684900785393e-07,2.4146518871448e-09,1.7141189850485e-08,5.0425095963054e-09,5.4502417296783e-08,-4.7843907982356e-06,-1.1305396652798e-10,-3.188155723451e-09,7.7127924444683e-08,-3.9192133047258e-06,-8.5044293079949e-09,8.70002085297e-08,9.4384705113435e-07,-7.1598330182648e-07,-1.627744642073e-08,1.3365288744796e-08,2.3426674626445e-09,-2.0642710256027e-06,1.5684153481244e-07,-3.6212313804995e-06,1.7775981215337e-08,5.0909708962741e-07,-1.3598175710947e-07,-7.6760137136921e-09,1.0400336732099e-08,7.7653002988388e-08,8.6348912349668e-09,-3.1857881491679e-06,-4.1871701096455e-08,-7.2723040064102e-09,1.6291194730025e-07,-1.2923429453353e-06,-1.6118569418758e-09,-1.8314044481253e-09,1.7922564633497e-08,-5.7463587090111e-06,-9.7519472183978e-09,-7.8884769422286e-09,-1.1895090656587e-07,-1.7566066314926e-08,3.9221725519826e-08,1.1472714998845e-07,732.20212640702,732.20212640702,732.20212626044,732.20212626044,732.2021265519,732.20212654619,732.2021263136,732.2021263787,732.2021264952,732.20212643924,732.2021262215,732.20212630715,732.20212630081,732.20212646018,732.20212641907,732.20212628793,732.20212638843,732.20212657536,732.2021265641,732.20212628415,732.20212633358,732.20212652768,732.20212649488,732.20212630081,732.20212622129,732.20212627954,732.20212651051,732.20212651834,732.20212634973,732.20212641825,732.20212646007,732.20212638175,732.20212623859,732.20212634236,732.20212641348,732.20212645443,732.20212644709,732.20212632196,732.20212640565,732.20212645167,732.20212637971,732.20212627367,732.2021263838,732.20212641348,732.20212645801,732.20212645801,732.20212656478,732.20212656478,0.15983783340292,913.3315792421,197.96833155324,959.5332079168,179.78221742639,0
2.06e-05,20000000,1.4161286868228e-06,6.1141798328052e-06,1.2584167505827e-06,1.0000000976835,607.67959740811,607.67959740811,607.6795972457,607.6795972457,607.67959756864,607.67959756231,607.6795973046,607.67959737673,607.67959750581,607.67959744381,607.67959720254,607.67959729745,607.67959729042,607.67959746701,607.67959742146,607.67959727615,607.67959738751,607.67959759463,607.67959758216,607.67959727196,607.67959732674,607.6795975418,607.67959750546,607.67959729042,607.67959720232,607.67959726686,607.67959752277,607.67959753145,607.67959734463,607.67959742056,607.67959746688,607.67959738011,607.67959722149,607.67959733646,607.67959741525,607.67959746064,607.67959745251,607.67959731385,607.6795974066,607.67959745757,607.67959737785,607.67959726035,607.67959738238,607.67959741525,607.67959746461,607.67959746461,607.67959758291,607.67959758291,-2.9343251513542e-07,-1.4780981908907e-09,-1.9875967554686e-07,-8.0334299445999e-08,6.4532779051707e-08,1.1104974998234e-06,-4.8158982515047e-07,2.6618014821839e-09,1.8895665336813e-08,5.5584696174359e-09,6.0079534640778e-08,-5.2738319793275e-06,-1.2462377282465e-10,-3.5141111042148e-09,8.5020408005607e-08,-4.3202516791486e-06,-9.3749801391942e-09,9.5902713093744e-08,1.0402380386398e-06,-7.8931237229036e-07,-1.7942020794649e-08,1.473318831586e-08,2.5823581319868e-09,-2.2755117730709e-06,1.7288931778484e-07,-3.991685911351e-06,1.9595288415748e-08,5.6108174115958e-07,-1.4990774904026e-07,-8.4612217163629e-09,1.1464811949588e-08,8.5599874749861e-08,9.5185641343018e-09,-3.5116891786636e-06,-4.6155227857127e-08,-8.0159752310889e-09,1.7958216655391e-07,-1.4245813774043e-06,-1.7769855486437e-09,-2.0186955110865e-09,1.9756598557984e-08,-6.3343707078506e-06,-1.0750071196037e-08,-8.6957618756873e-09,-1.3112140816624e-07,-1.9358545507228e-08,4.3235137964653e-08,1.2644065212947e-07,732.20212637615,732.20212637615,732.20212621373,732.20212621373,732.20212653667,732.20212653035,732.20212627263,732.20212634477,732.20212647385,732.20212641184,732.20212617058,732.20212626549,732.20212625846,732.20212643505,732.20212638949,732.20212624418,732.20212635555,732.20212656266,732.20212655019,732.20212624,732.20212629478,732.20212650983,732.2021264735,732.20212625846,732.20212617036,732.20212623489,732.20212649081,732.20212649949,732.20212631266,732.20212638859,732.20212643492,732.20212634815,732.20212618952,732.2021263045,732.20212638329,732.20212642867,732.20212642054,732.20212628189,732.20212637463,732.20212642561,732.20212634589,732.20212622839,732.20212635042,732.20212638329,732.20212643265,732.20212643265,732.20212655095,732.20212655095,0.17626259732669,917.8072968292,198.93195013905,964.24351702878,180.65741277979,0
2.07e-05,20000000,1.4230023520509e-06,6.143860181563e-06,1.2645266543833e-06,1.0000001081171,607.67959737407,607.67959737407,607.67959719421,607.67959719421,607.67959755185,607.67959754485,607.67959725944,607.67959733933,607.67959748227,607.67959741361,607.67959714642,607.67959725153,607.67959724374,607.6795974393,607.67959738886,607.67959722793,607.67959735126,607.67959758063,607.67959756683,607.67959722329,607.67959728396,607.67959752213,607.67959748189,607.67959724374,607.67959714617,607.67959721765,607.67959750105,607.67959751068,607.67959730377,607.67959738787,607.67959743916,607.67959734307,607.6795971674,607.67959729473,607.67959738198,607.67959743224,607.67959742325,607.67959726968,607.6795973724,607.67959742885,607.67959734057,607.67959721044,607.67959734558,607.67959738198,607.67959743665,607.67959743665,607.67959756766,607.67959756766,-3.2329703524958e-07,-1.6285444850148e-09,-2.1898965970071e-07,-8.8471895560372e-08,7.1102858687477e-08,1.2233253145641e-06,-5.3066268139153e-07,2.9328652737302e-09,2.081990422595e-08,6.1243358386806e-09,6.6196140152699e-08,-5.8105954211786e-06,-1.3731288719325e-10,-3.8715668760422e-09,9.3676366546664e-08,-4.7600812291337e-06,-1.0329774677714e-08,1.0566637515917e-07,1.1459326982624e-06,-8.6974154741603e-07,-1.9767500187871e-08,1.6233435699361e-08,2.8452315435492e-09,-2.5071865238848e-06,1.904892839687e-07,-4.3979591746097e-06,2.1590616919478e-08,6.1808318776207e-07,-1.6518203683932e-07,-9.3223568128071e-09,1.2632281302025e-08,9.43155311697e-08,1.0487725703766e-08,-3.8690997175317e-06,-5.0852980997906e-08,-8.8315315259833e-09,1.9786491406811e-07,-1.5696105559757e-06,-1.9581076907319e-09,-2.2240897773484e-09,2.1768049073422e-08,-6.9792602973412e-06,-1.1844770577896e-08,-9.5811452093705e-09,-1.444690328996e-07,-2.1323877590289e-08,4.7636771340836e-08,1.3928440958037e-07,732.20212634211,732.20212634211,732.20212616225,732.20212616225,732.20212651988,732.20212651289,732.20212622747,732.20212630736,732.20212645031,732.20212638165,732.20212611446,732.20212621957,732.20212621178,732.20212640733,732.2021263569,732.20212619596,732.2021263193,732.20212654867,732.20212653486,732.20212619133,732.202126252,732.20212649016,732.20212644993,732.20212621178,732.20212611421,732.20212618568,732.20212646909,732.20212647871,732.2021262718,732.2021263559,732.2021264072,732.20212631111,732.20212613544,732.20212626277,732.20212635001,732.20212640027,732.20212639128,732.20212623772,732.20212634044,732.20212639689,732.20212630861,732.20212617847,732.20212631362,732.20212635001,732.20212640469,732.20212640469,732.2021265357,732.2021265357,0.1942818209975,922.2830062464,199.89554855884,968.9541068075,181.53259078436,0
2.08e-05,20000000,1.4298760098557e-06,6.1735405290258e-06,1.2706365693748e-06,1.0000001196065,607.67959733657,607.67959733657,607.67959713749,607.67959713749,607.67959753335,607.67959752562,607.67959720968,607.67959729812,607.67959745634,607.67959738034,607.67959708458,607.67959720093,607.67959719231,607.67959740877,607.67959735295,607.6795971748,607.67959731133,607.67959756521,607.67959754994,607.67959716967,607.67959723683,607.67959750046,607.67959745592,607.67959719231,607.67959708431,607.67959716343,607.67959747712,607.67959748779,607.67959725874,607.67959735185,607.67959740862,607.67959730226,607.6795971078,607.67959724875,607.67959734532,607.67959740095,607.67959739101,607.67959722102,607.67959733473,607.6795973972,607.67959729949,607.67959715544,607.67959730504,607.67959734532,607.67959740585,607.67959740585,607.67959755086,607.67959755086,-3.5603426044502e-07,-1.7934663937024e-09,-2.4116607984801e-07,-9.7387761133628e-08,7.8305279474109e-08,1.3469875569393e-06,-5.8446304732784e-07,3.2300247821404e-09,2.2929392821064e-08,6.7446588331045e-09,7.2901431650051e-08,-6.3989926243519e-06,-1.5122339681391e-10,-4.2633926342135e-09,1.0316542566625e-07,-5.2422389048145e-06,-1.1376498770203e-08,1.1636972659552e-07,1.2617773751163e-06,-9.57918991931e-07,-2.1768546652505e-08,1.7878102946473e-08,3.1334015047303e-09,-2.7611585945648e-06,2.0978296643282e-07,-4.8433147646528e-06,2.3778022339198e-08,6.8055772361636e-07,-1.8192769718048e-07,-1.0266340233342e-08,1.3912139745864e-08,1.0387008239748e-07,1.1550172848928e-08,-4.2608904563631e-06,-5.6002719966969e-08,-9.7255230925484e-09,2.1790723973548e-07,-1.7285966994357e-06,-2.1566838966392e-09,-2.449236336978e-09,2.3973096040825e-08,-7.6862136640035e-06,-1.3044854909592e-08,-1.055174976932e-08,-1.59101110729e-07,-2.347777068108e-08,5.2462028373968e-08,1.5336120581805e-07,732.20212630461,732.20212630461,732.20212610552,732.20212610552,732.20212650138,732.20212649365,732.20212617771,732.20212626616,732.20212642438,732.20212634838,732.20212605262,732.20212616897,732.20212616035,732.2021263768,732.20212632098,732.20212614283,732.20212627936,732.20212653325,732.20212651797,732.20212613771,732.20212620487,732.20212646849,732.20212642396,732.20212616035,732.20212605234,732.20212613146,732.20212644516,732.20212645583,732.20212622678,732.20212631988,732.20212637666,732.2021262703,732.20212607584,732.20212621679,732.20212631335,732.20212636899,732.20212635904,732.20212618905,732.20212630276,732.20212636524,732.20212626753,732.20212612348,732.20212627307,732.20212631335,732.20212637388,732.20212637388,732.2021265189,732.2021265189,0.214041219276,926.75868559257,200.85912681052,973.6649764179,182.4077514395,0
2.09e-05,20000000,1.4367496602208e-06,6.2032208751952e-06,1.2767464956085e-06,1.0000001322524,607.67959729528,607.67959729528,607.67959707501,607.67959707501,607.67959751298,607.67959750443,607.67959715488,607.67959725274,607.67959742778,607.67959734371,607.67959701648,607.67959714521,607.67959713567,607.67959737514,607.67959731339,607.67959711629,607.67959726735,607.67959754824,607.67959753134,607.67959711062,607.67959718493,607.67959747659,607.67959742733,607.67959713567,607.67959701618,607.67959710372,607.67959745077,607.67959746258,607.67959720916,607.67959731218,607.67959737498,607.67959725732,607.67959704217,607.67959719812,607.67959730494,607.67959736649,607.67959735551,607.67959716742,607.67959729324,607.67959736235,607.67959725425,607.67959709487,607.67959726039,607.67959730494,607.67959737193,607.67959737193,607.67959753236,607.67959753236,-3.9190456813861e-07,-1.9741769632963e-09,-2.6546548846522e-07,-1.0715190126746e-07,8.619741833863e-08,1.4824647949517e-06,-6.4342032875713e-07,3.5556485757344e-09,2.5240945246142e-08,7.4243791194168e-09,8.0248823701972e-08,-7.0437039037942e-06,-1.6646614009821e-10,-4.6927036385015e-09,1.1356317874702e-07,-5.7705646895924e-06,-1.2523497341916e-08,1.280980302924e-07,1.388690750806e-06,-1.0545484884341e-06,-2.3961077838287e-08,1.9680297072565e-08,3.4491629697943e-09,-3.0394509637551e-06,2.3092402754446e-07,-5.3312954842489e-06,2.6174936770932e-08,7.4900063446027e-07,-2.0027836706371e-07,-1.1300686158579e-08,1.5314587734757e-08,1.1433964699583e-07,1.2714370834637e-08,-4.690177627841e-06,-6.1645438668659e-08,-1.0705061052613e-08,2.3986879692138e-07,-1.9028059392809e-06,-2.3743000648795e-09,-2.6959253704642e-09,2.6389306160811e-08,-8.4608613458718e-06,-1.4359889047507e-08,-1.1615308947091e-08,-1.7513416936993e-07,-2.5837273874357e-08,5.7749346141349e-08,1.6878260566054e-07,732.20212626331,732.20212626331,732.20212604305,732.20212604305,732.20212648101,732.20212647247,732.20212612291,732.20212622077,732.20212639582,732.20212631174,732.20212598452,732.20212611325,732.20212610371,732.20212634318,732.20212628143,732.20212608432,732.20212623539,732.20212651627,732.20212649938,732.20212607866,732.20212615297,732.20212644463,732.20212639536,732.20212610371,732.20212598421,732.20212607175,732.20212641881,732.20212643062,732.2021261772,732.20212628022,732.20212634302,732.20212622535,732.20212601021,732.20212616615,732.20212627298,732.20212633453,732.20212632354,732.20212613545,732.20212626128,732.20212633039,732.20212622229,732.20212606291,732.20212622843,732.20212627298,732.20212633996,732.20212633996,732.2021265004,732.2021265004,0.23569898193601,931.23431098381,201.82268489206,978.3761249483,183.28289474468,0
2.1e-05,20000000,1.4436233031287e-06,6.2329012200729e-06,1.2828564331397e-06,1.000000146165,607.67959724982,607.67959724982,607.67959700625,607.67959700625,607.67959749055,607.67959748112,607.67959709455,607.67959720278,607.67959739635,607.67959730338,607.67959694152,607.67959708388,607.67959707332,607.67959733813,607.67959726986,607.67959705188,607.67959721894,607.67959752955,607.67959751087,607.67959704562,607.6795971278,607.67959745032,607.67959739585,607.67959707332,607.67959694118,607.67959703799,607.67959742176,607.67959743484,607.67959715458,607.67959726852,607.67959733796,607.67959720785,607.67959696993,607.67959714238,607.67959726049,607.67959732856,607.67959731643,607.67959710842,607.67959724757,607.67959732399,607.67959720446,607.6795970282,607.67959721124,607.67959726049,607.67959733459,607.67959733459,607.679597512,607.679597512,-4.3119049044731e-07,-2.1721011790399e-09,-2.9207948922814e-07,-1.17840209722e-07,9.4841545562776e-08,1.630820978321e-06,-7.0800059426633e-07,3.9123072940782e-09,2.7772810091196e-08,8.168858453244e-09,8.8296286154737e-08,-7.7498078648912e-06,-1.8316140936629e-10,-5.1628805095454e-09,1.2495166607167e-07,-6.3492259041514e-06,-1.3779827337821e-08,1.4094382054773e-07,1.5276696314958e-06,-1.1603939078792e-06,-2.6362367696125e-08,2.1654243169486e-08,3.7950065803532e-09,-3.3442590801958e-06,2.5407923258722e-07,-5.8657456656831e-06,2.8800279333442e-08,8.2394931683098e-07,-2.2037909260877e-07,-1.2433549298142e-08,1.6850695910638e-08,1.2580683405215e-07,1.3989506949335e-08,-5.1603426265207e-06,-6.7825624868394e-08,-1.177786243534e-08,2.6392285426993e-07,-2.0936123327594e-06,-2.6126775447087e-09,-2.9660994368381e-09,2.903574431624e-08,-9.3093138731633e-06,-1.5800253818915e-08,-1.2780215721491e-08,-1.926946725639e-07,-2.8420884391124e-08,6.3540439676685e-08,1.8566965756662e-07,732.20212621786,732.20212621786,732.20212597428,732.20212597428,732.20212645859,732.20212644915,732.20212606259,732.20212617082,732.20212636438,732.20212627142,732.20212590955,732.20212605191,732.20212604136,732.20212630616,732.20212623789,732.20212601991,732.20212618698,732.20212649758,732.20212647891,732.20212601365,732.20212609584,732.20212641836,732.20212636389,732.20212604136,732.20212590922,732.20212600603,732.2021263898,732.20212640288,732.20212612262,732.20212623655,732.202126306,732.20212617588,732.20212593796,732.20212611042,732.20212622853,732.2021262966,732.20212628446,732.20212607646,732.20212621561,732.20212629202,732.20212617249,732.20212599624,732.20212617928,732.20212622853,732.20212630262,732.20212630262,732.20212648003,732.20212648003,0.25942676602207,935.70985638548,202.78622280101,983.08755140316,184.15802069916,0
2.11e-05,20000000,1.4504969385604e-06,6.2625815636608e-06,1.2889663820285e-06,1.000000161464,607.6795971998,607.6795971998,607.67959693058,607.67959693058,607.67959746588,607.67959745547,607.67959702818,607.67959714782,607.67959736176,607.67959725901,607.67959685903,607.67959701639,607.67959700472,607.6795972974,607.67959722196,607.67959698101,607.67959716568,607.67959750899,607.67959748835,607.6795969741,607.67959706494,607.67959742142,607.67959736122,607.67959700472,607.67959685866,607.67959696568,607.67959738984,607.67959740432,607.67959709453,607.67959722048,607.67959729723,607.67959715342,607.67959689044,607.67959708106,607.67959721159,607.67959728683,607.67959727343,607.6795970435,607.67959719733,607.67959728178,607.67959714967,607.67959695484,607.67959715717,607.67959721159,607.67959729351,607.67959729351,607.67959748959,607.67959748959,-4.7419847465638e-07,-2.3887849030766e-09,-3.2121593884136e-07,-1.2953492744382e-07,1.0430521569377e-07,1.7932100763381e-06,-7.7870950754806e-07,4.3027897971285e-09,3.0544785049907e-08,8.9839134598776e-09,9.7106708014036e-08,-8.5228130633051e-06,-2.0143970618167e-10,-5.6775903985469e-09,1.3741988983086e-07,-6.9827433265042e-06,-1.5155314631733e-08,1.5500748393666e-07,1.6797951677226e-06,-1.2762840153075e-06,-2.8991154716953e-08,2.3815373745247e-08,4.1736342948796e-09,-3.6779646281268e-06,2.7942949629512e-07,-6.4508351467656e-06,3.167457499063e-08,9.059866299158e-07,-2.4238724150331e-07,-1.3673776031225e-08,1.8532474642828e-08,1.3836126134766e-07,1.5385548189673e-08,-5.6750530814054e-06,-7.4591538989574e-08,-1.2952298530591e-08,2.9025738330169e-07,-2.3025064741222e-06,-2.8736839730427e-09,-3.2618656010164e-09,3.1933093256277e-08,-1.0238200072488e-05,-1.7377211227887e-08,-1.4055575352638e-08,-2.1191981364224e-07,-3.1248662704975e-08,6.9880563823326e-08,2.0415364828414e-07,732.20212616784,732.20212616784,732.20212589862,732.20212589862,732.20212643392,732.2021264235,732.20212599622,732.20212611586,732.2021263298,732.20212622705,732.20212582707,732.20212598443,732.20212597276,732.20212626544,732.20212618999,732.20212594905,732.20212613371,732.20212647702,732.20212645639,732.20212594213,732.20212603298,732.20212638946,732.20212632925,732.20212597276,732.2021258267,732.20212593371,732.20212635788,732.20212637235,732.20212606256,732.20212618852,732.20212626526,732.20212612145,732.20212585847,732.20212604909,732.20212617963,732.20212625486,732.20212624147,732.20212601154,732.20212616536,732.20212624981,732.2021261177,732.20212592288,732.2021261252,732.20212617963,732.20212626154,732.20212626154,732.20212645763,732.20212645763,0.28541076034014,940.18529343072,203.74974053478,987.79925469667,185.03312930188,0
2.12e-05,20000000,1.4573705664954e-06,6.2922619059611e-06,1.2950763423401e-06,1.0000001782799,607.6795971448,607.6795971448,607.67959684737,607.67959684737,607.67959743875,607.67959742726,607.67959695519,607.67959708738,607.67959732373,607.67959721022,607.67959676832,607.67959694218,607.67959692927,607.67959725262,607.67959716928,607.67959690307,607.6795971071,607.67959748637,607.67959746359,607.67959689544,607.67959699581,607.67959738964,607.67959732313,607.67959692927,607.67959676791,607.67959688614,607.67959735474,607.67959737075,607.67959702848,607.67959716765,607.67959725243,607.67959709356,607.67959680301,607.67959701361,607.67959715781,607.67959724093,607.67959722615,607.67959697211,607.67959714207,607.67959723536,607.67959708941,607.67959687417,607.6795970977,607.67959715781,607.67959724833,607.67959724833,607.67959746496,607.67959746496,-5.2126077322929e-07,-2.6259044782308e-09,-3.5310023840829e-07,-1.4232513342419e-07,1.1466168759502e-07,1.9708832083953e-06,-8.5609547855364e-07,4.7301205188752e-09,3.3578340106257e-08,9.8758517709072e-09,1.0674828844965e-07,-9.3686919965122e-06,-2.2144255298082e-10,-6.240809732527e-09,1.5106436751426e-07,-7.6760192534353e-06,-1.6660615179844e-08,1.7039788347921e-07,1.8462395358943e-06,-1.4031176341889e-06,-3.1867758229497e-08,2.6180424724694e-08,4.5879761830282e-09,-4.0431503162747e-06,3.0717100737944e-07,-7.0910850140441e-06,3.4820082234087e-08,9.9574449613628e-07,-2.664734835444e-07,-1.5030959356619e-08,2.0372948752805e-08,1.5210011207838e-07,1.6913303245388e-08,-6.2382854795649e-06,-8.1995513644295e-08,-1.4237446842287e-08,3.1907622706705e-07,-2.5311047457978e-06,-3.1593449203051e-09,-3.5855084577067e-09,3.5103782200437e-08,-1.125470821853e-05,-1.9102974523492e-08,-1.5451262003544e-08,-2.3295836822332e-07,-3.4342356198549e-08,7.6818794606094e-08,2.243769134765e-07,732.20212611284,732.20212611284,732.20212581541,732.20212581541,732.20212640679,732.20212639529,732.20212592322,732.20212605541,732.20212629176,732.20212617825,732.20212573636,732.20212591021,732.20212589731,732.20212622065,732.20212613731,732.20212587111,732.20212607514,732.20212645441,732.20212643162,732.20212586347,732.20212596385,732.20212635767,732.20212629117,732.20212589731,732.20212573595,732.20212585418,732.20212632278,732.20212633879,732.20212599652,732.20212613569,732.20212622047,732.20212606159,732.20212577105,732.20212598165,732.20212612585,732.20212620897,732.20212619419,732.20212594015,732.2021261101,732.20212620339,732.20212605745,732.2021258422,732.20212606573,732.20212612585,732.20212621637,732.20212621637,732.20212643299,732.20212643299,0.31385282666312,944.66059122587,204.71323809005,992.51123364495,185.90822055184,0
2.13e-05,20000000,1.4642441869112e-06,6.3219422469758e-06,1.301186314145e-06,1.0000001967547,607.67959708434,607.67959708434,607.6795967559,607.6795967559,607.67959740893,607.67959739625,607.67959687495,607.67959702093,607.67959728192,607.67959715658,607.6795966686,607.6795968606,607.67959684634,607.67959720338,607.67959711137,607.67959681739,607.67959704271,607.67959746152,607.67959743637,607.67959680897,607.67959691982,607.6795973547,607.67959728127,607.67959684634,607.67959666816,607.67959679872,607.67959731615,607.67959733385,607.67959695588,607.67959710958,607.67959720319,607.67959702775,607.67959670691,607.67959693948,607.67959709869,607.67959719048,607.67959717418,607.67959689363,607.67959708133,607.67959718433,607.67959702318,607.67959678548,607.67959703233,607.67959709869,607.67959719867,607.67959719867,607.67959743787,607.67959743787,-5.7273747201972e-07,-2.8852770436834e-09,-3.8797672052924e-07,-1.563072697967e-07,1.2599037565271e-07,2.1651963009998e-06,-9.4075304863347e-07,5.1975781088478e-09,3.6896749862727e-08,1.0851510837633e-08,1.1729495679769e-07,-1.0293917583213e-05,-2.4332336492781e-10,-6.8568486440388e-09,1.6598972635134e-07,-8.4343676370282e-06,-1.8307280712777e-08,1.8723302910296e-07,2.0282731131587e-06,-1.5418691942002e-06,-3.501420331368e-08,2.8767538572573e-08,5.0412084653815e-09,-4.442615760964e-06,3.3751643643926e-07,-7.7913952318242e-06,3.826093023856e-08,1.0939077675308e-06,-2.9282284398701e-07,-1.6515497916086e-08,2.2386237784071e-08,1.6712873278699e-07,1.8584489081849e-08,-6.8543494445353e-06,-9.0094275327695e-08,-1.5643146890845e-08,3.5060035548219e-07,-2.7811592535339e-06,-3.4718564012073e-09,-3.9395041126585e-09,3.8572124982662e-08,-1.2366630229351e-05,-2.0990783467285e-08,-1.6977979561245e-08,-2.5597161014353e-07,-3.7725531933421e-08,8.4408331472918e-08,2.4649370816115e-07,732.20212605237,732.20212605237,732.20212572394,732.20212572394,732.20212637696,732.20212636429,732.20212584298,732.20212598897,732.20212624995,732.20212612462,732.20212563664,732.20212582863,732.20212581437,732.20212617142,732.20212607941,732.20212578543,732.20212601075,732.20212642955,732.2021264044,732.20212577701,732.20212588786,732.20212632274,732.20212624931,732.20212581437,732.20212563619,732.20212576676,732.20212628419,732.20212630189,732.20212592392,732.20212607761,732.20212617122,732.20212599579,732.20212567495,732.20212590751,732.20212606672,732.20212615851,732.20212614221,732.20212586166,732.20212604936,732.20212615236,732.20212599121,732.20212575351,732.20212600036,732.20212606672,732.20212616671,732.20212616671,732.20212640591,732.20212640591,0.34497172247254,949.13571613909,205.67671546352,997.22348695759,186.78329444777,0
2.14e-05,20000000,1.4711177997838e-06,6.3516225867074e-06,1.3072962975196e-06,1.0000002170431,607.6795970179,607.6795970179,607.6795966554,607.6795966554,607.67959737616,607.67959736218,607.67959678678,607.67959694793,607.67959723598,607.67959709765,607.67959655904,607.67959677096,607.67959675521,607.67959714929,607.67959704775,607.67959672325,607.67959697197,607.67959743421,607.67959740646,607.67959671396,607.67959683632,607.67959731632,607.67959723527,607.67959675521,607.67959655854,607.67959670266,607.67959727376,607.67959729331,607.67959687611,607.67959704577,607.67959714908,607.67959695545,607.67959660132,607.67959685802,607.67959703373,607.67959713504,607.67959711707,607.67959680739,607.67959701459,607.67959712826,607.6795969504,607.67959668803,607.6795969605,607.67959703373,607.67959714411,607.67959714411,607.67959740812,607.67959740812,-6.290186658754e-07,-3.1688716114468e-09,-4.2611013873136e-07,-1.7158570320202e-07,1.3837733428753e-07,2.3776183074049e-06,-1.0333265258193e-06,5.7087154502195e-09,4.052523563999e-08,1.1918299605227e-08,1.2882682356126e-07,-1.1305502296564e-05,-2.6724838611062e-10,-7.5303772012512e-09,1.8230934161932e-07,-9.2635464378082e-06,-2.0107829278942e-08,2.0564079759345e-07,2.2272721795114e-06,-1.6935946888997e-06,-3.8454354923863e-08,3.1596375029694e-08,5.5367728844843e-09,-4.8793945381074e-06,3.7069623300916e-07,-8.5570742830858e-06,4.2023266144237e-08,1.2012183761696e-06,-3.2163583472756e-07,-1.8138659371021e-08,2.4587642199228e-08,1.8356127532774e-07,2.0411802437547e-08,-7.5279137796727e-06,-9.8949289792817e-08,-1.7180060129584e-08,3.8506921329999e-07,-3.0545684921282e-06,-3.8135983101173e-09,-4.3265351858393e-09,4.2364468389914e-08,-1.3582409113034e-05,-2.3054985158243e-08,-1.864732694678e-08,-2.8113429496711e-07,-4.142371915737e-08,9.2706821845143e-08,2.7067114106463e-07,732.20212598594,732.20212598594,732.20212562343,732.20212562343,732.2021263442,732.20212633022,732.20212575482,732.20212591597,732.20212620402,732.20212606568,732.20212552707,732.20212573899,732.20212572325,732.20212611732,732.20212601578,732.20212569129,732.20212594,732.20212640225,732.2021263745,732.202125682,732.20212580436,732.20212628435,732.20212620331,732.20212572325,732.20212552658,732.2021256707,732.20212624179,732.20212626135,732.20212584414,732.20212601381,732.20212611712,732.20212592349,732.20212556936,732.20212582606,732.20212600176,732.20212610308,732.20212608511,732.20212577543,732.20212598262,732.20212609629,732.20212591844,732.20212565607,732.20212592853,732.20212600176,732.20212611214,732.20212611214,732.20212637616,732.20212637616,0.37900441023418,953.6106315738,206.64017265172,1001.936013229,187.65835098837,0
2.15e-05,20000000,1.4779914050867e-06,6.3813029251587e-06,1.3134062925468e-06,1.000000239313,607.67959694494,607.67959694494,607.67959654501,607.67959654501,607.67959734017,607.67959732477,607.67959668995,607.67959686775,607.67959718553,607.67959703292,607.6795964387,607.67959667251,607.67959665513,607.67959708987,607.67959697787,607.67959661985,607.67959689427,607.67959740422,607.67959737362,607.67959660962,607.67959674462,607.67959727416,607.67959718476,607.67959665513,607.67959643815,607.67959659716,607.67959722719,607.67959724879,607.67959678849,607.6795969757,607.67959708966,607.67959687605,607.67959648535,607.67959676856,607.67959696238,607.67959707415,607.67959705435,607.67959671268,607.67959694129,607.67959706668,607.67959687047,607.679596581,607.67959688161,607.67959696238,607.67959708418,607.67959708418,607.67959737544,607.67959737544,-6.9052679133358e-07,-3.4788209558112e-09,-4.6778726622907e-07,-1.8827332449414e-07,1.5191577805478e-07,2.6097400281007e-06,-1.1345138873954e-06,6.2673811492077e-09,4.4491118018854e-08,1.3084243242857e-08,1.4143066453108e-07,-1.2411040126315e-05,-2.9339769452825e-10,-8.2664535615747e-09,2.0014602183716e-07,-1.0169792345563e-05,-2.2075820972156e-08,2.2575970542513e-07,2.4447271829727e-06,-1.8594380713884e-06,-4.2214061850759e-08,3.4688229984334e-08,6.0783974983656e-09,-5.3567724837702e-06,4.0696001784242e-07,-9.3938709553497e-06,4.6135413160525e-08,1.3184797879077e-06,-3.5312966865826e-07,-1.9912648431216e-08,2.6993735911221e-08,2.0152138586731e-07,2.240899657295e-08,-8.2640343926926e-06,-1.0862713272115e-07,-1.8859734256723e-08,4.2274216708775e-07,-3.3533887915166e-06,-4.1871488444302e-09,-4.749506904913e-09,4.6509351397236e-08,-1.491118988731e-05,-2.5311120796635e-08,-2.0471868221548e-08,-3.0863571571843e-07,-4.546456220919e-08,1.0177670950589e-07,2.9709017722726e-07,732.20212591297,732.20212591297,732.20212551305,732.20212551305,732.20212630821,732.20212629281,732.20212565798,732.20212583579,732.20212615356,732.20212600096,732.20212540673,732.20212564054,732.20212562316,732.20212605791,732.20212594591,732.20212558789,732.2021258623,732.20212637226,732.20212634165,732.20212557765,732.20212571266,732.2021262422,732.20212615279,732.20212562316,732.20212540619,732.2021255652,732.20212619523,732.20212621683,732.20212575652,732.20212594373,732.20212605769,732.20212584408,732.20212545338,732.20212573659,732.20212593041,732.20212604219,732.20212602239,732.20212568071,732.20212590932,732.20212603471,732.20212583851,732.20212554904,732.20212584965,732.20212593041,732.20212605222,732.20212605222,732.20212634348,732.20212634348,0.41620745847383,958.08529772515,207.60360964999,1006.6488109284,188.53339017211,0
2.16e-05,20000000,1.4848650027916e-06,6.4109832623323e-06,1.3195162993165e-06,1.0000002637472,607.67959686484,607.67959686484,607.67959642383,607.67959642383,607.67959730066,607.6795972837,607.67959658364,607.67959677973,607.67959713014,607.67959696187,607.67959630659,607.67959656443,607.67959654525,607.67959702465,607.67959690116,607.67959650634,607.67959680897,607.6795973713,607.67959733757,607.67959649506,607.67959664395,607.67959722788,607.6795971293,607.67959654525,607.67959630599,607.67959648134,607.67959717607,607.67959719992,607.6795966923,607.67959689877,607.67959702442,607.67959678888,607.67959635803,607.67959667035,607.67959688405,607.67959700731,607.6795969855,607.6795966087,607.67959686082,607.67959699908,607.67959678272,607.6795964635,607.67959679501,607.67959688405,607.6795970184,607.6795970184,607.67959733957,607.67959733957,-7.5771912665419e-07,-3.8174343712019e-09,-5.1331861148502e-07,-2.0649218892383e-07,1.6670663975971e-07,2.8632835729893e-06,-1.245070968025e-06,6.8777425960015e-09,4.8823980537232e-08,1.4358031137632e-08,1.5520044028955e-07,-1.3618751555041e-05,-3.219662805214e-10,-9.0705541799752e-09,2.1963274403425e-07,-1.1159858027334e-05,-2.4225939197542e-08,2.4773973807941e-07,2.6822516061083e-06,-2.0406381178806e-06,-4.6321311194525e-08,3.8066163034246e-08,6.6701189936614e-09,-5.8783073275808e-06,4.4657807693853e-07,-1.0308008412333e-05,5.0628040228863e-08,1.4465617800741e-06,-3.87539562876e-07,-2.1850679852515e-08,2.9622465580963e-08,2.2114294410563e-07,2.4590963629728e-08,-9.068184224271e-06,-1.1919988740198e-07,-2.0694672222752e-08,4.6390005794765e-07,-3.6798465957518e-06,-4.5952999833905e-09,-5.2115643614701e-09,5.1037676039868e-08,-1.6362874206278e-05,-2.7776018792273e-08,-2.2465207817314e-08,-3.3868083575374e-07,-4.9877984525001e-08,1.1168560845309e-07,3.2594671349654e-07,732.20212583288,732.20212583288,732.20212539186,732.20212539186,732.2021262687,732.20212625174,732.20212555167,732.20212574777,732.20212609818,732.2021259299,732.20212527462,732.20212553246,732.20212551329,732.20212599269,732.20212586919,732.20212547438,732.202125777,732.20212633933,732.2021263056,732.2021254631,732.20212561199,732.20212619592,732.20212609734,732.20212551329,732.20212527402,732.20212544938,732.20212614411,732.20212616796,732.20212566033,732.2021258668,732.20212599246,732.20212575691,732.20212532606,732.20212563838,732.20212585208,732.20212597534,732.20212595353,732.20212557673,732.20212582886,732.20212596711,732.20212575076,732.20212543154,732.20212576305,732.20212585208,732.20212598644,732.20212598644,732.20212630761,732.20212630761,0.45685854009613,962.55967131672,208.567026454,1011.3618783898,189.40841199704,0
2.17e-05,20000000,1.4917385928676e-06,6.4406635982316e-06,1.3256263179256e-06,1.0000002905443,607.67959677695,607.67959677695,607.67959629085,607.67959629085,607.67959725731,607.67959723864,607.67959646698,607.67959668315,607.67959706937,607.6795968839,607.67959616161,607.67959644583,607.67959642468,607.67959695308,607.67959681698,607.67959638178,607.67959671537,607.67959733517,607.67959729801,607.67959636935,607.67959653348,607.6795971771,607.67959706845,607.67959642468,607.67959616096,607.67959635425,607.67959711998,607.67959714629,607.67959658674,607.67959681436,607.67959695284,607.67959669322,607.67959621831,607.67959656258,607.67959679809,607.67959693396,607.67959690995,607.67959649459,607.67959677253,607.6795969249,607.67959668643,607.67959633456,607.67959669999,607.67959679809,607.67959694622,607.67959694622,607.67959730022,607.67959730022,-8.3109047001684e-07,-4.1872113571918e-09,-5.6304025848055e-07,-2.2637419902037e-07,1.8285916917299e-07,3.1401125083803e-06,-1.3658159528088e-06,7.5443107042646e-09,5.3555845300239e-08,1.5749068373101e-08,1.702378534958e-07,-1.4937531744128e-05,-3.5316520367644e-10,-9.9486062111054e-09,2.4091344250039e-07,-1.2241052072867e-05,-2.6574077851814e-08,2.7174323969024e-07,2.9415914743099e-06,-2.2385357909244e-06,-5.0806394059512e-08,4.1755134329164e-08,7.3163066215364e-09,-6.4478497489029e-06,4.8984296420665e-07,-1.1306220700207e-05,5.5534344031533e-08,1.5864055648698e-06,-4.2512013677687e-07,-2.3967056740638e-08,3.2493257141509e-08,2.425708561072e-07,2.6973822980544e-08,-9.9462853104997e-06,-1.3074557124168e-07,-2.269840625137e-08,5.0884686717023e-07,-4.036351630957e-06,-5.0410740940302e-09,-5.7161110067063e-09,5.5982890714694e-08,-1.7948178944141e-05,-3.0467894647976e-08,-2.4642071237494e-08,-3.7149150401308e-07,-5.4696364490152e-08,1.2250670394774e-07,3.5745273179472e-07,732.20212574498,732.20212574498,732.20212525889,732.20212525889,732.20212622535,732.20212620667,732.20212543502,732.20212565119,732.20212603741,732.20212585194,732.20212512965,732.20212541387,732.20212539271,732.20212592111,732.20212578502,732.20212534981,732.20212568341,732.20212630321,732.20212626604,732.20212533739,732.20212550152,732.20212614514,732.20212603649,732.20212539271,732.20212512899,732.20212532229,732.20212608801,732.20212611433,732.20212555478,732.20212578239,732.20212592088,732.20212566126,732.20212518635,732.20212553061,732.20212576613,732.20212590199,732.20212587798,732.20212546263,732.20212574057,732.20212589293,732.20212565447,732.2021253026,732.20212566802,732.20212576613,732.20212591425,732.20212591425,732.20212626825,732.20212626825,0.50125803359326,967.03370531868,209.53042305867,1016.075213801,190.2834164612,0
2.18e-05,20000000,1.4986121752814e-06,6.4703439328598e-06,1.3317363484798e-06,1.0000003199198,607.67959668054,607.67959668054,607.67959614499,607.67959614499,607.67959720976,607.67959718921,607.67959633902,607.67959657721,607.67959700271,607.67959679838,607.6795960026,607.67959631575,607.67959629243,607.67959687457,607.67959672465,607.67959624514,607.67959661271,607.67959729555,607.67959725462,607.67959623147,607.67959641232,607.6795971214,607.67959700171,607.67959629243,607.67959600188,607.67959621485,607.67959705845,607.67959708747,607.67959647096,607.67959672177,607.67959687433,607.6795965883,607.67959606507,607.67959644437,607.67959670381,607.6795968535,607.67959682708,607.67959636943,607.67959667569,607.67959684353,607.67959658082,607.67959619313,607.67959659576,607.67959670381,607.67959686704,607.67959686704,607.67959725705,607.67959725705,-9.1117600728378e-07,-4.590856293416e-09,-6.1731584013823e-07,-2.4806183241042e-07,2.0049157508796e-07,3.4422427348658e-06,-1.4976341959205e-06,8.2719664425417e-09,5.8721361309031e-08,1.7267530926423e-08,1.8665294650936e-07,-1.6377002135774e-05,-3.8722283346938e-10,-1.090702225338e-08,2.6414385462738e-07,-1.3421281817326e-05,-2.9137434818029e-08,2.9794586709057e-07,3.2246355490079e-06,-2.4545821360737e-06,-5.5702083230789e-08,4.5782151321407e-08,8.0216878659715e-09,-7.0695659507425e-06,5.3707122011967e-07,-1.2395791845455e-05,6.0890244179895e-08,1.739029281716e-06,-4.6614691146248e-07,-2.6277254519382e-08,3.5627130037179e-08,2.6596190433024e-07,2.9575015974976e-08,-1.0904743115965e-05,-1.4334859303627e-07,-2.4885577212541e-08,5.5791150244661e-07,-4.4255110214669e-06,-5.5277417403733e-09,-6.2668284677189e-09,6.138118674956e-08,-1.9678698999878e-05,-3.3406458076532e-08,-2.7018391599465e-08,-4.0730775821601e-07,-5.9954723930887e-08,1.3431918259378e-07,3.9183753538877e-07,732.20212564858,732.20212564858,732.20212511303,732.20212511303,732.2021261778,732.20212615725,732.20212530706,732.20212554525,732.20212597075,732.20212576642,732.20212497064,732.20212528379,732.20212526046,732.20212584261,732.20212569269,732.20212521318,732.20212558074,732.20212626359,732.20212622265,732.20212519951,732.20212538035,732.20212608944,732.20212596974,732.20212526046,732.20212496991,732.20212518289,732.20212602648,732.20212605551,732.202125439,732.20212568981,732.20212584237,732.20212555634,732.2021250331,732.20212541241,732.20212567184,732.20212582154,732.20212579512,732.20212533747,732.20212564372,732.20212581156,732.20212554885,732.20212516116,732.20212556379,732.20212567184,732.20212583508,732.20212583508,732.20212622508,732.20212622508,0.54973073301255,971.50734864367,210.4937994582,1020.7888151909,191.15840356237,0
2.19e-05,20000000,1.5054857499967e-06,6.5000242662206e-06,1.337846391093e-06,1.000000352108,607.67959657485,607.67959657485,607.67959598507,607.67959598507,607.67959715763,607.67959713503,607.67959619873,607.67959646107,607.67959692963,607.67959670462,607.67959582825,607.67959617313,607.67959614743,607.6795967885,607.67959662342,607.67959609533,607.67959650015,607.67959725211,607.67959720705,607.6795960803,607.67959627948,607.67959706034,607.67959692854,607.67959614743,607.67959582746,607.67959606202,607.67959699099,607.67959702299,607.67959634402,607.67959662026,607.67959678825,607.67959647327,607.67959589704,607.67959631478,607.67959660044,607.67959676529,607.67959673623,607.67959623221,607.67959656951,607.67959675432,607.67959646502,607.67959603806,607.67959648148,607.67959660044,607.67959678024,607.67959678024,607.67959720972,607.67959720972,-9.9855438135551e-07,-5.0312941707303e-09,-6.7653865382205e-07,-2.7170891687654e-07,2.1973171363572e-07,3.7718541447532e-06,-1.6414833867016e-06,9.0659892784177e-09,6.4358006364478e-08,1.8924424833322e-08,2.0456474205855e-07,-1.7947565688707e-05,-4.2438617931438e-10,-1.1952737592201e-08,2.8949242768425e-07,-1.4709099232464e-05,-3.193461219965e-08,3.2653761259423e-07,3.5334262514395e-06,-2.6903467478675e-06,-6.1043823634241e-08,5.0176426090804e-08,8.7913759610449e-09,-7.7479618524736e-06,5.8860521413775e-07,-1.3584597710102e-05,6.6734592469183e-08,1.905533883118e-06,-5.1091791726608e-07,-2.8798010944123e-08,3.9046819697295e-08,2.9148565867168e-07,3.2413407510824e-08,-1.1950483281743e-05,-1.5710024305595e-07,-2.7272019707204e-08,6.1144971275056e-07,-4.8501444171162e-06,-6.0588407768225e-09,-6.8676977702261e-09,6.7271709133764e-08,-2.156697460358e-05,-3.6613027837826e-08,-2.9611402410289e-08,-4.4638922191621e-07,-6.5690930084256e-08,1.4720869340441e-07,4.2934907367967e-07,732.20212554288,732.20212554288,732.20212495311,732.20212495311,732.20212612567,732.20212610306,732.20212516676,732.20212542911,732.20212589767,732.20212567266,732.20212479629,732.20212514117,732.20212511546,732.20212575653,732.20212559146,732.20212506337,732.20212546819,732.20212622015,732.20212617509,732.20212504833,732.20212524751,732.20212602838,732.20212589657,732.20212511546,732.2021247955,732.20212503005,732.20212595902,732.20212599103,732.20212531206,732.2021255883,732.20212575629,732.2021254413,732.20212486508,732.20212528281,732.20212556847,732.20212573332,732.20212570426,732.20212520024,732.20212553754,732.20212572236,732.20212543306,732.2021250061,732.20212544952,732.20212556847,732.20212574828,732.20212574828,732.20212617776,732.20212617776,0.60262767269343,975.98054582159,211.45715564656,1025.5026804172,192.0333732981,0
2.2e-05,20000000,1.5123593169744e-06,6.5297045983181e-06,1.3439564458888e-06,1.000000387363,607.67959645901,607.67959645901,607.67959580982,607.67959580982,607.6795971005,607.67959707565,607.67959604497,607.67959633379,607.67959684954,607.67959660187,607.67959563718,607.67959601684,607.67959598852,607.67959669417,607.67959651248,607.67959593115,607.6795963768,607.67959720451,607.67959715493,607.67959591462,607.67959613389,607.67959699342,607.67959684835,607.67959598852,607.67959563632,607.67959589452,607.67959691706,607.67959695232,607.6795962049,607.67959650902,607.67959669392,607.6795963472,607.6795957129,607.67959617275,607.67959648714,607.67959666861,607.67959663666,607.67959608181,607.67959645315,607.67959665656,607.67959633812,607.67959586811,607.67959635625,607.67959648714,607.67959668512,607.67959668512,607.67959715786,607.67959715786,-1.0938509757461e-06,-5.5116874493e-09,-7.4113392843972e-07,-2.9748145497855e-07,2.4071782595557e-07,4.1313031108759e-06,-1.7983990864788e-06,9.9320876634907e-09,7.0506303454478e-08,2.0731649584619e-08,2.2410192984018e-07,-1.9660465976374e-05,-4.6492231596973e-10,-1.3093250109167e-08,3.1714129059788e-07,-1.6113750088796e-05,-3.4985723745412e-08,3.5772390011354e-07,3.8701713655345e-06,-2.9475268431915e-06,-6.6869936437059e-08,5.496954395154e-08,9.6308993808652e-09,-8.4879090083498e-06,6.4481511920024e-07,-1.4881150778643e-05,7.310939714224e-08,2.0871094401935e-06,-5.5975541664188e-07,-3.1547422564293e-08,4.2776908795632e-08,3.1932545256649e-07,3.5509394888515e-08,-1.3090990939849e-05,-1.7209921811976e-07,-2.9874853245086e-08,6.6984614048916e-07,-5.3133001983618e-06,-6.6381968116327e-09,-7.5230220582628e-09,7.3696782355769e-08,-2.3626563421744e-05,-4.0110654813264e-08,-3.2439736992637e-08,-4.8901660168705e-07,-7.1945911939417e-08,1.6126784192759e-07,4.7025536138614e-07,732.20212542705,732.20212542705,732.20212477785,732.20212477785,732.20212606853,732.20212604368,732.202125013,732.20212530182,732.20212581758,732.20212556991,732.20212460522,732.20212498487,732.20212495655,732.2021256622,732.20212548052,732.20212489919,732.20212534484,732.20212617254,732.20212612296,732.20212488265,732.20212510193,732.20212596146,732.20212581638,732.20212495655,732.20212460435,732.20212486256,732.20212588509,732.20212592036,732.20212517293,732.20212547706,732.20212566195,732.20212531523,732.20212468094,732.20212514078,732.20212545518,732.20212563665,732.2021256047,732.20212504985,732.20212542119,732.20212562459,732.20212530615,732.20212483615,732.20212532428,732.20212545518,732.20212565316,732.20212565316,732.2021261259,732.2021261259,0.66032807299078,980.4532366487,212.42049161696,1030.2168071523,192.90832566555,0
2.21e-05,20000000,1.519232876172e-06,6.5593849291564e-06,1.3500665130011e-06,1.0000004259603,607.67959633213,607.67959633213,607.67959561783,607.67959561783,607.67959703791,607.6795970106,607.67959587653,607.67959619435,607.67959676181,607.67959648931,607.67959542787,607.67959584562,607.67959581443,607.67959659083,607.67959639096,607.67959575129,607.67959624168,607.67959715236,607.67959709783,607.67959573312,607.67959597441,607.67959692012,607.6795967605,607.67959581443,607.67959542692,607.67959571104,607.67959683607,607.67959687492,607.67959605249,607.67959638716,607.67959659058,607.6795962091,607.67959551117,607.67959601717,607.67959636303,607.6795965627,607.67959652759,607.67959591705,607.67959632569,607.67959654946,607.6795961991,607.67959568194,607.67959621906,607.67959636303,607.67959658092,607.67959658092,607.67959710105,607.67959710105,-1.1977414256855e-06,-6.0354541184254e-09,-8.1156125322004e-07,-3.2555850055878e-07,2.6359932850642e-07,4.5231358616541e-06,-1.9695006608022e-06,1.0876431695297e-08,7.7210052591263e-08,2.270206603469e-08,2.4540360210353e-07,-2.1527850388828e-05,-5.091199106865e-10,-1.4336663034837e-08,3.4728729507569e-07,-1.7645226603177e-05,-3.8312509943859e-08,3.9172675949763e-07,4.2372565713508e-06,-3.2279569824886e-06,-7.3221837694278e-08,6.0195644093137e-08,1.0546233433643e-08,-9.2946723652502e-06,7.0610102706283e-07,-1.6294648060577e-05,8.0060063161336e-08,2.2850418955507e-06,-6.1300775010306e-07,-3.4545048064638e-08,4.6843967881977e-08,3.4967942843235e-07,3.8885024432863e-08,-1.4334352753883e-05,-1.8845218396343e-07,-3.2712579921646e-08,7.3351652007797e-07,-5.8182728298091e-06,-7.2699451315959e-09,-8.2374509066656e-09,8.0702152356246e-08,-2.5872117776429e-05,-4.3924253866117e-08,-3.5523535004034e-08,-5.3549329111433e-07,-7.8763891894627e-08,1.7659671963456e-07,5.1484599834101e-07,732.20212530016,732.20212530016,732.20212458586,732.20212458586,732.20212600595,732.20212597864,732.20212484457,732.20212516239,732.20212572985,732.20212545735,732.2021243959,732.20212481366,732.20212478246,732.20212555887,732.20212535899,732.20212471932,732.20212520972,732.2021261204,732.20212606586,732.20212470115,732.20212494244,732.20212588816,732.20212572854,732.20212478246,732.20212439495,732.20212467907,732.2021258041,732.20212584295,732.20212502052,732.2021253552,732.20212555862,732.20212517713,732.20212447921,732.2021249852,732.20212533107,732.20212553074,732.20212549563,732.20212488509,732.20212529372,732.20212551749,732.20212516713,732.20212464997,732.20212518709,732.20212533107,732.20212554896,732.20212554896,732.20212606909,732.20212606909,0.72324141327191,984.92535581274,213.38380736198,1034.9311928679,193.78326066166,0
2.22e-05,20000000,1.5261064275447e-06,6.5890652587404e-06,1.356176592575e-06,1.000000468199,607.67959619319,607.67959619319,607.6795954076,607.6795954076,607.67959696938,607.67959693938,607.67959569208,607.67959604168,607.67959666575,607.67959636606,607.67959519866,607.67959565815,607.6795956238,607.67959647767,607.67959625788,607.67959555433,607.67959609372,607.67959709526,607.67959703531,607.67959553437,607.67959579978,607.67959683986,607.67959666432,607.6795956238,607.67959519762,607.67959551013,607.67959674738,607.67959679016,607.67959588559,607.67959625373,607.67959647743,607.67959605787,607.67959529028,607.67959584681,607.67959622712,607.67959644673,607.67959640816,607.67959573663,607.67959618611,607.67959643219,607.67959604687,607.67959547807,607.67959606884,607.67959622712,607.67959646682,607.67959646682,607.67959703885,607.67959703885,-1.3109553706805e-06,-6.6062870378727e-09,-8.8831717888139e-07,-3.5613308945851e-07,2.8853765951601e-07,4.9501027992763e-06,-2.1559976333284e-06,1.1905688101286e-08,8.4516579122935e-08,2.4849569118827e-08,2.6862004147057e-07,-2.3562837691172e-05,-5.5729085880466e-10,-1.5691730732914e-08,3.8014313065812e-07,-1.9314323799252e-05,-4.1938461297221e-08,4.2878608428399e-07,4.6372588623502e-06,-3.5336194817283e-06,-8.014427250257e-08,6.5891613050965e-08,1.154383409937e-08,-1.0173939979874e-05,7.7289521382556e-07,-1.7835022301498e-05,8.7635649552559e-08,2.5007202922053e-06,-6.7105131337344e-07,-3.7812018940078e-08,5.1276706007309e-08,3.8276165700041e-07,4.2564116398078e-08,-1.5689301853173e-05,-2.0627437734765e-07,-3.5805189023759e-08,8.029100326287e-07,-6.3686214370308e-06,-7.9585541849253e-09,-9.0160063271468e-09,8.8337245662455e-08,-2.8319467312264e-05,-4.8080745071574e-08,-3.8884556518761e-08,-5.8614708866286e-07,-8.6192633702155e-08,1.9330347091032e-07,5.6343379630893e-07,732.20212516122,732.20212516122,732.20212437563,732.20212437563,732.20212593742,732.20212590742,732.20212466012,732.20212500971,732.20212563379,732.20212533409,732.20212416669,732.20212462618,732.20212459184,732.20212544571,732.20212522592,732.20212452237,732.20212506176,732.2021260633,732.20212600335,732.2021245024,732.20212476781,732.20212580789,732.20212563236,732.20212459184,732.20212416566,732.20212447816,732.20212571542,732.20212575819,732.20212485363,732.20212522177,732.20212544547,732.20212502591,732.20212425831,732.20212481484,732.20212519516,732.20212541476,732.2021253762,732.20212470467,732.20212515415,732.20212540022,732.2021250149,732.2021244461,732.20212503688,732.20212519516,732.20212543486,732.20212543486,732.20212600688,732.20212600688,0.79180963866237,989.39683248945,214.34710287333,1039.6458348194,194.65817828286,0
2.23e-05,20000000,1.5329799710406e-06,6.6187455870751e-06,1.3622866847666e-06,1.0000005144029,607.67959604111,607.67959604111,607.67959517749,607.67959517749,607.67959689437,607.67959686143,607.67959549019,607.67959587457,607.67959656061,607.67959623115,607.67959494777,607.67959545294,607.67959541514,607.67959635382,607.67959611222,607.67959533874,607.67959593178,607.67959703277,607.67959696688,607.67959531683,607.67959560864,607.67959675201,607.67959655904,607.67959541514,607.67959494664,607.67959529022,607.67959665031,607.67959669739,607.67959570291,607.67959610769,607.67959635358,607.67959589235,607.67959504849,607.67959566034,607.67959607836,607.67959631979,607.67959627744,607.67959553915,607.67959603335,607.67959630383,607.67959588024,607.67959525491,607.67959590442,607.67959607836,607.67959634194,607.67959634194,607.67959697077,607.67959697077,-1.4342804631772e-06,-7.2281746447792e-09,-9.7193800264079e-07,-3.8941322675541e-07,3.1570718526386e-07,5.4151738323906e-06,-2.3591964891326e-06,1.3027057693846e-08,9.2476999608232e-08,2.7189165694451e-08,2.93913564428e-07,-2.5779590204574e-05,-6.0977203502883e-10,-1.716790771611e-08,4.1593851859937e-07,-2.1132699820996e-05,-4.5888950313019e-08,4.6916097835957e-07,5.0729609134853e-06,-3.8666555606442e-06,-8.7685565708227e-08,7.2097291865467e-08,1.2630674259129e-08,-1.1131854822536e-05,8.4566456556252e-07,-1.9512996705899e-05,9.5889144943753e-08,2.7356445146101e-06,-7.3429267440136e-07,-4.1371157991627e-08,5.6106132003072e-08,4.1880333534482e-07,4.6572398699097e-08,-1.7165265836385e-05,-2.256902505033e-07,-3.9174269021996e-08,8.7851182709776e-07,-6.9681896857147e-06,-8.7088507246693e-09,-9.8641105745208e-09,9.6655446842003e-08,-3.0985707464168e-05,-5.2609204933353e-08,-4.2546304171272e-08,-6.413320369702e-07,-9.4283707976398e-08,2.1150490012626e-07,6.1635652116438e-07,732.20212500915,732.20212500915,732.20212414552,732.20212414552,732.2021258624,732.20212582947,732.20212445823,732.20212484261,732.20212552864,732.20212519919,732.20212391581,732.20212442098,732.20212438318,732.20212532185,732.20212508026,732.20212430678,732.20212489981,732.20212600081,732.20212593492,732.20212428486,732.20212457667,732.20212572004,732.20212552708,732.20212438318,732.20212391467,732.20212425825,732.20212561834,732.20212566542,732.20212467095,732.20212507572,732.20212532162,732.20212486038,732.20212401653,732.20212462838,732.20212504639,732.20212528782,732.20212524548,732.20212450718,732.20212500138,732.20212527186,732.20212484828,732.20212422295,732.20212487246,732.20212504639,732.20212530998,732.20212530998,732.2021259388,732.2021259388,0.86650950699223,993.86758991233,215.31037814234,1044.3607300274,195.53307852547,0
2.24e-05,20000000,1.5398535066056e-06,6.6484259141659e-06,1.3683967897471e-06,1.0000005649231,607.67959587473,607.67959587473,607.67959492572,607.67959492572,607.6795968123,607.67959677615,607.6795952693,607.67959569174,607.67959644557,607.67959608355,607.67959467327,607.67959522843,607.67959518684,607.67959621831,607.67959595286,607.67959510286,607.6795957546,607.6795969644,607.67959689202,607.67959507881,607.67959539951,607.6795966559,607.67959644386,607.67959518684,607.67959467203,607.67959504961,607.6795965441,607.67959659589,607.67959550303,607.67959594791,607.67959621809,607.67959571124,607.67959478394,607.67959545633,607.67959591559,607.6795961809,607.67959613442,607.67959532307,607.67959586621,607.67959616339,607.67959569793,607.67959501075,607.67959572453,607.67959591559,607.67959620531,607.67959620531,607.67959689628,607.67959689628,-1.5685666534501e-06,-7.9054231159038e-09,-1.0630027488372e-06,-4.2562291613279e-07,3.4529617013675e-07,5.9215547601093e-06,-2.5805079570022e-06,1.4248315473591e-08,1.0114650640752e-07,2.9737057840381e-08,3.2145942416769e-07,-2.8193390892649e-05,-6.6692716784784e-10,-1.8775401104628e-08,4.5492148970108e-07,-2.311294045385e-05,-5.0191372789211e-08,5.1313119737932e-07,5.5473664344033e-06,-4.229377275993e-06,-9.5897890175014e-08,7.8855697792454e-08,1.3814282473253e-08,-1.2175048802278e-05,9.2491317451487e-07,-2.1340143346296e-05,1.0487776250309e-07,2.9914335601927e-06,-8.031708393751e-07,-4.5247106141366e-08,6.1365727114623e-08,4.5805406870772e-07,5.0937650058167e-08,-1.8772418058207e-05,-2.4683416062436e-07,-4.2843127431748e-08,9.608457186945e-07,-7.6211270468672e-06,-9.5260467221632e-09,-1.0787615889641e-08,1.0571439546932e-07,-3.3889294099691e-05,-5.7541028246029e-08,-4.6534153878276e-08,-7.0143039141523e-07,-1.0309277575621e-07,2.3132712142969e-07,6.7397875384086e-07,732.20212484276,732.20212484276,732.20212389375,732.20212389375,732.20212578034,732.20212574419,732.20212423733,732.20212465977,732.20212541361,732.20212505159,732.20212364131,732.20212419647,732.20212415487,732.20212518634,732.20212492089,732.20212407089,732.20212472263,732.20212593243,732.20212586006,732.20212404684,732.20212436754,732.20212562393,732.2021254119,732.20212415487,732.20212364007,732.20212401765,732.20212551213,732.20212556393,732.20212447107,732.20212491594,732.20212518612,732.20212467928,732.20212375198,732.20212442437,732.20212488362,732.20212514893,732.20212510245,732.2021242911,732.20212483425,732.20212513142,732.20212466597,732.20212397878,732.20212469257,732.20212488362,732.20212517335,732.20212517335,732.20212586432,732.20212586432,0.94785508252076,998.33754533636,216.27363315923,1049.0758752613,196.40796138539,0
2.25e-05,20000000,1.5467270341847e-06,6.6781062400189e-06,1.374506907697e-06,1.0000006201395,607.67959569276,607.67959569276,607.67959465037,607.67959465037,607.67959672254,607.67959668288,607.6795950277,607.67959549179,607.67959631977,607.67959592213,607.67959437305,607.6795949829,607.67959493715,607.6795960701,607.67959577856,607.67959484486,607.67959556082,607.67959688962,607.67959681015,607.67959481849,607.6795951708,607.67959655078,607.6795963179,607.67959493715,607.6795943717,607.67959478648,607.67959642794,607.67959648489,607.67959528442,607.67959577316,607.6795960699,607.67959551318,607.6795944946,607.67959523322,607.67959573756,607.67959602899,607.679595978,607.67959508674,607.67959568342,607.67959600979,607.67959549854,607.6795947437,607.6795955278,607.67959573756,607.67959605589,607.67959605589,607.67959681483,607.67959681483,-1.7147307384598e-06,-8.6426800802583e-09,-1.1621363584245e-06,-4.6500332993983e-07,3.7750781462899e-07,6.4727048237151e-06,-2.8214548019327e-06,1.5577853525484e-08,1.1058467221696e-07,3.2510731967108e-08,3.51446776613e-07,-3.0820725615142e-05,-7.2914884528615e-10,-2.0525226752339e-08,4.9735975165764e-07,-2.5268628123278e-05,-5.4875298995693e-08,5.6099869114681e-07,6.0637166171701e-06,-4.6242802886969e-06,-1.0483755388952e-07,8.6213261577811e-08,1.5102784475093e-08,-1.3310679155893e-05,1.0111851170612e-06,-2.3328945701014e-05,1.1466325553388e-07,3.2698344004025e-06,-8.7815967780858e-07,-4.9466458148481e-08,6.70916297321e-08,5.0078324151142e-07,5.568985316544e-08,-2.0521732216193e-05,-2.6985110737186e-07,-4.6836919060669e-08,1.0504770763294e-06,-8.3319115369116e-06,-1.0415768163796e-08,-1.1792836152226e-08,1.1557630389208e-07,-3.7050144732162e-05,-6.2910101295813e-08,-5.0875494769956e-08,-7.6685472661881e-07,-1.1267989235693e-07,2.5290625404907e-07,7.3669388448804e-07,732.2021246608,732.2021246608,732.20212361841,732.20212361841,732.20212569058,732.20212565092,732.20212399574,732.20212445982,732.2021252878,732.20212489016,732.20212334109,732.20212395093,732.20212390518,732.20212503813,732.2021247466,732.2021238129,732.20212452886,732.20212585766,732.20212577819,732.20212378652,732.20212413883,732.20212551882,732.20212528593,732.20212390518,732.20212333974,732.20212375451,732.20212539597,732.20212545293,732.20212425246,732.2021247412,732.20212503794,732.20212448121,732.20212346264,732.20212420125,732.2021247056,732.20212499703,732.20212494604,732.20212405477,732.20212465146,732.20212497783,732.20212446658,732.20212371174,732.20212449583,732.2021247056,732.20212502392,732.20212502392,732.20212578286,732.20212578286,1.0364003931571,1002.8066078682,217.2368679133,1053.7912670173,197.28282685787,0
2.26e-05,20000000,1.5536005537134e-06,6.7077865646406e-06,1.3806170388164e-06,1.0000006804635,607.67959549384,607.67959549384,607.67959434935,607.67959434935,607.67959662442,607.67959658093,607.67959476358,607.6795952732,607.67959618224,607.67959574565,607.67959404484,607.67959471448,607.67959466417,607.67959590807,607.67959558802,607.67959456281,607.67959534899,607.67959680788,607.67959672066,607.67959453389,607.67959492077,607.67959643588,607.67959618019,607.67959466417,607.67959404336,607.67959449882,607.67959630095,607.67959636355,607.67959504543,607.67959558213,607.6795959079,607.67959529664,607.67959417829,607.67959498931,607.67959554294,607.67959586292,607.679595807,607.67959482837,607.6795954836,607.67959584188,607.67959528056,607.67959445175,607.67959531273,607.67959554294,607.67959589254,607.67959589254,607.67959672578,607.67959672578,-1.8737612600828e-06,-9.444959982162e-09,-1.2700131004893e-06,-5.0781388796758e-07,4.1256136569134e-07,7.0723554532835e-06,-3.0836801610767e-06,1.7024726927082e-08,1.2085577584127e-07,3.5529054113039e-08,3.8407971379541e-07,-3.3679370926531e-05,-7.9686066049792e-10,-2.2429269280489e-08,5.4354215167949e-07,-2.7614415652854e-05,-5.9972635403758e-08,6.1308925349674e-07,6.6255077036807e-06,-5.0540575247155e-06,-1.1456530700599e-07,9.4220081243612e-08,1.6504947556395e-08,-1.4546467350864e-05,1.1050674252566e-06,-2.5492865022236e-05,1.2531225507723e-07,3.5727314447171e-06,-9.5977051621003e-07,-5.4057907739138e-08,7.3322833007169e-08,5.4728148325468e-07,6.0861358523965e-08,-2.2425040865614e-05,-2.9489752139349e-07,-5.11827831831e-08,1.148015911229e-06,-9.1053740253175e-06,-1.1384085858591e-08,-1.2886580919673e-08,1.2630829714319e-07,-4.048974671977e-05,-6.8752987141504e-08,-5.5599878754166e-08,-8.3805018962275e-07,-1.23109831743e-07,2.7638916606129e-07,8.0492624164524e-07,732.20212446188,732.20212446188,732.20212331738,732.20212331738,732.20212559246,732.20212554896,732.20212373161,732.20212424124,732.20212515027,732.20212471369,732.20212301287,732.20212368251,732.2021236322,732.20212487611,732.20212455606,732.20212353085,732.20212431703,732.20212577591,732.20212568869,732.20212350193,732.2021238888,732.20212540391,732.20212514822,732.2021236322,732.2021230114,732.20212346685,732.20212526898,732.20212533159,732.20212401346,732.20212455017,732.20212487594,732.20212426468,732.20212314632,732.20212395735,732.20212451097,732.20212483096,732.20212477504,732.2021237964,732.20212445163,732.20212480992,732.20212424859,732.20212341979,732.20212428076,732.20212451097,732.20212486057,732.20212486057,732.20212569381,732.20212569381,1.1327421975156,1007.2746804012,218.20008239287,1058.5069014969,198.15767493813,0
2.27e-05,20000000,1.5604740651239e-06,6.737466888038e-06,1.3867271833196e-06,1.0000007463402,607.67959527647,607.67959527647,607.6795940204,607.6795940204,607.67959651719,607.67959646952,607.67959447494,607.67959503434,607.67959603195,607.67959555281,607.67959368616,607.67959442116,607.67959436585,607.67959573101,607.67959537979,607.67959425457,607.67959511751,607.67959671855,607.67959662286,607.67959422288,607.67959464754,607.67959631032,607.67959602971,607.67959436585,607.67959368456,607.67959418447,607.67959616217,607.67959623096,607.67959478424,607.67959537339,607.67959573088,607.67959506001,607.67959383261,607.67959472278,607.67959533024,607.67959568144,607.67959562014,607.67959454601,607.67959526524,607.67959565839,607.67959504235,607.6795941327,607.67959507771,607.67959533024,607.67959571404,607.67959571404,607.67959662848,607.67959662848,-2.0467236809403e-06,-1.0317671202049e-08,-1.387360220348e-06,-5.543335500191e-07,4.506933041425e-07,7.7245303140164e-06,-3.3689564582288e-06,1.8598702831791e-08,1.3202915058582e-07,3.8812371823132e-08,4.1957836888967e-07,-3.678848764096e-05,-8.7051950618158e-10,-2.4500346268123e-08,5.9378024058179e-07,-3.0166105085233e-05,-6.5517797639337e-08,6.6975428668698e-07,7.2365097712153e-06,-5.5216137800278e-06,-1.2514667018168e-07,1.0293019349885e-07,1.8030228032784e-08,-1.5890740662298e-05,1.2071932644336e-06,-2.7846411466178e-05,1.3689663095137e-07,3.9021566606207e-06,-1.0485549123455e-06,-5.9052402831398e-08,8.0101396190804e-08,5.978622353415e-07,6.648705965639e-08,-2.449509751712e-05,-3.221421071549e-07,-5.5909990222318e-08,1.2541201798167e-06,-9.9467242096723e-06,-1.2437548379477e-08,-1.4076191524645e-08,1.3798277643238e-07,-4.4231272895778e-05,-7.5109123755946e-08,-6.0739180566336e-08,-9.1549690939534e-07,-1.3445243336257e-07,3.0193426978362e-07,8.7913336907255e-07,732.2021242445,732.2021242445,732.20212298843,732.20212298843,732.20212548523,732.20212543755,732.20212344297,732.20212400237,732.20212499999,732.20212452084,732.20212265419,732.20212338919,732.20212333389,732.20212469905,732.20212434783,732.20212322261,732.20212408555,732.20212568659,732.20212559089,732.20212319092,732.20212361557,732.20212527835,732.20212499774,732.20212333389,732.20212265259,732.2021231525,732.2021251302,732.20212519899,732.20212375228,732.20212434142,732.20212469892,732.20212402805,732.20212280064,732.20212369082,732.20212429828,732.20212464947,732.20212458818,732.20212351404,732.20212423327,732.20212462643,732.20212401038,732.20212310073,732.20212404574,732.20212429828,732.20212468207,732.20212468207,732.20212559651,732.20212559651,1.2375230140425,1011.7416574387,219.16327658585,1063.222774585,199.03250562054,0
2.28e-05,20000000,1.5673475683392e-06,6.767147210221e-06,1.3928373414099e-06,1.000000818251,607.67959503902,607.67959503902,607.67959366106,607.67959366106,607.67959640006,607.67959634782,607.67959415963,607.67959477342,607.6795958678,607.67959534215,607.67959329435,607.67959410075,607.67959403998,607.67959553759,607.67959515233,607.67959391785,607.67959486466,607.67959662098,607.67959651603,607.67959388315,607.67959434908,607.67959617316,607.67959586533,607.67959403998,607.6795932926,607.67959384109,607.67959601057,607.67959608612,607.67959449893,607.67959514537,607.67959553752,607.67959480152,607.67959345499,607.67959443164,607.67959509789,607.67959548319,607.67959541602,607.67959423755,607.67959502672,607.67959545796,607.67959478213,607.67959378416,607.67959482099,607.67959509789,607.67959551906,607.67959551906,607.67959652219,607.67959652219,-2.234765920712e-06,-1.126664498744e-08,-1.5149618391841e-06,-6.048621111888e-07,4.9215861420668e-07,8.4335667254807e-06,-3.6791949274659e-06,2.0310313011241e-08,1.4417955670347e-07,4.2382622449099e-08,4.5818009748742e-07,-4.0168720560732e-05,-9.5061802756249e-10,-2.6752276867359e-08,6.4840994488047e-07,-3.2940728545925e-05,-7.1547895391567e-08,7.3137268794881e-07,7.9007868046217e-06,-6.030081321039e-06,-1.3665228548125e-07,1.1240186385503e-07,1.9688822007878e-08,-1.7352475285607e-05,1.3182453299836e-06,-3.0405219734852e-05,1.4949387775668e-07,4.2603003864377e-06,-1.1451076197264e-06,-6.4483311424512e-08,8.7472670623588e-08,6.5286339741713e-07,7.2604580402453e-08,-2.6745642937001e-05,-3.5176672176201e-07,-6.1050098538921e-08,1.3694993146783e-06,-1.0861577202328e-05,-1.358321728239e-08,-1.536957970025e-08,1.5067780773696e-07,-4.8299700568043e-05,-8.2021035860673e-08,-6.632776879048e-08,-9.9971257270028e-07,-1.4678297265012e-07,3.2971237233575e-07,9.5980845822432e-07,732.20212400706,732.20212400706,732.2021226291,732.2021226291,732.2021253681,732.20212531586,732.20212312767,732.20212374145,732.20212483583,732.20212431019,732.20212226238,732.20212306879,732.20212300801,732.20212450563,732.20212412037,732.20212288588,732.20212383269,732.20212558902,732.20212548407,732.20212285118,732.20212331712,732.2021251412,732.20212483336,732.20212300801,732.20212226064,732.20212280912,732.2021249786,732.20212505416,732.20212346696,732.2021241134,732.20212450555,732.20212376956,732.20212242303,732.20212339968,732.20212406593,732.20212445122,732.20212438405,732.20212320559,732.20212399475,732.202124426,732.20212375016,732.2021227522,732.20212378902,732.20212406593,732.20212448709,732.20212448709,732.20212549023,732.20212549023,1.3514342286678,1016.2074248709,220.12645047702,1067.9388820254,199.90731889614,0
2.29e-05,20000016.882182,1.5742210632867e-06,6.7968275311931e-06,1.398947513393e-06,1.000000896716,607.67959477976,607.67959477976,607.67959326869,607.67959326869,607.67959627216,607.67959621494,607.67959381533,607.67959448852,607.67959568855,607.67959511213,607.6795928665,607.6795937509,607.67959368413,607.67959532639,607.67959490396,607.67959355015,607.67959458857,607.67959651444,607.67959639939,607.67959351217,607.67959402319,607.67959602341,607.67959568584,607.67959368413,607.67959286461,607.67959346615,607.67959584503,607.67959592797,607.67959418737,607.67959489639,607.67959532639,607.67959451927,607.67959304265,607.67959411375,607.67959484417,607.6795952667,607.67959519313,607.67959390073,607.67959476628,607.6795952391,607.67959449798,607.67959340357,607.67959454068,607.67959484417,607.67959530616,607.67959530616,607.67959640614,607.67959640614,-2.4391242480264e-06,-1.2298166664566e-08,-1.653663122861e-06,-6.5972153708621e-07,5.372321397853e-07,9.2041385445168e-06,-4.0164558241404e-06,2.2170909717127e-08,1.5738757956706e-07,4.6263451691732e-08,5.0014074037322e-07,-4.3842304708925e-05,-1.0376872436619e-09,-2.9199955141277e-08,7.0779335380053e-07,-3.5956650902891e-05,-7.8102930027834e-08,7.9835286431383e-07,8.622718140257e-06,-6.5828366290854e-06,-1.491582917643e-07,1.2269789686985e-07,2.1491719525369e-08,-1.8941348764407e-05,1.4389594785252e-06,-3.3186129703251e-05,1.6318752731665e-07,4.6495228827895e-06,-1.2500697618233e-06,-7.0386599043201e-08,9.5485541050829e-08,7.1264922170418e-07,7.9254475138317e-08,-2.9191475736279e-05,-3.8396741995255e-07,-6.6637122049075e-08,1.4949179980888e-06,-1.1855987588688e-05,-1.4828704735774e-08,-1.677526875478e-08,1.6447753711128e-07,-5.2721960728396e-05,-8.9534561323221e-08,-7.2402688738828e-08,-1.0912551768175e-06,-1.6018255676052e-07,3.5990758355306e-07,1.0474829467132e-06,732.20212374809,732.20212374809,732.20212223702,732.20212223702,732.20212524049,732.20212518326,732.20212278365,732.20212345685,732.20212465688,732.20212408045,732.20212183483,732.20212271923,732.20212265245,732.20212429472,732.20212387228,732.20212251847,732.20212355689,732.20212548276,732.20212536772,732.20212248049,732.20212299152,732.20212499173,732.20212465417,732.20212265245,732.20212183293,732.20212243447,732.20212481335,732.2021248963,732.20212315569,732.20212386472,732.20212429471,732.20212348759,732.20212201098,732.20212308207,732.20212381249,732.20212423503,732.20212416146,732.20212286905,732.2021237346,732.20212420743,732.2021234663,732.20212237189,732.202123509,732.20212381249,732.20212427448,732.20212427448,732.20212537446,732.20212537446,1.4752194245087,1020.6718593882,221.08960405361,1072.6552186043,200.7821147639,0
2.3e-05,20000060.823509,1.5810945498777e-06,6.8265078509656e-06,1.405057699513e-06,1.0000009822974,607.67959449679,607.67959449679,607.67959284042,607.67959284042,607.67959613256,607.67959606991,607.6795934395,607.67959417757,607.67959549292,607.67959486105,607.6795923995,607.67959336906,607.67959329571,607.67959509587,607.67959463285,607.67959314879,607.67959428722,607.67959639816,607.67959627209,607.67959310724,607.67959366749,607.67959585996,607.67959548994,607.67959329571,607.67959239745,607.67959305691,607.67959566433,607.67959575536,607.67959384729,607.67959462465,607.67959509594,607.67959421118,607.67959259257,607.67959376678,607.67959456722,607.6795950304,607.67959494985,607.67959353306,607.67959448202,607.67959500022,607.67959418782,607.67959298813,607.67959423473,607.67959456722,607.67959507379,607.67959507379,607.67959627948,607.67959627948,-2.6611292299423e-06,-1.3419008404002e-08,-1.8043747333665e-06,-7.1925714479675e-07,5.86210034655e-07,1.00412805976e-05,-4.3829592709204e-06,2.4192725895482e-08,1.7174005490765e-07,5.0480334652118e-08,5.4573597206868e-07,-4.7833172856646e-05,-1.1322993486753e-09,-3.1859428380818e-08,7.72320628592e-07,-3.9233647400994e-05,-8.5226005580153e-08,8.7113488817708e-07,9.4070213620283e-06,-7.1835181495975e-06,-1.6274672498442e-07,1.3388596726727e-07,2.3450762627269e-08,-2.0667783453274e-05,1.5701286055599e-06,-3.6207268439212e-05,1.7806758957826e-07,5.0723666659364e-06,-1.3641322122052e-06,-7.6801018084855e-08,1.0419268390497e-07,7.7761206949955e-07,8.6480442602803e-08,-3.1848523604858e-05,-4.1895536166e-07,-7.2707709175848e-08,1.631200193969e-06,-1.2936474674828e-05,-1.6182213495797e-08,-1.8302436239659e-08,1.7947263439716e-07,-5.7527053981487e-05,-9.7699093006437e-08,-7.9003857644464e-08,-1.1907259709231e-06,-1.7473854692989e-07,3.9271828827585e-07,1.1427292923738e-06,732.20212346586,732.20212346586,732.2021218095,732.2021218095,732.20212510163,732.20212503898,732.20212240858,732.20212314664,732.20212446199,732.20212383013,732.20212136857,732.20212233813,732.20212226478,732.20212406494,732.20212360192,732.20212211786,732.20212325629,732.20212536723,732.20212524116,732.20212207631,732.20212263657,732.20212482903,732.20212445901,732.20212226478,732.20212136652,732.20212202599,732.2021246334,732.20212472444,732.20212281636,732.20212359372,732.20212406502,732.20212318025,732.20212156164,732.20212273586,732.20212353629,732.20212399948,732.20212391893,732.20212250214,732.20212345109,732.2021239693,732.20212315689,732.2021219572,732.2021232038,732.20212353629,732.20212404286,732.20212404286,732.20212524855,732.20212524855,1.6096778871143,1025.1348277163,222.05273729847,1077.3717792846,201.65689321404,0
2.31e-05,20000134.144485,1.5879680280197e-06,6.8561881695479e-06,1.4111679000624e-06,1.0000010756022,607.67959418805,607.67959418805,607.67959237315,607.67959237315,607.67959598024,607.67959591167,607.67959302943,607.6795938383,607.67959527948,607.67959458711,607.67959188995,607.67959295244,607.67959287189,607.67959484434,607.67959433704,607.67959271085,607.67959395844,607.67959627128,607.67959613319,607.67959266541,607.6795932794,607.67959568163,607.67959527619,607.67959287189,607.67959188773,607.67959261041,607.67959546717,607.67959556704,607.67959347621,607.67959432817,607.67959484452,607.67959387502,607.67959210147,607.67959338823,607.67959426502,607.67959477257,607.67959468441,607.67959313189,607.67959417187,607.67959473959,607.6795938494,607.67959253483,607.67959390092,607.67959426502,607.67959482026,607.67959482026,607.67959614128,607.67959614128,-2.902212739406e-06,-1.4636464783537e-08,-1.968077585714e-06,-7.8383940361999e-07,6.394113104082e-07,1.0950414768249e-05,-4.7810969050746e-06,2.6388939055309e-08,1.873305232409e-07,5.5060710525598e-08,5.952627418195e-07,-5.2167081723169e-05,-1.2350707034864e-09,-3.4747980786144e-08,8.4241204184425e-07,-4.2793017831318e-05,-9.2963554480415e-08,9.5019279696751e-07,1.0258776748572e-05,-7.8360453861235e-06,-1.7750594643402e-07,1.4603897396409e-07,2.5578707171173e-08,-2.254300516657e-05,1.7126067890131e-06,-3.9488145625671e-05,1.9423102334661e-07,5.5315696762618e-06,-1.4880392161055e-06,-8.3768310192022e-08,1.1365084276817e-07,8.481745470018e-07,9.4329554378279e-08,-3.4733927347786e-05,-4.5695798495749e-07,-7.9301334100188e-08,1.7792334541846e-06,-1.4110060316409e-05,-1.7652580109542e-08,-1.9960961996188e-08,1.9576076717003e-07,-6.2746216765194e-05,-1.0656783722503e-07,-8.6174273329226e-08,-1.2987725973864e-06,-1.9054500948832e-07,4.2835818270761e-07,1.2461639349522e-06,732.20212315837,732.20212315837,732.20212134347,732.20212134347,732.20212495056,732.20212488199,732.20212199976,732.20212280862,732.2021242498,732.20212355743,732.20212086027,732.20212192276,732.20212184221,732.20212381466,732.20212330737,732.20212168117,732.20212292876,732.2021252416,732.20212510351,732.20212163574,732.20212224973,732.20212465195,732.20212424651,732.20212184221,732.20212085805,732.20212158073,732.20212443749,732.20212453736,732.20212244654,732.20212329849,732.20212381485,732.20212284535,732.2021210718,732.20212235855,732.20212323534,732.2021237429,732.20212365474,732.20212210221,732.2021231422,732.20212370991,732.20212281972,732.20212150515,732.20212287125,732.20212323534,732.20212379058,732.20212379058,732.2021251116,732.2021251116,1.7556676102781,1029.5961859398,223.01585019409,1082.0885584142,202.53165423858,0
2.32e-05,20000239.351088,1.5948414976132e-06,6.885868486951e-06,1.4172781153509e-06,1.0000011772857,607.67959385133,607.67959385133,607.6795918635,607.6795918635,607.67959581411,607.67959573909,607.67959258217,607.67959346829,607.67959504669,607.67959428833,607.67959133418,607.67959249807,607.67959240963,607.67959457001,607.67959401441,607.67959223317,607.67959359986,607.67959613291,607.6795959817,607.67959218352,607.67959285614,607.67959548714,607.67959504307,607.67959240963,607.67959133178,607.67959212344,607.67959525213,607.67959536164,607.67959307148,607.67959400482,607.67959457032,607.67959350838,607.67959156584,607.67959297537,607.67959393541,607.67959449136,607.67959439491,607.67959269432,607.67959383362,607.67959445533,607.67959348028,607.67959204041,607.67959353687,607.67959393541,607.67959454375,607.67959454375,607.67959599056,607.67959599056,-3.1639151023708e-06,-1.595839045167e-08,-2.1458279259347e-06,-8.5386567545897e-07,6.9717948997331e-07,1.1937377836012e-05,-5.2134442420553e-06,2.8773739785357e-08,2.0425971518656e-07,6.0034121817403e-08,6.4904081194562e-07,-5.6871740936329e-05,-1.3466650306509e-09,-3.7884222794018e-08,9.1852015508666e-07,-4.6657692687789e-05,-1.0136557845519e-07,1.036037050292e-06,1.1183453361974e-05,-8.5446391092576e-06,-1.9353109956399e-07,1.5923541799188e-07,2.7889288913942e-08,-2.4579099262107e-05,1.8673137126509e-06,-4.3049751453663e-05,2.1178223907501e-07,6.0300793305572e-06,-1.6225922451323e-06,-9.1333422214651e-08,1.2392112291486e-07,9.2479162385218e-07,1.028524988146e-07,-3.7866126559641e-05,-4.9822015733933e-07,-8.6460500905174e-08,1.9399735169321e-06,-1.5384303879028e-05,-1.9249320822612e-08,-2.1761478170568e-08,2.1344710681164e-07,-6.8413077194817e-05,-1.1619808969225e-07,-9.3960236895864e-08,-1.4160924461964e-06,-2.0770319696304e-07,4.6705738222539e-07,1.3584504562314e-06,732.20212282345,732.20212282345,732.20212083562,732.20212083562,732.20212478622,732.2021247112,732.20212155429,732.2021224404,732.20212401881,732.20212326044,732.2021203063,732.20212147019,732.20212138174,732.20212354212,732.20212298653,732.20212120528,732.20212257198,732.20212510502,732.20212495382,732.20212115564,732.20212182825,732.20212445925,732.20212401518,732.20212138174,732.2021203039,732.20212109556,732.20212422424,732.20212433375,732.20212204359,732.20212297693,732.20212354244,732.2021224805,732.20212053795,732.20212194748,732.20212290753,732.20212346347,732.20212336702,732.20212166643,732.20212280574,732.20212342744,732.2021224524,732.20212101252,732.20212250898,732.20212290753,732.20212351586,732.20212351586,732.20212496268,732.20212496268,1.9141099100252,1034.0557787045,223.978942721,1086.805546476,203.40639782844,0
2.33e-05,20000379.14837,1.6017149585505e-06,6.9155488031851e-06,1.4233883457305e-06,1.0000012880546,607.67959348425,607.67959348425,607.67959130787,607.67959130787,607.67959563298,607.67959555094,607.67959209453,607.67959306489,607.67959479291,607.67959396258,607.67959072824,607.67959200271,607.67959190563,607.67959427091,607.67959366265,607.67959171235,607.67959320894,607.67959598205,607.67959581655,607.67959165813,607.67959239468,607.67959527511,607.67959478891,607.67959190563,607.67959072565,607.67959159254,607.67959501767,607.67959513771,607.67959263019,607.6795936523,607.67959427139,607.67959310864,607.67959098184,607.67959252527,607.67959357603,607.67959418475,607.67959407927,607.67959221722,607.67959346486,607.67959414542,607.67959307784,607.67959150133,607.67959313998,607.67959357603,607.67959424229,607.67959424229,607.67959582625,607.67959582625,-3.4478924868794e-06,-1.7393240518638e-08,-2.3387627523266e-06,-9.2976135437394e-07,7.5988437236935e-07,1.3008451178881e-05,-5.6827740881002e-06,3.1362404405264e-08,2.2263606886039e-07,6.5432372592218e-08,7.0741440017251e-07,-6.197694654555e-05,-1.4677968237757e-09,-4.1288186437371e-08,1.0011321433424e-06,-5.0852350599596e-05,-1.1048590555214e-07,1.1292171520905e-06,1.2186936882904e-05,-9.3138434882695e-06,-2.1092459807907e-07,1.7355980567568e-07,3.0397294148829e-08,-2.6789073905389e-05,2.0352393884725e-06,-4.6914658209068e-05,2.3083363552487e-07,6.5710675145197e-06,-1.7686541475059e-06,-9.9544737047352e-08,1.3506930488152e-07,1.0079530760095e-06,1.121038414424e-07,-4.1264948176915e-05,-5.4300542379784e-07,-9.4230961513298e-08,2.1144492153923e-06,-1.6767340776112e-05,-2.0982680416513e-08,-2.3715421699903e-08,2.3264486874103e-07,-7.4563828306763e-05,-1.2665153003292e-07,-1.0241159056459e-07,-1.5434362356888e-06,-2.2632206120556e-07,5.0906360341019e-07,1.4803029512337e-06,732.20212245875,732.20212245875,732.20212028237,732.20212028237,732.20212460748,732.20212452544,732.20212106902,732.20212203939,732.20212376741,732.20212293708,732.20211970274,732.20212097721,732.20212088013,732.20212324541,732.20212263715,732.20212068685,732.20212218344,732.20212495655,732.20212479104,732.20212063262,732.20212136918,732.2021242496,732.2021237634,732.20212088013,732.20211970015,732.20212056704,732.20212399217,732.20212411221,732.20212160469,732.2021226268,732.20212324589,732.20212208314,732.20211995633,732.20212149977,732.20212255053,732.20212315925,732.20212305377,732.20212119172,732.20212243936,732.20212311992,732.20212205234,732.20212047583,732.20212211447,732.20212255053,732.20212321679,732.20212321679,732.20212480075,732.20212480075,2.0859936333123,1038.5134384006,224.94201485918,1091.5227433927,204.28112397553,0
2.34e-05,20000556.454876,1.6085884107158e-06,6.9452291182629e-06,1.4294985915634e-06,1.0000014086714,607.6795930842,607.6795930842,607.67959070232,607.67959070232,607.67959543558,607.67959534589,607.67959156305,607.67959262528,607.67959451635,607.67959360756,607.67959006785,607.67959146288,607.67959135632,607.67959394494,607.67959327928,607.67959114471,607.67959278292,607.67959581764,607.67959563656,607.67959108552,607.67959189179,607.67959504404,607.67959451191,607.67959135632,607.67959006506,607.67959101396,607.67959476214,607.67959489367,607.67959214924,607.67959326813,607.67959394562,607.67959267297,607.67959034535,607.67959203476,607.67959318434,607.67959385059,607.67959373527,607.67959169723,607.67959306298,607.67959380768,607.67959263922,607.6795909138,607.67959270745,607.67959318434,607.67959391377,607.67959391377,607.67959564718,607.67959564718,-3.7559248779728e-06,-1.8950113390851e-08,-2.5481055999302e-06,-1.0119821070387e-06,8.2792391673696e-07,1.4170392453137e-05,-6.192070444701e-06,3.4171373329915e-08,2.4257628351173e-07,7.1289679280069e-08,7.7075393207677e-07,-6.7514725098477e-05,-1.5992349884789e-09,-4.4981427081442e-08,1.0907722758996e-06,-5.5403541102649e-05,-1.2038246456656e-07,1.2303244503603e-06,1.3275559299116e-05,-1.0148548637809e-05,-2.2979664602451e-07,1.891030794778e-07,3.3118634874436e-08,-2.9186923056914e-05,2.21744919567e-06,-5.110712984369e-05,2.515061726565e-07,7.1579465728467e-06,-1.9271535100495e-06,-1.0845431948352e-07,1.4716618077171e-07,1.0981857807444e-06,1.2214230284965e-07,-4.4951702092831e-05,-5.9159733694738e-07,-1.0266194822564e-07,2.3037677162915e-06,-1.8267923121864e-05,-2.2863684438247e-08,-2.5835090613022e-08,2.5347588894596e-07,-8.1237406914035e-05,-1.3799453618877e-07,-1.1158197126462e-07,-1.6816118339004e-06,-2.4651880054419e-07,5.5464342630556e-07,1.6124896234553e-06,732.20212206172,732.20212206172,732.20211967984,732.20211967984,732.2021244131,732.20212432341,732.20212054057,732.2021216028,732.20212349387,732.20212258508,732.20211904537,732.2021204404,732.20212033384,732.20212292246,732.2021222568,732.20212012223,732.20212176044,732.20212479516,732.20212461408,732.20212006304,732.20212086931,732.20212402156,732.20212348943,732.20212033384,732.20211904258,732.20211999148,732.20212373966,732.20212387119,732.20212112676,732.20212224565,732.20212292314,732.20212165049,732.20211932287,732.20212101228,732.20212216186,732.20212282811,732.20212271279,732.20212067475,732.2021220405,732.2021227852,732.20212161674,732.20211989132,732.20212168497,732.20212216186,732.20212289129,732.20212289129,732.2021246247,732.2021246247,2.2723791359028,1042.9689842692,225.90506658557,1096.2401388732,205.15583266905,0
2.35e-05,20000774.417955,1.6154618539843e-06,6.9749094321973e-06,1.4356088532464e-06,1.0000015399577,607.67959264841,607.67959264841,607.67959004262,607.67959004262,607.67959522052,607.6795951225,607.67959098402,607.67959214637,607.67959421507,607.67959322078,607.67958934838,607.67959087479,607.67959075786,607.67959358982,607.67959286161,607.67959052627,607.67959231882,607.67959563853,607.67959544048,607.67959046169,607.67959134394,607.67959479232,607.67959421015,607.67959075786,607.67958934538,607.67959038365,607.67959448374,607.67959462781,607.67959162524,607.67959284962,607.67959359073,607.67959219833,607.67958965191,607.67959150042,607.6795927576,607.67959348652,607.67959336051,607.67959113071,607.67959262518,607.67959343973,607.67959216136,607.67959027368,607.67959223626,607.6795927576,607.67959355587,607.67959355587,607.67959545211,607.67959545211,-4.0899245346441e-06,-2.0638796726109e-08,-2.7751727125647e-06,-1.1010152910858e-06,9.0172625182274e-07,1.5430469372851e-05,-6.7445437437926e-06,3.7218333898174e-08,2.6420590881811e-07,7.7642849130899e-08,8.394579109302e-07,-7.3519486493309e-05,-1.74180672455e-09,-4.8987131980112e-08,1.1880045629744e-06,-6.033981779227e-05,-1.311175777988e-07,1.3399951229868e-06,1.4456130561562e-05,-1.105401572002e-05,-2.5026579337494e-07,2.0596307710699e-07,3.6070429206087e-08,-3.1787697961216e-05,2.4150892571333e-06,-5.5653238194013e-05,2.739299827254e-07,7.7943863587254e-06,-2.0990893777506e-06,-1.1811817894584e-07,1.6028791147936e-07,1.19605646652e-06,1.3303105517612e-07,-4.8949282569096e-05,-6.4430087551187e-07,-1.1180642183142e-07,2.5091201087149e-06,-1.9895463451847e-05,-2.4904194904839e-08,-2.8133703923912e-08,2.7607123907464e-07,-8.847568987639e-05,-1.5029851981299e-07,-1.2152908138088e-07,-1.8314883353764e-06,-2.6841944304552e-07,6.0408364042022e-07,1.7558366177008e-06,732.20212162964,732.20212162964,732.20211902386,732.20211902386,732.20212420175,732.20212410374,732.20211996526,732.2021211276,732.20212319631,732.20212220202,732.20211832962,732.20211985603,732.2021197391,732.20212257105,732.20212184284,732.2021195075,732.20212130005,732.20212461976,732.20212442171,732.20211944292,732.20212032517,732.20212377355,732.20212319139,732.2021197391,732.20211832662,732.20211936489,732.20212346498,732.20212360905,732.20212060648,732.20212183086,732.20212257197,732.20212117957,732.20211863315,732.20212048166,732.20212173883,732.20212246776,732.20212234174,732.20212011194,732.20212160642,732.20212242097,732.20212114259,732.20211925491,732.2021212175,732.20212173883,732.20212253711,732.20212253711,732.20212443334,732.20212443334,2.4744027230661,1047.4222214795,226.86809787631,1100.9577251975,206.03052389816,0
2.36e-05,20001036.430009,1.6223352882024e-06,7.0045897450028e-06,1.441719131221e-06,1.0000016827984,607.67959217385,607.67959217385,607.6795893242,607.6795893242,607.6795949863,607.67959487923,607.67959035342,607.67959162485,607.67959388699,607.67959279957,607.67958856484,607.67959023439,607.67959010609,607.67959320307,607.67959240674,607.67958985272,607.67959181343,607.67959544348,607.67959522694,607.6795897823,607.67959074733,607.67959451821,607.67959388152,607.67959010609,607.67958856162,607.67958969727,607.67959418055,607.67959433829,607.67959105456,607.67959239388,607.67959320428,607.67959168142,607.67958889671,607.67959091854,607.67959229283,607.67959309003,607.67959295237,607.6795905137,607.67959214843,607.67959303905,607.67959164092,607.67958957652,607.67959172316,607.67959229283,607.67959316613,607.67959316613,607.67959523967,607.67959523967,-4.4519449500851e-06,-2.2469816305498e-08,-3.0213796246252e-06,-1.1973818624646e-06,9.8175181960658e-07,1.6796494657477e-05,-7.3436468995023e-06,4.052230894113e-08,2.8765997422944e-07,8.4531461777299e-08,9.1395490983568e-07,-8.0028186018644e-05,-1.8964016693975e-09,-5.333023604726e-08,1.293435579213e-06,-6.5691878980502e-05,-1.4275827332148e-07,1.4589133630886e-06,1.5735971338686e-05,-1.2035903199945e-05,-2.7245952892996e-07,2.2424502028067e-07,3.9271087037759e-08,-3.4607581154552e-05,2.6293921693133e-06,-6.058098627291e-05,2.9824502205738e-07,8.484331860833e-06,-2.2855362551047e-06,-1.2859654975159e-07,1.74516408599e-07,1.30217449383e-06,1.4483803792184e-07,-5.3282275705907e-05,-7.014439555238e-07,-1.2172133622083e-07,2.731787367105e-06,-2.1660081079468e-05,-2.7116969669661e-08,-3.0625465252843e-08,3.0057188254956e-07,-9.6323700351959e-05,-1.6364028402737e-07,-1.3231497736934e-07,-1.9940004118527e-06,-2.9215944394733e-07,6.5769268076464e-07,1.9112319618285e-06,732.20212115955,732.20212115955,732.2021183099,732.2021183099,732.20212397201,732.20212386494,732.20211933912,732.20212061055,732.20212287269,732.20212178527,732.20211755054,732.20211922009,732.20211909179,732.20212218877,732.20212139244,732.20211883842,732.20212079913,732.20212442918,732.20212421264,732.202118768,732.20211973304,732.20212350391,732.20212286722,732.20211909179,732.20211754732,732.20211868297,732.20212316625,732.20212332399,732.20212004026,732.20212137958,732.20212218998,732.20212066712,732.20211788242,732.20211990425,732.20212127853,732.20212207573,732.20212193807,732.2021194994,732.20212113413,732.20212202475,732.20212062662,732.20211856222,732.20212070886,732.20212127853,732.20212215183,732.20212215183,732.20212422537,732.20212422537,2.6932812797725,1051.872940145,227.83110870347,1105.6754940236,206.90519765092,0
2.37e-05,20001346.145717,1.6292087132613e-06,7.0342700566942e-06,1.4478294259218e-06,1.0000018381467,607.67959165726,607.67959165726,607.67958854212,607.67958854212,607.67959473133,607.67959461441,607.6795896669,607.67959105714,607.67959352986,607.67959234102,607.67958771183,607.67958953727,607.67958939652,607.67959278205,607.67959191153,607.67958911942,607.67959126327,607.67959523114,607.67959499449,607.67958904269,607.67959009788,607.67959421982,607.67959352377,607.67958939652,607.67958770838,607.67958895008,607.67959385046,607.67959402311,607.67959043327,607.67959189778,607.67959278361,607.67959111867,607.67958807456,607.67959028515,607.67959178684,607.67959265838,607.67959250806,607.67958984196,607.67959162945,607.67959260286,607.67959107434,607.67958881754,607.67959116461,607.67959178684,607.67959274186,607.67959274186,607.67959500841,607.67959500841,-4.8441903375221e-06,-2.4454488209417e-08,-3.2882481823069e-06,-1.3016382535457e-06,1.0684956614017e-06,1.8276868436677e-05,-7.9930924631088e-06,4.4103752012126e-08,3.1308365962078e-07,9.1998064423252e-08,9.9470570620091e-07,-8.7080495995812e-05,-2.0639763084803e-09,-5.803754526622e-08,1.4077174714908e-06,-7.1492717667409e-05,-1.5537661805648e-07,1.5878147759222e-06,1.7122952743955e-05,-1.3100294941299e-05,-2.9651490904944e-07,2.440620416895e-07,4.2740401422403e-08,-3.7663965691275e-05,2.8616831327531e-06,-6.5920438921632e-05,3.2460176666175e-07,9.2320246483862e-06,-2.4876494457587e-06,-1.3995418867714e-07,1.8993974117169e-07,1.4171948463356e-06,1.5763629671947e-07,-5.7977073240023e-05,-7.6337903969288e-07,-1.3246792050134e-07,2.9731466997869e-06,-2.3572651483613e-05,-2.9515725927123e-08,-3.332563038213e-08,3.2712937387033e-07,-0.00010482982794192,-1.7810240501976e-07,-1.4400637770144e-07,-2.1701529395651e-06,-3.1788443947221e-07,7.1580215926091e-07,2.0796304649134e-06,732.20212064824,732.20212064824,732.2021175331,732.2021175331,732.20212372231,732.20212360539,732.20211865788,732.20212004812,732.20212252084,732.202121332,732.20211670281,732.20211852825,732.2021183875,732.20212177303,732.20212090251,732.20211811041,732.20212025425,732.20212422212,732.20212398547,732.20211803367,732.20211908886,732.2021232108,732.20212251475,732.2021183875,732.20211669936,732.20211794106,732.20212284144,732.20212301409,732.20211942425,732.20212088876,732.20212177459,732.20212010965,732.20211706554,732.20211927613,732.20212077782,732.20212164936,732.20212149904,732.20211883294,732.20212062043,732.20212159384,732.20212006532,732.20211780852,732.20212015559,732.20212077782,732.20212173284,732.20212173284,732.20212399939,732.20212399939,2.9303170848857,1056.3209142568,228.79409904155,1110.3934363599,207.7798539142,0
2.38e-05,20001707.500271,1.6360821289881e-06,7.063950367288e-06,1.4539397378578e-06,1.000002007028,607.67959109515,607.67959109515,607.67958769105,607.67958769105,607.67959445385,607.67959432622,607.67958891978,607.67959043938,607.67959314125,607.67959184199,607.67958678354,607.6795887787,607.6795886243,607.67959232388,607.67959137262,607.67958832138,607.67959066462,607.67959500007,607.67959474152,607.67958823781,607.67958939117,607.67959389512,607.67959313445,607.6795886243,607.67958677986,607.67958813702,607.67959349124,607.67959368013,607.67958975713,607.67959135794,607.67959232586,607.67959050626,607.67958717982,607.67958959592,607.67959123616,607.67959218863,607.67959202454,607.6795891109,607.67959106471,607.67959212821,607.67959045773,607.67958799153,607.67959055683,607.67959123616,607.67959228018,607.67959228018,607.67959475676,607.67959475676,-5.2690256647666e-06,-2.6604974338528e-08,-3.5774140214979e-06,-1.4143783015157e-06,1.1624898542802e-06,1.9880613291334e-05,-8.6968709061557e-06,4.7984647243245e-08,3.4063301091172e-07,1.0008837975085e-07,1.082205536854e-06,-9.4718987469938e-05,-2.2455586916994e-09,-6.3137868290334e-08,1.5315511708282e-06,-7.7777781127362e-05,-1.6905007266294e-07,1.7274899994231e-06,1.8625529192114e-05,-1.4253730148463e-05,-3.225792346744e-07,2.6553573526963e-07,4.6499645956367e-08,-4.0975539468956e-05,3.1133864460036e-06,-7.1703861178834e-05,3.5316195260987e-07,1.0042020492605e-05,-2.706670743356e-06,-1.5226069471717e-07,2.0665257004152e-07,1.5418213153707e-06,1.7150434048678e-07,-6.3061992958097e-05,-8.3048485174076e-07,-1.4411197977349e-07,3.2346783355129e-06,-2.5644858853757e-05,-3.2115207474813e-08,-3.6250578969236e-08,3.5590660466762e-07,-0.00011404606297337,-1.9377363864165e-07,-1.566749907197e-07,-2.3610259548646e-06,-3.4575081929345e-07,7.7876849698399e-07,2.2620575637126e-06,732.20212009229,732.20212009229,732.20211668819,732.20211668819,732.20212345099,732.20212332336,732.20211791692,732.20211943651,732.20212213838,732.20212083913,732.20211578068,732.20211777584,732.20211762144,732.20212132102,732.20212036975,732.20211731852,732.20211966176,732.2021239972,732.20212373866,732.20211723495,732.2021183883,732.20212289226,732.20212213159,732.20211762144,732.202115777,732.20211713416,732.20212248838,732.20212267727,732.20211875427,732.20212035508,732.20212132299,732.2021195034,732.20211617696,732.20211859306,732.2021202333,732.20212118577,732.20212102168,732.20211810804,732.20212006185,732.20212112535,732.20211945487,732.20211698867,732.20211955397,732.2021202333,732.20212127732,732.20212127732,732.2021237539,732.2021237539,3.186902801065,1060.7659006097,229.75706885835,1115.1115424871,208.65449267408,0
2.39e-05,20002124.728664,1.642955535215e-06,7.0936306768022e-06,1.4600500675646e-06,1.0000021905453,607.67959048371,607.67959048371,607.67958676526,607.67958676526,607.67959415199,607.67959401272,607.67958810701,607.6795897674,607.67959271853,607.67959129913,607.67958577369,607.67958795356,607.6795877842,607.67959182547,607.67959078634,607.67958745317,607.67959001344,607.6795947487,607.67959446634,607.67958736222,607.67958862241,607.67959354193,607.67959271094,607.6795877842,607.67958576978,607.6795872526,607.67959310044,607.67959330703,607.67958902155,607.67959077072,607.67959182794,607.67958984003,607.67958620647,607.67958884622,607.67959063707,607.6795916776,607.67959149854,607.67958831557,607.67959045041,607.67959161189,607.67958978692,607.67958709291,607.67958989572,607.67959063707,607.67959177796,607.67959177796,607.67959448301,607.67959448301,-5.7289872587597e-06,-2.893434166332e-08,-3.8906345435888e-06,-1.5362352163222e-06,1.2643061083665e-06,2.1617421530819e-05,-9.459270105913e-06,5.2188617408718e-08,3.7047570213825e-07,1.0885152734525e-07,1.1769865211467e-06,-0.00010298932235151,-2.4422534453146e-09,-6.8662156627987e-08,1.6656898098617e-06,-8.4585140666939e-05,-1.8386186994842e-07,1.8787885635663e-06,2.0252782694708e-05,-1.5503235274653e-05,-3.5081076617172e-07,2.8879675392589e-07,5.0571678598512e-08,-4.4562374949669e-05,3.3860324665706e-06,-7.7965864688949e-05,3.8409936627257e-07,1.0919213265864e-05,-2.9439344970425e-06,-1.6559084732844e-07,2.2475661009613e-07,1.676809889245e-06,1.8652652594655e-07,-6.8567405981731e-05,-9.0316820042626e-07,-1.567242156103e-07,3.5179727372815e-06,-2.7889251980329e-05,-3.4931256792195e-08,-3.9417890594459e-08,3.8707859819457e-07,-0.00012402824573873,-2.1074935395686e-07,-1.7039786438734e-07,-2.5677799129443e-06,-3.7592656226682e-07,8.4697466409024e-07,2.4596147656803e-06,732.20211948796,732.20211948796,732.20211576951,732.20211576951,732.20212315624,732.20212301697,732.20211711126,732.20211877165,732.20212172278,732.20212030338,732.20211477794,732.20211695781,732.20211678845,732.20212082972,732.20211979059,732.20211645742,732.20211901769,732.20212375295,732.20212347059,732.20211636647,732.20211762666,732.20212254618,732.20212171519,732.20211678845,732.20211477403,732.20211625685,732.20212210469,732.20212231128,732.2021180258,732.20211977498,732.20212083219,732.20211884428,732.20211521072,732.20211785047,732.20211964132,732.20212068185,732.20212050279,732.20211731982,732.20211945466,732.20212061614,732.20211879117,732.20211609716,732.20211889997,732.20211964132,732.20212078221,732.20212078221,732.20212348726,732.20212348726,3.4645266346903,1065.2076376164,230.72001812075,1119.8298019234,209.52911391533,0
2.4e-05,20002602.386048,1.6498289317614e-06,7.1233109852558e-06,1.4661604156186e-06,1.0000023898843,607.67958981887,607.67958981887,607.67958575853,607.67958575853,607.67959382373,607.6795936718,607.67958722313,607.67958903671,607.6795922589,607.67959070878,607.67958467551,607.67958705635,607.6795868706,607.67959128348,607.67959014876,607.67958650897,607.67958930536,607.67959447535,607.67959416709,607.67958641005,607.67958778649,607.67959315789,607.6795922504,607.6795868706,607.67958467136,607.6795862909,607.67959267545,607.67959290132,607.67958822161,607.67959013221,607.67959128654,607.67958911551,607.67958514796,607.67958803105,607.67958998555,607.67959112186,607.67959092653,607.67958745062,607.67958978244,607.67959105045,607.67958905741,607.67958611564,607.67958917686,607.67958998555,607.67959123185,607.67959123185,607.67959418534,607.67959418534,-6.2267940028543e-06,-3.1456625295046e-08,-4.2297974090834e-06,-1.6678835807615e-06,1.3745585338608e-06,2.349770060897e-05,-1.028489610213e-05,5.6741038287273e-08,4.0279184776316e-07,1.183402594054e-07,1.2796202327405e-06,-0.00011194045645374,-2.6552471188652e-09,-7.4643654012382e-08,1.8109423665133e-06,-9.195567211871e-05,-1.9990141796487e-07,2.0426230020682e-06,2.2014465424629e-05,-1.6856358009447e-05,-3.813794880694e-07,3.139854407852e-07,5.4981052271511e-08,-4.8446024580395e-05,3.6812650069825e-06,-8.4743562503744e-05,4.1760068574507e-07,1.1868857850513e-05,-3.2008740729252e-06,-1.8002496801077e-07,2.4436112315133e-07,1.8229723589728e-06,2.0279346537993e-07,-7.4525871208316e-05,-9.8186592060701e-07,-1.7038056751051e-07,3.8247382970645e-06,-3.0319303670467e-05,-3.798089161239e-08,-4.2846425378315e-08,4.2083335606904e-07,-0.0001348363315279,-2.2913199508219e-07,-1.8525775869732e-07,-2.7916613014548e-06,-4.0859201415637e-07,9.2083203352417e-07,2.6734847771694e-06,732.20211883127,732.20211883127,732.20211477093,732.20211477093,732.20212283612,732.20212268419,732.20211623552,732.2021180491,732.20212127129,732.20211972118,732.2021136879,732.20211606874,732.20211588299,732.20212029587,732.20211916116,732.20211552136,732.20211831775,732.20212348775,732.20212317948,732.20211542244,732.20211679888,732.20212217028,732.20212126279,732.20211588299,732.20211368375,732.20211530329,732.20212168784,732.20212191371,732.202117234,732.2021191446,732.20212029893,732.2021181279,732.20211416035,732.20211704344,732.20211899794,732.20212013425,732.20211993893,732.20211646301,732.20211879483,732.20212006284,732.2021180698,732.20211512803,732.20211818925,732.20211899794,732.20212024424,732.20212024424,732.20212319773,732.20212319773,3.764777647165,1069.6458440837,231.68294679281,1124.5482033646,210.40371762144,0
2.41e-05,20003145.36921,1.6567023184336e-06,7.1529912926695e-06,1.4722707826403e-06,1.0000026063188,607.67958909624,607.67958909624,607.67958466421,607.67958466421,607.67959346688,607.67959330121,607.67958626226,607.67958824248,607.6795917593,607.67959006703,607.67958348171,607.67958608113,607.67958587739,607.67959069431,607.67958945565,607.6795854825,607.67958853572,607.67959417821,607.67959384178,607.67958537498,607.67958687786,607.67959274044,607.67959174976,607.67958587739,607.67958347732,607.67958524557,607.67959221343,607.67959246028,607.67958735197,607.67958943817,607.67959069807,607.67958832789,607.67958399726,607.67958714501,607.67958927725,607.67959051772,607.67959030472,607.6795865103,607.67958905637,607.67959044016,607.67958826435,607.67958505322,607.6795883955,607.67958927725,607.67959063823,607.67959063823,607.67959386176,607.67959386176,-6.7653591483288e-06,-3.4186895662237e-08,-4.5969295850891e-06,-1.8100413704124e-06,1.4939065885055e-06,2.5532622437695e-05,-1.1178695203341e-05,6.1669160640898e-08,4.3777486791249e-07,1.2861121158966e-07,1.390720440772e-06,-0.00012162485384493,-2.8858138790819e-09,-8.1118055486708e-08,1.9681775444604e-06,-9.9933247666375e-05,-2.1726472939939e-07,2.2199732322262e-06,2.3921045931271e-05,-1.8321203472918e-05,-4.1446792297735e-07,3.4125250267984e-07,5.9754132676733e-08,-5.2649622232846e-05,4.0008492163928e-06,-9.2076732615392e-05,4.5386637724253e-07,1.2896595023214e-05,-3.4790287360002e-06,-1.9564930518758e-07,2.6558344293386e-07,1.9811801527938e-06,2.2040246130802e-07,-8.0972277172645e-05,-1.0670469376678e-06,-1.8516257657944e-07,4.1568095299367e-06,-3.2949473885083e-05,-4.1282386500157e-08,-4.6556409380341e-08,4.5737276011162e-07,-0.00014653467233335,-2.4903157316405e-07,-2.0134354233403e-07,-3.0340086175847e-06,-4.4394073719236e-07,1.0007823556368e-06,2.904937092599e-06,732.20211811788,732.20211811788,732.20211368586,732.20211368586,732.20212248852,732.20212232285,732.20211528391,732.20211726412,732.20212078095,732.20211908868,732.20211250335,732.20211510277,732.20211489904,732.20211971595,732.2021184773,732.20211450414,732.20211755736,732.20212319986,732.20212286343,732.20211439662,732.2021158995,732.20212176209,732.2021207714,732.20211489904,732.20211249897,732.20211426721,732.20212123508,732.20212148193,732.20211637362,732.20211845981,732.20211971972,732.20211734954,732.20211301891,732.20211616665,732.2021182989,732.20211953936,732.20211932637,732.20211553195,732.20211807802,732.20211946181,732.20211728599,732.20211407486,732.20211741714,732.2021182989,732.20211965988,732.20211965988,732.2021228834,732.2021228834,4.0893512044159,1074.0802179199,232.64585483584,1129.2667346213,211.27830377461,0
2.42e-05,20003758.939175,1.6635756950233e-06,7.1826715990656e-06,1.4783811692973e-06,1.0000028412161,607.67958831106,607.67958831106,607.67958347509,607.67958347509,607.67959307908,607.67959289849,607.67958521808,607.67958737948,607.67959121647,607.67958936964,607.67958218442,607.6795850215,607.67958479805,607.67959005407,607.67958870243,607.67958436697,607.67958769945,607.67959385532,607.67959348828,607.67958425018,607.67958589055,607.67959228686,607.67959120572,607.67958479805,607.6795821798,607.67958410973,607.67959171134,607.67959198103,607.6795864069,607.67958868404,607.67959005868,607.67958747197,607.67958274678,607.67958618229,607.6795885075,607.67958986118,607.679589629,607.6795854884,607.67958826744,607.67958977702,607.67958740249,607.67958389863,607.67958754651,607.6795885075,607.6795899932,607.6795899932,607.67959351014,607.67959351014,-7.3478027611753e-06,-3.7141330029769e-08,-4.9942069792346e-06,-1.963471979593e-06,1.6230582163684e-06,2.7734175849047e-05,-1.214597752337e-05,6.7002240128091e-08,4.7563240981088e-07,1.3972516987711e-07,1.5109460287107e-06,-0.00013209871293384,-3.1353215731104e-09,-8.8123676793897e-08,2.1383279052003e-06,-0.00010856493962351,-2.3605487883222e-07,2.4118912190747e-06,2.5983758306492e-05,-1.9906472747834e-05,-4.5027199823974e-07,3.7075972729904e-07,6.4919223756888e-08,-5.7197990997278e-05,4.3466799730513e-06,-0.00010000799056082,4.9311164969317e-07,1.4008477926834e-05,-3.7800509777208e-06,-2.1255644402698e-07,2.8854953418193e-07,2.1523684123865e-06,2.3945796935581e-07,-8.7943991591781e-05,-1.1592144623856e-06,-2.0115777278038e-07,4.5161557994807e-06,-3.5795276799946e-05,-4.4855359691986e-08,-5.0569525003683e-08,4.9691353265727e-07,-0.00015919231614871,-2.7056619029586e-07,-2.1875061500978e-07,-3.2962587326593e-06,-4.8218041343119e-07,1.0872998610098e-06,3.1553339389279e-06,732.20211734317,732.20211734317,732.20211250719,732.20211250719,732.20212211118,732.20212193059,732.20211425019,732.20211641158,732.20212024857,732.20211840174,732.20211121652,732.2021140536,732.20211383015,732.20211908618,732.20211773453,732.20211339907,732.20211673155,732.20212288742,732.20212252038,732.20211328228,732.20211492265,732.20212131896,732.20212023782,732.20211383015,732.2021112119,732.20211314184,732.20212074344,732.20212101314,732.202115439,732.20211771614,732.20211909078,732.20211650407,732.20211177889,732.20211521439,732.20211753961,732.20211889329,732.2021186611,732.2021145205,732.20211729954,732.20211880912,732.20211643459,732.20211293073,732.20211657861,732.20211753961,732.2021190253,732.2021190253,732.20212254224,732.20212254224,4.4400545418406,1078.5104347766,233.60874220813,1133.9853825565,212.15287235555,0
2.43e-05,20004448.744971,1.6704490613072e-06,7.2123519044681e-06,1.4844915763082e-06,1.0000030960438,607.67958745825,607.67958745825,607.67958218342,607.67958218342,607.67959265781,607.67959246101,607.67958408376,607.67958644211,607.67959062686,607.67958861205,607.67958077516,607.67958387057,607.67958362549,607.67958935861,607.67958788417,607.67958315508,607.67958679111,607.67959350457,607.67959310427,607.67958302832,607.67958481813,607.67959179418,607.67959061474,607.67958362549,607.67958077033,607.67958287601,607.67959116589,607.67959146043,607.67958538022,607.67958786492,607.6795893642,607.67958654216,607.67958138836,607.67958513665,607.67958767127,607.67958914797,607.67958889496,607.67958437822,607.67958741051,607.67958905671,607.6795864662,607.67958264432,607.67958662437,607.67958767127,607.67958929254,607.67958929254,607.67959312819,607.67959312819,-7.9774648244562e-06,-4.0337288620096e-08,-5.4239646951949e-06,-2.1289862369601e-06,1.7627731894858e-06,3.0115222391104e-05,-1.3192442033576e-05,7.2771675633066e-08,5.1658732880921e-07,1.5174735436964e-07,1.6410041015652e-06,-0.00014342220469792,-3.4052381833435e-09,-9.5701634691706e-08,2.3223942668426e-06,-0.00011790123680711,-2.5638248954376e-07,2.6195059410204e-06,2.8214654474952e-05,-2.1621503889076e-05,-4.8900196847708e-07,4.0268074663998e-07,7.0506701268476e-08,-6.2117757676897e-05,4.7207908182844e-06,-0.00010858297143362,5.3556747104118e-07,1.5211000223221e-05,-4.1057143159395e-06,-2.3084574269506e-07,3.1339458792407e-07,2.3375403242185e-06,2.6007209098877e-07,-9.5481018847951e-05,-1.2589083235211e-06,-2.1846008717831e-07,4.9048906063899e-06,-3.8873351999448e-05,-4.8720865513744e-08,-5.4909006633991e-08,5.3968825886039e-07,-0.00017288332481157,-2.9386259730465e-07,-2.3758135701672e-07,-3.5799536675036e-06,-5.2353380504627e-07,1.1808934992316e-06,3.4261365961155e-06,732.20211650211,732.20211650211,732.20211122728,732.20211122728,732.20212170167,732.20212150487,732.20211312762,732.20211548597,732.20211967072,732.20211765591,732.20210981902,732.20211291443,732.20211266935,732.20211840247,732.20211692803,732.20211219894,732.20211583497,732.20212254843,732.20212214813,732.20211207218,732.20211386199,732.20212083804,732.2021196586,732.20211266935,732.20210981419,732.20211191987,732.20212020975,732.20212050429,732.20211442408,732.20211690878,732.20211840806,732.20211558602,732.20211043222,732.20211418051,732.20211671512,732.20211819183,732.20211793882,732.20211342208,732.20211645437,732.20211810057,732.20211551006,732.20211168818,732.20211566823,732.20211671512,732.2021183364,732.2021183364,732.20212217205,732.20212217205,4.8188124185173,1082.9361466256,234.57160886455,1138.704133015,213.0274233435,0
2.44e-05,20005220.848552,1.6773224170453e-06,7.2420322089028e-06,1.4906020044454e-06,1.0000033723754,607.67958653231,607.67958653231,607.67958078087,607.67958078087,607.67959220033,607.67959198595,607.67958285194,607.67958542433,607.67958998668,607.67958778936,607.67957924483,607.67958262094,607.67958235212,607.67958860341,607.67958699557,607.67958183898,607.67958580486,607.67959312368,607.67959268726,607.67958170149,607.6795836537,607.67959125924,607.67958997299,607.67958235212,607.67957923979,607.67958153644,607.67959057354,607.67959089512,607.67958426527,607.67958697552,607.67958861017,607.67958553243,607.67957991319,607.67958400134,607.67958676311,607.67958837346,607.67958809784,607.67958317257,607.67958648006,607.67958827458,607.67958544941,607.67958128214,607.67958562314,607.67958676311,607.67958853174,607.67958853174,607.67959271345,607.67959271345,-8.657919015583e-06,-4.3793395610958e-08,-5.8887079472492e-06,-2.3074443914174e-06,1.91386666455e-06,3.2689555654665e-05,-1.4324203220739e-05,7.9011156512558e-08,5.6087873259066e-07,1.6474772100418e-07,1.7816532927508e-06,-0.00015565972345162,-3.6971386972128e-09,-1.0389603885117e-07,2.5214503856477e-06,-0.00012799627417905,-2.7836625164173e-07,2.844028675071e-06,3.0626659793805e-05,-2.3476315556696e-05,-5.3088339740161e-07,4.3720184953553e-07,7.6549154951001e-08,-6.7437474345936e-05,5.1253634645258e-06,-0.00011785052163352,5.8148164996324e-07,1.6511126025895e-05,-4.4579215952966e-06,-2.5062379664674e-07,3.4026365512039e-07,2.5377717200939e-06,2.8236509791595e-07,-0.00010362616565403,-1.3667074458398e-06,-2.3717029068007e-07,5.3252814741719e-06,-4.2201540022157e-05,-5.2901492701558e-08,-5.9599741746488e-08,5.8594647470907e-07,-0.00018768711138777,-3.1905678744198e-07,-2.5794560761491e-07,-3.8867478033876e-06,-5.6823977484473e-07,1.2821093217966e-06,3.7189121157879e-06,732.20211558933,732.20211558933,732.20210983789,732.20210983789,732.20212125735,732.20212104297,732.20211190896,732.20211448135,732.20211904369,732.20211684638,732.20210830185,732.20211167795,732.20211140914,732.20211766043,732.20211605259,732.202110896,732.20211486188,732.2021221807,732.20212174428,732.20211075851,732.20211271072,732.20212031625,732.20211903001,732.20211140914,732.20210829681,732.20211059346,732.20211963056,732.20211995213,732.20211332228,732.20211603254,732.20211766719,732.20211458944,732.20210897021,732.20211305836,732.20211582013,732.20211743048,732.20211715485,732.20211222959,732.20211553708,732.2021173316,732.20211450642,732.20211033916,732.20211468016,732.20211582013,732.20211758875,732.20211758875,732.20212177046,732.20212177046,5.2276728288878,1087.3569802705,235.53445475678,1143.4229707501,213.90195671582,0
2.45e-05,20006081.750909,1.6841957619802e-06,7.2717125123976e-06,1.4967124545391e-06,1.0000036718971,607.67958552733,607.67958552733,607.67957925845,607.67957925845,607.67959170371,607.67959147024,607.67958151472,607.67958431962,607.67958929184,607.67958689628,607.67957758359,607.67958126461,607.67958096974,607.67958778363,607.6795860309,607.67958041018,607.6795847344,607.67959271021,607.67959223456,607.67958026117,607.6795823898,607.6795906786,607.67958927634,607.67958096974,607.67957757838,607.67958008247,607.67958993049,607.67959028145,607.67958305487,607.67958601017,607.67958779177,607.67958443628,607.67957831179,607.67958276913,607.6795857772,607.67958753267,607.67958723252,607.67958186368,607.67958547015,607.67958742563,607.67958434556,607.67957980334,607.67958453643,607.6795857772,607.67958770592,607.67958770592,607.67959226323,607.67959226323,-9.3929871763647e-06,-4.7529625297489e-08,-6.3911236730512e-06,-2.4997580458872e-06,2.0772129675194e-06,3.5471964330436e-05,-1.554781944545e-05,8.5756819306093e-08,6.0876309233942e-07,1.7880128219449e-07,1.9337072824887e-06,-0.00016888015053288,-4.0127124169331e-09,-1.1275419602288e-07,2.7366479371437e-06,-0.00013890807644599,-3.0213347338465e-07,3.0867586208031e-06,3.3233632148549e-05,-2.5481653426743e-05,-5.7615820241317e-07,4.7452284618154e-07,8.3081539808844e-08,-7.3187747347018e-05,5.5627379115275e-06,-0.0001278629006729,6.31119986918e-07,1.7916321713217e-05,-4.8387138177303e-06,-2.7200493259694e-07,3.6931232096483e-07,2.7542159615532e-06,3.0646599004219e-07,-0.00011242521513051,-1.4832324815076e-06,-2.5739646084122e-07,5.7797604673999e-06,-4.5798962482214e-05,-5.7421468976764e-08,-6.4668377714698e-08,6.3595582467069e-07,-0.0002036887981238,-3.4629462812922e-07,-2.7996117396467e-07,-4.2184155543087e-06,-6.1655437034362e-07,1.3915330177709e-06,4.0353404601179e-06,732.20211459902,732.20211459902,732.20210833014,732.20210833014,732.2021207754,732.20212054193,732.20211058641,732.20211339131,732.20211836353,732.20211596797,732.20210665528,732.2021103363,732.20211004143,732.20211685532,732.20211510259,732.20210948187,732.20211380609,732.2021217819,732.20212130625,732.20210933286,732.20211146149,732.20211975029,732.20211834803,732.20211004143,732.20210665007,732.20210915416,732.20211900218,732.20211935314,732.20211212656,732.20211508186,732.20211686346,732.20211350797,732.20210738348,732.20211184082,732.20211484889,732.20211660436,732.20211630421,732.20211093537,732.20211454184,732.20211649732,732.20211341725,732.20210887503,732.20211360812,732.20211484889,732.20211677761,732.20211677761,732.20212133492,732.20212133492,5.6688127339087,1091.7725357912,236.49727983217,1148.141879345,214.77647244812,0
2.46e-05,20007038.419342,1.6910690958363e-06,7.3013928149826e-06,1.5028229274816e-06,1.0000039964145,607.67958443696,607.67958443696,607.6795776065,607.6795776065,607.67959116477,607.67959091061,607.67958006359,607.67958312099,607.67958853795,607.67958592712,607.67957578087,607.67957979303,607.67957946955,607.67958689407,607.67958498403,607.67957885958,607.67958357294,607.67959226153,607.6795917433,607.67957869821,607.67958101843,607.67959004859,607.67958852036,607.67957946955,607.67957577552,607.6795785049,607.67958923263,607.67958961553,607.67958174132,607.67958496275,607.67958690383,607.67958324674,607.67957657397,607.67958143223,607.67958470723,607.67958662025,607.67958629349,607.6795804432,607.67958437436,607.67958650447,607.67958314762,607.67957819848,607.67958335737,607.67958470723,607.67958680984,607.67958680984,607.6795917747,607.6795917747,-1.0186754492397e-05,-5.1567393723158e-08,-6.9340928860625e-06,-2.7068920130986e-06,2.253749619718e-06,3.8478299211021e-05,-1.6870323100903e-05,9.3047414468037e-08,6.6051542486001e-07,1.9398844746879e-07,2.0980385402873e-06,-0.00018315713126798,-4.3537707349924e-09,-1.2232682720823e-07,2.9692218145874e-06,-0.00015069881633717,-3.2782066766993e-07,3.3490888832388e-06,3.6050424746141e-05,-2.764903954221e-05,-6.25085765714e-07,5.1485798774649e-07,9.0141337047798e-08,-7.9401374117857e-05,6.0354232068294e-06,-0.00013867599334967,6.847674986576e-07,1.9434589729721e-05,-5.2502795343509e-06,-2.9511173395576e-07,4.0070742227691e-07,2.9881091233408e-06,3.3251308896145e-07,-0.0001219271095086,-1.6091486032085e-06,-2.7925447842434e-07,6.2709353801319e-06,-4.9686106999986e-05,-6.2306772234619e-08,-7.014343456223e-08,6.9000329308783e-07,-0.00022097959603558,-3.7573253302076e-07,-3.0375437241229e-07,-4.5768595281649e-06,-6.6875197496295e-07,1.5097926113197e-06,4.3772220848791e-06,732.20211352495,732.20211352495,732.2021066945,732.2021066945,732.20212025276,732.2021199986,732.20210915158,732.20211220899,732.20211762594,732.20211501512,732.20210486886,732.20210888102,732.20210855754,732.20211598207,732.20211407202,732.20210794758,732.20211266093,732.20212134953,732.2021208313,732.2021077862,732.20211010642,732.20211913658,732.20211760836,732.20210855754,732.20210486351,732.20210759289,732.20211832062,732.20211870353,732.20211082931,732.20211405074,732.20211599183,732.20211233473,732.20210566197,732.20211052022,732.20211379522,732.20211570824,732.20211538148,732.2021095312,732.20211346235,732.20211559246,732.20211223561,732.20210728647,732.20211244536,732.20211379522,732.20211589783,732.20211589783,732.20212086269,732.20212086269,6.1445437665669,1096.1823849261,237.46008403455,1152.8608411287,215.65097051431,0
2.47e-05,20008098.315903,1.697942418318e-06,7.3310731166899e-06,1.5089334242316e-06,1.0000043478601,607.67958325437,607.67958325437,607.67957581464,607.67957581464,607.67959058011,607.6795903035,607.67957848936,607.67958182093,607.67958772027,607.67958487576,607.67957382531,607.67957819696,607.67957784205,607.67958592913,607.67958384832,607.67957717736,607.67958231321,607.67959177481,607.67959121037,607.67957700275,607.67957953098,607.67958936526,607.67958770029,607.67957784205,607.67957381987,607.67957679382,607.67958847555,607.67958889316,607.6795803163,607.67958382668,607.67958594079,607.67958195628,607.67957468876,607.67957998227,607.67958354643,607.67958563043,607.67958527482,607.67957890214,607.67958318582,607.67958550532,607.679581848,607.6795764574,607.67958207857,607.67958354643,607.67958583786,607.67958583786,607.67959124475,607.67959124475,-1.1043585396471e-05,-5.5929656098567e-08,-7.5207038114743e-06,-2.9298660637098e-06,2.4444816197501e-06,4.1725544361791e-05,-1.8299252677263e-05,1.009244837243e-07,7.1643054987196e-07,2.103953852174e-07,2.2755823047512e-06,-0.00019856936554941,-4.7222554033737e-09,-1.3266829859852e-07,3.2204957635739e-06,-0.00016343508829961,-3.5557417577467e-07,3.6325128359408e-06,3.9092952815232e-05,-2.999082477484e-05,-6.7794411588434e-07,5.5843694432575e-07,9.7768725240897e-08,-8.6113488251434e-05,6.546108888603e-06,-0.00015034953258128,7.4272972055214e-07,2.1074504488315e-05,-5.6949648315921e-06,-3.2007559957048e-07,4.3462781055347e-07,3.2407754917874e-06,3.6065466909001e-07,-0.00013218414165391,-1.7451684676515e-06,-3.0286855545776e-07,6.8016016341183e-06,-5.388491718129e-05,-6.7585248734519e-08,-7.6055423896706e-08,7.4839651370466e-07,-0.00023965720723576,-4.0753817677921e-07,-3.2946060402473e-07,-4.9641192056364e-06,-7.2512653006003e-07,1.6375613307261e-06,4.7464859914839e-06,732.20211236042,732.20211236042,732.2021049207,732.2021049207,732.20211968617,732.20211940956,732.20210759542,732.20211092698,732.20211682633,732.20211398182,732.20210293137,732.20210730301,732.20210694811,732.20211503518,732.20211295437,732.20210628342,732.20211141926,732.20212088087,732.20212031643,732.20210610881,732.20210863703,732.20211847131,732.20211680634,732.20210694811,732.20210292592,732.20210589987,732.2021175816,732.20211799922,732.20210942236,732.20211293274,732.20211504685,732.20211106233,732.20210379481,732.20210908832,732.20211265249,732.20211473648,732.20211438087,732.2021080082,732.20211229188,732.20211461138,732.20211095406,732.20210556346,732.20211118462,732.20211265249,732.20211494392,732.20211494392,732.20212035081,732.20212035081,6.6573178592025,1100.5860693909,238.4228673032,1157.5798370866,216.52545088594,0
2.48e-05,20009269.426973,1.7048157291092e-06,7.3607534175543e-06,1.5150439458177e-06,1.0000047283003,607.67958197222,607.67958197222,607.6795738717,607.6795738717,607.67958994607,607.67958964513,607.6795767822,607.67958041133,607.67958683373,607.67958373562,607.67957170468,607.67957646648,607.67957607704,607.67958488276,607.67958261665,607.67957535297,607.67958094736,607.679591247,607.67959063242,607.67957516419,607.67957791819,607.67958862434,607.67958681097,607.67957607704,607.6795716992,607.6795749386,607.67958765449,607.67958810982,607.67957877089,607.6795825949,607.67958489666,607.67958055682,607.67957264435,607.67957841024,607.67958228753,607.67958455702,607.67958417012,607.67957723084,607.67958189714,607.67958442196,607.67958043856,607.67957456919,607.67958069207,607.67958228753,607.67958478392,607.67958478392,607.67959067009,607.67959067009,-1.196814020849e-05,-6.0641010347715e-08,-8.1542658515456e-06,-3.1697565329742e-06,2.6504859963661e-06,4.5231892694237e-05,-1.9842686842259e-05,1.0943254868597e-07,7.7682442691707e-07,2.2811440671945e-07,2.4673408146321e-06,-0.00021520091232958,-5.120247325157e-09,-1.438368670975e-07,3.4918883725248e-06,-0.00017718819837577,-3.855508305463e-07,3.9386308868188e-06,4.2378264432514e-05,-3.2520244577285e-05,-7.3503118404597e-07,6.0550584466644e-07,1.060067623278e-07,-9.3361713207796e-05,7.0976771508555e-06,-0.00016294733317505,8.053340913412e-07,2.2845250490735e-05,-6.175283946277e-06,-3.4703733774377e-07,4.7126516337987e-07,3.5136333945508e-06,3.9104962864941e-07,-0.00014325215558077,-1.8920553584838e-06,-3.28371796661e-07,7.3747549285437e-06,-5.8418887892274e-05,-7.3286738695147e-08,-8.2436974269287e-08,8.1146516190127e-07,-0.00025982625113944,-4.4189125508804e-07,-3.5722496637512e-07,-5.3823801673153e-06,-7.8599283165494e-07,1.7755606590407e-06,5.1451982738877e-06,732.20211109823,732.20211109823,732.20210299771,732.20210299771,732.20211907208,732.20211877114,732.20210590821,732.20210953734,732.20211595975,732.20211286163,732.20210083069,732.2021055925,732.20210520305,732.20211400878,732.20211174266,732.20210447898,732.20211007338,732.20212037301,732.20211975843,732.2021042902,732.2021070442,732.20211775035,732.20211593699,732.20210520305,732.20210082521,732.20210406461,732.20211678051,732.20211723583,732.20210789691,732.20211172091,732.20211402268,732.20210968283,732.20210177036,732.20210753625,732.20211141354,732.20211368303,732.20211329614,732.20210635685,732.20211102316,732.20211354797,732.20210956457,732.2021036952,732.20210981809,732.20211141354,732.20211390994,732.20211390994,732.2021197961,732.2021197961,7.2097327316583,1104.9830991375,239.38562957298,1162.2988467651,217.39991353246,0
2.49e-05,20010560.293939,1.7116890278715e-06,7.3904337176132e-06,1.5211544933448e-06,1.0000051399429,607.67958058262,607.67958058262,607.67957176567,607.67957176567,607.67958925871,607.6795889314,607.67957493151,607.67957888352,607.67958587287,607.67958249961,607.67956940583,607.67957459096,607.67957416354,607.67958374851,607.67958128137,607.67957337505,607.679579467,607.67959067482,607.67959000586,607.67957317115,607.67957617011,607.67958782127,607.67958584691,607.67957416354,607.67956940039,607.6795729278,607.67958676436,607.67958726063,607.67957709548,607.67958125981,607.67958376503,607.67957903967,607.67957042806,607.67957670649,607.67958092269,607.67958339335,607.67958297256,607.67957541888,607.67958050038,607.6795832477,607.67957891052,607.6795725221,607.67957918936,607.67958092269,607.67958364151,607.67958364151,607.67959004714,607.67959004714,-1.2965392522348e-05,-6.5727807132904e-08,-8.8383244290774e-06,-3.4276977478093e-06,2.8729166481708e-06,4.9016826186479e-05,-2.1509280654471e-05,1.1861931138394e-07,8.4203557657396e-07,2.4724437366883e-07,2.6743878058534e-06,-0.00023314150830374,-5.5499758993393e-09,-1.5589494127954e-07,3.784919439899e-06,-0.00019203447104156,-4.1791866135371e-07,4.2691576702922e-06,4.5924615704313e-05,-3.5251478214367e-05,-7.9666613900194e-07,6.5632838127429e-07,1.1490157908549e-07,-0.00010118632510599,7.693215773377e-06,-0.0001765375367929,8.7293142513619e-07,2.4756662789231e-05,-6.6939305460925e-06,-3.7614779758319e-07,5.1082484706302e-07,3.8082013786953e-06,4.2386820283352e-07,-0.00015519075610465,-2.050626517932e-06,-3.5590679618946e-07,7.9936046852794e-06,-6.3313166080575e-05,-7.9443209715546e-08,-8.9322963203326e-08,8.7956243448555e-07,-0.0002815987157118,-4.7898429255491e-07,-3.8720290368873e-07,-5.8339839011268e-06,-8.5168790587706e-07,1.9245635770473e-06,5.5755711872605e-06,732.20210973063,732.20210973063,732.20210091368,732.20210091368,732.20211840672,732.20211807941,732.20210407952,732.20210803153,732.20211502088,732.20211164762,732.20209855384,732.20210373897,732.20210331155,732.20211289652,732.20211042938,732.20210252306,732.20210861501,732.20211982283,732.20211915387,732.20210231915,732.20210531812,732.20211696928,732.20211499492,732.20210331155,732.2020985484,732.20210207581,732.20211591237,732.20211640864,732.20210624349,732.20211040782,732.20211291304,732.20210818768,732.20209957606,732.2021058545,732.2021100707,732.20211254136,732.20211212057,732.20210456689,732.20210964839,732.20211239571,732.20210805853,732.2021016701,732.20210833737,732.2021100707,732.20211278952,732.20211278952,732.20211919515,732.20211919515,7.8045371696653,1109.3729505561,240.34837077359,1167.0178481694,218.27435842096,0
2.5e-05,20011980.044918,1.7185623142428e-06,7.4201140169068e-06,1.5272650679977e-06,1.0000055851454,607.67957907712,607.67957907712,607.67956948367,607.67956948367,607.67958851379,607.6795881579,607.67957292589,607.67957722817,607.67958483183,607.67958116013,607.67956691464,607.67957255896,607.67957208977,607.6795825194,607.67957983424,607.6795712314,607.67957786308,607.67959005476,607.67958932682,607.67957101137,607.67957427607,607.67958695115,607.67958480216,607.67957208977,607.67956690934,607.67957074916,607.67958579967,607.6795863404,607.67957527974,607.67957981326,607.679582539,607.67957739547,607.67956802624,607.67957486063,607.67957944348,607.67958213226,607.67958167473,607.67957345509,607.67957898699,607.67958197536,607.67957725445,607.67957030349,607.67957756126,607.67957944348,607.67958240362,607.67958240362,607.67958937207,607.67958937207,-1.404064734749e-05,-7.1218266736688e-08,-9.5766767604216e-06,-3.7048832316748e-06,3.1130094870377e-06,5.3101201014496e-05,-2.3308304031784e-05,1.2853586742872e-07,9.1242659092436e-07,2.6789113046657e-07,2.8978732900051e-06,-0.0002524869010177,-6.0138289513066e-09,-1.6890935868779e-07,4.1012167401444e-06,-0.00020805557381369,-4.5285764325202e-07,4.6259296908888e-06,4.9751550551499e-05,-3.8199711671671e-05,-8.6319080599142e-07,7.111869847342e-07,1.245025847445e-07,-0.00010963042504125,8.3360318610504e-06,-0.00019119286834519,9.4589747580601e-07,2.6819269921324e-05,-7.253789713864e-06,-4.0756853986489e-07,5.5352683349374e-07,4.1261047547128e-06,4.5929272161591e-07,-0.00016806352775044,-2.2217566769272e-06,-3.8562627176808e-07,8.6615883361555e-06,-6.8594657402879e-05,-8.6088898475409e-08,-9.6750656137186e-08,9.5306662216018e-07,-0.00030509443496713,-5.1902350132428e-07,-4.1956089756485e-07,-6.3214382239962e-06,-9.2257246741168e-07,2.0853980098652e-06,6.0399727681367e-06,732.20210824932,732.20210824932,732.20209865587,732.20209865587,732.20211768599,732.2021173301,732.2021020981,732.20210640037,732.20211400403,732.20211033233,732.20209608684,732.20210173116,732.20210126197,732.20211169161,732.20210900644,732.2021004036,732.20210703528,732.20211922696,732.20211849903,732.20210018357,732.20210344828,732.20211612335,732.20211397436,732.20210126197,732.20209608154,732.20209992136,732.20211497187,732.2021155126,732.20210445195,732.20210898546,732.2021117112,732.20210656767,732.20209719844,732.20210403283,732.20210861568,732.20211130447,732.20211084694,732.2021026273,732.20210815919,732.20211114756,732.20210642666,732.20209947569,732.20210673347,732.20210861568,732.20211157582,732.20211157582,732.20211854428,732.20211854428,8.4446360133799,1113.7550646276,241.3110908296,1171.7368176557,219.14878551584,0
2.51e-05,20013538.427465,1.7254355878364e-06,7.4497943154783e-06,1.5333756710472e-06,1.0000060664227,607.67957744661,607.67957744661,607.67956701183,607.67956701183,607.67958770676,607.67958731991,607.67957075312,607.67957543525,607.6795837043,607.679579709,607.67956421593,607.67957035821,607.67956984303,607.67958118797,607.67957826641,607.67956890892,607.67957612591,607.67958938302,607.67958859116,607.67956867171,607.6795722246,607.67958600868,607.67958367035,607.67956984303,607.67956421088,607.67956838949,607.67958475451,607.67958534349,607.67957331259,607.67957824649,607.67958121115,607.67957561419,607.67956542426,607.67957286152,607.67957784086,607.67958076606,607.67958026874,607.67957132746,607.67957734781,607.67958059722,607.67957546023,607.67956789981,607.67957579795,607.67957784086,607.67958106273,607.67958106273,607.67958864078,607.67958864078,-1.5199560009841e-05,-7.7142603188829e-08,-1.0373388611146e-05,-4.0025666392703e-06,3.372087902911e-06,5.7507337855308e-05,-2.5249682603648e-05,1.392369325468e-07,9.8838573848555e-07,2.9016796261648e-07,3.1390286305383e-06,-0.00027333919658879,-6.5143632825072e-09,-1.8295168042266e-07,4.4425232114407e-06,-0.00022533886043839,-4.9056049292294e-07,5.0109134445643e-06,5.3879985339586e-05,-4.1381204449552e-05,-9.3497117379352e-07,7.7038407122152e-07,1.3486268545925e-07,-0.00011874012137951,9.0296664389987e-06,-0.00020699090401966,1.0246345991331e-06,2.9044339450282e-05,-7.8579506759729e-06,-4.4147254969831e-07,5.9960667441972e-07,4.4690825246408e-06,4.9751841478427e-07,-0.00018193826299954,-2.4063817936381e-06,-4.1769373839215e-07,9.3823865009718e-06,-7.429213891891e-05,-9.3260461177953e-08,-1.0475985252478e-07,1.0323827800179e-06,-0.00033044159393949,-5.6222969334269e-07,-4.5447720061553e-07,-6.8474283533514e-06,-9.9903246536528e-07,2.2589504890515e-06,6.5409370332268e-06,732.20210664537,732.20210664537,732.20209621059,732.20209621059,732.20211690551,732.20211651867,732.20209995188,732.202104634,732.20211290305,732.20210890775,732.20209341469,732.20209955696,732.20209904179,732.20211038673,732.20210746517,732.20209810767,732.20210532467,732.20211858177,732.20211778992,732.20209787047,732.20210142335,732.20211520744,732.2021128691,732.20209904179,732.20209340964,732.20209758825,732.20211395327,732.20211454224,732.20210251134,732.20210744524,732.20211040991,732.20210481294,732.20209462301,732.20210206028,732.20210703961,732.20210996482,732.2021094675,732.20210052622,732.20210654656,732.20210979598,732.20210465898,732.20209709857,732.2021049967,732.20210703961,732.20211026148,732.20211026148,732.20211783953,732.20211783953,9.1330947651183,1118.128845027,242.27378965987,1176.455729816,220.0231947789,0
2.52e-05,20015245.842156,1.7323088482331e-06,7.4794746133777e-06,1.5394863038104e-06,1.0000065864553,607.67957568136,607.67957568136,607.67956433531,607.67956433531,607.67958683273,607.67958641235,607.67956840006,607.67957349401,607.67958248354,607.67957813743,607.67956129341,607.67956797552,607.67956740972,607.67957974619,607.67957656838,607.6795663935,607.67957424507,607.67958865554,607.6795877944,607.67956613806,607.67957000338,607.67958498823,607.67958244463,607.67956740972,607.67956128876,607.67956583466,607.67958362255,607.67958426388,607.67957118209,607.67957655009,607.67957977356,607.67957368503,607.67956260637,607.67957069723,607.6795761051,607.67957928648,607.67957874606,607.67956902308,607.679575573,607.67957910502,607.67957351695,607.67956529647,607.67957388886,607.6795761051,607.67957961077,607.67957961077,607.67958784883,607.67958784883,-1.6448155811634e-05,-8.3533156175928e-08,-1.1232812090496e-05,-4.322063122601e-06,3.651568568953e-06,6.225911763307e-05,-2.7344040048442e-05,1.5078108375497e-07,1.0703286688044e-06,3.1419608274586e-07,3.3991719334188e-06,-0.00029580722215865,-7.0543158772896e-09,-1.980985040025e-07,4.8107045897004e-06,-0.00024397773173676,-5.3123351421713e-07,5.4262140465707e-06,5.8332298612327e-05,-4.4813358701577e-05,-1.0123989948194e-06,8.3424336721321e-07,1.4603851653016e-07,-0.00012856472163485,9.7779099520968e-06,-0.00022401435113309,1.1095735183975e-06,3.1443926244695e-05,-8.5097200368209e-06,-4.7804499316604e-07,6.4931653622325e-07,4.8389946957101e-06,5.3875426683729e-07,-0.00019688719990458,-2.605503003516e-06,-4.522842238053e-07,1.0159939108046e-05,-8.0436377577374e-05,-1.0099713330221e-07,-1.1339303931686e-07,1.1179445017329e-06,-0.00035777725974915,-6.0883924950126e-07,-4.9214261234102e-07,-7.4148286663711e-06,-1.0814807205668e-06,2.4461700437553e-06,7.0811747882925e-06,732.2021049092,732.2021049092,732.20209356316,732.20209356316,732.20211606057,732.2021156402,732.20209762791,732.20210272186,732.20211171138,732.20210736527,732.20209052126,732.20209720337,732.20209663757,732.20210897403,732.20210579623,732.20209562135,732.20210347292,732.20211788339,732.20211702225,732.2020953659,732.20209923123,732.20211421607,732.20211167248,732.20209663757,732.2020905166,732.2020950625,732.2021128504,732.20211349173,732.20210040994,732.20210577794,732.2021090014,732.20210291288,732.20209183421,732.20209992508,732.20210533295,732.20210851433,732.20210797391,732.20209825093,732.20210480085,732.20210833287,732.2021027448,732.20209452432,732.20210311671,732.20210533295,732.20210883862,732.20210883862,732.20211707668,732.20211707668,9.8731437130324,1122.4936561719,243.2364671779,1181.1745576127,220.89758616589,0
2.53e-05,20017113.376955,1.7391820949847e-06,7.5091549106486e-06,1.5455969678505e-06,1.0000071480979,607.6795737709,607.6795737709,607.67956143816,607.67956143816,607.67958588645,607.67958542977,607.67956585259,607.67957139293,607.67958116229,607.67957643599,607.67955812959,607.6795653968,607.6795647752,607.67957818543,607.67957472993,607.67956367003,607.67957220941,607.67958786797,607.67958693176,607.67956339524,607.67956759921,607.6795838837,607.67958111766,607.6795647752,607.6795581255,607.67956306948,607.67958239698,607.67958309509,607.67956887545,607.679574714,607.67957821769,607.67957159641,607.67955955567,607.67956835493,607.67957422576,607.67957768465,607.67957709756,607.67956652808,607.67957365202,607.67957748988,607.67957141294,607.67956247782,607.67957182268,607.67957422576,607.67957803908,607.67957803908,607.67958699149,607.67958699149,-1.7792850419325e-05,-9.0424530445003e-08,-1.2159604511108e-05,-4.6647466206266e-06,3.9529676049622e-06,6.7382082941967e-05,-2.96027480975e-05,1.6323101319377e-07,1.1587002243974e-06,3.4010514479575e-07,3.6797137622792e-06,-0.00032000690268821,-7.6366157962098e-09,-2.1443179567942e-07,5.2077575157426e-06,-0.00026407202521459,-5.7509749547843e-07,5.8740843889055e-06,6.3132426079129e-05,-4.8514801223856e-05,-1.095893483467e-06,9.0311131673294e-07,1.5809068828294e-07,-0.00013915693941588,1.0584818692459e-05,-0.00024235133945749,1.2011751999088e-06,3.4030923651131e-05,-9.2126372025063e-06,-5.1748402228958e-07,7.029263003322e-07,5.2378300987808e-06,5.8322392384553e-07,-0.00021298726874629,-2.8201908297773e-06,-4.8958502866357e-07,1.0998462514013e-05,-8.7060257915737e-05,-1.0934089875603e-07,-1.2269555200299e-07,1.2102158037566e-06,-0.00038724795538577,-6.5910514830565e-07,-5.32761317937e-07,-8.0267151884875e-06,-1.1703586625268e-06,2.6480723282617e-06,7.6635850404263e-06,732.20210303057,732.20210303057,732.20209069782,732.20209069782,732.20211514611,732.20211468944,732.20209511226,732.20210065259,732.20211042196,732.20210569565,732.20208738925,732.20209465646,732.20209403487,732.2021074451,732.20210398959,732.20209292969,732.20210146907,732.20211712763,732.20211619142,732.20209265491,732.20209685888,732.20211314337,732.20211037732,732.20209403487,732.20208738517,732.20209232915,732.20211165665,732.20211235476,732.20209813512,732.20210397366,732.20210747736,732.20210085608,732.20208881534,732.20209761459,732.20210348543,732.20210694431,732.20210635722,732.20209578775,732.20210291169,732.20210674954,732.20210067261,732.20209173749,732.20210108234,732.20210348543,732.20210729875,732.20210729875,732.20211625116,732.20211625116,10.668181453116,1126.8488211182,244.19912328776,1185.8932712301,221.77195963803,0
2.54e-05,20019152.84221,1.7460553276544e-06,7.5388352073473e-06,1.5517076646571e-06,1.0000077543874,607.67957170403,607.67957170403,607.67955830326,607.67955830326,607.67958486228,607.6795843663,607.67956309557,607.67956911962,607.67957973281,607.67957459455,607.67955470568,607.67956260688,607.67956192378,607.67957649646,607.6795727401,607.67956072225,607.67957000694,607.6795870156,607.67958599807,607.679560427,607.67956499793,607.6795826886,607.67957968153,607.67956192378,607.67955470238,607.67956007771,607.67958107049,607.67958183019,607.67956637894,607.67957272738,607.67957653442,607.6795693359,607.67955625405,607.67956582088,607.67957219163,607.67957595103,607.67957531342,607.67956382758,607.67957157356,607.67957574226,607.67956913563,607.67955942705,607.67956958727,607.67957219163,607.67957633836,607.67957633836,607.67958606367,607.67958606367,-1.9240471201878e-05,-9.785374496102e-08,-1.3158748605327e-05,-5.0320540046621e-06,4.2779071244724e-06,7.2903546003224e-05,-3.2037969642684e-05,1.766538021969e-07,1.253976361093e-06,3.6803379011787e-07,3.9821632539467e-06,-0.00034606165573429,-8.2643968110438e-09,-2.3203924295944e-07,5.6358181342748e-06,-0.00028572840931769,-6.2238866350567e-07,6.3569348742072e-06,6.8305962041078e-05,-5.2505453497663e-05,-1.185903131412e-06,9.7735857550175e-07,1.7108404862542e-07,-0.00015057310472866,1.145473240313e-05,-0.00026209572702479,1.2999328418247e-06,3.6819117788909e-05,-9.9704880502863e-06,-5.6000162512387e-07,7.6072472873815e-07,5.6677144880764e-06,6.3116666143347e-07,-0.00023032035025783,-3.0515895877559e-06,-5.2979653267582e-07,1.1902467659838e-05,-9.4198911582533e-05,-1.1833667006721e-07,-1.3271574431046e-07,1.3096931240161e-06,-0.00041901024015513,-7.1329805929757e-07,-5.7655174927758e-07,-8.6863788347421e-06,-1.2661381564705e-06,2.8657440145948e-06,8.2912672902345e-06,732.20210099845,732.20210099845,732.20208759767,732.20208759767,732.20211415669,732.20211366072,732.20209238999,732.20209841404,732.20210902722,732.20210388896,732.20208400009,732.20209190129,732.2020912182,732.20210579088,732.20210203451,732.20209001666,732.20209930136,732.20211631002,732.20211529249,732.20208972142,732.20209429234,732.20211198302,732.20210897594,732.2020912182,732.20208399679,732.20208937213,732.2021103649,732.2021111246,732.20209567335,732.2021020218,732.20210582884,732.20209863031,732.20208554846,732.20209511529,732.20210148604,732.20210524544,732.20210460784,732.20209312199,732.20210086797,732.20210503668,732.20209843005,732.20208872147,732.20209888168,732.20210148604,732.20210563277,732.20210563277,732.20211535808,732.20211535808,11.52177767298,1131.1936203124,245.16175789223,1190.6118394505,222.64631514515,0
2.55e-05,20021376.806135,1.7529285457234e-06,7.568515503532e-06,1.5578183959169e-06,1.000008408552,607.67956946874,607.67956946874,607.67955491227,607.67955491227,607.67958375418,607.67958321566,607.67956011276,607.67956666084,607.67957818675,607.67957260225,607.67955100155,607.67955958955,607.67955883861,607.67957466937,607.67957058712,607.67955753272,607.67956762485,607.67958609342,607.67958498782,607.6795572159,607.67956218436,607.67958139594,607.67957812779,607.67955883861,607.6795509993,607.67955684191,607.67957963524,607.6795804617,607.6795636778,607.67957057866,607.67957471397,607.67956689013,607.67955268203,607.67956308037,607.67956999066,607.67957407541,607.67957338313,607.6795609056,607.67956932547,607.67957385197,607.67956667155,607.67955612612,607.67956716962,607.67956999066,607.67957449864,607.67957449864,607.67958505988,607.67958505988,-2.0798278914703e-05,-1.0586038988352e-07,-1.423557357695e-05,-5.4254814308921e-06,4.6281221806463e-06,7.8852702018851e-05,-3.4662714180718e-05,1.9112120848704e-07,1.3566661905961e-06,3.9813022440103e-07,4.3081345075681e-06,-0.00037410279489053,-8.9410108116765e-09,-2.5101462906718e-07,6.097171234337e-06,-0.00030906081548417,-6.7335969456558e-07,6.8773437364726e-06,7.3880265264909e-05,-5.6806622518986e-05,-1.2829076032436e-06,1.0573815936825e-06,1.8508796026309e-07,-0.00016287339396364,1.2392292619768e-05,-0.00028334741352334,1.406373990078e-06,3.9823244881901e-05,-1.0787322063012e-05,-6.0582453406703e-07,8.2302070475394e-07,6.1309192620278e-06,6.8283840078904e-07,-0.00024897353870767,-3.300922063594e-06,-5.7313305115047e-07,1.2876779376576e-05,-0.00010188985883032,-1.2803247868199e-07,-1.435051643451e-07,1.4169074458432e-06,-0.00045323134644709,-7.7170750217579e-07,-6.2374752597631e-07,-9.3973394975708e-06,-1.369323458053e-06,3.1003474451192e-06,8.9675341336064e-06,732.20209880105,732.20209880105,732.20208424457,732.20208424457,732.20211308648,732.20211254796,732.20208944506,732.20209599315,732.20210751905,732.20210193455,732.20208033386,732.20208892185,732.20208817091,732.20210400167,732.20209991942,732.20208686503,732.20209695715,732.20211542572,732.20211432013,732.2020865482,732.20209151666,732.20211072824,732.20210746009,732.20208817091,732.2020803316,732.20208617421,732.20210896755,732.202109794,732.2020930101,732.20209991096,732.20210404627,732.20209622243,732.20208201433,732.20209241267,732.20209932297,732.20210340771,732.20210271543,732.2020902379,732.20209865777,732.20210318427,732.20209600385,732.20208545842,732.20209650192,732.20209932297,732.20210383094,732.20210383094,732.20211439218,732.20211439218,12.437675176177,1135.5272884261,246.12437088204,1195.3302286142,223.5206526354,0
2.56e-05,20023798.630543,1.7598017486577e-06,7.5981957992642e-06,1.5639291634255e-06,1.0000091140189,607.67956705218,607.67956705218,607.67955124554,607.67955124554,607.67958255564,607.6795819711,607.67955688673,607.67956400238,607.67957651519,607.67957044743,607.67954699562,607.67955632742,607.67955550159,607.67957269353,607.67956825836,607.67955408275,607.67956504938,607.67958509603,607.67958389508,607.67955374321,607.67955914223,607.67957999823,607.67957644734,607.67955550159,607.67954699472,607.6795533434,607.67957808282,607.67957898163,607.67956075622,607.67956825541,607.67957274584,607.6795642448,607.67954881875,607.67956011764,607.67956760996,607.67957204683,607.67957129538,607.679557745,607.67956689476,607.67957180806,607.67956400623,607.67955255567,607.67956455582,607.67956760996,607.67957250923,607.67957250923,607.67958397427,607.67958397427,-2.2473990525886e-05,-1.144867936391e-07,-1.5395777844359e-05,-5.8465837655648e-06,5.0054681392216e-06,8.5260750207544e-05,-3.7490892061344e-05,2.0670997096719e-07,1.46731414579e-06,4.3055282704786e-07,4.65935346501e-06,-0.00040426995438988,-9.6700420261568e-09,-2.7145823007356e-07,6.5942599328446e-06,-0.00033419088572918,-7.2828078808205e-07,7.438067999459e-06,7.988457264876e-05,-6.144108928983e-05,-1.3874197826355e-06,1.143604299311e-06,2.001765955725e-07,-0.00017612206838647,1.3402462472793e-05,-0.0003062126704321,1.5210627790152e-06,4.3059052142455e-05,-1.1667469280047e-05,-6.5519518551229e-07,8.9014454791716e-07,6.6298705674857e-06,7.3851279808171e-07,-0.00026903941871558,-3.5694944690531e-06,-6.1982374338959e-07,1.3926556831215e-05,-0.0001101731552378,-1.3847967708055e-07,-1.5511874091806e-07,1.5324265488461e-06,-0.00049008983927021,-8.3464307775501e-07,-6.7459844187639e-07,-1.0163360958504e-05,-1.4804532599495e-06,3.3531255749446e-06,9.6959250025118e-06,732.20209642599,732.20209642599,732.20208061936,732.20208061936,732.20211192946,732.20211134492,732.20208626055,732.2020933762,732.20210588901,732.20209982125,732.20207636944,732.20208570124,732.20208487541,732.20210206734,732.20209763218,732.20208345657,732.2020944232,732.20211446985,732.20211326889,732.20208311703,732.20208851605,732.20210937205,732.20210582116,732.20208487541,732.20207636854,732.20208271722,732.20210745664,732.20210835545,732.20209013004,732.20209762923,732.20210211966,732.20209361862,732.20207819257,732.20208949146,732.20209698378,732.20210142065,732.2021006692,732.20208711882,732.20209626858,732.20210118187,732.20209338005,732.20208192949,732.20209392963,732.20209698378,732.20210188305,732.20210188305,732.20211334809,732.20211334809,13.419790643821,1139.8490131763,247.08696214201,1200.0484022571,224.39497205436,0
2.57e-05,20026432.50665,1.7666749358915e-06,7.6278760946105e-06,1.5700399690968e-06,1.0000098744234,607.67956444056,607.67956444056,607.67954728201,607.67954728201,607.67958125972,607.67958062538,607.67955339879,607.67956112903,607.6795747086,607.67956811759,607.67954266473,607.6795528019,607.67955189335,607.67957055753,607.67956574029,607.67955035227,607.67956226582,607.67958401764,607.67958271346,607.6795499889,607.67955585412,607.67957848747,607.67957463044,607.67955189335,607.67954266554,607.67954956218,607.6795764042,607.6795773814,607.67955759724,607.67956574433,607.67957061881,607.67956138455,607.67954464185,607.67955691581,607.67956503567,607.67956985353,607.67956903807,607.67955432739,607.67956426752,607.67956959881,607.67956112417,607.67954869494,607.67956173093,607.67956503567,607.67957035868,607.67957035868,607.67958280056,607.67958280056,-2.4275802519961e-05,-1.2377820007789e-07,-1.664545296047e-05,-6.296971522482e-06,5.4119285012776e-06,9.2161021413256e-05,-4.0537372442686e-05,2.2350213676806e-07,1.5865022786947e-06,4.654707992957e-07,5.0376651575938e-06,-0.0004367115210526,-1.0455322112165e-08,-2.9347723621878e-07,7.1296959537793e-06,-0.00036124844452771,-7.8744080573283e-07,8.0420551042195e-06,8.6350118759463e-05,-6.643320349344e-05,-1.4999879223093e-06,1.2364798814148e-06,2.1642924952932e-07,-0.00019038772641287,1.449054751974e-05,-0.00033080447612285,1.6446023111307e-06,4.6543362112181e-05,-1.2615558373454e-05,-7.0837273773903e-07,9.6244940968785e-07,7.1671589669855e-06,7.9848239418237e-07,-0.00029061634720902,-3.8587016508988e-06,-6.7011357644883e-07,1.5057315234113e-05,-0.00011909154621638,-1.4973315302658e-07,-1.6761497754347e-07,1.6568573978316e-06,-0.00052977631235022,-9.0243577399603e-07,-7.2937151105602e-07,-1.0988466724483e-05,-1.6001028651949e-06,3.625407216607e-06,1.0480220497764e-05,732.20209385979,732.20209385979,732.20207670125,732.20207670125,732.20211067896,732.20211004462,732.20208281803,732.20209054827,732.20210412784,732.20209753683,732.20207208396,732.20208222114,732.20208131259,732.20209997677,732.20209515953,732.20207977151,732.20209168506,732.20211343688,732.2021121327,732.20207940813,732.20208527336,732.20210790671,732.20210404968,732.20208131259,732.20207208478,732.20207898142,732.20210582343,732.20210680063,732.20208701648,732.20209516357,732.20210003805,732.20209080378,732.20207406109,732.20208633504,732.2020944549,732.20209927276,732.20209845731,732.20208374663,732.20209368676,732.20209901804,732.20209054341,732.20207811418,732.20209115017,732.2020944549,732.20209977792,732.20209977792,732.2021122198,732.2021122198,14.472214458786,1144.1579331571,248.04953154822,1204.7663216297,225.26927334209,0
2.58e-05,20029293.490647,1.7735481068226e-06,7.6575563896424e-06,1.5761508149787e-06,1.0000106936167,607.67956161915,607.67956161915,607.67954299912,607.67954299912,607.67957985894,607.67957917073,607.67954962894,607.6795580245,607.67957275673,607.67956559933,607.67953798407,607.67954899306,607.6795479931,607.6795682492,607.67956301838,607.67954631975,607.67955925841,607.67958285205,607.67958143616,607.67954593147,607.67955230139,607.67957685506,607.67957266666,607.6795479931,607.67953798704,607.67954547685,607.67957458969,607.67957565181,607.67955418268,607.67956303118,607.67956832088,607.6795582929,607.67954012734,607.67955345682,607.67956225293,607.67956748291,607.67956659821,607.67955063307,607.67956142883,607.67956721167,607.67955800873,607.67954452167,607.67955867901,607.67956225293,607.67956803473,607.67956803473,607.67958153199,607.67958153199,-2.6212415071656e-05,-1.3378295607483e-07,-1.7991109022903e-05,-6.7783099612205e-06,5.8496232000908e-06,9.9589113228253e-05,-4.3818045198824e-05,2.4158540453363e-07,1.7148526984003e-06,5.0306484566432e-07,5.4450414015374e-06,-0.00047158509302801,-1.1300946158186e-08,-3.1718619879963e-07,7.7062705276522e-06,-0.00039037199595038,-8.5114847932682e-07,8.6924552405584e-06,9.3310262468438e-05,-7.1808984464821e-05,-1.6211979309447e-06,1.3364926817167e-06,2.3393067142582e-07,-0.00020574356902913,1.5662217872664e-05,-0.00035724287729089,1.7776371806912e-06,5.0294140750696e-05,-1.3636535957856e-05,-7.6563415213759e-07,1.0403127544215e-06,7.7455495839076e-06,8.6305983512156e-07,-0.00031380874942362,-4.1700325967383e-06,-7.242643474015e-07,1.6274948855753e-05,-0.00012869062973902,-1.6185155653652e-07,-1.8105615567375e-07,1.7908486759699e-06,-0.00057249412143598,-9.7543935100005e-07,-7.8835207892967e-07,-1.1876956818991e-05,-1.7288864818701e-06,3.9186126017158e-06,1.132445758225e-05,732.20209108799,732.20209108799,732.20207246796,732.20207246796,732.20210932778,732.20210863957,732.20207909777,732.20208749334,732.20210222557,732.20209506817,732.20206745291,732.2020784619,732.20207746194,732.20209771803,732.20209248722,732.20207578859,732.20208872725,732.20211232089,732.202110905,732.20207540031,732.20208177023,732.2021063239,732.2021021355,732.20207746194,732.20206745588,732.20207494568,732.20210405853,732.20210512065,732.20208365151,732.20209250001,732.20209778972,732.20208776174,732.20206959618,732.20208292566,732.20209172177,732.20209695175,732.20209606705,732.20208010191,732.20209089767,732.20209668051,732.20208747756,732.20207399051,732.20208814785,732.20209172177,732.20209750357,732.20209750357,732.20211100083,732.20211100083,15.599209030386,1148.4531359256,249.01207896803,1209.4839450672,226.14355643491,0
2.59e-05,20032397.538769,1.7804212608117e-06,7.6872366844364e-06,1.5822617032607e-06,1.0000115756741,607.6795585722,607.6795585722,607.67953837272,607.67953837272,607.67957834531,607.67957759884,607.6795455557,607.67955467135,607.67957064866,607.67956287828,607.67953292709,607.67954487961,607.67954377855,607.67956575544,607.67956007706,607.67954196215,607.67955601029,607.67958159262,607.67958005584,607.67954154791,607.67954846406,607.67957509181,607.6795705448,607.67954377855,607.67953293273,607.67954106449,607.67957262893,607.67957378301,607.67955049303,607.6795601007,607.6795658392,607.67955495223,607.67953524954,607.67954972136,607.67955924583,607.67956492147,607.6795639619,607.67954664089,607.67955836274,607.67956463322,607.67955464207,607.67954001201,607.67955538296,607.67955924583,607.67956552423,607.67956552423,607.67958016136,607.67958016136,-2.8293056807811e-05,-1.4455271041467e-07,-1.9439701613431e-05,-7.2923147902768e-06,6.3208174003542e-06,0.00010758303290156,-4.7349886269692e-05,2.6105349043596e-07,1.8530301564293e-06,5.4352789585628e-07,5.8835889559902e-06,-0.00050905794314904,-1.2211289650985e-08,-3.4270750399647e-07,8.3269659473187e-06,-0.00042170924566359,-9.1973369180499e-07,9.3926344260671e-06,0.00010080062088332,-7.759622781706e-05,-1.751675796305e-06,1.4441602001009e-06,2.5277141679574e-07,-0.00022226767913031,1.6923531656017e-05,-0.00038565535096235,1.9208561500709e-06,5.4330569436835e-05,-1.4735686980084e-05,-8.2727533838868e-07,1.1241379300466e-06,8.367992813549e-06,9.3257916591533e-07,-0.00033872741970556,-4.5050762367239e-06,-7.825557672813e-07,1.7585755429557e-05,-0.00013901902707254,-1.748975402823e-07,-1.955085470412e-07,1.9350934705266e-06,-0.00061846015488557,-1.0540318099716e-06,-8.5184499885033e-07,-1.2833425584499e-05,-1.8674596461296e-06,4.2342592804477e-06,1.2232945635611e-05,732.20208809512,732.20208809512,732.20206789564,732.20206789564,732.20210786822,732.20210712175,732.20207507861,732.20208419427,732.20210017158,732.2020924012,732.20206245,732.20207440253,732.20207330147,732.20209527836,732.20208959998,732.20207148507,732.2020855332,732.20211111554,732.20210957876,732.20207107083,732.20207798698,732.20210461473,732.20210006772,732.20207330147,732.20206245565,732.20207058741,732.20210215185,732.20210330593,732.20208001595,732.20208962362,732.20209536212,732.20208447515,732.20206477246,732.20207924428,732.20208876875,732.20209444439,732.20209348482,732.20207616381,732.20208788566,732.20209415614,732.20208416499,732.20206953493,732.20208490588,732.20208876875,732.20209504714,732.20209504714,732.20210968428,732.20210968428,16.805205583312,1152.7336561466,249.97460425902,1214.2012279145,227.01782126418,0
2.6e-05,20035761.541497,1.7872943972352e-06,7.7169169790754e-06,1.5883726366742e-06,1.0000125249025,607.67955528285,607.67955528285,607.67953337699,607.67953337699,607.67957671024,607.67957590078,607.6795411561,607.67955105095,607.67956837269,607.67955993907,607.67952746533,607.67954043877,607.67953922584,607.67956306228,607.67955689966,607.67953725475,607.67955250343,607.67958023222,607.67957856466,607.6795368136,607.67954432079,607.6795731879,607.67956825287,607.67953922584,607.67952747425,607.67953630063,607.6795705108,607.67957176444,607.67954650743,607.6795569366,607.67956316003,607.67955134362,607.67952998093,607.67954568879,607.67955599731,607.67956215476,607.67956111423,607.67954232823,607.6795550522,607.6795618491,607.67955100509,607.6795351404,607.67955182454,607.67955599731,607.67956281312,607.67956281312,607.67957868092,607.67957868092,-3.0527510219768e-05,-1.5614262448208e-07,-2.0998660351268e-05,-7.8407470710331e-06,6.8279308277476e-06,0.00011618334841092,-5.1151026923852e-05,2.8200651614034e-07,2.0017447880605e-06,5.8706586688995e-07,6.3555581690987e-06,-0.00054930749632532,-1.3191026447125e-08,-3.7017187522265e-07,8.9949678159355e-06,-0.00045541764904169,-9.9354883532898e-07,1.0146188373774e-05,0.00010885921092975,-8.3824618397155e-05,-1.8920901537152e-06,1.5600352203926e-06,2.7304822061225e-07,-0.00024004331513786,1.8280959868236e-05,-0.00041617717885225,2.0749949874537e-06,5.8673121070593e-05,-1.5918656333404e-05,-8.9361236843134e-07,1.2143558336676e-06,9.0376355947055e-06,1.0073972017938e-06,-0.00036548983060397,-4.8655275565268e-06,-8.4528661031556e-07,1.8996462017008e-05,-0.00015012856192837,-1.8893801425407e-07,-2.1104263545763e-07,2.0903321193683e-06,-0.00066790564322133,-1.1386169506635e-06,-9.201758788791e-07,-1.3862780552571e-05,-2.0165217795174e-06,4.5739683769955e-06,1.3210283410104e-05,732.20208487505,732.20208487505,732.20206296919,732.20206296919,732.20210630244,732.20210549297,732.2020707483,732.20208064315,732.20209796488,732.20208953127,732.20205705752,732.20207003096,732.20206881803,732.20209265447,732.20208649186,732.20206684695,732.20208209562,732.20210982442,732.20210815686,732.20206640579,732.20207391299,732.2021027801,732.20209784507,732.20206881803,732.20205706645,732.20206589282,732.202100103,732.20210135664,732.20207609963,732.2020865288,732.20209275222,732.20208093582,732.20205957312,732.20207528099,732.20208558951,732.20209174696,732.20209070642,732.20207192042,732.2020846444,732.20209144129,732.20208059729,732.20206473259,732.20208141674,732.20208558951,732.20209240531,732.20209240531,732.20210827312,732.20210827312,18.094799177215,1156.9984737838,250.93710726967,1218.9181223314,227.89206775695,0
2.61e-05,20039403.35652,1.7941675152653e-06,7.7465972736462e-06,1.594483616958e-06,1.0000135458478,607.67955173311,607.67955173311,607.67952798429,607.67952798429,607.67957494457,607.67957406699,607.67953640556,607.67954714337,607.6795659163,607.67955676521,607.67952156835,607.6795356462,607.67953430939,607.67956015474,607.67955346831,607.6795321711,607.67954871856,607.67957876322,607.67957695422,607.67953170215,607.67953984875,607.67957113281,607.67956577804,607.67953430939,607.67952158127,607.67953115906,607.6795682234,607.6795695848,607.67954220352,607.67955352144,607.67956026868,607.67954744684,607.67952429205,607.67954133705,607.6795524891,607.6795591673,607.67955803923,607.67953767081,607.67955147895,607.67955884392,607.67954707732,607.67952987945,607.67954798423,607.6795524891,607.67955988635,607.67955988635,607.67957708239,607.67957708239,-3.2926137978538e-05,-1.6861159153969e-07,-2.2675919163918e-05,-8.4254111118515e-06,7.3735476562222e-06,0.00012543334818256,-5.524082519072e-05,3.0455141975978e-07,2.1617550211564e-06,6.3389843351911e-07,6.8633521434224e-06,-0.00059252183626825,-1.4245147885571e-08,-3.9971890534135e-07,9.7136780308184e-06,-0.00049166483057674,-1.0729702504601e-06,1.0956957189381e-05,0.00011752659903877,-9.0525846945284e-05,-2.043155010128e-06,1.6847080632641e-06,2.9486439242725e-07,-0.00025915915611924,1.9741412736881e-05,-0.00044895184989892,2.2408394741375e-06,6.3343640517181e-05,-1.7191471029764e-05,-9.6498276334078e-07,1.3114266836933e-06,9.7578318469697e-06,1.087894981822e-06,-0.0003942204573443,-5.2531930603042e-06,-9.1277593123281e-07,2.0514252426013e-05,-0.00016207439483825,-2.040444151188e-07,-2.2773334865214e-07,2.2573552288533e-06,-0.00072107679516832,-1.2296260218947e-06,-9.9369235938167e-07,-1.497026244698e-05,-2.1768188880852e-06,4.939471219631e-06,1.426137694118e-05,732.20208141348,732.20208141348,732.20205766466,732.20205766466,732.20210462494,732.20210374736,732.20206608593,732.20207682374,732.20209559667,732.20208644558,732.20205124872,732.20206532657,732.20206398976,732.20208983512,732.20208314869,732.20206185147,732.20207839893,732.2021084436,732.20210663459,732.20206138252,732.20206952912,732.20210081318,732.20209545841,732.20206398976,732.20205126164,732.20206083943,732.20209790377,732.20209926517,732.20207188389,732.20208320182,732.20208994905,732.20207712721,732.20205397243,732.20207101743,732.20208216947,732.20208884767,732.2020877196,732.20206735119,732.20208115932,732.20208852429,732.20207675769,732.20205955982,732.20207766461,732.20208216947,732.20208956672,732.20208956672,732.20210676276,732.20210676276,19.472741728729,1161.2465125638,251.89958783628,1223.634577063,228.76629583284,0
2.62e-05,20043341.840034,1.8010406141778e-06,7.7762775682474e-06,1.6005946470937e-06,1.0000146433012,607.67954790374,607.67954790374,607.67952216508,607.67952216508,607.67957303846,607.67957208725,607.67953127773,607.6795429273,607.67956326613,607.67955333907,607.67951520357,607.67953047589,607.67952900183,607.67955701682,607.67954976388,607.67952668284,607.67954463508,607.67957717747,607.67957521549,607.67952618535,607.67953502353,607.6795689153,607.67956310655,607.67952900183,607.67951522132,607.6795256118,607.67956575396,607.67956723198,607.67953755736,607.67954983659,607.67955714948,607.6795432402,607.67951815139,607.67953664258,607.67954870164,607.67955594252,607.67955471982,607.67953264269,607.67954762349,607.67955560128,607.67954283683,607.67952419984,607.67954384118,607.67954870164,607.67955672783,607.67955672783,607.67957535689,607.67957535689,-3.5499909458852e-05,-1.8202247718701e-07,-2.4479948332184e-05,-9.0481474140994e-06,7.9604269909732e-06,0.00013537920972331,-5.9639943970583e-05,3.2880239495528e-07,2.3338706597816e-06,6.8425986943928e-07,7.4095364391994e-06,-0.00063890019785783,-1.5378982675087e-08,-4.3149762144621e-07,1.048672825124e-05,-0.00053062941576329,-1.1583997517184e-06,1.1829040955801e-05,0.00012684605918077,-9.7733734614254e-05,-2.2056326258716e-06,1.8188089760951e-06,3.1833023562138e-07,-0.00027970970736642,2.1312267618712e-05,-0.0004841314454545,2.4192285925033e-06,6.8365429526615e-05,-1.8560565519015e-05,-1.0417468187246e-06,1.4158418901743e-06,1.0532156081381e-05,1.1744793080351e-06,-0.00042505109759808,-5.6699990279831e-06,-9.8536435927256e-07,2.2146795577939e-05,-0.00017491529985037,-2.2029299188657e-07,-2.4566030010441e-07,2.4370068162502e-06,-0.00077823599553658,-1.3275194713638e-06,-1.0727656655607e-06,-1.6161465852616e-05,-2.3491464071076e-06,5.3326163725381e-06,1.5391458434561e-05,732.20207769303,732.20207769303,732.20205195437,732.20205195437,732.20210282775,732.20210187654,732.20206106702,732.20207271659,732.20209305542,732.20208312836,732.20204499286,732.20206026518,732.20205879112,732.20208680611,732.20207955317,732.20205647213,732.20207442437,732.20210696676,732.20210500478,732.20205597464,732.20206481282,732.20209870459,732.20209289584,732.20205879112,732.20204501061,732.20205540109,732.20209554325,732.20209702127,732.20206734665,732.20207962588,732.20208693877,732.20207302949,732.20204794068,732.20206643187,732.20207849093,732.20208573181,732.20208450911,732.20206243198,732.20207741278,732.20208539057,732.20207262612,732.20205398913,732.20207363047,732.20207849093,732.20208651712,732.20208651712,732.20210514618,732.20210514618,20.943932883454,1165.4766383568,252.86204578488,1228.3505371226,229.64050540657,0
2.63e-05,20047596.875889,1.8079136932085e-06,7.8059578629738e-06,1.6067057300134e-06,1.0000158223057,607.6795437742,607.6795437742,607.67951588778,607.67951588778,607.67957098138,607.67956995059,607.67952574447,607.67953837999,607.67956040791,607.67954964176,607.67950833615,607.67952490009,607.67952327387,607.6795536314,607.67954576587,607.67952075965,607.679540231,607.67957546621,607.67957333884,607.67952023306,607.67952981907,607.67956652336,607.67956022372,607.67952327387,607.67950835972,607.67951962899,607.67956308886,607.67956469302,607.67953254335,607.67954586213,607.67955378569,607.67953870052,607.67951152523,607.67953158022,607.67954461398,607.67955246269,607.67955113772,607.67952721606,607.67954346498,607.67955210363,607.67953826016,607.67951807021,607.67953937313,607.67954461398,607.67955332036,607.67955332036,607.67957349494,607.67957349494,-3.8260428286859e-05,-1.9644237051363e-07,-2.6419788465185e-05,-9.7108205036214e-06,8.5915139684821e-06,0.00014607017744346,-6.4370437064955e-05,3.5488134392891e-07,2.5189561411307e-06,7.3840002117431e-07,7.9968493522098e-06,-0.00068865350146334,-1.6598219221817e-08,-4.6566708071777e-07,1.1317995539804e-05,-0.00057250159606809,-1.2502662436135e-06,1.2766816228652e-05,0.00013686373951935,-0.00010548437684135,-2.3803365727515e-06,1.963010656858e-06,3.4356349151812e-07,-0.00030179563117803,2.300139856588e-05,-0.00052187706582517,2.6110579032305e-06,7.3763336255697e-05,-2.0032807106465e-05,-1.1242891902239e-06,1.5281260336711e-06,1.1364417423267e-05,1.267584374512e-06,-0.00045812121199198,-6.1179981465048e-06,-1.0634154569897e-06,2.390227882962e-05,-0.00018871384545584,-2.3776510759039e-07,-2.6490804129188e-07,2.6301878963932e-06,-0.00083966266148826,-1.4327887998924e-06,-1.1577918742861e-06,-1.744236363543e-05,-2.5343521921942e-06,5.7553770735933e-06,1.6606106154228e-05,732.20207369466,732.20207369466,732.20204580824,732.20204580824,732.20210090184,732.20209987105,732.20205566493,732.20206830045,732.20209032837,732.20207956222,732.20203825661,732.20205482055,732.20205319433,732.20208355186,732.20207568633,732.20205068011,732.20207015146,732.20210538667,732.2021032593,732.20205015352,732.20205973953,732.20209644382,732.20209014418,732.20205319433,732.20203828018,732.20204954945,732.20209300932,732.20209461348,732.2020624638,732.20207578259,732.20208370614,732.20206862098,732.20204144569,732.20206150068,732.20207453444,732.20208238315,732.20208105818,732.20205713652,732.20207338544,732.20208202409,732.20206818062,732.20204799067,732.20206929359,732.20207453444,732.20208324082,732.20208324082,732.2021034154,732.2021034154,22.513408370017,1169.6876578544,253.82448092955,1233.0659440408,230.51469638864,0
2.64e-05,20052189.402088,1.8147867515006e-06,7.8356381579373e-06,1.6128168687582e-06,1.0000170881607,607.67953932261,607.67953932261,607.67950911867,607.67950911867,607.67956876208,607.67956764528,607.67951977565,607.67953347714,607.67955732641,607.6795456531,607.67950092885,607.67951888916,607.67951709416,607.67954998018,607.67954145239,607.67951436909,607.67953548285,607.6795736201,607.67957131394,607.679513813,607.67952420752,607.67956394415,607.6795571138,607.67951709416,607.67950095938,607.6795131787,607.67956021349,607.67956195407,607.67952713407,607.6795415768,607.67955015942,607.67953380299,607.67950437749,607.67952612313,607.67954020372,607.67954870886,607.67954727336,607.67952136119,607.67953898118,607.67954833223,607.6795333222,607.67951145699,607.67953455632,607.67954020372,607.67954964554,607.67954964554,607.67957148639,607.67957148639,-4.1219960335325e-05,-2.119428460105e-07,-2.8505086450808e-05,-1.0415312628622e-05,9.2699515221417e-06,0.00015755875101361,-6.9455831594605e-05,3.8291838058834e-07,2.7179339896135e-06,7.9658519970318e-07,8.628212805332e-06,-0.0007420048871847,-1.7908926984929e-08,-5.0239700577774e-07,1.2211616234495e-05,-0.00061748376469143,-1.3490274318852e-06,1.3774953535768e-05,0.00014762883893,-0.00011381627635713,-2.5681349679557e-06,2.118030928689e-06,3.706898111954e-07,-0.00032552408391091,2.4817207631208e-05,-0.0005623592548243,2.8172831219676e-06,7.95638500854e-05,-2.1615522524827e-05,-1.21302021697e-06,1.6488389652429e-06,1.2258672374121e-05,1.3676734961621e-06,-0.00049357826641889,-6.5993768838654e-06,-1.1473171791296e-06,2.5789436849154e-05,-0.00020353660227821,-2.5654755884802e-07,-2.8556632531564e-07,2.837859776376e-06,-0.00090565418045793,-1.5459585238096e-06,-1.2491936169443e-06,-1.8819327855591e-05,-2.7333396860699e-06,6.2098591364343e-06,1.7911265480237e-05,732.2020693981,732.2020693981,732.20203919416,732.20203919416,732.20209883758,732.20209772077,732.20204985114,732.20206355263,732.2020874019,732.20207572859,732.20203100434,732.20204896465,732.20204716965,732.20208005567,732.20207152788,732.20204444458,732.20206555834,732.20210369559,732.20210138943,732.20204388849,732.20205428301,732.20209401964,732.20208718929,732.20204716965,732.20203103487,732.20204325419,732.20209028898,732.20209202956,732.20205720956,732.20207165229,732.20208023491,732.20206387848,732.20203445298,732.20205619863,732.20207027921,732.20207878435,732.20207734885,732.20205143668,732.20206905667,732.20207840772,732.20206339769,732.20204153248,732.20206463181,732.20207027921,732.20207972103,732.20207972103,732.20210156188,732.20210156188,24.186325755054,1173.8783174092,254.78689307083,1237.780734873,231.38886868056,0
2.65e-05,20057141.434052,1.8216597881153e-06,7.8653184532538e-06,1.6189280664463e-06,1.0000184464261,607.67953452558,607.67953452558,607.67950182174,607.67950182174,607.67956636852,607.67956515877,607.67951333907,607.67952819281,607.67955400536,607.67954135149,607.67949294187,607.6795124115,607.67951042918,607.67954604362,607.67953679998,607.67950747642,607.67953036556,607.67957162914,607.67956912972,607.67950689073,607.67951815919,607.67956116397,607.67955375997,607.67951042918,607.67949298068,607.6795062269,607.67955711221,607.67955900032,607.67952130023,607.6795369579,607.67954625163,607.67952852105,607.67949666964,607.67952024271,607.67953544688,607.67954466076,607.67954310583,607.67951504625,607.67953414834,607.67954426707,607.67952799607,607.67950432425,607.6795293654,607.67953544688,607.67954568373,607.67954568373,607.67956932037,607.67956932037,-4.4391462427168e-05,-2.2860024436697e-07,-3.0746133538095e-05,-1.1163513256808e-05,9.9990928368395e-06,0.00016990088331488,-7.4921222316518e-05,4.1305234144893e-07,2.931788483277e-06,8.5909918561117e-07,9.3067438673172e-06,-0.00079919026877234,-1.9317581295604e-08,-5.4186845343618e-07,1.3172003277607e-05,-0.00066579120118294,-1.4551716362464e-06,1.4858435888295e-05,0.00015919379250972,-0.00012277049623211,-2.7699539015969e-06,2.2846355749876e-06,3.9984325262023e-07,-0.0003510090883091,2.6768658003967e-05,-0.00060575844328954,3.0389239083281e-06,8.5795201233173e-05,-2.3316527267854e-05,-1.3083776716153e-06,1.7785780378015e-06,1.3219239383566e-05,1.4752409346602e-06,-0.00053157808480806,-7.1164633056442e-06,-1.2374833998475e-06,2.7817588483681e-05,-0.00021945436546643,-2.7673291359763e-07,-3.0773038194965e-07,3.0610480375396e-06,-0.00097652692698375,-1.667588255183e-06,-1.3474217069778e-06,-2.0299156769541e-05,-2.9470712335508e-06,6.6983092990382e-06,1.9313270987883e-05,732.20206478168,732.20206478168,732.20203207784,732.20203207784,732.20209662462,732.20209541487,732.20204359517,732.20205844891,732.20208426146,732.20207160759,732.20202319796,732.2020426676,732.20204068528,732.20207629972,732.20206705608,732.20203773252,732.20206062166,732.20210188524,732.20209938582,732.20203714683,732.20204841529,732.20209142007,732.20208401607,732.20204068528,732.20202323678,732.202036483,732.20208736831,732.20208925642,732.20205155632,732.202067214,732.20207650773,732.20205877715,732.20202692574,732.20205049881,732.20206570298,732.20207491686,732.20207336193,732.20204530235,732.20206440444,732.20207452317,732.20205825217,732.20203458035,732.2020596215,732.20206570298,732.20207593983,732.20207593983,732.20209957647,732.20209957647,25.967947270684,1178.0473022427,255.74928199493,1242.4948424204,232.26302217825,0
2.66e-05,20062476.084073,1.8285328021746e-06,7.8949987490487e-06,1.6250393266688e-06,1.0000199029259,607.67952935823,607.67952935823,607.67949395854,607.67949395854,607.67956378781,607.67956247764,607.67950640034,607.67952249934,607.67955042743,607.67953671385,607.67948433268,607.67950543342,607.67950324309,607.67954180084,607.67953178358,607.67950004455,607.67952485241,607.67956948263,607.67956677437,607.67949942944,607.67951164236,607.67955816821,607.67955014424,607.67950324309,607.67948438132,607.67949873729,607.67955376835,607.67955581591,607.6795150105,607.67953198123,607.67954204199,607.67952282635,607.67948836047,607.67951390843,607.67953031784,607.67954029673,607.67953861276,607.67950823723,607.67952894112,607.67953988682,607.67952225305,607.67949663362,607.67952377336,607.67953031784,607.67954141396,607.67954141396,607.67956698529,607.67956698529,-4.7788611795211e-05,-2.4649596805754e-07,-3.3153905623678e-05,-1.1957307679893e-05,1.0782514540386e-05,0.00018315618943934,-8.0793367809067e-05,4.454313384463e-07,3.1615695329315e-06,9.262442663079e-07,1.003576694495e-05,-0.00086045890255612,-2.0831088521594e-08,-5.8427452473876e-07,1.4203863254284e-05,-0.00071765278470141,-1.5692197096329e-06,1.6022578394622e-05,0.00017161446744419,-0.00013239081628287,-2.986781061217e-06,2.4636413407762e-06,4.3116680928878e-07,-0.0003783719184831,2.8865309070812e-05,-0.00065226540466212,3.2770678777859e-06,9.2487465903518e-05,-2.51441556653e-05,-1.4108284402697e-06,1.9179804650589e-06,1.4250713756708e-05,1.590813832294e-06,-0.00057228521118802,-7.6717352876706e-06,-1.3343555380351e-06,2.9996672678265e-05,-0.00023654238656746,-2.9841986869651e-07,-3.3150120526028e-07,3.3008465064353e-06,-0.001052617320443,-1.7982749036385e-06,-1.4529568884677e-06,-2.188910101592e-05,-3.1765715750806e-06,7.2231240758822e-06,2.0818869740237e-05,732.20205982234,732.20205982234,732.20202442266,732.20202442266,732.20209425193,732.20209294175,732.20203686445,732.20205296345,732.20208089154,732.20206717796,732.20201479679,732.20203589753,732.2020337072,732.20207226495,732.20206224769,732.20203050867,732.20205531652,732.20209994674,732.20209723848,732.20202989355,732.20204210648,732.20208863232,732.20208060836,732.2020337072,732.20201484543,732.2020292014,732.20208423246,732.20208628002,732.20204547461,732.20206244534,732.2020725061,732.20205329047,732.20201882458,732.20204437254,732.20206078195,732.20207076085,732.20206907687,732.20203870134,732.20205940523,732.20207035093,732.20205271716,732.20202709774,732.20205423747,732.20206078195,732.20207187807,732.20207187807,732.2020974494,732.2020974494,27.863619602893,1182.193236009,256.71164747668,1247.2081948526,233.13715676801,0
2.67e-05,20068217.576305,1.8354057926085e-06,7.9246790454564e-06,1.6311506528616e-06,1.0000214637491,607.679523794,607.679523794,607.67948548809,607.67948548809,607.6795610062,607.67955958752,607.6794989227,607.67951636724,607.67954657412,607.6795317155,607.67947505589,607.679497919,607.67949549758,607.67953722957,607.67952637637,607.6794920338,607.67951891492,607.67956716915,607.67956423523,607.67949138982,607.67950462324,607.67955494126,607.67954624741,607.67949549758,607.67947511614,607.67949067115,607.67955016403,607.67955238391,607.67950823141,607.67952662095,607.67953750884,607.67951668857,607.67947940598,607.6795070878,607.67952478919,607.67953559365,607.67953377026,607.67950089778,607.67952333249,607.67953516871,607.6795160624,607.67948834406,607.67951775138,607.67952478919,607.67953681383,607.67953681383,607.67956446873,607.67956446873,-5.1425835757856e-05,-2.6571679162731e-07,-3.5740105911016e-05,-1.2798563946442e-05,1.1624030664264e-05,0.00019738816701953,-8.7100793262354e-05,4.8021334141113e-07,3.4083967861687e-06,9.9834233240322e-07,1.081882668994e-05,-0.00092607396591936,-2.2456812957905e-08,-6.2982111608166e-07,1.5312214683707e-05,-0.00077331173358049,-1.6917270689819e-06,1.7273049018798e-05,0.00018495036948098,-0.0001427238999414,-3.2196695720932e-06,2.6559191017336e-06,4.6481296853166e-07,-0.0004077415011735,3.1117353535177e-05,-0.00070208172201856,3.532874846913e-06,9.9672677110157e-05,-2.710729306952e-05,-1.5208703351478e-06,2.0677258220774e-06,1.5357983316484e-05,1.7149542589921e-06,-0.00061587327557994,-8.2678291058836e-06,-1.4384042758697e-06,3.2337287107038e-05,-0.00025488061355977,-3.2171362722335e-07,-3.5698585193123e-07,3.558421506006e-06,-0.0011342829236313,-1.9386550068017e-06,-1.5663116972103e-06,-2.3596891807536e-05,-3.4229315197269e-06,7.7868591266351e-06,2.2435245793562e-05,732.20205449547,732.20205449547,732.20201618956,732.20201618956,732.20209170767,732.20209028899,732.20202962417,732.20204706871,732.2020772756,732.20206241697,732.20200575736,732.20202862047,732.20202619905,732.20206793104,732.20205707784,732.20202273527,732.20204961639,732.20209787062,732.2020949367,732.20202209129,732.20203532472,732.20208564273,732.20207694888,732.20202619905,732.20200581761,732.20202137263,732.2020808655,732.20208308539,732.20203893288,732.20205732243,732.20206821031,732.20204739004,732.20201010746,732.20203778927,732.20205549066,732.20206629512,732.20206447174,732.20203159925,732.20205403397,732.20206587018,732.20204676387,732.20201904553,732.20204845286,732.20205549066,732.2020675153,732.2020675153,732.2020951702,732.2020951702,29.878750409639,1186.3146794435,257.67398927395,1251.9207154293,234.01127232897,0
2.68e-05,20074391.256507,1.842278758429e-06,7.9543593426168e-06,1.6372620490744e-06,1.0000231352503,607.67951780464,607.67951780464,607.67947636664,607.67947636664,607.67955800897,607.67955647306,607.67949086691,607.67950976505,607.67954242575,607.67952633009,607.67946506303,607.67948982999,607.67948715172,607.67953230603,607.67952054973,607.67948340178,607.67951252273,607.67956467649,607.67956149876,607.67948272994,607.6794970658,607.67955146649,607.67954204894,607.67948715172,607.67946513695,607.67948198726,607.67954628018,607.67954868625,607.67950092721,607.67952084955,607.67953262912,607.67951007532,607.6794697592,607.6794997462,607.67951883166,607.67953052681,607.67952855281,607.67949298904,607.67951729366,607.67953008847,607.67950939131,607.67947941172,607.6795112688,607.67951883166,607.67953185944,607.67953185944,607.67956175745,607.67956175745,-5.5318342991903e-05,-2.8635520177408e-07,-3.8517210013912e-05,-1.3689118887469e-05,1.2527707423762e-05,0.00021266442806166,-9.3873897974322e-05,5.1756679552479e-07,3.6734639717999e-06,1.0757360353972e-06,1.1659701641952e-05,-0.0009963131612773,-2.4202605227975e-08,-6.7872771379966e-07,1.6502407361356e-05,-0.00083302638668073,-1.8232858452181e-06,1.861589055551e-05,0.00019926486018894,-0.00015381946879827,-3.46974205691e-06,2.8623972259362e-06,5.0094430304463e-07,-0.00043925484194411,3.3535656656746e-05,-0.00075542027472606,3.8075813291749e-06,0.00010738494124679,-2.9215409502877e-05,-1.6390340100501e-06,2.2285386776264e-06,1.6546245006483e-05,1.8482613759992e-06,-0.00066252537705073,-8.9075484633693e-06,-1.5501313774684e-06,3.4850729022729e-05,-0.00027455394354134,-3.4672629778782e-07,-3.8429775757286e-07,3.8350163511739e-06,-0.0012219036065666,-2.089407198009e-06,-1.6880324180115e-06,-2.5430770740518e-05,-3.687311797426e-06,8.392239172789e-06,2.4170045945413e-05,732.20204877488,732.20204877488,732.20200733689,732.20200733689,732.20208897921,732.20208744331,732.20202183716,732.20204073529,732.20207339599,732.20205730034,732.20199603327,732.20202080024,732.20201812196,732.20206327627,732.20205151997,732.20201437202,732.20204349298,732.20209564673,732.20209246901,732.20201370018,732.20202803604,732.20208243674,732.20207301918,732.20201812196,732.20199610719,732.2020129575,732.20207725043,732.20207965649,732.20203189745,732.20205181979,732.20206359936,732.20204104556,732.20200072944,732.20203071644,732.20204980191,732.20206149705,732.20205952305,732.20202395928,732.20204826391,732.20206105872,732.20204036155,732.20201038197,732.20204223904,732.20204980191,732.20206282969,732.20206282969,732.2020927277,732.2020927277,32.018780806051,1190.4101321876,258.63630712444,1256.6323220328,234.88536873318,0
2.69e-05,20081023.596075,1.8491516985199e-06,7.9840396406847e-06,1.6433735194172e-06,1.0000249240482,607.67951136007,607.67951136007,607.6794665476,607.6794665476,607.67955478041,607.67955311787,607.67948219109,607.67950265928,607.67953796131,607.67952052948,607.6794543024,607.67948112568,607.67947816181,607.67952700488,607.67951427305,607.67947410322,607.67950564352,607.6795619916,607.67955855052,607.67947340504,607.67948893164,607.67954772618,607.6795375269,607.67947816181,607.67945439236,607.67947264168,607.67954209643,607.67954470359,607.67949305971,607.67951463768,607.67952737826,607.679502952,607.67945936997,607.67949184679,607.67951241399,607.67952506982,607.67952293314,607.67948446951,607.67951079393,607.67952462026,607.6795022047,607.67946978978,607.67950429294,607.67951241399,607.67952652533,607.67952652533,607.67955883731,607.67955883731,-5.9482154891432e-05,-3.0850973304718e-07,-4.1498513635061e-05,-1.4630762007536e-05,1.3497878853351e-05,0.00022905694357396,-0.00010114507093016,5.5767127867566e-07,3.9580435022863e-06,1.1587899945254e-06,1.2562418662684e-05,-0.001071469333515,-2.607683235179e-08,-7.312282356618e-07,1.7780142829268e-05,-0.00089707098804059,-1.9645271576476e-06,2.005754388331e-05,0.00021462538626217,-0.00016573048992417,-3.7381949156716e-06,3.0840651206041e-06,5.3973409745159e-07,-0.00047305745211332,3.6131797756894e-05,-0.00081250574074287,4.1025052898109e-06,0.00011566056102693,-3.1478595838809e-05,-1.7658849884428e-06,2.4011914116673e-06,1.782102173502e-05,1.9913737254636e-06,-0.00071243447172947,-9.5938738404698e-06,-1.6700716135839e-06,3.7549038495415e-05,-0.00029565247707294,-3.7357731684664e-07,-4.1355706351886e-07,4.1319561058899e-06,-0.0013158827133002,-2.2512548156753e-06,-1.818701159336e-06,-2.7399521354996e-05,-3.9709471104938e-06,9.0421684963634e-06,2.6031406888649e-05,732.2020426327,732.2020426327,732.20199782022,732.20199782022,732.20208605304,732.2020843905,732.20201346372,732.20203393191,732.20206923394,732.20205180211,732.20198557503,732.2020123983,732.20200943444,732.2020582775,732.20204554568,732.20200537584,732.20203691615,732.20209326422,732.20208982314,732.20200467766,732.20202020426,732.2020789988,732.20206879953,732.20200943444,732.20198566499,732.2020039143,732.20207336905,732.20207597622,732.20202433234,732.2020459103,732.20205865089,732.20203422463,732.20199064259,732.20202311941,732.20204368661,732.20205634245,732.20205420576,732.20201574214,732.20204206656,732.20205589288,732.20203347732,732.20200106241,732.20203556556,732.20204368661,732.20205779795,732.20205779795,732.20209010993,732.20209010993,34.289155456313,1194.4780320737,259.59860075295,1261.3429270996,235.75944584165,0
2.7e-05,20088142.189353,1.8560246117381e-06,8.0137199398235e-06,1.6494850682853e-06,1.0000268370221,607.6795044283,607.6795044283,607.6794559813,607.6794559813,607.67955130375,607.67954950442,607.67947285055,607.67949501427,607.6795331585,607.67951428364,607.67944271887,607.67947176272,607.6794684812,607.67952129908,607.67950751368,607.67946408978,607.67949824288,607.67955910055,607.67955537503,607.67946336741,607.67948017988,607.67954370143,607.67953265791,607.6794684812,607.67944282759,607.67946258766,607.67953759101,607.67954041532,607.67948458817,607.67950795411,607.67952173015,607.67949528171,607.67944818478,607.67948335038,607.67950550278,607.67951919457,607.67951688215,607.67947529491,607.67950380062,607.67951873653,607.67949446512,607.67945942825,607.67949678904,607.67950550278,607.67952078432,607.67952078432,607.67955569319,607.67955569319,-6.3934138263561e-05,-3.3228534531504e-07,-4.469818319028e-05,-1.5625218839796e-05,1.4539163350686e-05,0.00024664229894665,-0.0001089488107612,6.0071818386051e-07,4.2634913370624e-06,1.2478920717967e-06,1.3531268193867e-05,-0.0011518511090936,-2.8088409527013e-08,-7.87571920175e-07,1.9151495985311e-05,-0.00096573652351689,-2.1161235200344e-06,2.1604872566431e-05,0.00023110371860705,-0.00017851337028274,-4.026302926606e-06,3.3219769841504e-06,5.8136701034884e-07,-0.00050930380771485,3.8918114139495e-05,-0.00087357511666813,4.41905117323e-06,0.00012453816391754,-3.3907601400107e-05,-1.9020258032705e-06,2.5865071669658e-06,1.918818038574e-05,2.1449716489605e-06,-0.0007658037749132,-1.0329972362591e-05,-1.7987947975225e-06,4.0445044046895e-05,-0.0003182717878625,-4.0239389419125e-07,-4.448909615524e-07,4.450652606635e-06,-0.0014166483113307,-2.4249686655857e-06,-1.9589380442368e-06,-2.9512502438986e-05,-4.2751503565758e-06,9.7397420444927e-06,2.802798332272e-05,732.20203603924,732.20203603924,732.20198759224,732.20198759224,732.2020829147,732.20208111537,732.20200446149,732.20202662522,732.20206476944,732.20204589458,732.20197432981,732.20200337366,732.20200009214,732.20205291002,732.20203912462,732.20199570072,732.20202985382,732.20209071149,732.20208698598,732.20199497835,732.20201179082,732.20207531237,732.20206426885,732.20200009214,732.20197443853,732.2019941986,732.20206920195,732.20207202627,732.20201619911,732.20203956505,732.20205334109,732.20202689265,732.20197979573,732.20201496132,732.20203711372,732.20205080551,732.20204849309,732.20200690585,732.20203541157,732.20205034747,732.20202607606,732.20199103919,732.20202839999,732.20203711372,732.20205239526,732.20205239526,732.20208730413,732.20208730413,36.695287629963,1198.5167564188,260.56086986592,1266.0524371064,236.63350350632,0
2.71e-05,20095775.743633,1.8628974969331e-06,8.0434002402092e-06,1.6555967007242e-06,1.0000288813064,607.67949697528,607.67949697528,607.67944461486,607.67944461486,607.67954756109,607.679545614,607.67946279763,607.67948679206,607.67952799353,607.67950756049,607.67943025363,607.67946169505,607.67945806009,607.67951515984,607.67950023673,607.67945330988,607.67949028419,607.67955598849,607.6795519558,607.67945256617,607.67947076701,607.67953937214,607.67952741699,607.67945806009,607.67943038425,607.67945177546,607.6795327407,607.67953579944,607.67947546909,607.67950076559,607.67951565698,607.67948702503,607.67943614659,607.67947421531,607.67949806239,607.67951287103,607.6795103688,607.67946541793,607.67949627894,607.67951240797,607.67948613258,607.67944827378,607.67948872014,607.67949806239,607.67951460746,607.67951460746,607.67955230898,607.67955230898,-6.8692038932088e-05,-3.5779381161738e-07,-4.8131308907923e-05,-1.6674132096753e-05,1.5656481175075e-05,0.00026550196606891,-0.00011732185334944,6.469114667128e-07,4.5912521308246e-06,1.3434547049237e-06,1.4570820381949e-05,-0.0012377835534801,-3.0246833728613e-08,-8.4802426752477e-07,2.0622937987212e-05,-0.0010393315726241,-2.2787913850843e-06,2.3265188878436e-05,0.00024877620766827,-0.00019222816323209,-4.3354239651609e-06,3.5772557798106e-06,6.2603977534426e-07,-0.00054815781733066,4.1907747424674e-05,-0.00093887825447598,4.7587152300824e-06,0.00013405883867279,-3.6513873979049e-05,-2.0480982655942e-06,2.7853629860315e-06,2.0653950325308e-05,2.3097798466413e-06,-0.00082284717380371,-1.1119207992254e-05,-1.9369079373951e-06,4.3552411036668e-05,-0.00034251319723323,-4.3331148399431e-07,-4.7843405508663e-07,4.7926097841442e-06,-0.0015246544641376,-2.6113699414265e-06,-2.1094035239433e-06,-3.177968335035e-05,-4.6013170942698e-06,1.0488257179152e-05,3.016897819341e-05,732.2020289648,732.2020289648,732.20197660438,732.20197660438,732.20207955061,732.20207760352,732.20199478715,732.20201878157,732.20205998305,732.20203955001,732.20196224315,732.20199368456,732.20199004961,732.20204714936,732.20203222624,732.2019852994,732.20202227371,732.20208797801,732.20208394532,732.20198455569,732.20200275653,732.20207136166,732.20205940651,732.20199004961,732.20196237377,732.20198376498,732.20206473022,732.20206778896,732.20200745861,732.2020327551,732.2020476465,732.20201901455,732.20196813611,732.20200620483,732.20203005191,732.20204486055,732.20204235832,732.20199740745,732.20202826846,732.20204439749,732.2020181221,732.2019802633,732.20202070966,732.20203005191,732.20204659698,732.20204659698,732.2020842985,732.2020842985,39.242521137131,1202.5246233782,261.52311414811,1270.7607522499,237.50754156917,0
2.72e-05,20103954.061032,1.8697703527714e-06,8.0730805420284e-06,1.6617084213656e-06,1.0000310642831,607.67948896487,607.67948896487,607.67943239199,607.67943239199,607.67954353331,607.67954142662,607.67945198151,607.67947795224,607.67952244114,607.67950032586,607.67941684405,607.67945087365,607.67944684537,607.67950855648,607.67949240499,607.67944170849,607.67948172851,607.67955263956,607.67954827518,607.67944094714,607.67946064673,607.67953471688,607.67952177751,607.67944684537,607.67941700014,607.67944015216,607.67952752071,607.67953083245,607.6794656561,607.67949303672,607.67950912923,607.67947813995,607.67942319456,607.67946439729,607.67949005481,607.67950606722,607.67950335998,607.67945478814,607.67948819187,607.67950560339,607.67947716442,607.67943626944,607.67948004693,607.67949005481,607.67950796391,607.67950796391,607.67954866748,607.67954866748,-7.3774517124456e-05,-3.8515412909003e-07,-5.1813961176116e-05,-1.7779043789966e-05,1.6855072949123e-05,0.00028572255391957,-0.00012630330607955,6.9646841473375e-07,4.9428646747468e-06,1.4459163043262e-06,1.5685942063736e-05,-0.0013296088706295,-3.2562219290105e-08,-9.1286803419759e-07,2.2201360404325e-05,-0.0011181831884672,-2.4532938349935e-06,2.5046281321278e-05,0.00026772401835902,-0.00020693878570366,-4.6670041130654e-06,3.8510973855526e-06,6.7396194170803e-07,-0.00058979330744528,4.5114692436569e-05,-0.0010086784353929,5.1230911406722e-06,0.0001442662606942,-3.93096018953e-05,-2.2047858557267e-06,2.9986931278042e-06,2.2224942671692e-05,2.486570070423e-06,-0.00088378966459619,-1.1965152186635e-05,-2.0850575124446e-06,4.6885692671004e-05,-0.00036848405689582,-4.6647428079869e-07,-5.1432874024058e-07,5.1594292777287e-06,-0.0016403825483898,-2.8113333135875e-06,-2.2708008105624e-06,-3.4211681251026e-05,-4.9509294333175e-06,1.1291226103325e-05,3.2464169447764e-05,732.20202138058,732.20202138058,732.2019648077,732.2019648077,732.20207594902,732.20207384233,732.20198439723,732.20201036795,732.20205485685,732.20203274157,732.20194925977,732.20198328937,732.20197926108,732.20204097219,732.2020248207,732.2019741242,732.20201414423,732.20208505528,732.20208069089,732.20197336285,732.20199306244,732.2020671326,732.20205419322,732.20197926108,732.20194941586,732.20197256787,732.20205993642,732.20206324817,732.20199807182,732.20202545243,732.20204154494,732.20201055567,732.20195561027,732.20199681301,732.20202247052,732.20203848293,732.20203577569,732.20198720385,732.20202060758,732.2020380191,732.20200958013,732.20196868516,732.20201246264,732.20202247052,732.20204037963,732.20204037963,732.2020810832,732.2020810832,41.936088279697,1206.499894335,262.48533326416,1275.4677660603,238.38155986028,0
2.73e-05,20112708.011544,1.8766431779326e-06,8.1027608454802e-06,1.667820235095e-06,1.0000333935718,607.67948035864,607.67948035864,607.6794192528,607.6794192528,607.67953920004,607.67953692096,607.67944034806,607.67946845187,607.67951647445,607.67949254328,607.67940242341,607.67943924649,607.67943478039,607.67950145633,607.67948397877,607.67942922691,607.67947253445,607.67954903685,607.67954431435,607.67942845258,607.67944976979,607.67952971289,607.67951571107,607.67943478039,607.67940260907,607.67942766152,607.67952190461,607.67952548933,607.67945509976,607.67948472987,607.67950211549,607.67946858166,607.67940926387,607.67945384929,607.67948143947,607.67949874902,607.67949582037,607.67944335173,607.67947950004,607.67949828962,607.67946751512,607.67942335456,607.67947072763,607.67948143947,607.67950082085,607.67950082085,607.67954475037,607.67954475037,-7.9201183916525e-05,-4.1449295290499e-07,-5.5763249562124e-05,-1.8941374613066e-05,1.814051922328e-05,0.00030739607728995,-0.00013593478967182,7.4962047470707e-07,5.3199676556681e-06,1.5557427161934e-06,1.6881814564339e-05,-0.0014276871167404,-3.5045335509503e-08,-9.8240428480576e-07,2.3894100759175e-05,-0.0012026378020893,-2.6404434262534e-06,2.6956443725392e-05,0.00028803337975767,-0.00022271324710766,-5.022582964524e-06,4.144774979289e-06,7.2535665839263e-07,-0.00063439452335372,4.8553848433862e-05,-0.0010832529558109,5.5138759705569e-06,0.00015520682772512,-4.2307758620201e-05,-2.3728162516484e-06,3.2274925769505e-06,2.3908170273392e-05,2.6761639461512e-06,-0.00094886779908296,-1.2871594929515e-05,-2.243931879939e-06,5.0460383955404e-05,-0.00039629803880951,-5.0203574497322e-07,-5.5272560574397e-07,5.552816371255e-06,-0.0017643426103614,-3.0257901947345e-06,-2.4438784764182e-06,-3.6819800494801e-05,-5.3255603923472e-06,1.2152389002314e-05,3.4923937872538e-05,732.20201325142,732.20201325142,732.20195214557,732.20195214557,732.20207209282,732.20206981374,732.20197324083,732.20200134464,732.20204936723,732.20202543606,732.20193531619,732.20197213927,732.20196767317,732.20203434911,732.20201687155,732.20196211969,732.20200542723,732.20208192963,732.20207720713,732.20196134536,732.20198266257,732.20206260567,732.20204860384,732.20196767317,732.20193550184,732.20196055429,732.20205479739,732.20205838211,732.20198799253,732.20201762264,732.20203500826,732.20200147443,732.20194215665,732.20198674207,732.20201433225,732.2020316418,732.20202871315,732.20197624451,732.20201239281,732.20203118239,732.20200040789,732.20195624733,732.20200362041,732.20201433225,732.20203371363,732.20203371363,732.20207764315,732.20207764315,44.781064224041,1210.4407765119,263.44752686117,1280.1733650136,239.25555819594,0
2.74e-05,20122069.496565,1.8835159711114e-06,8.1324411507802e-06,1.6739321479015e-06,1.0000358770169,607.67947111582,607.67947111582,607.67940513358,607.67940513358,607.67953453956,607.67953207428,607.67942783958,607.67945824529,607.67951006492,607.67948417391,607.67938692066,607.67942675828,607.6794218048,607.67949382465,607.67947491575,607.67941580258,607.67946265804,607.67954516231,607.67954005321,607.67941502103,607.67943808387,607.67952433594,607.6795091874,607.6794218048,607.67938714054,607.67941424379,607.67951586423,607.67951974339,607.67944374736,607.67947580503,607.67949458243,607.67945830238,607.67939428548,607.67944252137,607.67947217316,607.67949088013,607.67948771234,607.67943105135,607.67947016159,607.67949043138,607.67945713614,607.67940946442,607.6794607179,607.67947217316,607.67949314332,607.67949314332,607.67954053809,607.67954053809,-8.4992639004924e-05,-4.459450543105e-07,-5.9997387026923e-05,-2.0162400919211e-05,1.9518761158013e-05,0.00033062038708873,-0.00014626058723243,8.0661411370105e-07,5.7243057418155e-06,1.6734287529692e-06,1.8163953175455e-05,-0.0015323969322879,-3.7707646029297e-08,-1.0569535039585e-06,2.5708969497045e-05,-0.0012930621496043,-2.8411051963263e-06,2.9004506019267e-05,0.00030979599129213,-0.00023962388999098,-5.4037994197914e-06,4.4596438786029e-06,7.8046150375777e-07,-0.00068215664499271,5.2241075092129e-05,-0.0011628937287563,5.9328764455988e-06,0.00016692987551504,-4.5522149497871e-05,-2.5529639993588e-06,3.4728207529673e-06,2.5711068384497e-05,2.879436062762e-06,-0.0010183301432145,-1.3842556364752e-05,-2.4142638189268e-06,5.429297866653e-05,-0.0004260754316219,-5.4015916006181e-07,-5.9378385501783e-07,5.974586260962e-06,-0.0018970747595078,-3.2557321922114e-06,-2.629433153767e-06,-3.9616074226031e-05,-5.7268814088391e-06,1.307572794243e-05,3.7559318694937e-05,732.20200453998,732.20200453998,732.20193855774,732.20193855774,732.20206796372,732.20206549844,732.20196126374,732.20199166945,732.20204348908,732.20201759807,732.20192034482,732.20196018245,732.20195522896,732.20202724881,732.20200833991,732.20194922674,732.2019960822,732.20207858647,732.20207347738,732.20194844519,732.20197150803,732.2020577601,732.20204261156,732.20195522896,732.2019205647,732.20194766795,732.20204928839,732.20205316755,732.20197717152,732.20200922919,732.20202800659,732.20199172654,732.20192770965,732.20197594553,732.20200559732,732.20202430429,732.2020211365,732.20196447551,732.20200358575,732.20202385554,732.2019905603,732.20194288858,732.20199414206,732.20200559732,732.20202656748,732.20202656748,732.20207396225,732.20207396225,47.782317851519,1214.3454242927,264.40969455733,1284.8774278544,240.12953638207,0
2.75e-05,20132071.401937,1.8903887308401e-06,8.1621214581558e-06,1.6800441656116e-06,1.0000385226723,607.67946119311,607.67946119311,607.67938996662,607.67938996662,607.67952952869,607.6795268623,607.67941439467,607.67944728401,607.67950318222,607.67947517633,607.67937026019,607.67941335034,607.67940785426,607.67948562446,607.67946517083,607.67940136884,607.67945205256,607.67954099674,607.67953547034,607.67940058709,607.67942553334,607.67951856026,607.67950217426,607.67940785426,607.6793705196,607.6793998355,607.67950936951,607.67951356617,607.67943154276,607.67946621967,607.67948649468,607.67944725124,607.67937818588,607.67943036054,607.67946220978,607.67948242185,607.67947899579,607.67941782589,607.67946013207,607.67948199122,607.67944597576,607.67939453009,607.67944997064,607.67946220978,607.67948489413,607.67948489413,607.67953600982,607.67953600982,-9.1170512553629e-05,-4.796538030717e-07,-6.4535755776692e-05,-2.1443236415348e-05,2.0996122374655e-05,0.00035549943465829,-0.00015732780179275,8.6771174123862e-07,6.1577360137059e-06,1.7994997930546e-06,1.9538227008008e-05,-0.0016441363663256,-4.0561350902383e-08,-1.1368567704303e-06,2.7654278480841e-05,-0.0013898442187469,-3.0561998400083e-06,3.1199866732967e-05,0.00033310926918609,-0.00025774764376122,-5.8123976150811e-06,4.797146396095e-06,8.39529360173e-07,-0.00073328631686583,5.6193249645028e-05,-0.0012479079622492,6.3820156018798e-06,0.00017948781022188,-4.8967461351117e-05,-2.7460533340318e-06,3.7358054332483e-06,2.7641516057993e-05,3.0973171208969e-06,-0.0010924377916959,-1.4882298669066e-05,-2.5968332174128e-06,5.8401029545248e-05,-0.00045794344218238,-5.8101821631497e-07,-6.3767175716506e-07,6.4266706784052e-06,-0.0020391505950706,-3.5022147550827e-06,-2.8283124255554e-06,-4.2613308330031e-05,-6.1566662900917e-06,1.4065481550587e-05,4.0382028185597e-05,732.20199520663,732.20199520663,732.20192398014,732.20192398014,732.20206354221,732.20206087582,732.20194840819,732.20198129753,732.20203719574,732.20200918985,732.2019042737,732.20194736386,732.20194186778,732.20201963798,732.20199918435,732.20193538236,732.20198606608,732.20207501026,732.20206948386,732.20193460061,732.20195954686,732.20205257378,732.20203618778,732.20194186778,732.20190453312,732.20193384902,732.20204338303,732.20204757969,732.20196555628,732.20200023319,732.2020205082,732.20198126476,732.2019121994,732.20196437406,732.2019962233,732.20201643537,732.20201300931,732.20195183941,732.20199414559,732.20201600474,732.20197998928,732.20192854361,732.20198398416,732.2019962233,732.20201890765,732.20201890765,732.20207002334,732.20207002334,50.944457909352,1218.2119463826,265.37183594963,1289.5798261641,241.00349421221,0
2.76e-05,20142747.540523,1.8972614556643e-06,8.1918017678516e-06,1.6861562945571e-06,1.0000413387836,607.67945054462,607.67945054462,607.67937367996,607.67937367996,607.67952414278,607.67952125916,607.67939994795,607.67943551652,607.67949579417,607.67946550646,607.67935236156,607.67939896041,607.67939286028,607.67947681644,607.67945469594,607.67938585469,607.67944066844,607.67953651964,607.67953054285,607.67938508119,607.67941205914,607.67951235849,607.67949463731,607.67939286028,607.67935266654,607.6793843693,607.67950238848,607.67950692739,607.67941842619,607.67945592863,607.6794778147,607.67943537404,607.67936088682,607.67941731059,607.67945150027,607.67947333304,607.67946962803,607.67940361025,607.67944936423,607.67947292933,607.67943397886,607.67937847815,607.67943843587,607.67945150027,607.67947603376,607.67947603376,607.67953114338,607.67953114338,-9.7757507527746e-05,-5.157716766831e-07,-6.9398977414269e-05,-2.2784809629444e-05,2.2579332051012e-05,0.00038214361396437,-0.00016918652163477,9.3319268865326e-07,6.6222347633926e-06,1.9345134482108e-06,2.1010880170942e-05,-0.0017633236953094,-4.3619430738713e-08,-1.2224769986534e-06,2.9738871063307e-05,-0.0014933942144973,-3.28670706793e-06,3.3552527366463e-05,0.00035807666707154,-0.00027716629068237,-6.2502332398133e-06,5.1588170565958e-06,9.0282934106501e-07,-0.00078800219090579,6.0428327823239e-05,-0.0013386188347375,6.8633398066933e-06,0.00019293627988096,-5.2659314471615e-05,-2.9529611530274e-06,4.0176469012106e-06,2.97078581402e-05,3.3307972916044e-06,-0.0011714648800364,-1.5995338404065e-05,-2.7924699123522e-06,6.2803211826173e-05,-0.00049203650203413,-6.2479762998572e-07,-6.8456712020465e-07,6.9111248795092e-06,-0.0021911746650778,-3.7663610300254e-06,-3.0414178431547e-06,-4.582512782751e-05,-6.6167967018122e-06,1.5126160546385e-05,4.3404500869933e-05,732.20198520934,732.20198520934,732.20190834469,732.20190834469,732.2020588075,732.20205592388,732.20193461267,732.20197018124,732.2020304589,732.20200017118,732.20188702628,732.20193362513,732.201927525,732.20201148116,732.20198936066,732.20192051941,732.20197533316,732.20207118437,732.20206520757,732.20191974591,732.20194672387,732.20204702321,732.20202930203,732.201927525,732.20188733126,732.20191903402,732.2020370532,732.20204159211,732.20195309091,732.20199059335,732.20201247942,732.20197003876,732.20189555155,732.20195197531,732.20198616499,732.20200799776,732.20200429275,732.20193827497,732.20198402896,732.20200759405,732.20196864358,732.20191314287,732.2019731006,732.20198616499,732.20201069848,732.20201069848,732.2020658081,732.2020658081,54.271779191983,1222.0384081664,266.33395060831,1294.2804224094,241.87743146343,0
2.77e-05,20154132.58315,1.9041341440939e-06,8.2214820801287e-06,1.6922685414673e-06,1.0000443337663,607.67943912166,607.67943912166,607.67935619719,607.67935619719,607.67951835554,607.67951523728,607.67938442988,607.67942288812,607.67948786661,607.67945511737,607.67933313925,607.67938352245,607.67937674992,607.67946735882,607.67944343991,607.67936918452,607.67942845307,607.67953170922,607.67952524637,607.67936842935,607.67939759858,607.67950570156,607.67948653997,607.67937674992,607.67933349661,607.6793677737,607.67949488703,607.67949979477,607.67940433401,607.67944488395,607.67946850266,607.67942261309,607.67934230508,607.67940331194,607.67943999237,607.67946356988,607.67945956359,607.67938833512,607.67943780795,607.67946320346,607.67942108673,607.67936123042,607.67942606062,607.67943999237,607.67946652015,607.67946652015,607.67952591514,607.67952591514,-0.0001047774461553,-5.5446079665963e-07,-7.4608987024712e-05,-2.4187843423495e-05,2.4275549316621e-05,0.00041067011985468,-0.00018188999468205,1.0033542368249e-06,7.119904675482e-06,2.0790613061135e-06,2.258855413058e-05,-0.0018903983219137,-4.6895693408768e-08,-1.314200249703e-06,3.197215383222e-05,-0.0016041455377065,-3.5336691518156e-06,3.6073128686924e-05,0.00038480801163896,-0.00029796674612656,-6.7192802160841e-06,5.5462881000705e-06,9.7064776937134e-07,-0.00084653548114565,6.4965408194506e-05,-0.0014353662345143,7.3790261751451e-06,0.0002073343538219,-5.6614317539142e-05,-3.174620158711e-06,4.3196223293986e-06,3.1918927961415e-05,3.5809297622395e-06,-0.0012556991476474,-1.7186459284239e-05,-3.0020566894947e-06,6.7519390303749e-05,-0.00052849657676425,-6.716937950777e-07,-7.3465779628384e-07,7.4301350226259e-06,-0.0023537859500033,-4.0493659327227e-06,-3.269708123373e-06,-4.9266025856525e-05,-7.1092678793375e-06,1.6262564141355e-05,4.6639928342736e-05,732.20197450353,732.20197450353,732.20189157905,732.20189157905,732.2020537374,732.20205061915,732.20191981174,732.20195826999,732.20202324848,732.20199049923,732.20186852111,732.20191890432,732.20191213179,732.20200274068,732.20197882177,732.20190456638,732.20196383494,732.20206709109,732.20206062823,732.20190381122,732.20193298044,732.20204108342,732.20202192184,732.20191213179,732.20186887847,732.20190315556,732.2020302689,732.20203517663,732.20193971587,732.20198026582,732.20200388453,732.20195799495,732.20187768695,732.20193869381,732.20197537423,732.20199895174,732.20199494546,732.20192371698,732.20197318981,732.20199858533,732.20195646859,732.20189661229,732.20196144249,732.20197537423,732.20200190202,732.20200190202,732.202061297,732.202061297,57.768203110004,1225.8228375617,267.29603807565,1298.9790704472,242.75134789839,0
2.78e-05,20166261.977823,1.9110067944942e-06,8.2511623952641e-06,1.6983809132501e-06,1.0000475161824,607.67942687267,607.67942687267,607.67933743715,607.67933743715,607.67951213899,607.67950876728,607.67936776649,607.67940934081,607.67947936332,607.6794439591,607.67931250234,607.67936696648,607.67935944558,607.67945720721,607.67943134824,607.67935127788,607.67941535068,607.67952654225,607.6795195549,607.67935055295,607.6793820851,607.67949855859,607.67947784334,607.67935944558,607.6793129198,607.6793499729,607.6794868289,607.67949213397,607.67938919852,607.67943303474,607.67945851638,607.67940890699,607.67932235215,607.67938830146,607.67942763045,607.6794530858,607.67944875412,607.67937192673,607.67942541001,607.67945276879,607.67940723687,607.67934270373,607.6794127887,607.67942763045,607.67945630864,607.67945630864,607.67952029994,607.67952029994,-0.00011225532065414,-5.9589349379397e-07,-8.0189111364903e-05,-2.5652835281291e-05,2.6092389018682e-05,0.00044120332274583,-0.00019549481181825,1.0785127075018e-06,7.6529824164488e-06,2.2337707426113e-06,2.4278311300362e-05,-0.0020258217364491,-5.0404823279174e-08,-1.4124371155152e-06,3.4364130110769e-05,-0.0017225557750702,-3.7981946696679e-06,3.8772989074466e-05,0.00041341985367389,-0.00032024135262131,-7.2216377473705e-06,5.9612952914237e-06,1.0432892095408e-06,-0.00090913052859002,6.9824800049172e-05,-0.001538507547876,7.9313904018928e-06,0.00022274471018711,-6.0850125414249e-05,-3.4120221718211e-06,4.6430904134299e-06,3.4284070596728e-05,3.8488344774859e-06,-0.001345442543596,-1.8460725349564e-05,-3.2265324499672e-06,7.2570690111394e-05,-0.00056747347743406,-7.2191547181444e-07,-7.8814222862148e-07,7.9860259541821e-06,-0.0025276593688326,-4.3525004487357e-06,-3.5142025139471e-06,-5.2951415373861e-05,-7.6361945604106e-06,1.7479797369958e-05,5.0102299709415e-05,732.20196304195,732.20196304195,732.20187360642,732.20187360642,732.20204830827,732.20204493656,732.20190393577,732.20194551008,732.2020155326,732.20198012837,732.20184867162,732.20190313576,732.20189561486,732.20199337648,732.20196751752,732.20188744716,732.20195151995,732.20206271152,732.20205572418,732.20188672223,732.20191825437,732.20203472786,732.20201401261,732.20189561486,732.20184908907,732.20188614217,732.20202299818,732.20202830324,732.20192536779,732.20196920401,732.20199468566,732.20194507627,732.20185852143,732.20192447073,732.20196379973,732.20198925507,732.20198492339,732.20190809601,732.20196157928,732.20198893807,732.20194340615,732.20187887301,732.20194895798,732.20196379973,732.20199247792,732.20199247792,732.20205646922,732.20205646922,61.43721779193,1229.5632311035,268.258097865,1303.6756147786,243.62524326344,0
2.79e-05,20179171.856857,1.9178794052456e-06,8.2808427135554e-06,1.7044934174451e-06,1.0000508947129,607.67941374301,607.67941374301,607.67931731373,607.67931731373,607.67950546337,607.67950181788,607.67934987917,607.67939481303,607.67947024588,607.67943197852,607.67929035425,607.67934921833,607.67934086471,607.67944631447,607.67941836298,607.67933204919,607.67940130211,607.67952099401,607.67951344076,607.67933136846,607.67936544813,607.67949089682,607.67946850601,607.67934086471,607.6792908405,607.67933088653,607.67947817549,607.67948390843,607.6793729477,607.67942032698,607.67944781115,607.67939419045,607.67930093395,607.67937221225,607.67941435534,607.67944183129,607.67943714814,607.67935430663,607.67941211397,607.67944157777,607.67939236279,607.67932280958,607.67939856058,607.67941435534,607.67944535179,607.67944535179,607.67951427104,607.67951427104,-0.00012021734674918,-6.4025290318753e-07,-8.6164151335743e-05,-2.7180040177349e-05,2.8037948930543e-05,0.00047387515988118,-0.00021006109965957,1.1590046173416e-06,8.2238466460036e-06,2.3993068106539e-06,2.6087659912051e-05,-0.0021700785511361,-5.4162433225274e-08,-1.5176241809053e-06,3.6925435295372e-05,-0.0018491076950723,-4.0814624608125e-06,4.1664145017779e-05,0.0004440358345807,-0.00034408818855447,-7.7595377547881e-06,6.4056840444947e-06,1.1210775621538e-06,-0.00097604537442321,7.5028094980943e-05,-0.0016484185095637,8.5228950316194e-06,0.00023923383160884,-6.5385499974904e-05,-3.6662216259041e-06,4.9894962666309e-06,3.6813166684937e-05,4.1357020834662e-06,-0.0014410118752059,-1.9823494524059e-05,-3.4668955552612e-06,7.7979571383281e-05,-0.00060912517215925,-7.7568451400248e-07,-8.4523001894156e-07,8.5812694220767e-06,-0.0027135073004668,-4.6771161751257e-06,-3.7759843427599e-06,-5.6897683697849e-05,-8.1998171352568e-06,1.8783289396227e-05,5.38064436084e-05,732.20195077455,732.20195077455,732.20185434527,732.20185434527,732.2020424949,732.20203884941,732.20188691071,732.20193184457,732.20200727741,732.20196901006,732.20182738578,732.20188624986,732.20187789624,732.20198334601,732.20195539451,732.20186908073,732.20193833364,732.20205802554,732.2020504723,732.20186839999,732.20190247966,732.20202792836,732.20200553754,732.20187789624,732.20182787204,732.20186791806,732.20201520703,732.20202093996,732.20190997924,732.20195735852,732.20198484268,732.20193122199,732.20183796549,732.20190924379,732.20195138687,732.20197886282,732.20197417968,732.20189133816,732.2019491455,732.20197860931,732.20192939432,732.20185984112,732.20193559211,732.20195138687,732.20198238332,732.20198238332,732.20205130257,732.20205130257,65.281816633873,1233.2575605645,269.2201294646,1308.369890026,244.4991172882,0
2.8e-05,20192898.931743,1.9247519746225e-06,8.3105230353187e-06,1.7106060619528e-06,1.0000544781279,607.67939967483,607.67939967483,607.6792957356,607.6792957356,607.67949829699,607.67949435574,607.67933068437,607.67937923954,607.67946047358,607.67941911915,607.6792665924,607.67933019944,607.67932091954,607.6794346306,607.67940442244,607.67931140747,607.6793862447,607.6795150382,607.67950687445,607.67931078717,607.67934761283,607.6794826815,607.67945848397,607.67932091954,607.67926715725,607.67931042943,607.67946888574,607.67947507927,607.67935550502,607.67940670342,607.6794363396,607.67937839404,607.67927795054,607.67935497353,607.6794001041,607.67942975375,607.67942469097,607.67933539137,607.67939785999,607.67942958,607.67937639373,607.67930145389,607.67938331321,607.6794001041,607.6794335992,607.6794335992,607.67950779995,607.67950779995,-0.00012869102323394,-6.8773359120865e-07,-9.2560467289235e-05,-2.8769453019127e-05,3.0120838492569e-05,0.00050882554354457,-0.00022565272310505,1.2451879382897e-06,8.835026481581e-06,2.5763742007123e-06,2.8024580084302e-05,-0.0023236776026944,-5.8185119310729e-08,-1.630225567712e-06,3.9667374122782e-05,-0.0019843102449481,-4.3847258007647e-06,4.475939388362e-05,0.00047678706891949,-0.00036961139199627,-8.335352395093e-06,6.8814158877495e-06,1.2043572158767e-06,-0.0010475523393005,8.0598241569637e-05,-0.0017654941016064,9.1561582571957e-06,0.00025687220914357,-7.0240374090975e-05,-3.9383392513257e-06,5.3603765925791e-06,3.9516656737311e-05,4.4427980799993e-06,-0.0015427395082733,-2.1280432250546e-05,-3.7242073592823e-06,8.376990800275e-05,-0.00065361809590771,-8.332366353216e-07,-9.0614255384488e-07,9.2184927362924e-06,-0.0029120811138006,-5.0246501151051e-06,-4.0562047531835e-06,-6.1122250051285e-05,-8.8025080023116e-06,2.0178812850526e-05,5.7768071934977e-05,732.20193764831,732.20193764831,732.20183370907,732.20183370907,732.20203627046,732.20203232921,732.20186865784,732.20191721301,732.20199844705,732.20195709262,732.20180456587,732.20186817291,732.20185889302,732.20197260407,732.20194239591,732.20184938094,732.20192421817,732.20205301167,732.20204484792,732.20184876064,732.2018855863,732.20202065497,732.20199645744,732.20185889302,732.20180513072,732.2018484029,732.20200685921,732.20201305275,732.20189347849,732.20194467689,732.20197431307,732.20191636751,732.20181592401,732.201892947,732.20193807757,732.20196772722,732.20196266444,732.20187336484,732.20193583346,732.20196755347,732.20191436721,732.20183942736,732.20192128668,732.20193807757,732.20197157267,732.20197157267,732.20204577343,732.20204577343,69.304436117568,1236.9037806524,270.1821323227,1313.0617203797,245.37296967984,0
2.81e-05,20207480.375849,1.931624501009e-06,8.3402033608908e-06,1.7167188551773e-06,1.0000582752531,607.67938460692,607.67938460692,607.67927260589,607.67927260589,607.67949060617,607.67948634541,607.67931009336,607.67936255117,607.67945000331,607.67940532092,607.6792411079,607.67930982664,607.67929951681,607.67942210251,607.67938946107,607.67928925599,607.67937011206,607.67950864686,607.67949982455,607.67928871491,607.67932849989,607.67947387576,607.67944773042,607.67929951681,607.67924176234,607.67928851138,607.67945891599,607.67946560515,607.67933678912,607.67939210332,607.6794240516,607.67936144395,607.67925329576,607.67933651034,607.67938480986,607.67941679731,607.67941132444,607.67931509228,607.67938258465,607.67941672205,607.6793592545,607.67927853668,607.67936697983,607.67938480986,607.6794209974,607.6794209974,607.67950085642,607.67950085642,-0.00013770519630708,-7.3854221509523e-07,-9.9406077361523e-05,-3.0420796705257e-05,3.2350209100712e-05,0.00054620278807218,-0.00024233749797237,1.3374432369402e-06,9.4892104321217e-06,2.7657192780364e-06,3.0097552092155e-05,-0.0024871531650651,-6.2490518862327e-08,-1.7507345636132e-06,4.2601959969524e-05,-0.0021286995436838,-4.7093168118859e-06,4.8072339059411e-05,0.00051181254397467,-0.0003969214999824,-8.9516036115338e-06,7.3905752712108e-06,1.2934942658628e-06,-0.0011239386067896,8.6559628108389e-05,-0.001890149543454,9.8339628815667e-06,0.00027573455569219,-7.543591887624e-05,-4.2295659612408e-06,5.7573651494971e-06,4.2405565896072e-05,4.7714672331155e-06,-0.0016509741343505,-2.2837526930873e-05,-3.9995959343231e-06,8.996707063706e-05,-0.00070112745737939,-8.948222207887e-07,-9.7111366285117e-07,9.9004879029298e-06,-0.0031241726998796,-5.396629742626e-06,-4.3560866380379e-06,-6.5643626222237e-05,-9.4467781969952e-06,2.1672504246338e-05,6.2003825078847e-05,732.20192360711,732.20192360711,732.20181160608,732.20181160608,732.20202960636,732.2020253456,732.20184909354,732.20190155136,732.2019890035,732.20194432111,732.20178010809,732.20184882683,732.201838517,732.20196110269,732.20192846126,732.20182825618,732.20190911225,732.20204764704,732.20203882474,732.2018277151,732.20186750008,732.20201287595,732.2019867306,732.201838517,732.20178076253,732.20182751157,732.20199791618,732.20200460534,732.2018757893,732.20193110351,732.20196305179,732.20190044414,732.20179229595,732.20187551052,732.20192381004,732.2019557975,732.20195032463,732.20185409246,732.20192158484,732.20195572224,732.20189825469,732.20181753687,732.20190598001,732.20192381004,732.20195999759,732.20195999759,732.20203985661,732.20203985661,73.50689440697,1240.4998375279,271.14410585762,1317.7509190755,246.24680013798,0
2.82e-05,20222953.695257,1.9384969825796e-06,8.3698836906339e-06,1.7228318059489e-06,1.0000622949346,607.67936847452,607.67936847452,607.67924782194,607.67924782194,607.67948235511,607.67947774915,607.67928801193,607.67934467466,607.6794387894,607.67939052007,607.67921378522,607.67928801193,607.67927655744,607.67940867392,607.6793734092,607.67926549204,607.67935283392,607.67950179024,607.67949225763,607.67926505177,607.67930802527,607.67946444051,607.67943619563,607.67927655744,607.67921454158,607.67926503688,607.67944821985,607.67945544212,607.67931671361,607.67937646236,607.67941089411,607.67934326182,607.67922685694,607.6793167434,607.67936840153,607.67940290266,607.6793969868,607.67929331515,607.67936622076,607.67940294735,607.67934086517,607.67925395173,607.67934948978,607.67936840153,607.67940748965,607.67940748965,607.67949340825,607.67949340825,-0.00014729013103908,-7.928982183613e-07,-0.00010673074465887,-3.2133511236203e-05,3.4735786158198e-05,0.00058616405173583,-0.000260187415423,1.4361752610835e-06,1.0189255827795e-05,2.9681321958662e-06,3.2315584594989e-05,-0.0026610662572077,-6.7097371032158e-08,-1.8796753409181e-06,4.5741956275069e-05,-0.0022828398635599,-5.0566511090712e-06,5.1617437604573e-05,0.00054925953424293,-0.00042613580574999,-9.6109700168926e-06,7.9353767510488e-06,1.3888778008059e-06,-0.0012055068070523,9.2938161910706e-05,-0.002022821351871,1.055926640959e-05,0.00029590002613016,-8.099461474023e-05,-4.5411669428265e-06,6.1821985168935e-06,4.5491529009484e-05,5.1231381534183e-06,-0.0017660816062036,-2.4501102865968e-05,-4.2942600023041e-06,9.659801428763e-05,-0.00075183753851243,-9.6070717660998e-07,-1.0403903372284e-06,1.0630221250663e-05,-0.0033506159959126,-5.79467833926e-06,-4.6769287833515e-06,-7.0481480581313e-05,-1.0135284110948e-05,2.3270885533856e-05,6.6531318911445e-05,732.20190859158,732.20190859158,732.201787939,732.201787939,732.20202247217,732.20201786622,732.20182812899,732.20188479172,732.20197890646,732.20193063713,732.20175390228,732.20182812899,732.2018166745,732.20194879098,732.20191352626,732.2018056091,732.20189295098,732.20204190731,732.20203237469,732.20180516883,732.20184814233,732.20200455757,732.20197631269,732.2018166745,732.20175465864,732.20180515394,732.20198833691,732.20199555918,732.20185683067,732.20191657942,732.20195101117,732.20188337888,732.201766974,732.20185686046,732.20190851859,732.20194301973,732.20193710386,732.20183343221,732.20190633782,732.20194306441,732.20188098223,732.2017940688,732.20188960684,732.20190851859,732.20194760671,732.20194760671,732.20203352531,732.20203352531,77.890331717529,1244.0436759687,272.10604945228,1322.437287758,247.1206083314,0
2.83e-05,20239356.587466,1.9453694175173e-06,8.3995640249246e-06,1.7289449236319e-06,1.0000665459998,607.67935120912,607.67935120912,607.67922127495,607.67922127495,607.67947350576,607.67946852684,607.67926434011,607.67932553238,607.6794267835,607.67937464883,607.67918450182,607.67926466218,607.67925193622,607.67939428518,607.67935619281,607.67924000653,607.67933433587,607.67949443676,607.67948413811,607.67923969178,607.67928609996,607.67945433433,607.6794238268,607.67925193622,607.67918537387,607.67923990481,607.67943674803,607.67944454347,607.67929518676,607.67935971235,607.67939681099,607.6793237644,607.67919851453,607.67929558887,607.67935080365,607.67938800689,607.67938161245,607.67926995996,607.67934869713,607.67938819598,607.67932114082,607.67922758628,607.67933076833,607.67935080365,607.67939301577,607.67939301577,607.67948542125,607.67948542125,-0.00015747759086808,-8.5103455644884e-07,-0.00011456608539913,-3.3906751458576e-05,3.7287902819853e-05,0.00062887579937759,-0.00027927887468866,1.541814241165e-06,1.0938198773079e-05,3.1844490743671e-06,3.4688245918486e-05,-0.0028460061044766,-7.2025581289216e-08,-2.0176047722601e-06,4.9100920195713e-05,-0.0024473245928209,-5.4282327129156e-06,5.5410050547642e-05,0.0005892840343852,-0.00045737872849936,-1.031629729322e-05,8.5181725504015e-06,1.4909212561661e-06,-0.0012925756004025,9.9761360641342e-05,-0.0021639685195747,1.1335211073985e-05,0.00031745244804767,-8.6940325235982e-05,-4.8744859705044e-06,6.6367221934587e-06,4.8786816095696e-05,5.4993281907503e-06,-0.0018884458735724,-2.6277836236729e-05,-4.6094730869018e-06,0.00010369137053636,-0.00080594198598839,-1.0311738350036e-06,-1.1142334996329e-06,1.1410843576961e-05,-0.0035922884927974,-6.2205206343211e-06,-5.0201102279426e-06,-7.565670549497e-05,-1.0870834525696e-05,2.4980886854847e-05,7.1369193283614e-05,732.20189254953,732.20189254953,732.20176261536,732.20176261536,732.20201484617,732.20200986725,732.20180568052,732.20186687279,732.20196812391,732.20191598924,732.20172584223,732.20180600259,732.20179327663,732.20193562559,732.20189753322,732.20178134694,732.20187567628,732.20203577717,732.20202547852,732.20178103219,732.20182744037,732.20199567474,732.20196516721,732.20179327663,732.20172671428,732.20178124522,732.20197808844,732.20198588388,732.20183652717,732.20190105276,732.2019381514,732.20186510481,732.20173985495,732.20183692929,732.20189214406,732.2019293473,732.20192295286,732.20181130038,732.20189003754,732.20192953639,732.20186248123,732.20176892669,732.20187210874,732.20189214406,732.20193435618,732.20193435618,732.20202676166,732.20202676166,82.455149740368,1247.533251596,273.06796244737,1327.120615881,247.99439390989,0
2.84e-05,20256726.790083,1.9522418038602e-06,8.4292443641754e-06,1.7350582179372e-06,1.000071037217,607.67933273831,607.67933273831,607.67919284972,607.67919284972,607.67946401771,607.67945863578,607.67923897186,607.67930504217,607.67941393444,607.67935763531,607.67915312778,607.67923967889,607.67922554154,607.67937887308,607.67933773333,607.67921268371,607.67931453919,607.67948655281,607.67947542815,607.67921252258,607.67926262969,607.67944351333,607.67941056786,607.67922554154,607.67915413089,607.67921300817,607.67942444821,607.67943285959,607.67927211123,607.67934178109,607.67938174288,607.67930286336,607.67916814174,607.67927295811,607.6793319361,607.67937204324,607.67936513175,607.67924492056,607.67932993843,607.67937240453,607.67929999133,607.67919932066,607.67931073641,607.6793319361,607.67937751194,607.67937751194,607.67947685909,607.67947685909,-0.00016830092495726,-9.1319847031184e-07,-0.0001229456748502,-3.5739418989205e-05,4.0017535609828e-05,0.00067451428160537,-0.00029969288016928,1.6548174528844e-06,1.173926465626e-05,3.4155542452373e-06,3.7225696232989e-05,-0.0030425917017079,-7.729628899193e-08,-2.1651143419674e-06,5.2693248595327e-05,-0.0026227770768891,-5.8256592238595e-06,5.9466495927427e-05,0.00063205120808917,-0.00049078212310414,-1.1070607605574e-05,9.1414605379036e-06,1.6000638527465e-06,-0.0013854802076471,0.00010705844467117,-0.0023140737708096,1.2165134710518e-05,0.00034048056024674,-9.3298361319928e-05,-5.2309499482908e-06,7.1228970292675e-06,5.2304356690359e-05,5.9016485526358e-06,-0.0020184699919947,-2.8174769495655e-05,-4.9465878851299e-06,0.00011127754475634,-0.00086364405969264,-1.1065219020644e-06,-1.192918839202e-06,1.2245700835708e-05,-0.003850112575625,-6.6759887489197e-06,-5.38709468566e-06,-8.1191488412746e-05,-1.1656397776955e-05,2.680987055167e-05,7.6537162078261e-05,732.20187541855,732.20187541855,732.20173552996,732.20173552996,732.20200669795,732.20200131602,732.2017816521,732.20184772241,732.20195661468,732.20190031555,732.20169580801,732.20178235913,732.20176822178,732.20192155332,732.20188041357,732.20175536394,732.20185721943,732.20202923305,732.20201810839,732.20175520282,732.20180530993,732.20198619357,732.2019532481,732.20176822178,732.20169681113,732.20175568841,732.20196712845,732.20197553983,732.20181479146,732.20188446133,732.20192442312,732.2018455436,732.20171082198,732.20181563835,732.20187461634,732.20191472348,732.20190781199,732.2017876008,732.20187261867,732.20191508477,732.20184267157,732.2017420009,732.20185341665,732.20187461634,732.20192019218,732.20192019218,732.20201953933,732.20201953933,87.200961964939,1250.9665392064,274.02984415466,1331.8006800869,248.86815650138,0
2.85e-05,20275101.918935,1.9591141397148e-06,8.458924708817e-06,1.7411716993603e-06,1.0000757772519,607.67931298558,607.67931298558,607.67916242425,607.67916242425,607.67945384806,607.67944803064,607.67921179475,607.67928311703,607.67940018811,607.6793394032,607.67911952543,607.67921295794,607.67919725496,607.67936237068,607.67931794737,607.67918340079,607.67929336063,607.67947810274,607.6794660875,607.67918342509,607.67923751473,607.67943193102,607.67939635928,607.67919725496,607.6791206767,607.67918423381,607.67941126485,607.6794203378,607.67924738377,607.67932259214,607.67936562703,607.67928046498,607.67913560416,607.6792487574,607.67931171391,607.67935494099,607.67934747084,607.67921808434,607.6793098649,607.67935550591,607.67927732104,607.67916902792,607.67928931045,607.67931171391,607.67936091052,607.67936091052,607.67946768319,607.67946768319,-0.00017979516081376,-9.7965229108111e-07,-0.00013190516049007,-3.7630122637362e-05,4.293634202252e-05,0.00072326603214255,-0.00032151536732228,1.7756708361398e-06,1.2595879223239e-05,3.6623826162407e-06,3.9938721577223e-05,-0.0032514735086476,-8.2931932359469e-08,-2.3228321672833e-06,5.6534224624564e-05,-0.0028098516518532,-6.2506272868642e-06,6.3804104804628e-05,0.00067773585382855,-0.0005264857995527,-1.1877109822939e-05,9.8078926183399e-06,1.7167721075973e-06,-0.0014845730377852,0.00011486043506448,-0.0024736449234999,1.3052582182213e-05,0.00036507826001676,-0.0001000955824767,-5.6120736477986e-06,7.6428060130403e-06,5.6057766981009e-05,6.3318096993506e-06,-0.0021565772111782,-3.019932748084e-05,-5.3070408887521e-06,0.00011938881545319,-0.00092515694099822,-1.1870694608832e-06,-1.2767376829854e-06,1.313834486544e-05,-0.0041250571517304,-7.1630284705305e-06,-5.7794355648925e-06,-8.7109385498876e-05,-1.2495109096431e-05,2.8765656521381e-05,8.2056064748371e-05,732.20185712942,732.20185712942,732.2017065681,732.2017065681,732.20199799191,732.20199217449,732.20175593859,732.20182726087,732.20194433195,732.20188354705,732.20166366928,732.20175710179,732.20174139881,732.20190651453,732.20186209122,732.20172754464,732.20183750447,732.20202224659,732.20201023134,732.20172756894,732.20178165858,732.20197607487,732.20194050313,732.20174139881,732.20166482054,732.20172837765,732.2019554087,732.20196448165,732.20179152761,732.20186673599,732.20190977088,732.20182460882,732.20167974801,732.20179290125,732.20185585776,732.20189908483,732.20189161468,732.20176222819,732.20185400875,732.20189964976,732.20182146489,732.20171317177,732.2018334543,732.20185585776,732.20190505437,732.20190505437,732.20201182703,732.20201182703,92.126541753881,1254.3415439202,274.99169363977,1336.4772435743,249.74189574443,0
2.86e-05,20294519.297476,1.9659864232305e-06,8.4886050593106e-06,1.7472853793004e-06,1.0000807746233,607.67929187004,607.67929187004,607.67912986942,607.67912986942,607.67944295127,607.67943666322,607.6791826896,607.6792596649,607.67938548723,607.67931987159,607.67908354896,607.67918438925,607.67916695096,607.67934470712,607.67929674649,607.67915202762,607.67927071213,607.67946904869,607.67945607338,607.67915227317,607.67921064949,607.67941953819,607.67938113795,607.67916695096,607.67908486735,607.67915346202,607.67939713903,607.67940692218,607.67922089491,607.67930206457,607.6793483971,607.67925646988,607.67910075936,607.67922288776,607.67929004695,607.67933662516,607.67932855136,607.67918933192,607.67928839217,607.67933742916,607.6792530285,607.6791365735,607.67926640209,607.67929004695,607.67934313986,607.67934313986,607.67945785258,607.67945785258,-0.00019199711213974,-1.0506742876069e-06,-0.00014148237857095,-3.9577198782177e-05,4.6056700150138e-05,0.00077532838282628,-0.00034483746312942,1.9048907173117e-06,1.351168027251e-05,3.9259220723929e-06,4.2838768771164e-05,-0.003473335346061,-8.895634797299e-08,-2.4914251263711e-06,6.0640075800865e-05,-0.0030092344810034,-6.7049383498963e-06,6.8441280306735e-05,0.00072652288675094,-0.00056463793250013,-1.2739210033308e-05,1.0520283570145e-05,1.8415414251794e-06,-0.0015902242311648,0.00012320025417495,-0.0026432163941076,1.4001317416261e-05,0.0003913448590192,-0.00010736048034145,-6.0194648997025e-06,8.1986614446789e-06,6.0061375101163e-05,6.7916268862228e-06,-0.0023032122108889,-3.2359332844372e-05,-5.6923572514838e-06,0.00012805945361344,-0.00099070397270129,-1.2731540305929e-06,-1.3659979738795e-06,1.4092547262252e-05,-0.0044181390073853,-7.6837058647856e-06,-6.1987810783167e-06,-9.3435405150483e-05,-1.3390278134304e-05,3.085654895059e-05,8.7947919042482e-05,732.20183760901,732.20183760901,732.20167560838,732.20167560838,732.20198869024,732.20198240219,732.20172842856,732.20180540386,732.2019312262,732.20186561055,732.20162928792,732.20173012821,732.20171268993,732.20189044608,732.20184248545,732.20169776659,732.2018164511,732.20201478765,732.20200181234,732.20169801214,732.20175638846,732.20196527715,732.20192687691,732.20171268993,732.20163060631,732.20169920099,732.20194287799,732.20195266115,732.20176663388,732.20184780353,732.20189413607,732.20180220884,732.20164649833,732.20176862672,732.20183578592,732.20188236413,732.20187429033,732.20173507089,732.20183413113,732.20188316812,732.20179876746,732.20168231247,732.20181214106,732.20183578592,732.20188887882,732.20188887882,732.20200359154,732.20200359154,97.229780130714,1257.6563116508,275.95351048754,1341.1500553963,250.61561114958,0
2.87e-05,20315015.778527,1.9728586523921e-06,8.5182854161456e-06,1.7533992691529e-06,1.0000860376569,607.6792693063,607.6792693063,607.67909504859,607.67909504859,607.67943127904,607.67942448234,607.67915153017,607.67923458839,607.67936977129,607.67929895469,607.67904504396,607.67915385649,607.6791344965,607.6793258074,607.6792740369,607.67911842626,607.67924650062,607.67945935046,607.67944534035,607.67911893326,607.6791819223,607.67940628272,607.6793648369,607.6791344965,607.67904655046,607.67912056629,607.67938200827,607.67939255339,607.67919252867,607.67928011272,607.67932998301,607.67923077274,607.67906345652,607.67919524457,607.67926683971,607.67931701639,607.67930829027,607.6791585368,607.67926543097,607.67931809926,607.67922700614,607.67910181482,607.67924191799,607.67926683971,607.67932412403,607.67932412403,607.6794473238,607.6794473238,-0.00020494549809813,-1.1265595587499e-06,-0.00015171748970038,-4.1578740628723e-05,4.9391750445026e-05,0.00083090999940317,-0.00036975575516244,2.0430255524953e-06,1.4490529976268e-05,4.2072159521887e-06,4.5937986571874e-05,-0.0037088964781381,-9.539481364545e-08,-2.6716010997254e-06,6.5028017494169e-05,-0.0032216443313895,-7.1905047397233e-06,7.3397559864734e-05,0.00077860784166449,-0.00060539548390146,-1.3660523875353e-05,1.1281620357888e-05,1.974897787647e-06,-0.0017028221820519,0.0001321128440688,-0.002823350838137,1.5015336082275e-05,0.00041938534833233,-0.00011512326474026,-6.4548296549245e-06,8.7928124992941e-06,6.433024619246e-05,7.2830266648621e-06,-0.0024588424656595,-3.4663021771595e-05,-6.1041559090646e-06,0.00013732581959068,-0.0010605188756295,-1.3651336788067e-06,-1.4610253218177e-06,1.5112308940958e-05,-0.0047304240903439,-8.2402142546757e-06,-6.6468794375401e-06,-0.0001001960843162,-1.4345396564894e-05,3.30913645121e-05,9.4235976307986e-05,732.20181678089,732.20181678089,732.20164252319,732.20164252319,732.20197875364,732.20197195694,732.20169900477,732.20178206299,732.20191724588,732.20184642928,732.20159251856,732.20170133109,732.20168197109,732.201873282,732.2018215115,732.20166590086,732.20179397522,732.20200682505,732.20199281495,732.20166640785,732.2017293969,732.20195375731,732.2019123115,732.20168197109,732.20159402506,732.20166804088,732.20192948287,732.20194002799,732.20174000327,732.20182758732,732.2018774576,732.20177824734,732.20161093111,732.20174271917,732.20181431431,732.20186449099,732.20185576487,732.2017060114,732.20181290557,732.20186557386,732.20177448074,732.20164928941,732.20178939259,732.20181431431,732.20187159863,732.20187159863,732.2019947984,732.2019947984,102.50764941551,1260.9089419499,276.91529369804,1345.8188498361,251.48930230511,0
2.88e-05,20336627.560664,1.9797308251053e-06,8.547965779842e-06,1.7595133809878e-06,1.0000915744384,607.67924520413,607.67924520413,607.67905781727,607.67905781727,607.67941878015,607.67941143367,607.6791181828,607.67920778447,607.67935297626,607.6792765616,607.67900384704,607.67912123675,607.67909975067,607.67930559221,607.67924971924,607.67908245066,607.67922062773,607.67944896541,607.67943384013,607.67908326394,607.67915121504,607.67939210946,607.67934738518,607.67909975067,607.67900556483,607.67908541286,607.67936580637,607.67937716849,607.67916216217,607.67925664598,607.67931031068,607.67920326199,607.67902353595,607.67916571737,607.67924199102,607.67929603064,607.67928659957,607.67912556501,607.67924088693,607.67929743692,607.67919914003,607.67906460086,607.67921575952,607.67924199102,607.67930378265,607.67930378265,607.67943605073,607.67943605073,-0.00021868106651248,-1.2076209723844e-06,-0.00016265309438681,-4.3632633598694e-05,5.2955439785649e-05,0.00089023143212505,-0.00039637258270803,2.1906579405443e-06,1.5536527872966e-05,4.5073655967898e-06,4.9249259155582e-05,-0.0039589138211284,-1.022741568097e-07,-2.8641113413103e-06,6.9716315915812e-05,-0.0034478332933739,-7.7093560551011e-06,7.8693680892995e-05,0.00083419738644392,-0.00064892465938154,-1.4644886953328e-05,1.2095071897312e-05,2.1173995280228e-06,-0.0018227740420129,0.000141635263788,-0.0030146409103168,1.6098878983882e-05,0.0004493106719647,-0.00012341595687723,-6.9199777165394e-06,9.4277531959753e-06,6.8880207219256e-05,7.8080521949589e-06,-0.0026239596765741,-3.7119059405693e-05,-6.5441550043976e-06,0.00014722649311687,-0.0011348459415654,-1.4633881951684e-06,-1.5621640895255e-06,1.6201875125787e-05,-0.005063028724134,-8.8348815613663e-06,-7.1255844797565e-06,-0.00010741958022779,-1.536414594763e-05,3.5479462120383e-05,0.00010094477586684,732.20179456615,732.20179456615,732.2016071793,732.2016071793,732.20196814217,732.2019607957,732.20166754482,732.2017571465,732.20190233828,732.20182592363,732.20155320906,732.20167059878,732.2016491127,732.20185495424,732.20179908127,732.20163181269,732.20176998976,732.20199832744,732.20198320216,732.20163262597,732.20170057707,732.20194147149,732.20189674721,732.2016491127,732.20155492686,732.20163477488,732.20191516839,732.20192653052,732.2017115242,732.20180600801,732.20185967271,732.20175262402,732.20157289797,732.2017150794,732.20179135304,732.20184539267,732.2018359616,732.20167492704,732.20179024896,732.20184679895,732.20174850206,732.20161396289,732.20176512154,732.20179135304,732.20185314467,732.20185314467,732.20198541276,732.20198541276,107.95617879476,1264.0975978244,277.87704238708,1350.4833456485,252.36296872446,0
2.89e-05,20359389.999908,1.9866029395569e-06,8.5776461509467e-06,1.7656277283112e-06,1.0000973927664,607.67921946828,607.67921946828,607.67901802262,607.67901802262,607.67940540029,607.67939745953,607.67908250599,607.67917914418,607.6793350345,607.67925259607,607.67895978532,607.6790864002,607.67906256436,607.67928397768,607.67922368827,607.67904394621,607.67919298951,607.67943784832,607.67942152147,607.67904511562,607.67911840279,607.67937696008,607.67932870758,607.67906256436,607.67896173993,607.67904786039,607.67934846317,607.67936070074,607.67912966535,607.67923156848,607.67928930192,607.6791738195,607.6789808287,607.67913418947,607.67921539376,607.67927357902,607.67926338606,607.67909027475,607.67921466026,607.67927535836,607.67916930948,607.67902477181,607.6791878225,607.67921539376,607.67928203061,607.67928203061,607.67942398446,607.67942398446,-0.00023324673721117,-1.2941901373184e-06,-0.00017433438509906,-4.5736585867225e-05,5.6762567929811e-05,0.00095352563474711,-0.00042479634996967,2.3484066178719e-06,1.6654024594062e-05,4.8275329252494e-06,5.2786254568855e-05,-0.0042241843855951,-1.0962283172295e-07,-3.0697529680586e-06,7.4724345973552e-05,-0.0036885874462633,-8.2636459365719e-06,8.4351650031287e-05,0.00089350980689074,-0.00069540139680963,-1.5696368238465e-05,1.2963999318815e-05,2.26963919919e-06,-0.0019505062032508,0.00015180682612176,-0.0032177111631553,1.7256446220386e-05,0.00048123798313953,-0.0001322724897671,-7.4168285352434e-06,1.0106130846987e-05,7.3727871369772e-05,8.3688710590566e-06,-0.0027990813900276,-3.9736555778033e-05,-7.0141775750338e-06,0.00015780239636852,-0.0012139402054876,-1.568320345081e-06,-1.669778617202e-06,1.7365748709322e-05,-0.0054171207550476,-9.4701780705504e-06,-7.6368615519571e-06,-0.00011513576122122,-1.6450404586534e-05,3.8030774317843e-05,0.00010810019484824,732.20177088207,732.20177088207,732.20156943641,732.20156943641,732.20195681408,732.20194887332,732.20163391978,732.20173055797,732.20188644829,732.20180400986,732.20151119911,732.20163781399,732.20161397815,732.20183539148,732.20177510206,732.20159536,732.2017444033,732.20198926211,732.20197293526,732.20159652941,732.20166981658,732.20192837387,732.20188012137,732.20161397815,732.20151315372,732.20159927418,732.20189987696,732.20191211453,732.20168107914,732.20178298227,732.20184071571,732.20172523329,732.20153224249,732.20168560326,732.20176680755,732.20182499281,732.20181479985,732.20164168854,732.20176607405,732.20182677215,732.20172072327,732.2015761856,732.20173923629,732.20176680755,732.2018334444,732.2018334444,732.20197539825,732.20197539825,113.57043397135,1267.2205182584,278.83875562234,1355.1432452711,253.23660992048,0
2.9e-05,20383337.419693,1.9934749934519e-06,8.6073265300488e-06,1.7717423245869e-06,1.0001035001052,607.6791919982,607.6791919982,607.67897550308,607.67897550308,607.67939108195,607.67938249875,607.67904435007,607.67914855228,607.67931587451,607.67922695616,607.67891267604,607.67904920968,607.67902277976,607.67926087521,607.67919583261,607.67900274938,607.67916347614,607.67942595125,607.67940832998,607.67900433004,607.67908335349,607.67936077282,607.67930872447,607.67902277976,607.67891489546,607.67900775956,607.67932990442,607.67934307938,607.67909490058,607.67920477881,607.67926687409,607.67914232023,607.67893515609,607.67910053767,607.67918693462,607.67924956752,607.67923855108,607.67905251602,607.67918664546,607.67925177509,607.67913738679,607.67898215859,607.67915799693,607.67918693462,607.67925877785,607.67925877785,607.67941107313,607.67941107313,-0.00024868775568814,-1.3866184502802e-06,-0.00018680928258389,-4.7888180946535e-05,6.0828836379027e-05,0.0010210386004765,-0.00045514184803253,2.5169285872929e-06,1.7847636282701e-05,5.1689431750009e-06,5.6563462127005e-05,-0.0045055479488087,-1.1747101713489e-07,-3.2893715899261e-06,8.0072653821109e-05,-0.0039447274101003,-8.8556591510282e-06,9.039481602934e-05,0.00095677560324809,-0.00074501186826815,-1.6819282904803e-05,1.3891966826305e-05,2.4322455563617e-06,-0.0020864647398265,0.00016266920912818,-0.0034332201397267,1.8492811972419e-05,0.00051529095797433,-0.00014172881143239,-7.9474173936251e-06,1.0830754909663e-05,7.8890661870967e-05,8.9677809887354e-06,-0.0029847527572327,-4.2525081402734e-05,-7.5161575648036e-06,0.0001690969262844,-0.0012980675733488,-1.6803571551408e-06,-1.7842545021609e-06,1.8608704787738e-05,-0.0057939205554214,-1.0148724578055e-05,-8.1827936713935e-06,-0.00012337630371678,-1.760825639246e-05,4.0755840325787e-05,0.00011572951284838,732.201745638,732.201745638,732.20152914289,732.20152914289,732.20194472176,732.20193613856,732.20159798988,732.20170219209,732.20186951432,732.20178059596,732.20146631584,732.20160284948,732.20157641957,732.20181451501,732.20174947241,732.20155638919,732.20171711594,732.20197959105,732.20196196978,732.20155796985,732.2016369933,732.20191441263,732.20186236427,732.20157641957,732.20146853527,732.20156139937,732.20188354423,732.20189671919,732.20164854039,732.20175841861,732.2018205139,732.20169596004,732.20148879589,732.20165417748,732.20174057442,732.20180320732,732.20179219088,732.20160615583,732.20174028527,732.20180541489,732.2016910266,732.2015357984,732.20171163674,732.20174057442,732.20181241766,732.20181241766,732.20196471293,732.20196471293,119.34451200456,1270.2760297625,279.80043241909,1359.7982342716,254.11022534918,0
2.91e-05,20408502.920972,2.0003469848446e-06,8.6370069177652e-06,1.7778571848256e-06,1.0001099035388,607.67916268772,607.67916268772,607.67893008792,607.67893008792,607.6793757642,607.67936648646,607.67900355676,607.67911588696,607.67929542075,607.67919953404,607.67886232598,607.67900952034,607.67898023005,607.67923619114,607.67916603438,607.67895868729,607.67913197161,607.67941322337,607.67939420794,607.67896073991,607.67904592754,607.67934348241,607.67928735152,607.67898023005,607.67886484089,607.6789649526,607.67931005153,607.67932422945,607.67905772231,607.67917616972,607.67924293996,607.67910863195,607.67888632924,607.67906463187,607.67915649374,607.67922389679,607.67921199023,607.67901213023,607.67915673108,607.67922659366,607.67910323688,607.67893658248,607.67912616665,607.67915649374,607.67923392908,607.67923392908,607.67939726176,607.67939726176,-0.00026505186011342,-1.485278171133e-06,-0.00020012859914619,-5.0084939026657e-05,6.5170899975205e-05,0.001093029980497,-0.00048753058828503,2.6969213252512e-06,1.9122259837677e-05,5.5328875965905e-06,6.0596242796838e-05,-0.0048038899336003,-1.258507096946e-07,-3.5238640784604e-06,8.5783022536362e-05,-0.0042171087906289,-9.4878191051226e-06,9.6847946709744e-05,0.0010242380717148,-0.00079795299696504,-1.801820705821e-05,1.4882753162129e-05,2.605885636707e-06,-0.0022311158031505,0.00017426659981526,-0.0036618626131062,1.9813040105601e-05,0.00055160009905566,-0.00015182299224367,-8.5139018941697e-06,1.160460636971e-05,8.438683450853e-05,9.6072179294753e-06,-0.0031815484382518,-4.5494683446653e-05,-8.0521461507093e-06,0.00018115609357145,-0.0013875049116598,-1.7999513073342e-06,-1.9059999823516e-06,1.9935805912658e-05,-0.00619470188374,-1.0873301007551e-05,-8.765587969228e-06,-0.0001321747941466,-1.8841999049105e-05,4.3665840953486e-05,0.00012386147406758,732.20171873822,732.20171873822,732.20148613843,732.20148613843,732.20193181471,732.20192253696,732.20155960726,732.20167193747,732.20185147126,732.20175558455,732.20141837649,732.20156557085,732.20153628056,732.20179224165,732.20172208489,732.20151473779,732.20168802212,732.20196927387,732.20195025844,732.20151679042,732.20160197804,732.20189953291,732.20184340203,732.20153628056,732.20142089139,732.20152100311,732.20186610204,732.20188027995,732.20161377282,732.20173222023,732.20179899047,732.20166468246,732.20144237974,732.20162068238,732.20171254425,732.2017799473,732.20176804073,732.20156818073,732.20171278159,732.20178264417,732.20165928739,732.20149263298,732.20168221716,732.20171254425,732.20178997958,732.20178997958,732.20195331227,732.20195331227,125.27154621478,1273.2625575408,280.76207173374,1364.4479804969,254.98381444677,0
2.92e-05,20434918.194703,2.0072189114893e-06,8.6666873147585e-06,1.7839723241511e-06,1.0001166097262,607.67913142478,607.67913142478,607.67888159672,607.67888159672,607.67935938256,607.67934935388,607.67895995874,607.67908101942,607.6792735934,607.67917021567,607.67880853104,607.67896717923,607.67893473892,607.67920982664,607.67913416901,607.67891157727,607.67909835343,607.67939961084,607.67937909415,607.6789141684,607.67900597739,607.67932501979,607.67926449951,607.67893473892,607.6788113749,607.67891927287,607.67928882136,607.67930407153,607.67901797669,607.67914562781,607.67921740741,607.67907261486,607.67883414857,607.67902633472,607.67912394448,607.67919646189,607.67918359312,607.67896894982,607.67912479934,607.67919971545,607.67906671695,607.67888785462,607.67909220901,607.67912394448,607.67920738349,607.67920738349,607.67938249212,607.67938249212,-0.00028238946424461,-1.5905635528689e-06,-0.00021434619720116,-5.2324385794767e-05,6.9806421161762e-05,0.0011697736713391,-0.00052209115398495,2.8891252295856e-06,2.0483088934942e-05,5.9207262472826e-06,6.4900877257488e-05,-0.0051201445186174,-1.3479582493144e-07,-3.7741814815437e-06,9.1878540938791e-05,-0.0045066225014893,-1.0162695731634e-05,0.00010373730992187,0.0010961538507535,-0.00085443299989594,-1.9297991928e-05,1.5940363482269e-05,2.7912669560981e-06,-0.0023849459679849,0.00018664583180503,-0.0039043719876507,2.1222500676495e-05,0.00059030302485022,-0.00016259533841439,-9.1185686152917e-06,1.2430847620845e-05,9.0235499076977e-05,1.0289763736922e-05,-0.0033900746735345,-4.8655900967179e-05,-8.624318403048e-06,0.00019402866783059,-0.0014825400902235,-1.9275825848089e-06,-2.0354474137431e-06,2.135241812654e-05,-0.0066207925855981,-1.164685546667e-05,-9.3875824855874e-06,-0.00014156683472797,-2.0156151442666e-05,4.6772635337636e-05,0.00013252634071009,732.20169008162,732.20169008162,732.20144025357,732.20144025357,732.20191803941,732.20190801073,732.20151861559,732.20163967627,732.20183225025,732.20172887251,732.20136718789,732.20152583608,732.20149339577,732.20176848349,732.20169282586,732.20147023412,732.20165701028,732.20195826769,732.201937751,732.20147282525,732.20156463424,732.20188367664,732.20182315636,732.20149339577,732.20137003175,732.20147792972,732.20184747821,732.20186272838,732.20157663354,732.20170428466,732.20177606425,732.20163127171,732.20139280542,732.20158499157,732.20168260133,732.20175511874,732.20174224996,732.20152760667,732.20168345619,732.2017583723,732.2016253738,732.20144651147,732.20165086585,732.20168260133,732.20176604034,732.20176604034,732.20194114897,732.20194114897,131.34372271795,1276.178636553,281.7236724706,1369.0921334898,255.85737660572,0
2.93e-05,20462613.339189,2.014090771444e-06,8.6963677217109e-06,1.7900877588608e-06,1.0001236248588,607.6790980911,607.6790980911,607.6788298389,607.6788298389,607.67934186879,607.67933102814,607.67891337928,607.67904381351,607.67925030813,607.67913888046,607.67875107566,607.67892202481,607.67888612018,607.67918167734,607.6791001048,607.67886122647,607.67906249222,607.67938505664,607.67936292376,607.6788644287,607.6789633471,607.67930531197,607.67924007405,607.67888612018,607.67875428488,607.67887054438,607.67926612605,607.67928252154,607.67897550119,607.67911303316,607.67919017915,607.67903412122,607.67877840336,607.67898550119,607.67908915305,607.67916715201,607.67915324304,607.67892279788,607.67909072581,607.67917103633,607.67902767616,607.6788357756,607.67905599453,607.67908915305,607.67917903449,607.67917903449,607.67936670252,607.67936670252,-0.00030075385173924,-1.7028920531044e-06,-0.00022951915736563,-5.4604137594228e-05,7.4754127237722e-05,0.0012515584511393,-0.00055895956077101,3.0943261167643e-06,2.193563095735e-05,6.3338908748559e-06,6.949461482039e-05,-0.0054552979667768,-1.4434230655585e-07,-4.0413320950149e-06,9.8383676446297e-05,-0.0048141949576973,-1.088301379926e-05,0.00011109075896528,0.0011727935181306,-0.00091467194351002,-2.0663779287203e-05,1.7069041999216e-05,2.9891398224558e-06,-0.0025484625367881,0.00019985652808362,-0.0041615228739981,2.2726887324397e-05,0.00063154478041395,-0.00017408850843066,-9.7638404516449e-06,1.3312832866252e-05,9.6456640389857e-05,1.101815380812e-05,-0.0036109714949443,-5.201977997865e-05,-9.2349803032356e-06,0.00020776633233555,-0.0015834719748809,-2.0637593982513e-06,-2.1730548382171e-06,2.286422783067e-05,-0.0070735751357621,-1.2472513789606e-05,-1.0051253238559e-05,-0.00015159015774696,-2.1555461451023e-05,5.0088799713533e-05,0.00014175595369976,732.2016595688,732.2016595688,732.20139131659,732.20139131659,732.20190334648,732.20189250584,732.20147485698,732.2016052912,732.20181178583,732.20170035816,732.20131255335,732.2014835025,732.20144759788,732.20174315503,732.2016615825,732.20142270417,732.20162396992,732.20194653433,732.20192440146,732.20142590639,732.2015248248,732.20186678967,732.20180155175,732.20144759788,732.20131576258,732.20143202207,732.20182760375,732.20184399924,732.20153697888,732.20167451086,732.20175165685,732.20159559892,732.20133988106,732.20154697888,732.20165063074,732.20172862971,732.20171472074,732.20148427558,732.2016522035,732.20173251403,732.20158915385,732.2013972533,732.20161747222,732.20165063074,732.20174051219,732.20174051219,732.20192818021,732.20192818021,137.55230983486,1279.0229220923,282.68523344501,1373.7303231175,256.73091120656,0
2.94e-05,20491616.684692,2.0209625624734e-06,8.7260481393626e-06,1.7962035065854e-06,1.0001309546198,607.67906256186,607.67906256186,607.67877461317,607.67877461317,607.67932315072,607.67931143207,607.67886363172,607.6790041253,607.67922547586,607.67910540104,607.67868973231,607.67887388649,607.6788341773,607.67915163314,607.67906370271,607.67880743138,607.67902425138,607.67936950039,607.67934562803,607.67881132351,607.6789178719,607.67928428175,607.67921397535,607.6788341773,607.67869334639,607.67881858125,607.67924187275,607.67925949048,607.67893012419,607.67907825898,607.6791611525,607.67899299505,607.67871887116,607.67894197814,607.67905197826,607.67913585025,607.6791208167,607.67887348772,607.67905437905,607.67914044647,607.67898595524,607.67878013502,607.67901738653,607.67905197826,607.67914876938,607.67914876938,607.67934982761,607.67934982761,-0.00032020138848939,-1.8227055637132e-06,-0.00024570795811667,-5.6922011764432e-05,8.0033870487698e-05,0.001338688617902,-0.00059827960537985,3.3133579162187e-06,2.3485724777346e-05,6.7738877416339e-06,7.4395727911587e-05,-0.0058103922110225,-1.545282368477e-07,-4.3263847003951e-06,0.00010532435108101,-0.0051407880317396,-1.1651661704573e-05,0.00011893782237775,0.0012544421865932,-0.00097890227573958,-2.2121017653913e-05,1.8273285142042e-05,3.2002997792932e-06,-0.0027221937084879,0.00021395125705924,-0.0044341338358237,2.433223549174e-05,0.00067547814958018,-0.00018634762711596,-1.0452283979951e-05,1.42541191209e-05,0.00010307113459674,1.1795285801224e-05,-0.0038449151265742,-5.559788825606e-05,-9.8865761414622e-06,0.00022242384446068,-0.0016906103420794,-2.2090204221406e-06,-2.3193076641441e-06,2.447725948413e-05,-0.007554486827904,-1.3353589613268e-05,-1.0759221553076e-05,-0.00016228474268576,-2.304491357544e-05,5.3627668211521e-05,0.00015158379056927,732.20162709198,732.20162709198,732.20133914329,732.20133914329,732.20188768084,732.2018759622,732.20142816184,732.20156865543,732.20179000598,732.20166993116,732.20125426243,732.20143841661,732.20139870743,732.20171616326,732.20162823284,732.2013719615,732.20158878151,732.20193403051,732.20191015815,732.20137585364,732.20148240203,732.20184881188,732.20177850548,732.20139870743,732.20125787652,732.20138311137,732.20180640287,732.20182402061,732.20149465431,732.2016427891,732.20172568263,732.20155752518,732.20128340129,732.20150650827,732.20161650838,732.20170038038,732.20168534683,732.20143801784,732.20161890918,732.2017049766,732.20155048536,732.20134466515,732.20158191666,732.20161650838,732.20171329951,732.20171329951,732.20191435774,732.20191435774,143.88770013499,1281.7941995394,283.64675342321,1378.3621597442,257.60441757039,0
2.95e-05,20521954.627677,2.0278342824164e-06,8.755728568485e-06,1.8023195852471e-06,1.000138604148,607.67902470528,607.67902470528,607.678715707,607.678715707,607.67930315206,607.67929048395,607.67881051906,607.67896180269,607.67919900249,607.67906964287,607.67862426092,607.67882258414,607.67877870298,607.67911957793,607.67902481598,607.6787499774,607.67898348668,607.67935287819,607.67932713416,607.67875464459,607.6788693777,607.67926184755,607.67918609794,607.67877870298,607.67862832255,607.6787631872,607.67921596341,607.67923488417,607.6788816646,607.67904117121,607.67913021902,607.67894907171,607.67865531731,607.6788956039,607.67901227115,607.67910243331,607.67908618391,607.67882082247,607.67901562026,607.67910783,607.67894138616,607.67872071097,607.67897624076,607.67901227115,607.67911646904,607.67911646904,607.67933179825,607.67933179825,-0.00034079174853245,-1.9504717332477e-06,-0.00026297666284965,-5.9276107910114e-05,8.566669165388e-05,0.0014314846424253,-0.00064020329547161,3.5471054951365e-06,2.5139559489093e-05,7.242300630977e-06,7.962356764141e-05,-0.0061865286485626,-1.6539395500679e-07,-4.630471969602e-06,0.00011272802142332,-0.0054873989822751,-1.2471700634189e-05,0.00012730979869211,0.0013414001144958,-0.0010473694831713,-2.3675479306016e-05,1.9557855413705e-05,3.4255901773916e-06,-0.0029066887819754,0.00022898569315311,-0.0047230702890899,2.6044941687414e-05,0.00072226397255266,-0.00019942042434021,-1.1186617339415e-05,1.5258477755166e-05,0.00011010076786955,1.2624228426096e-05,-0.0040926205303391,-5.9402330063206e-05,-1.0581696292397e-05,0.00023805920496413,-0.001804275770012,-2.363936252282e-06,-2.4747204539719e-06,2.6197894175528e-05,-0.0080650199803146,-1.4293594918619e-05,-1.1514261985932e-05,-0.00017369294051776,-2.4629736324162e-05,5.7403375902693e-05,0.00016204502398016,732.20159253291,732.20159253291,732.20128353463,732.20128353463,732.20187097969,732.20185831158,732.20137834669,732.20152963032,732.20176683012,732.2016374705,732.20119208855,732.20139041177,732.20134653061,732.20168740556,732.20159264361,732.20131780503,732.20155131432,732.20192070583,732.20189496179,732.20132247222,732.20143720533,732.20182967518,732.20175392557,732.20134653061,732.20119615018,732.20133101483,732.20178379104,732.2018027118,732.20144949224,732.20160899884,732.20169804665,732.20151689934,732.20122314494,732.20146343153,732.20158009878,732.20167026094,732.20165401154,732.2013886501,732.20158344789,732.20167565763,732.20150921379,732.2012885386,732.20154406839,732.20158009878,732.20168429668,732.20168429668,732.20189962588,732.20189962588,150.33946450427,1284.4913929384,284.60823109609,1382.9872328768,258.47789499603,0
2.96e-05,20553651.47677,2.034705929087e-06,8.7854090099011e-06,1.8084360143253e-06,1.0001465780044,607.67898438229,607.67898438229,607.67865289605,607.67865289605,607.6792817922,607.67926809729,607.67875383347,607.67891668487,607.67917078862,607.67903146398,607.67855440832,607.67876792755,607.67871947868,607.6790853893,607.6789832898,607.67868863841,607.67894004587,607.67933512246,607.6793073651,607.67869417216,607.67881768055,607.67923792314,607.67915633041,607.67871947868,607.67855896348,607.67870415498,607.67918829456,607.67920860298,607.67882993144,607.67900162815,607.67909726421,607.67890217751,607.67858749441,607.67884620773,607.67896987472,607.67906677124,607.67904920725,607.67876459468,607.67897430286,607.67907306471,607.67889379176,607.67865726962,607.6789324049,607.67896987472,607.67908200759,607.67908200759,607.67931254126,607.67931254126,-0.00036258815477426,-2.0866853388946e-06,-0.00028139311673523,-6.1664923812473e-05,9.1674886645603e-05,0.0015302838311279,-0.00068489127475252,3.7965076474703e-06,2.6903694198396e-05,7.7407938424988e-06,8.5198622442141e-05,-0.0065848722450476,-1.7698218045128e-07,-4.9547940453365e-06,0.0001206237625796,-0.0058550601436583,-1.3346374307071e-05,0.00013623985608725,0.0014339833254069,-0.0011203327361219,-2.5333278184853e-05,2.0927796003324e-05,3.6659048852251e-06,-0.0031025182370803,0.00024501878600875,-0.005029247642032,2.7871783710282e-05,0.00077207146723615,-0.00021335737330142,-1.1969718482327e-05,1.632990672096e-05,0.00011756825128024,1.3508230741554e-05,-0.0043548441508317,-6.3445760348804e-05,-1.1323085395687e-05,0.00025473383572872,-0.0019247994476712,-2.5291112206208e-06,-2.6398387901822e-06,2.8032889131431e-05,-0.0086067218006152,-1.5296251195654e-05,-1.2319310528312e-05,-0.00018585960416938,-2.6315409367104e-05,6.1430904109799e-05,0.000173176579659,732.20155576705,732.20155576705,732.20122428081,732.20122428081,732.20185317697,732.20183948206,732.20132521824,732.20148806963,732.20174217338,732.20160284875,732.20112579309,732.20133931232,732.20129086345,732.20165677407,732.20155467456,732.20126002318,732.20151143063,732.20190650722,732.20187874986,732.20126555692,732.20138906531,732.2018093079,732.20172771517,732.20129086345,732.20113034825,732.20127553974,732.20175967933,732.20177998774,732.20140131621,732.20157301291,732.20166864898,732.20147356227,732.20115887917,732.20141759249,732.20154125948,732.201638156,732.20162059201,732.20133597945,732.20154568762,732.20164444947,732.20146517652,732.20122865439,732.20150378967,732.20154125948,732.20165339235,732.20165339235,732.20188392602,732.20188392602,156.89641702697,1287.1135743423,285.56966508549,1387.6051106036,259.35134273269,0
2.97e-05,20586729.31354,2.0415775003827e-06,8.8150894644731e-06,1.8145528146124e-06,1.0001548801434,607.6789414461,607.6789414461,607.67858594349,607.67858594349,607.67925898603,607.67924418064,607.67869335583,607.67886860191,607.67914072926,607.67899071459,607.67847990763,607.67870971583,607.67865627422,607.67904893828,607.678938961,607.6786231763,607.67889376818,607.67931616168,607.6792862393,607.6786296744,607.67876258611,607.67921241736,607.6791245551,607.67865627422,607.67848500567,607.67864126573,607.67915875708,607.6791805416,607.67877472339,607.67895947996,607.67906216719,607.67885212937,607.67851514173,607.67879360932,607.67892462357,607.67902872716,607.67900974177,607.67870458592,607.67893027206,607.67903602176,607.67884298538,607.67858956472,607.67888571822,607.67892462357,607.67904525203,607.67904525203,607.6792919792,607.6792919792,-0.00038565763231592,-2.2318697317627e-06,-0.00030102915243746,-6.4087484723022e-05,9.8082076803749e-05,0.0016354409890414,-0.00073251322592098,4.0625602818143e-06,2.8785078770917e-05,8.2711152015535e-06,9.1142579029384e-05,-0.0070066557455557,-1.8933814076518e-07,-5.3006223271852e-06,0.00012904235310677,-0.0062448383523615,-1.4279119191477e-05,0.0001457631373678,0.0015325242267759,-0.0011980654955071,-2.7100888644523e-05,2.238844602407e-05,3.9221911483016e-06,-0.0033102736952787,0.00026211293671245,-0.0053536344814499,2.9819941957813e-05,0.00082507854943327,-0.0002282118229249,-1.280463337757e-05,1.7472643372144e-05,0.00012549723247073,1.4450731807437e-05,-0.0046323867596629,-6.7741398158245e-05,-1.2113651015078e-05,0.00027251275861641,-0.0020525228917069,-2.7051852768978e-06,-2.815241264162e-06,2.9989397600237e-05,-0.0091811938866156,-1.6365501170507e-05,-1.3177473108002e-05,-0.00019883221941161,-2.8107670187939e-05,6.5726128153883e-05,0.00018501719160452,732.2015166736,732.2015166736,732.20116117099,732.20116117099,732.20183421353,732.20181940814,732.20126858333,732.20144382941,732.20171595676,732.20156594208,732.20105513513,732.20128494332,732.20123150172,732.20162416578,732.20151418849,732.20119840379,732.20146899568,732.20189138918,732.20186146679,732.2012049019,732.20133781361,732.20178764486,732.2016997826,732.20123150172,732.20106023316,732.20121649322,732.20173398458,732.20175576909,732.20134995089,732.20153470746,732.20163739469,732.20142735687,732.20109036923,732.20136883682,732.20149985107,732.20160395465,732.20158496927,732.20127981341,732.20150549955,732.20161124925,732.20141821288,732.20116479222,732.20146094572,732.20149985107,732.20162047953,732.20162047953,732.20186720669,732.20186720669,163.54669552462,1289.6599692542,286.53105391571,1392.2153386346,260.22475999585,0
2.98e-05,20621207.86856,2.0484489940697e-06,8.8447699331053e-06,1.8206700075549e-06,1.0001635138886,607.67889574174,607.67889574174,607.67851459946,607.67851459946,607.67923464367,607.67921863726,607.67862885517,607.67881737419,607.67910871352,607.67894723676,607.67840047764,607.67864773681,607.67858884724,607.67901008901,607.6788916577,607.6785533405,607.67884448395,607.67929592028,607.67926367052,607.67856090689,607.6787038891,607.67918523392,607.67909064786,607.67858884724,607.67840617131,607.67857428836,607.67912723593,607.6791505887,607.6787158284,607.67891456826,607.6790248003,607.67879873442,607.67843798467,607.67873761824,607.67887634358,607.67898815697,607.67896763465,607.6786405663,607.67888336444,607.67899656533,607.6787887705,607.67851733713,607.67883601104,607.67887634358,607.67900606188,607.67900606188,607.6792700302,607.6792700302,-0.00041007127847222,-2.3865783321009e-06,-0.00032196081007303,-6.6543457750528e-05,0.00010491328277886,0.0017473291153357,-0.00078324831748033,4.3463198096685e-06,3.0791075715407e-05,8.8350990326242e-06,9.7478388675068e-05,-0.0074531841136969,-2.0250970265794e-07,-5.6693034418655e-06,0.00013801636273715,-0.0066578341874294,-1.5273575228253e-05,0.00015591687038666,0.0016373722619525,-0.0012808561838621,-2.8985165384944e-05,2.3945456581445e-05,4.195452600647e-06,-0.0035305677907952,0.00028033418814449,-0.0056972558949488,3.1897021802305e-05,0.00088147216656221,-0.00024404014440929,-1.3694584368662e-05,1.8691178019778e-05,0.00013391230405283,1.5455371244025e-05,-0.0049260964761432,-7.2303039809154e-05,-1.2956472728009e-05,0.00029146477971834,-0.0021877975953251,-2.8928359513298e-06,-3.0015415709229e-06,3.2074989466501e-05,-0.0097900914751881,-1.7505521118568e-05,-1.4092034603106e-05,-0.00021266103938645,-3.0012520735783e-05,7.0305867608737e-05,0.00019760746109312,732.20147512149,732.20147512149,732.20109397921,732.20109397921,732.20181402342,732.20179801701,732.20120823492,732.20139675394,732.20168809327,732.20152661651,732.20097985739,732.20122711656,732.20116822699,732.20158946876,732.20147103745,732.20113272025,732.2014238637,732.20187530003,732.20184305027,732.20114028664,732.20128326885,732.20176461367,732.20167002761,732.20116822699,732.20098555106,732.20115366811,732.20170661568,732.20172996845,732.20129520815,732.20149394801,732.20160418005,732.20137811417,732.20101736442,732.20131699799,732.20145572333,732.20156753672,732.2015470144,732.20121994605,732.20146274419,732.20157594508,732.20136815025,732.20109671688,732.20141539079,732.20145572333,732.20158544163,732.20158544163,732.20184940995,732.20184940995,170.27784453436,1292.1299635318,287.49239604691,1396.8174402627,261.09814596271,0
2.99e-05,20657104.415951,2.0553204079657e-06,8.8744504167581e-06,1.8267876163698e-06,1.0001724819136,607.67884710563,607.67884710563,607.67843860032,607.67843860032,607.67920867032,607.67919136493,607.67856008824,607.67876281185,607.67907462423,607.67890086411,607.67831582221,607.67858176641,607.67851694281,607.67896869845,607.67884119898,607.67847886757,607.67879201403,607.6792743184,607.67923956758,607.678487612,607.67864137265,607.67915627105,607.67905447772,607.67851694281,607.67832216771,607.67850297889,607.67909360991,607.67911862666,607.67865302323,607.67886672562,607.67898502875,607.67874178955,607.67835573421,607.67867803333,607.67882485161,607.67894490907,607.67892272489,607.67857229414,607.67883340749,607.67895455227,607.67873094036,607.67844031435,607.67878310424,607.67882485161,607.6789642888,607.6789642888,607.6792466077,607.6792466077,-0.00043590454756844,-2.5513961926494e-06,-0.00034426855991999,-6.9033344214839e-05,0.00011219500231535,0.0018663400482603,-0.00083728563892954,4.6489065468569e-06,3.292948322014e-05,9.4346690178423e-06,0.00010423033196329,-0.007925839437472,-2.1654752757886e-07,-6.0622634020421e-06,0.00014758026383462,-0.0070951809553218,-1.6333597173778e-05,0.00016674048435807,0.0017488945087513,-0.0013690088449286,-3.0993363913381e-05,2.5604807537436e-05,4.486752424484e-06,-0.0037640339114789,0.00029975241342771,-0.0060611972344762,3.4111077177499e-05,0.00094144860630456,-0.0002609018673901,-1.4642981835595e-05,1.9990268192148e-05,0.00014283900714365,1.6525999424823e-05,-0.0052368720377399,-7.7145071120407e-05,-1.385481154203e-05,0.00031166273002145,-0.0023309845864271,-3.0927804622923e-06,-3.1993907015404e-06,3.4297676419434e-05,-0.010435122334816,-1.8720733864178e-05,-1.5066466267437e-05,-0.00022739926390225,-3.2036232675256e-05,7.5187939270018e-05,0.00021098990328475,732.2014309653,732.2014309653,732.20102245999,732.20102245999,732.20179252999,732.20177522459,732.2011439479,732.20134667152,732.2016584839,732.20148472377,732.20089968188,732.20116562607,732.20110080247,732.20155255811,732.20142505865,732.20106272724,732.2013758737,732.20185817806,732.20182342725,732.20107147166,732.20122523231,732.20174013072,732.20163833738,732.20110080247,732.20090602738,732.20108683855,732.20167746958,732.20170248632,732.2012368829,732.20145058528,732.20156888841,732.20132564921,732.20093959387,732.20126189299,732.20140871127,732.20152876874,732.20150658455,732.2011561538,732.20141726716,732.20153841194,732.20131480003,732.20102417401,732.2013669639,732.20140871127,732.20154814847,732.20154814847,732.20183046736,732.20183046736,177.07691421479,1294.5231076714,288.45368983655,1401.4109148152,261.97149976094,0
3e-05,20694433.687158,2.0621917400036e-06,8.9041309164375e-06,1.8329056661189e-06,1.0001817862283,607.67879536508,607.67879536508,607.678357668,607.678357668,607.67918096601,607.67916225566,607.67848679892,607.67870471423,607.67903833768,607.67885142137,607.67822562963,607.67851156794,607.6784402929,607.67892461609,607.67878739452,607.67839948072,607.67873616937,607.67925127165,607.67921383416,607.67840951831,607.67857480769,607.67912542123,607.67901590657,607.6784402929,607.67823268653,607.67842707968,607.67905775146,607.67908453127,607.67858607303,607.67881577502,607.67894271018,607.67868108107,607.67826808626,607.67861464208,607.67876995512,607.67889882409,607.67887484291,607.67849951549,607.67878021911,607.67890983177,607.6786692776,607.67835821004,607.67872680875,607.67876995512,607.67891977618,607.67891977618,607.67922162021,607.67922162021,-0.00046323754827513,-2.7269417285864e-06,-0.00036803754371133,-7.1558633157281e-05,0.00011995529205404,0.0019928851587858,-0.00089482469277761,4.9715085222551e-06,3.5208559396731e-05,1.007184189052e-05,0.00011142409115159,-0.0084260858852661,-2.3150521375362e-07,-6.4810120119358e-06,0.00015777052514256,-0.0075580434921306,-1.7463266479767e-05,0.00017827573221133,0.0018674763286929,-0.0014628438621553,-3.313316247098e-05,2.737282519375e-05,4.7972166980086e-06,-0.0040113259701379,0.00032044152403163,-0.0064466078402114,3.6470635349878e-05,0.0010052138256307,-0.00027885984933199,-1.5653432995049e-05,2.1374953632679e-05,0.00015230384402548,1.7666688998486e-05,-0.0055656661570999,-8.2282479413695e-05,-1.4812120000167e-05,0.00033318366158044,-0.0024824539104786,-3.3057778970643e-06,-3.4094792458002e-06,3.6665934113002e-05,-0.011118045480732,-2.0015822433781e-05,-1.6104437115246e-05,-0.00024310318244146,-3.41853527628e-05,8.0391212905204e-05,0.00022520900052689,732.20138405079,732.20138405079,732.20094635372,732.20094635372,732.20176965173,732.20175094138,732.20107548464,732.20129339995,732.2016270234,732.20144010709,732.20081431535,732.20110025366,732.20102897862,732.20151330181,732.20137608024,732.20098816644,732.20132485509,732.20183995736,732.20180251988,732.20099820403,732.20116349341,732.20171410695,732.20160459229,732.20102897862,732.20082137225,732.2010157654,732.20164643718,732.20167321699,732.20117475874,732.20140446073,732.2015313959,732.20126976679,732.20085677198,732.2012033278,732.20135864084,732.2014875098,732.20146352862,732.20108820121,732.20136890483,732.20149851749,732.20125796332,732.20094689576,732.20131549447,732.20135864084,732.2015084619,732.2015084619,732.20181030593,732.20181030593,183.93056280212,1296.8391198928,289.41493355035,1405.9952374127,262.84482047915,0
3.01e-05,20733207.805145,2.0690629878573e-06,8.9338114331973e-06,1.8390241818419e-06,1.0001914281706,607.67874033772,607.67874033772,607.67827150922,607.67827150922,607.67915142537,607.67913119544,607.67840871774,607.67864286925,607.67899972316,607.67879872411,607.67812957194,607.67843689138,607.678358616,607.67887768361,607.67873004427,607.67831488938,607.67867675038,607.67922669094,607.67918636851,607.67832634001,607.67850395226,607.67909257086,607.67897478889,607.678358616,607.67813740312,607.67834631871,607.67901952634,607.6790481714,607.67851473086,607.67876152935,607.67889769426,607.67861638427,607.67817472116,607.67854721998,607.67871145193,607.67884973453,607.67882381026,607.67842196377,607.67872360707,607.67886224494,607.67860355389,607.67827072359,607.67866692501,607.67871145193,607.67887235871,607.67887235871,607.6791949711,607.6791949711,-0.00049215535243827,-2.913868430418e-06,-0.00039335782408089,-7.4121967918946e-05,0.00012822385039819,0.0021273960162398,-0.00095607588280656,5.3153853500708e-06,3.763704772107e-05,1.0748730368875e-05,0.00011908682375228,-0.0089554748257025,-2.4743945377258e-07,-6.9271474805835e-06,0.00016862571791313,-0.0080476166049131,-1.8666903812428e-05,0.00019056681620124,0.0019935219870641,-0.0015626986688338,-3.5412684990203e-05,2.9256200689362e-05,5.1280379160443e-06,-0.0042731178903909,0.00034247968262128,-0.0068547048650126,3.8984721421419e-05,0.0010729837645118,-0.00029798044202256,-1.6729752318661e-05,2.2850572094249e-05,0.00016233427421693,1.8881746544387e-05,-0.0059134890029809,-8.7730864651069e-05,-1.5832052728371e-05,0.00035610907235361,-0.0026425839976493,-3.5326315125944e-06,-3.6325397865352e-06,3.9188726831216e-05,-0.011840669316076,-2.1395744416615e-05,-1.7209824890718e-05,-0.00025983233962114,-3.6466707043422e-05,8.5935669418373e-05,0.0002403112476285,732.20133421556,732.20133421556,732.20086538706,732.20086538706,732.20174530321,732.20172507327,732.20100259558,732.20123674709,732.201593601,732.20139260194,732.20072344978,732.20103076921,732.20095249384,732.20147156145,732.20132392211,732.20090876722,732.20127062822,732.20182056877,732.20178024634,732.20092021785,732.20109783009,732.2016864487,732.20156866673,732.20095249384,732.20073128095,732.20094019655,732.20161340418,732.20164204923,732.2011086087,732.20135540718,732.2014915721,732.20121026211,732.200768599,732.20114109782,732.20130532977,732.20144361237,732.20141768809,732.20101584161,732.20131748491,732.20145612278,732.20119743173,732.20086460143,732.20126080284,732.20130532977,732.20146623654,732.20146623654,732.20178884893,732.20178884893,190.82516484718,1299.0778885667,290.3761253598,1410.5698585244,263.71810716447,0
3.02e-05,20773436.240297,2.0759341492933e-06,8.9634919681495e-06,1.8451431914955e-06,1.0002014084032,607.67868183103,607.67868183103,607.6781798148,607.6781798148,607.67911993742,607.67909806392,607.67832556131,607.67857705273,607.67895864261,607.6787425783,607.67802730427,607.67835747258,607.67827161659,607.67882773457,607.67866893811,607.67822478874,607.67861354641,607.67920048223,607.67915706321,607.67823777624,607.67842855078,607.67905759997,607.6789309714,607.67827161659,607.67803597578,607.6782604088,607.67897879344,607.67900940866,607.67843873732,607.6787037908,607.67884982221,607.67854746304,607.678075303,607.67847552977,607.67864912981,607.67879746455,607.67876943924,607.67833935935,607.67866336853,607.67881162444,607.67853352958,607.6781775396,607.67860324231,607.67864912981,607.67882186193,607.67882186193,607.67916655828,607.67916655828,-0.00052274831653994,-3.1128666853488e-06,-0.00042032464578279,-7.672733011059e-05,0.00013703211927264,0.0022703250487152,-0.0010212610097925,5.6818727228003e-06,4.0224203913877e-05,1.1467546309359e-05,0.00012724723976613,-0.0095156501838039,-2.6441019676464e-07,-7.4023612971371e-06,0.00018018662700178,-0.0085651233377185,-1.9949082211353e-05,0.00020366053389297,0.0021274552684483,-0.001668928479357,-3.7840524517059e-05,3.1262009489862e-05,5.4804786953093e-06,-0.0045501030564517,0.00036594952628397,-0.0072867772847907,4.1662891433437e-05,0.0011449846543107,-0.00031833365241523,-1.7875972319999e-05,2.4422776006063e-05,0.00017295871214778,2.0175724820658e-05,-0.0062814118343399,-9.3506449952832e-05,-1.6918477547064e-05,0.00038052514163308,-0.0028117609606238,-3.7741911698174e-06,-3.8693494114747e-06,4.1875533299161e-05,-0.012604849567928,-2.2865747059246e-05,-1.8386725735007e-05,-0.0002776497085658,-3.8887404183823e-05,9.1842464017955e-05,0.00025634519415627,732.2012812902,732.2012812902,732.20077927396,732.20077927396,732.20171939658,732.20169752308,732.20092502048,732.20117651189,732.20155810177,732.20134203747,732.20062676344,732.20095693174,732.20087107575,732.20142719374,732.20126839727,732.20082424791,732.20121300558,732.2017999414,732.20175652238,732.2008372354,732.20102800995,732.20165705913,732.20153043056,732.20087107575,732.20063543494,732.20085986796,732.2015782526,732.20160886782,732.20103819648,732.20130324997,732.20144928137,732.2011469222,732.20067476216,732.20107498894,732.20124858897,732.20139692372,732.2013688984,732.20093881851,732.20126282769,732.2014110836,732.20113298874,732.20077699876,732.20120270148,732.20124858897,732.2014213211,732.2014213211,732.20176601744,732.20176601744,197.74692534989,1301.2394720481,291.33726332369,1415.1342031408,264.59135877514,0
3.03e-05,20815125.787734,2.0828052221273e-06,8.9931725224569e-06,1.8512627243932e-06,1.0002117269168,607.6786196417,607.6786196417,607.67808225878,607.67808225878,607.67908638531,607.67906273418,607.67823703179,607.67850702773,607.6789149502,607.67868278001,607.67791846419,607.67827303249,607.67817898471,607.67877459405,607.6786038555,607.67812885935,607.67854633513,607.67917254632,607.67912580497,607.67814351041,607.67834833336,607.67902038182,607.6788842927,607.67817898471,607.67792804503,607.67816904669,607.67893540446,607.6789680971,607.67835782,607.67864235029,607.6787989263,607.67847406941,607.67796947906,607.67839932072,607.67858276621,607.67874182965,607.67871153255,607.67825140913,607.6785992894,607.67875779408,607.67845895331,607.67807832747,607.67853553827,607.67858276621,607.67876810184,607.67876810184,607.679136274,607.679136274,-0.00055511241548259,-3.3246656953004e-06,-0.00044903870893792,-7.9380223855445e-05,0.00014641336448983,0.0024221461872982,-0.0010906137898651,6.0723864617418e-06,4.297982406891e-05,1.2230603924384e-05,0.00013593568253629,-0.010108353955313,-2.8248082033633e-07,-7.9084433305521e-06,0.00019249636697455,-0.009111812877103,-2.1314640912871e-05,0.00021760640784868,0.0022697200755893,-0.0017819070406212,-4.0425768614955e-05,3.3397731511909e-05,5.8558757087017e-06,-0.0048429935934657,0.00039093840009122,-0.0077441899951171,4.4515253387328e-05,0.0012214533155636,-0.00033999331590684,-1.9096355028278e-05,2.6097549951296e-05,0.00018420652027057,2.1553435593102e-05,-0.0066705707604121,-9.9626091692635e-05,-1.807548712439e-05,0.00040652297613952,-0.0029903777693842,-4.0313558711804e-06,-4.1207323278515e-06,4.4736373664031e-05,-0.013412486716839,-2.443138313166e-05,-1.9639465149613e-05,-0.00029662187222435,-4.1454837655133e-05,9.8133990202151e-05,0.00027336147983116,732.20122511008,732.20122511008,732.20068772717,732.20068772717,732.20169185369,732.20166820256,732.20084250018,732.20111249611,732.20152041858,732.20128824839,732.20052393257,732.20087850088,732.20078445309,732.20138006244,732.20120932388,732.20073432774,732.20115180352,732.20177801471,732.20173127336,732.2007489788,732.20095380174,732.2016258502,732.20148976109,732.20078445309,732.20053351341,732.20077451507,732.20154087284,732.20157356548,732.20096328839,732.20124781868,732.20140439469,732.20107953779,732.20057494745,732.2010047891,732.2011882346,732.20134729804,732.20131700094,732.20085687751,732.20120475779,732.20136326246,732.2010644217,732.20068379585,732.20114100665,732.2011882346,732.20137357022,732.20137357022,732.20174174238,732.20174174238,204.68199197138,1303.3240981218,292.2983454227,1419.6876704001,265.4645743461,0
3.04e-05,20858280.56671,2.0896762042409e-06,9.0228530973404e-06,1.8573828117521e-06,1.0002223830382,607.67855355501,607.67855355501,607.67797849766,607.67797849766,607.67905064609,607.67902507238,607.67814281633,607.67843254384,607.67886849189,607.67861911495,607.67780267094,607.67818327627,607.67808039552,607.67871807833,607.67853456516,607.67802676669,607.67847488189,607.67914277856,607.6790924743,607.67804320962,607.67826301491,607.67898078256,607.67883458302,607.67808039552,607.67781323283,607.67807191224,607.67888920372,607.67892408282,607.67827169313,607.67857698679,607.6787448294,607.6783959432,607.67785687924,607.67831832781,607.67851212797,607.67868263634,607.67864988294,607.6781578062,607.67853114383,607.67870056838,607.67837956174,607.67797274094,607.67846357808,607.67851212797,607.67871088432,607.67871088432,607.67910400454,607.67910400454,-0.00058934958694304,-3.5500353811763e-06,-0.00047960645435812,-8.2087892244941e-05,0.00015640278310584,0.0025833554923731,-0.0011643803835392,6.4884275591509e-06,4.5914274507686e-05,1.3040322959631e-05,0.00014518421312652,-0.010735431951761,-3.0171830926079e-07,-8.4472872110502e-06,0.00020560050375831,-0.0096889580858014,-2.2768699926981e-05,0.00023245684031952,0.0024207810117137,-0.0019020273917718,-4.3178024808743e-05,3.5671272503704e-05,6.2556437391518e-06,-0.0051525194574942,0.00041753860092192,-0.0082283880988609,4.7552501927559e-05,0.0013026374436775,-0.00036303727414779,-2.0395403782676e-05,2.7881229356456e-05,0.00019610799657734,2.301996302477e-05,-0.0070821706447455,-0.00010610728824355,-1.9307411251796e-05,0.00043419886790581,-0.0031788333020073,-4.3050764573627e-06,-4.3875625663891e-06,4.7781837765425e-05,-0.014265522888914,-2.6098527641403e-05,-2.0972609401367e-05,-0.00031681921349318,-4.4176686673929e-05,0.00010483394762794,0.0002914128651982,732.20116549368,732.20116549368,732.20059043633,732.20059043633,732.20166258477,732.20163701105,732.200754755,732.20104448251,732.20148043056,732.20123105363,732.20041460962,732.20079521495,732.20069233419,732.20133001701,732.20114650383,732.20063870536,732.20108682057,732.20175471724,732.20170441297,732.2006551483,732.20087495359,732.20159272123,732.2014465217,732.20069233419,732.2004251715,732.20068385091,732.20150114239,732.2015360215,732.20088363181,732.20118892546,732.20135676807,732.20100788187,732.20046881791,732.20093026648,732.20112406665,732.20129457502,732.20126182162,732.20076974487,732.20114308251,732.20131250705,732.20099150041,732.20058467961,732.20107551676,732.20112406665,732.201322823,732.201322823,732.20171594322,732.20171594322,211.6165700258,1305.3321623009,293.25936949554,1424.2296331293,266.33775273389,0
3.05e-05,20902902.042136,2.0965470933572e-06,9.0525336940722e-06,1.8635034865465e-06,1.0002333754437,607.67848334421,607.67848334421,607.67786816949,607.67786816949,607.67901259049,607.6789849375,607.67804258648,607.67835333638,607.67881910499,607.67855135819,607.67767952483,607.67808789239,607.67797550888,607.67865799455,607.67846082472,607.67791816074,607.67839893906,607.67911106866,607.67905694525,607.6779365239,607.67817229444,607.67893866087,607.6787816638,607.67797550888,607.6776911418,607.67796866746,607.67884002789,607.67887720364,607.67818005708,607.67850746668,607.67868734437,607.67831281158,607.67773711537,607.67823227092,607.67843697097,607.67861968191,607.67858427282,607.67805822947,607.67845869351,607.67863975215,607.67829507911,607.67786041768,607.67838711392,607.67843697097,607.67865000474,607.67865000474,607.67906962995,607.67906962995,-0.00062556808543175,-3.7897886164279e-06,-0.00051214036966489,-8.4859538366435e-05,0.00016703760809421,0.0027544717775732,-0.0012428199435935,6.9315867357591e-06,4.9038522781329e-05,1.3899232132966e-05,0.00015502669901107,-0.01139883971351,-3.2219344327305e-07,-9.0208959651723e-06,0.00021954718169765,-0.010297853035155,-2.4316675287671e-05,0.00024826727170055,0.002581123960627,-0.0020297026432794,-4.6107450070536e-05,3.8090986231533e-05,6.6812800478612e-06,-0.00547942758158,0.00044584763492518,-0.0087409013048021,5.0785949329984e-05,0.00138879589002,-0.00038754756036115,-2.1777875689639e-05,2.9780519595398e-05,0.00020869436465133,2.4580677714032e-05,-0.0075174891250343,-0.00011296819035965,-2.0618829716904e-05,0.00046365456373851,-0.0033775313759647,-4.5963583918694e-06,-4.6707667907055e-06,5.1023114659376e-05,-0.015165938820057,-2.7873395347819e-05,-2.2390977454979e-05,-0.00033831611406483,-4.7060916109977e-05,0.00011196741498825,0.00031055425806343,732.2011022399,732.2011022399,732.20048706518,732.20048706518,732.20163148618,732.20160383319,732.20066148217,732.20097223207,732.20143800068,732.20117025388,732.20029842052,732.20070678808,732.20059440456,732.20127689024,732.20107972041,732.20053705643,732.20101783475,732.20172996435,732.20167584094,732.20055541959,732.20079119013,732.20155755656,732.20140055949,732.20059440456,732.20031003749,732.20058756315,732.20145892358,732.20149609933,732.20079895277,732.20112636237,732.20130624006,732.20093170727,732.20035601106,732.20085116661,732.20105586666,732.2012385776,732.20120316851,732.20067712516,732.2010775892,732.20125864784,732.2009139748,732.20047931336,732.2010060096,732.20105586666,732.20126890043,732.20126890043,732.20168852564,732.20168852564,218.53703679746,1307.2642230737,294.22033325871,1428.7594374333,267.21089280928,0
3.06e-05,20948989.066143,2.1034178872135e-06,9.0822143139847e-06,1.8696247840613e-06,1.0002447021774,607.67840876984,607.67840876984,607.67775089303,607.67775089303,607.67897208263,607.67894218101,607.6779359977,607.67826912565,607.67876661765,607.67847927371,607.67754860646,607.67798655168,607.67786396887,607.67859414035,607.67838238044,607.67780267566,607.67831824532,607.67907730039,607.67901908518,607.67782308552,607.67807585409,607.67889386754,607.67872534737,607.67786396887,607.67756135441,607.67785895553,607.67878770569,607.6788272887,607.67808259794,607.67843354303,607.67862627354,607.67822438867,607.6776097807,607.67814085392,607.67835703986,607.6785527541,607.67851447393,607.67795234328,607.67838168709,607.67857514003,607.678205217,607.67774097886,607.67830588413,607.67835703986,607.67858524736,607.67858524736,607.67903302372,607.67903302372,-0.00066388285189786,-4.0447834688505e-06,-0.00054675930032126,-8.7706573486005e-05,0.00017835721819664,0.0029360371838833,-0.0013262051744951,7.4035498805466e-06,5.2364170399586e-05,1.4809972463862e-05,0.00016549890605484,-0.012100648705638,-3.4398099180277e-07,-9.6313879733346e-06,0.00023438725616089,-0.010939810114855,-2.5964295121896e-05,0.00026509634531784,0.0027512566198647,-0.0021653667675544,-4.9224778768081e-05,4.0665697760875e-05,7.1343689291774e-06,-0.0058244807701049,0.00047596848321311,-0.0092833485383012,5.4227558774473e-05,0.0014801989143365,-0.00041361058888097,-2.32487942978e-05,3.1802516323115e-05,0.00022199775569131,2.6241251304267e-05,-0.0079778808228592,-0.0001202276101682,-2.2014585931405e-05,0.00049499754602948,-0.0035868796505446,-4.9062647327823e-06,-4.9713272366326e-06,5.4472023463804e-05,-0.016115750165538,-2.9762559198575e-05,-2.3899653559815e-05,-0.00036119116084215,-5.0115774391766e-05,0.00011956092553136,0.00033084272982499,732.2010351356,732.2010351356,732.20037725879,732.20037725879,732.20159844839,732.20156854677,732.20056236346,732.20089549141,732.20139298342,732.20110563948,732.20017497222,732.20061291744,732.20049033463,732.20122050612,732.2010087462,732.20042904142,732.20094461108,732.20170366615,732.20164545094,732.20044945128,732.20070221985,732.2015202333,732.20135171313,732.20049033463,732.20018772018,732.20048532129,732.20141407146,732.20145365446,732.2007089637,732.2010599088,732.20125263931,732.20085075444,732.20023614646,732.20076721968,732.20098340562,732.20117911986,732.2011408397,732.20057870904,732.20100805285,732.20120150579,732.20083158277,732.20036734462,732.20093224989,732.20098340562,732.20121161313,732.20121161313,732.20165938949,732.20165938949,225.43004491391,1309.1209979169,295.18123429913,1433.2764026806,268.0839933826,0
3.07e-05,20996537.940309,2.1102885837661e-06,9.1118949584711e-06,1.8757467415371e-06,1.0002563606746,607.67832957896,607.67832957896,607.67762626675,607.67762626675,607.67892897979,607.67889664656,607.6778226887,607.67817961604,607.6787108484,607.67840261407,607.677409476,607.67787890631,607.67774540343,607.67852630351,607.67829896682,607.67767992935,607.67823252493,607.67904135135,607.67897875443,607.67770250833,607.67797335827,607.67884624505,607.67866543661,607.67774540343,607.67742343219,607.67774239979,607.67873205772,607.67877415812,607.67797898706,607.67835495491,607.67856140812,607.67813037517,607.67747444922,607.67804376375,607.67827206779,607.67848163084,607.67844024696,607.67783979709,607.67829985943,607.678506516,607.67810967398,607.67761402878,607.67821961255,607.67827206779,607.67851638488,607.67851638488,607.67899405252,607.67899405252,-0.00070441588677213,-4.3159254808202e-06,-0.00058358877776163,-9.0642857545386e-05,0.00019040325388457,0.0031286177098691,-0.0014148229057286,7.9061034631125e-06,5.5903487314738e-05,1.577530070947e-05,0.0001766385945501,-0.012843052484402,-3.6715991733024e-07,-1.0281003168229e-05,0.00025017443266563,-0.011616156780119,-2.7717616582424e-05,0.00028300608126457,0.002931708984341,-0.0023094753963693,-5.2541352913677e-05,4.3404727622495e-05,7.6165865080517e-06,-0.0061884564476913,0.00050800987999151,-0.0098574424895991,5.7889979452936e-05,0.0015771284136808,-0.00044131735174808,-2.4813464113746e-05,3.3954726989599e-05,0.00023605118716311,2.8007671711688e-05,-0.0084647815613019,-0.0001279050294387,-2.3499800935035e-05,0.00052834132989427,-0.00380728839863,-5.2359192610283e-06,-5.2902847259058e-06,5.8141045552253e-05,-0.017117003328533,-3.177296973524e-05,-2.5503999366584e-05,-0.0003855273693169,-5.3349789574356e-05,0.00012764254658061,0.00035233751560892,732.20096395535,732.20096395535,732.20026064315,732.20026064315,732.20156335618,732.20153102295,732.2004570651,732.20081399244,732.20134522479,732.20103699046,732.2000438524,732.2005132827,732.20037977983,732.2011606799,732.20093334322,732.20031430574,732.20086690133,732.20167572774,732.20161313083,732.20033688473,732.20060773467,732.20148062144,732.20129981301,732.20037977983,732.20005780858,732.20037677619,732.20136643411,732.20140853452,732.20061336346,732.2009893313,732.20119578452,732.20076475157,732.20010882561,732.20067814014,732.20090644419,732.20111600724,732.20107462336,732.20047417349,732.20093423583,732.2011408924,732.20074405038,732.20024840517,732.20085398895,732.20090644419,732.20115076128,732.20115076128,732.20162842892,732.20162842892,232.28262775285,1310.9033562558,296.14207009732,1437.7798209984,268.95705321149,0
3.08e-05,21045542.495968,2.1171591807131e-06,9.1415756289822e-06,1.881869398852e-06,1.0002683477887,607.67824550445,607.67824550445,607.67749386796,607.67749386796,607.67888313216,607.67884816964,607.67770228095,607.67808449522,607.67865160556,607.67832111998,607.67726167253,607.67776458876,607.67761942396,607.67845426159,607.67821030639,607.67754952315,607.67814148699,607.67900309268,607.67893580606,607.67757438698,607.67786445272,607.67879562715,607.67860172458,607.67761942396,607.67727691484,607.67761860268,607.67867289612,607.67871762259,607.67786888068,607.67827142653,607.67849252755,607.67803045793,607.67733067512,607.67794066943,607.67818177612,607.67840607997,607.6783613412,607.67772022518,607.67821293099,607.67843365293,607.67800813531,607.67747915446,607.67812800768,607.67818177612,607.67844317783,607.67844317783,607.67895257587,607.67895257587,-0.00074729663601111,-4.6041700984672e-06,-0.00062276136327159,-9.3684970131896e-05,0.00020321973892942,0.0033328037376465,-0.0015089746725893,8.4411405182947e-06,5.9669448145614e-05,1.6798092894928e-05,0.00018848561983699,-0.01362837312773,-3.9181358942156e-07,-1.0972109630297e-05,0.00026696541086646,-0.012328232143713,-2.9583043490245e-05,0.00030206205905378,0.0031230338409405,-0.002462506624914,-5.6069153963251e-05,4.6317917585337e-05,8.1297057982387e-06,-0.0065721453206367,0.00054208660378937,-0.01046499436878,6.1786583222956e-05,0.0016798781402712,-0.00047076361678668,-2.6477483268631e-05,3.6245093420303e-05,0.00025088853885596,2.9886259105539e-05,-0.0089797127514583,-0.00013602060903424,-2.5079888659775e-05,0.00056380576602112,-0.004039169230153,-5.5865096821749e-06,-5.6287418078328e-06,6.2043358208173e-05,-0.018171771056513,-3.3911975370421e-05,-2.7209668212627e-05,-0.0004114124021568,-5.6771763793775e-05,0.00013624196329242,0.00037510002119321,732.20088846431,732.20088846431,732.20013682781,732.20013682781,732.20152609201,732.2014911295,732.20034524081,732.20072745507,732.20129456541,732.20096407983,732.19990463239,732.20040754862,732.20026238382,732.20109722145,732.20085326624,732.20019248301,732.20078444685,732.20164605253,732.20157876592,732.20021734683,732.20050741257,732.201438587,732.20124468444,732.20026238382,732.19991987469,732.20026156254,732.20131585598,732.20136058245,732.20051184053,732.20091438638,732.20113548741,732.20067341778,732.19997363498,732.20058362928,732.20082473598,732.20104903982,732.20100430105,732.20036318504,732.20085589085,732.20107661278,732.20065109516,732.20012211432,732.20077096753,732.20082473598,732.20108613768,732.20108613768,732.20159553572,732.20159553572,239.08229126879,1312.6123138619,297.10283797107,1442.2689574299,269.83007101129,0
3.09e-05,21095994.19263,2.1240296758692e-06,9.1712563270305e-06,1.8879927983022e-06,1.0002806598225,607.67815626422,607.67815626422,607.67735325172,607.67735325172,607.67883438258,607.67879657731,607.67757437806,607.67798343314,607.67858868676,607.67823451999,607.67710471324,607.67764321072,607.6774856249,607.6783777816,607.67811610932,607.67741104152,607.67804482462,607.6789623888,607.67889008557,607.67743829621,607.6777487635,607.67874183841,607.67853399418,607.6774856249,607.67712131943,607.6774871446,607.67861002441,607.67865748297,607.67775191943,607.67818266652,607.67841939886,607.67792430958,607.67717799219,607.67783122102,607.67808587418,607.67832585895,607.67827749415,607.67759324632,607.67812060702,607.67835631204,607.67790027266,607.67733592535,607.67803076183,607.67808587418,607.67836537402,607.67836537402,607.67890844581,607.67890844581,-0.00079266238444605,-4.9105252478666e-06,-0.00066441700599809,-9.6852487301014e-05,0.0002168532087113,0.0035492104748105,-0.0016089773129703,9.0106667400737e-06,6.3675770186548e-05,1.7881347957745e-05,0.00020108203668909,-0.014459067731616,-4.1803000498043e-07,-1.1707210452905e-05,0.00028482003588272,-0.013077383303543,-3.1567345013159e-05,0.00032233361009507,0.003325807169216,-0.0026249618238753,-5.9820835915381e-05,4.941565729702e-05,8.6756020288809e-06,-0.0069763499136768,0.00057831977994236,-0.011107918685772,6.5931503458283e-05,0.0017887538772152,-0.0005020501345994,-2.8246759132896e-05,3.8682015465304e-05,0.0002665445256944,3.1883682468158e-05,-0.0095242858408951,-0.00014459519842786,-2.6760571457844e-05,0.00060151736380671,-0.004282933726972,-5.959291082536e-06,-5.9878660068644e-06,6.6192869660745e-05,-0.019282147664727,-3.6187343797696e-05,-2.90226183362e-05,-0.00043893881201718,-6.0390765121652e-05,0.00014539056678696,0.00039919380372989,732.2008084216,732.2008084216,732.2000054091,732.2000054091,732.20148653996,732.20144873469,732.20022653544,732.20063559052,732.20124084414,732.20088667737,732.19975687062,732.2002953681,732.20013778228,732.20102993898,732.2007682667,732.2000631989,732.200696982,732.20161454618,732.20154224295,732.20009045359,732.20040092088,732.20139399579,732.20118615156,732.20013778228,732.19977347681,732.20013930198,732.20126218179,732.20130964035,732.20040407681,732.2008348239,732.20107155624,732.20057646696,732.19983014957,732.2004833784,732.20073803156,732.20097801633,732.20092965153,732.2002454037,732.2007727644,732.20100846942,732.20055243004,732.19998808273,732.20068291921,732.20073803156,732.2010175314,732.2010175314,732.20156060319,732.20156060319,245.81710485998,1314.2490233849,298.06353509842,1446.7430499545,270.70304543902,0
3.1e-05,21147882.23085,2.1309000669764e-06,9.2009370541895e-06,1.8941169849203e-06,1.0002932925623,607.67806156034,607.67806156034,607.6772039499,607.6772039499,607.6787825663,607.67874168778,607.67743856521,607.67787608115,607.67852187831,607.67814253008,607.67693809274,607.67751436188,607.67734358342,607.67829661958,607.67801607321,607.67726405169,607.67794221411,607.67891909712,607.67884143054,607.67729379011,607.67762589596,607.67868469375,607.67846201776,607.67734358342,607.6769561395,607.67734758274,607.67854323719,607.67859352988,607.67762772801,607.67808836705,607.678341776,607.67781158819,607.6770159132,607.67771504858,607.67798405903,607.67824071464,607.67818843122,607.6774584635,607.67802257683,607.67827424244,607.67778574389,607.67718389295,607.67792755032,607.67798405903,607.67828270798,607.67828270798,607.6788615066,607.6788615066,-0.00084065865927345,-5.2360541573335e-06,-0.00070870341617621,-0.00010016828033207,0.0002313528431378,0.0037784783613142,-0.0017151635730437,9.6168070588367e-06,6.7936952585164e-05,1.9028191563145e-05,0.00021447220842081,-0.0153377350834,-4.4590202234344e-07,-1.2488950965986e-05,0.00030380145555041,-0.013864961486715,-3.3677675191667e-05,0.00034389401802259,0.0035406285093468,-0.002797366455368,-6.3809759796853e-05,5.2708911075691e-05,9.2562582535217e-06,-0.0074018830198877,0.00061683719624829,-0.01178823815601,7.0339674989132e-05,0.0019040735905968,-0.00053528284881766,-3.0127523406429e-05,4.1274375160777e-05,0.00028305466855003,3.4006976944646e-05,-0.010100206883992,-0.00015365034608346,-2.8547896621582e-05,0.00064160962495029,-0.0045389920178323,-6.3555895036593e-06,-6.3688931816308e-06,7.0604255658025e-05,-0.020450243999038,-3.8607284406181e-05,-3.0949127310947e-05,-0.00046820428798024,-6.421611725159e-05,0.00015512154646866,0.00042468453850445,732.20072357821,732.20072357821,732.19986596777,732.19986596777,732.20144458417,732.20140370566,732.20010058308,732.20053809903,732.20118389619,732.20080454796,732.19960011062,732.20017637975,732.20000560129,732.20095863746,732.20067809109,732.19992606957,732.20060423199,732.20158111499,732.20150344842,732.19995580799,732.20028791384,732.20134671163,732.20112403564,732.20000560129,732.19961815738,732.20000960061,732.20120525507,732.20125554776,732.20028974588,732.20075038493,732.20100379388,732.20047360606,732.19967793108,732.20037706645,732.20064607691,732.20090273251,732.20085044909,732.20012048138,732.2006845947,732.20093626031,732.20044776177,732.19984591082,732.2005895682,732.20064607691,732.20094472586,732.20094472586,732.20152352447,732.20152352447,252.47577327945,1315.8147661629,299.02415849967,1451.2013097809,271.575975119,0
3.11e-05,21201193.679092,2.1377703517637e-06,9.2306178120988e-06,1.900242006339e-06,1.0003062413145,607.6779610782,607.6779610782,607.67704547005,607.67704547005,607.67872751067,607.67868331016,607.67729440861,607.67776207097,607.67845095464,607.6780448533,607.67676128233,607.67737760878,607.67719285904,607.67821052028,607.6779098828,607.67710810346,607.67783331412,607.67887306775,607.67878967044,607.67714040134,607.6774954337,607.67862399796,607.67838555678,607.67719285904,607.6767808442,607.67719944989,607.67847231992,607.67852554332,607.67749591468,607.67798820296,607.67825939911,607.67769193684,607.67684392937,607.67759176096,607.67787601522,607.67815038298,607.67809386531,607.67731546373,607.67791851299,607.67818718052,607.67766419275,607.67702259053,607.67781803052,607.67787601522,607.67819490034,607.67819490034,607.67881159436,607.67881159436,-0.00089143964369393,-5.581877643875e-06,-0.0007557764605175,-0.00010365885161962,0.00024677060940756,0.0040212733926557,-0.0018278827184249,1.0261812419085e-05,7.2468321081172e-05,2.0241879181549e-05,0.00022870291992331,-0.016267122571344,-4.7552759821083e-07,-1.3320126348222e-05,0.00032397628393331,-0.014692318016031,-3.5921593498757e-05,0.00036682073255745,0.0037681212596123,-0.0029802708827587,-6.8050031076999e-05,5.6209249333066e-05,9.8737711350734e-06,-0.0078495660522401,0.00065777363260009,-0.012508088796026,7.5026877419433e-05,0.0020261675337062,-0.00057057311051378,-3.2126347915854e-05,4.4031565747389e-05,0.00030045525994131,3.6263561686995e-05,-0.010709281257445,-0.00016320831171629,-3.0448253750135e-05,0.00068422339067016,-0.0048077513002255,-6.7768057123894e-06,-6.7731310060664e-06,7.5292997480482e-05,-0.021678182132026,-4.1180471855196e-05,-3.2995806973657e-05,-0.00049931191277964,-6.8257386106686e-05,0.00016546998774397,0.00045163998568587,732.20063365566,732.20063365566,732.19971804751,732.19971804751,732.20140008814,732.20135588763,732.19996698607,732.20043464844,732.20112353211,732.20071743077,732.19943385979,732.20005018624,732.1998654365,732.20088309775,732.20058246026,732.19978068093,732.20050589158,732.20154564522,732.2014622479,732.1998129788,732.20016801116,732.20129657542,732.20105813424,732.1998654365,732.19945342166,732.19987202736,732.20114489739,732.20119812079,732.20016849214,732.20066078043,732.20093197658,732.20036451431,732.19951650683,732.20026433843,732.20054859268,732.20082296045,732.20076644278,732.1999880412,732.20059109045,732.20085975798,732.20033677022,732.19969516799,732.20049060798,732.20054859268,732.2008674778,732.2008674778,732.20148417182,732.20148417182,259.04770526414,1317.3109421205,299.984705038,1455.6429214954,272.44885861318,0
3.12e-05,21255913.61156,2.1446405283537e-06,9.2602986024506e-06,1.9063679139058e-06,1.000319500945,607.67785448561,607.67785448561,607.67687729435,607.67687729435,607.67866903495,607.67862124406,607.67714145492,607.67764101363,607.67837567765,607.6779411794,607.67657372922,607.67723249352,607.67703299335,607.67811921676,607.6777972097,607.67694272892,607.67771776469,607.67882414323,607.67873462621,607.67697764035,607.67735693741,607.67855954517,607.67830436141,607.67703299335,607.67659487737,607.67704225318,607.6783970487,607.67845329221,607.67735607097,607.67788183084,607.67817199378,607.67756498334,607.67666150978,607.67746094471,607.67776141459,607.67805458881,607.67799349654,607.67716381777,607.67780807053,607.67809484948,607.6775352487,607.67685153289,607.67770184092,607.67776141459,607.67810165721,607.67810165721,607.67875853674,607.67875853674,-0.00094516861092633,-5.9491780171772e-06,-0.00080580055230966,-0.00010735475116095,0.00026316140879104,0.0042782874075874,-0.0019475011605462,1.0948067519474e-05,7.7286068000779e-05,2.1525803615017e-05,0.00024382349536349,-0.017250133651402,-5.0701003940267e-07,-1.4203689584013e-05,0.00034541477328049,-0.015560800112404,-3.8307086385458e-05,0.00039119559070117,0.0040089329325325,-0.0031742511912236,-7.2556533818592e-05,5.9928876572716e-05,1.0530357614841e-05,-0.0083202273076013,0.0007012711974759,-0.013269725514502,8.0009779802341e-05,0.0021553783273852,-0.00060803789800071,-3.4250161745836e-05,4.6963514820958e-05,0.00031878333995267,3.8661258802207e-05,-0.011353418692372,-0.00017329207661514,-3.2468392901972e-05,0.00072950720846724,-0.0050896143174939,-7.2244191647321e-06,-7.2019625952156e-06,8.0275421787645e-05,-0.022968089793862,-4.3916070818879e-05,-3.5169618540753e-05,-0.00053237043711011,-7.2524364039171e-05,0.00017647297401535,0.00048012993015843,732.20053837354,732.20053837354,732.19956118228,732.19956118228,732.20135292288,732.20130513199,732.19982534285,732.20032490156,732.20105956559,732.20062506733,732.19925761715,732.19991638145,732.19971688128,732.20080310469,732.20048109763,732.19962661685,732.20040165263,732.20150803116,732.20141851414,732.19966152828,732.20004082534,732.2012434331,732.20098824935,732.19971688128,732.1992787653,732.19972614111,732.20108093664,732.20113718014,732.2000399589,732.20056571877,732.20085588171,732.20024887127,732.19934539771,732.20014483264,732.20044530252,732.20073847675,732.20067738447,732.1998477057,732.20049195847,732.20077873741,732.20021913663,732.19953542082,732.20038572885,732.20044530252,732.20078554514,732.20078554514,732.20144242467,732.20144242467,265.52306633271,1318.739059617,300.94517140351,1460.0670440732,273.32169445464,0
3.13e-05,21312025.255283,2.151510594296e-06,9.2899794270077e-06,1.9124947614167e-06,1.0003330659193,607.67774143185,607.67774143185,607.67669887847,607.67669887847,607.67860694998,607.67855527926,607.67697923065,607.67751249841,607.67829579607,607.67783118447,607.67637485586,607.67707853243,607.67686350971,607.67802243001,607.67767771217,607.67676744223,607.6775951864,607.67877215819,607.67867611004,607.67680499465,607.67720994374,607.67849111837,607.67821817023,607.67686350971,607.67639765664,607.67687547269,607.67831719003,607.67837653398,607.67720777124,607.67776888807,607.67807927026,607.67743033983,607.67646810084,607.67732216274,607.67763991611,607.67795304558,607.67788701181,607.67700307995,607.67769088609,607.67799695871,607.67739852671,607.6766702161,607.67757860018,607.67763991611,607.67800266954,607.67800266954,607.67870215256,607.67870215256,-0.00100201835428,-6.3392014630078e-06,-0.00085894903095856,-0.00011129092305688,0.00028058323211591,0.0045502382195909,-0.0020744030726266,1.1678099361206e-05,8.240730103714e-05,2.288349458158e-05,0.00025988591381218,-0.018289834788448,-5.4045826349009e-07,-1.5142759849496e-05,0.00036819098835879,-0.016471746706759,-4.0842589865926e-05,0.00041710505031292,0.0042637352630539,-0.0033799099777204,-7.7344962359672e-05,6.3880664290594e-05,1.1228360753757e-05,-0.0088147002481895,0.00074747965773778,-0.01407552714601,8.5305989899237e-05,0.0022920609574686,-0.00064780003616925,-3.650626749032e-05,5.0080716040787e-05,0.00033807665022915,4.1208311986937e-05,-0.012034638080256,-0.00018392534759926,-3.4615443747744e-05,0.00077761770069865,-0.0053849778293584,-7.6999921069979e-06,-7.6568502511098e-06,8.5568741369999e-05,-0.024322094855435,-4.6823761882595e-05,-3.7477888535668e-05,-0.00056749455094755,-7.7027049424223e-05,0.00018816969415814,0.00051022610009301,732.20043742437,732.20043742437,732.19939487098,732.19939487098,732.20130294249,732.20125127177,732.19967522316,732.20020849093,732.20099178858,732.20052717698,732.19907084837,732.19977452495,732.19955950222,732.20071842252,732.20037370469,732.19946343474,732.20029117891,732.2014681507,732.20137210255,732.19950098716,732.19990593625,732.20118711088,732.20091416275,732.19955950222,732.19909364915,732.19957146521,732.20101318255,732.2010725265,732.19990376376,732.20046488058,732.20077526278,732.20012633234,732.19916409335,732.20001815525,732.20033590862,732.2006490381,732.20058300432,732.19969907247,732.2003868786,732.20069295123,732.20009451922,732.19936620862,732.20027459269,732.20033590862,732.20069866205,732.20069866205,732.20139814508,732.20139814508,271.89282227254,1320.1007250424,301.90555410183,1464.4728109408,274.19448110409,0
3.14e-05,21369510.144409,2.1583805475472e-06,9.3196602875983e-06,1.9186226065258e-06,1.0003469303443,607.6776215467,607.6776215467,607.67650965038,607.67650965038,607.67854105796,607.67848519536,607.67680724165,607.6773760917,607.67821104477,607.6777145306,607.67616405915,607.67691521472,607.67668391296,607.6779198686,607.67755103492,607.67658173947,607.6774651793,607.67871693907,607.67861392502,607.67662192795,607.67705396407,607.67841848882,607.67812670978,607.67668391296,607.67618857249,607.67669856017,607.67823250059,607.67829501415,607.67705057235,607.67764899186,607.6779809227,607.67728760249,607.6762631257,607.6771749531,607.67751116566,607.67784545514,607.67777408455,607.67683278804,607.67756657699,607.67789320326,607.67725362706,607.6764781173,607.67744790606,607.67751116566,607.67789761247,607.67789761247,607.67864225147,607.67864225147,-0.001062171632828,-6.7532616497009e-06,-0.00091540471103716,-0.00011550716912272,0.00029909732215683,0.0048378698037849,-0.0022089910243735,1.245458364523e-05,8.785009104534e-05,2.4318626607043e-05,0.00027694495086145,-0.019389463104377,-5.7598706932811e-07,-1.6140631297446e-05,0.00039238299706262,-0.017426484186081,-4.3537013318166e-05,0.00044464043567339,0.0045332243673602,-0.0035978771524224,-8.2431882080798e-05,6.807818397533e-05,1.1970257083309e-05,-0.0093338217035371,0.00079655686594536,-0.014928002167236,9.0934097891307e-05,0.0024365827950022,-0.00068998842407464,-3.8902360215223e-05,5.3394258539151e-05,0.00035837360870294,4.3913408246947e-05,-0.012755072634478,-0.00019513260192244,-3.6896935545686e-05,0.00082871997283474,-0.0056942311064526,-8.2051739651977e-06,-8.1393393146397e-06,9.1191099067041e-05,-0.025742319621339,-4.9913768854474e-05,-3.9928324910381e-05,-0.00060480518984854,-8.1775625998285e-05,0.00020060155558538,0.00054200208528753,732.20033048203,732.20033048203,732.1992185857,732.1992185857,732.20124999329,732.20119413069,732.19951617697,732.20008502703,732.2009199801,732.20042346593,732.19887299447,732.19962415004,732.19939284829,732.20062880393,732.20025997025,732.1992906748,732.20017411463,732.2014258744,732.20132286035,732.19933086328,732.1997628994,732.20112742415,732.20083564511,732.19939284829,732.19889750782,732.19940749549,732.20094143592,732.20100394947,732.19975950768,732.20035792719,732.20068985803,732.19999653781,732.19897206102,732.19988388842,732.20022010099,732.20055439047,732.20048301988,732.19954172336,732.20027551232,732.20060213859,732.19996256239,732.19918705262,732.20015684138,732.20022010099,732.2006065478,732.2006065478,732.2013511868,732.2013511868,278.14877161713,1321.3976314471,302.86584948246,1468.8593311817,275.06721699558,0
3.15e-05,21428348.278966,2.1652503856871e-06,9.3493411861076e-06,1.9247515106406e-06,1.0003610880102,607.67749443937,607.67749443937,607.67630900916,607.67630900916,607.67847115219,607.67841076144,607.67662497249,607.67723133583,607.67812114408,607.67759086554,607.6759407097,607.67674200098,607.67649368922,607.6778112283,607.67741680886,607.67638509848,607.67732732199,607.67865830383,607.67854786485,607.6764278794,607.67688848327,607.67834141554,607.67802969425,607.67649368922,607.67596698735,607.67651093752,607.67814272704,607.67820846583,607.67688401325,607.6775217382,607.67787662824,607.67713635121,607.67604598376,607.67701882757,607.67737479592,607.6777315075,607.67765437435,607.67665246305,607.67743474038,607.67778326317,607.67710013524,607.67627469449,607.67730933438,607.67737479592,607.67778614467,607.67778614467,607.67857863354,607.67857863354,-0.0011258216371996,-7.1927431560697e-06,-0.00097536029214334,-0.00012004861142854,0.00031876834423757,0.0051419522565304,-0.0023516866166479,1.3280353447452e-05,9.3633523215233e-05,2.5835023514755e-05,0.00029505830488863,-0.020552434163077,-6.1371741325553e-07,-1.7200782289369e-05,0.00041807305289356,-0.018426322272501,-4.6399764332227e-05,0.00047389819424836,0.004818120687718,-0.00382881072631,-8.7834764561258e-05,7.2535742014049e-05,1.2758663747764e-05,-0.0098784301622283,0.00084866911851645,-0.015829794420373,9.6913730287204e-05,0.0025893234937832,-0.00073473826306274,-4.1446544889497e-05,5.6915858805911e-05,0.00037971327812382,4.6785698379745e-05,-0.013516975212423,-0.00020693909671263,-3.9320818308594e-05,0.00088298799871529,-0.0060177544529176,-8.7417058716149e-06,-8.6510621946944e-06,9.7161610678688e-05,-0.027230875340567,-5.3196887284294e-05,-4.2529034127314e-05,-0.00064442982049375,-8.6780435451325e-05,0.00021381230268895,0.0005755332178672,732.20021719993,732.20021719993,732.19903176972,732.19903176972,732.20119391274,732.201133522,732.19934773305,732.19995409639,732.20084390464,732.2003136261,732.19866347026,732.19946476153,732.19921644977,732.20053398885,732.20013956942,732.19910785904,732.20005008254,732.20138106439,732.2012706254,732.19915063996,732.19961124382,732.2010641761,732.2007524548,732.19921644977,732.1986897479,732.19923369808,732.20086548759,732.20093122639,732.19960677381,732.20024449876,732.2005993888,732.19985911177,732.19876874432,732.19974158813,732.20009755647,732.20045426805,732.2003771349,732.1993752236,732.20015750094,732.20050602373,732.1998228958,732.19899745505,732.20003209494,732.20009755647,732.20050890523,732.20050890523,732.2013013941,732.2013013941,284.28356409794,1322.6315491958,303.8260536522,1473.2256909155,275.9399005041,0
3.16e-05,21488518.288357,2.1721201072523e-06,9.3790221244886e-06,1.9308815389922e-06,1.0003755324317,607.67735969748,607.67735969748,607.67609632378,607.67609632378,607.67839701677,607.6783317357,607.67643188595,607.67707774784,607.67802579904,607.67745982232,607.67570415113,607.67655832175,607.67629230561,607.67769619164,607.67727465094,607.67617697873,607.67718117048,607.67859606159,607.6784777135,607.67622226277,607.67671295839,607.67825964469,607.67792682507,607.67629230561,607.67573223455,607.67631199539,607.67804760577,607.67811660936,607.67670761471,607.67738670081,607.67776604616,607.6769761493,607.67581605015,607.6768532703,607.6772304262,607.67761088064,607.67752752662,607.67646160917,607.67729495228,607.67766680294,607.6769376218,607.67605938645,607.67716243794,607.6772304262,607.67766790762,607.67766790762,607.67851108895,607.67851108895,-0.0011931724480346,-7.6591051501867e-06,-0.0010390188363567,-0.00012496620780017,0.00033966456597445,0.0054632816932203,-0.0025029310985567,1.415840900157e-05,9.9777750067464e-05,2.7436663831237e-05,0.00031428673440286,-0.02178234966256,-6.5377670659755e-07,-1.832688505872e-05,0.00044534780574719,-0.019472549824589,-4.944077489208e-05,0.00050498016746435,0.0051191688776748,-0.0040733975545263,-9.3572031211397e-05,7.7268415479851e-05,1.3596346129773e-05,-0.010449363973186,0.00090399155424691,-0.01678368884248,0.00010326560423366,0.0027506748503034,-0.00078219128259898,-4.4147357516562e-05,6.0657893769452e-05,0.00040213533373141,4.9834818844988e-05,-0.014322723537804,-0.00021937089422644,-4.1895484737479e-05,0.00094060507412912,-0.0063559177339583,-9.3114254534551e-06,-9.193742517152e-06,0.00010350041328993,-0.028789856531,-5.6684514494769e-05,-4.5288538008065e-05,-0.0006865027827244,-9.2051946997534e-05,0.0002278481416779,0.00061089643692106,732.2000972149,732.2000972149,732.1988338412,732.1988338412,732.20113453419,732.20106925311,732.19916940337,732.19981526526,732.20076331646,732.20019733974,732.19844166854,732.19929583917,732.19902982303,732.20043370906,732.20001216836,732.19891449614,732.1999186879,732.20133357901,732.20121523092,732.19895978019,732.1994504758,732.20099716211,732.20066434249,732.19902982303,732.19846975197,732.19904951281,732.20078512318,732.20085412678,732.19944513213,732.20012421822,732.20050356358,732.19971366672,732.19855356756,732.19959078771,732.19996794362,732.20034839805,732.20026504403,732.19919912659,732.20003246969,732.20040432036,732.19967513921,732.19879690387,732.19989995536,732.19996794362,732.20040542504,732.20040542504,732.20124860637,732.20124860637,290.29071938522,1323.8043086807,304.78616257045,1477.5709538859,276.81252996701,0
3.17e-05,21549997.588534,2.1789897099686e-06,9.4087031047567e-06,1.9370127608086e-06,1.0003902568893,607.67721688591,607.67721688591,607.67587093177,607.67587093177,607.67831842638,607.67824786507,607.6762274224,607.67691481823,607.67792469866,607.67732101894,607.67545369923,607.67636357593,607.67607921013,607.67757442759,607.677124164,607.6759568212,607.67702625719,607.67853001234,607.67840324494,607.67600446558,607.67652681732,607.67817290898,607.67781779058,607.67607921013,607.67548361742,607.67610109155,607.67794686275,607.67801915178,607.67652087892,607.67724342999,607.67764881698,607.67680654319,607.67557267514,607.67667773626,607.67707766237,607.67748324028,607.67739317229,607.67625971368,607.67714676656,607.67754347081,607.67676564223,607.67583161256,607.6770067453,607.67707766237,607.67754252493,607.67754252493,607.67843939755,607.67843939755,-0.0012644395468662,-8.1538852299548e-06,-0.001106594265826,-0.00013031731985519,0.00036185804233213,0.0058026800428632,-0.0026631859931783,1.5091925869547e-05,0.00010630404767762,2.9127687009867e-05,0.00033469420074825,-0.023083005878913,-6.9629910808404e-07,-1.9522815919762e-05,0.0004742984967194,-0.020566431105893,-5.267052874359e-05,0.00053799387025206,0.005437137587088,-0.0043323540747423,-9.9663101911219e-05,8.2292090191103e-05,1.4486225826007e-05,-0.011047459788076,0.00096270856826685,-0.017792617672997,0.0001100115830816,0.0029210406056598,-0.00083249597108231,-4.7013783611937e-05,6.4633435835801e-05,0.00042568004125893,5.3070914515339e-05,-0.015174825989479,-0.00023245489328624,-4.4629793585253e-05,0.001001764226982,-0.0067090790722209,-9.9162718325735e-06,-9.7691996048085e-06,0.00011022871120372,-0.030421335960195,-6.038868098657e-05,-4.8215791897774e-05,-0.00073116559223061,-9.7600723101116e-05,0.00024275787007619,0.00064817013115001,732.1999701485,732.1999701485,732.19862419436,732.19862419436,732.20107168897,732.20100112767,732.19898068499,732.19966808083,732.20067796126,732.20007428153,732.19820696183,732.19911683852,732.19883247272,732.20032769019,732.19987742659,732.19871008379,732.19977951978,732.20128327493,732.20115650753,732.19875772817,732.19928007991,732.20092617157,732.20057105317,732.19883247272,732.19823688002,732.19885435415,732.20070012534,732.20077241438,732.19927414151,732.19999669259,732.20040207957,732.19955980578,732.19832593774,732.19943099885,732.19983092496,732.20023650287,732.20014643488,732.19901297627,732.19990002915,732.2002967334,732.19951890482,732.19858487515,732.19976000789,732.19983092496,732.20029578752,732.20029578752,732.20119266015,732.20119266015,296.16459202727,1324.9177956534,305.74617194067,1481.8941638612,277.68510366988,0
3.18e-05,21612762.545064,2.1858591918549e-06,9.4383841289927e-06,1.9431452498385e-06,1.0004052544714,607.67706554565,607.67706554565,607.67563213793,607.67563213793,607.67823514597,607.67815888493,607.67601099925,607.67674200963,607.67781751511,607.67717405803,607.67518864131,607.67615712913,607.6758538314,607.67744559113,607.67696493656,607.67572404838,607.67686208974,607.67845994662,607.67832422279,607.67577384828,607.67632945737,607.67808092707,607.67770226561,607.6758538314,607.67522040826,607.67587754935,607.67784021329,607.67791578641,607.67632328919,607.67709145155,607.67752456147,607.67662706213,607.67531518373,607.67649164978,607.67691609669,607.67734823968,607.67725092751,607.67604624686,607.676989714,607.67741289817,607.67658373691,607.67559077273,607.67684175964,607.67691609669,607.67740960158,607.67740960158,607.67836332852,607.67836332852,-0.0013398503101341,-8.6787035058509e-06,-0.0011783118789404,-0.00013616634239164,0.00038542481901301,0.0061609947004918,-0.0028329337188557,1.6084270441852e-05,0.00011323487435811,3.0912400045351e-05,0.0003563480160551,-0.02445840223789,-7.4142584098457e-07,-2.0792665888032e-05,0.00050502117922159,-0.021709202081799,-5.6100090235273e-05,0.00057305279892968,0.0057728191116107,-0.0046064270207636,-0.00010612843844807,8.7623500114414e-05,1.5431389250461e-05,-0.011673550987894,0.0010250142414978,-0.018859666860891,0.00011717473759823,0.0031008361680096,-0.00088580780622391,-5.0055277581193e-05,6.8856289437525e-05,0.00045038823532131,5.6504662262019e-05,-0.01607592737289,-0.00024621886442794,-4.7533093836265e-05,0.0010666686917377,-0.0070775835759601,-1.0558290926904e-05,-1.037935290298e-05,0.00011736882694781,-0.032127359612814,-6.4322083501114e-05,-5.1320202450177e-05,-0.00077856729843384,-0.00010343738020872,0.00025859301848528,0.00068743395320609,732.19983561216,732.19983561216,732.19840220444,732.19840220444,732.20100521249,732.20092895144,732.19878106577,732.19951207614,732.20058758163,732.19994412455,732.19795870783,732.19892719564,732.19862389791,732.20021565764,732.19973500307,732.1984941149,732.19963215626,732.20123001313,732.2010942893,732.19854391479,732.19909952389,732.20085099359,732.20047233213,732.19862389791,732.19799047477,732.19864761586,732.2006102798,732.20068585293,732.1990933557,732.19986151806,732.20029462799,732.19939712865,732.19808525024,732.1992617163,732.19968616321,732.2001183062,732.20002099402,732.19881631338,732.19975978051,732.20018296468,732.19935380343,732.19836083924,732.19961182616,732.19968616321,732.2001796681,732.2001796681,732.20113339504,732.20113339504,301.90039454404,1325.973943726,306.70607724937,1486.1943447851,278.55761987748,0
3.19e-05,21676788.637913,2.1927285510228e-06,9.4680651993348e-06,1.9492790843695e-06,1.0004205181115,607.67690519258,607.67690519258,607.67537921293,607.67537921293,607.67814693055,607.67806451865,607.67578201043,607.67655875542,607.67770390292,607.67701852654,607.67490823533,607.675938312,607.67561557857,607.67730932282,607.67679654273,607.67547806417,607.67668814984,607.67838564516,607.67824040001,607.67552974336,607.67612024385,607.67798340292,607.67757991117,607.67561557857,607.67494184726,607.67564065599,607.67772736187,607.67780619236,607.67611430961,607.67693026554,607.67739287971,607.67643721798,607.67504287503,607.6762944029,607.67674530778,607.67720551947,607.67710039328,607.67582066197,607.67682330118,607.67727469883,607.67639143105,607.67533624731,607.6766669575,607.67674530778,607.6772687232,607.6772687232,607.67828263995,607.67828263995,-0.0014196444995204,-9.2352668645442e-06,-0.001254408888816,-0.00014258533865481,0.00041044512940759,0.0065390980622281,-0.0030126782083613,1.7139002887966e-05,0.00012059393208643,3.279528482796e-05,0.00037931899659247,-0.025912749416966,-7.8930551151313e-07,-2.2140751902035e-05,0.000537616938106,-0.022902067305578,-5.9741134256375e-05,0.0006102767274241,0.0061270289293735,-0.0048963941160769,-0.00011298960338396,9.3280268455469e-05,1.6435096313616e-05,-0.012328466357389,0.0010911127856803,-0.019988082132315,0.00012477940547859,0.0032904882688443,-0.00094228948792244,-5.3281787610397e-05,7.3341029293125e-05,0.00047630130746863,6.0147295436779e-05,-0.017028814430545,-0.00026069149331153,-5.0615250316157e-05,0.001135532376377,-0.0074617622969029,-1.1239640829616e-05,-1.102622661264e-05,0.0001249442522812,-0.033909942420887,-6.8498119423413e-05,-5.4611646552064e-05,-0.00082886483468886,-0.0001095725451645,0.00027540798847354,0.00072876860959587,732.19969317931,732.19969317931,732.19816719967,732.19816719967,732.20093491728,732.20085250538,732.19856999716,732.19934674216,732.20049188965,732.19980651328,732.19769622206,732.19872629874,732.19840356531,732.20009730955,732.19958452946,732.19826605091,732.19947613657,732.2011736319,732.20102838674,732.1983177301,732.19890823059,732.20077138965,732.20036789791,732.19840356531,732.197729834,732.19842864273,732.2005153486,732.2005941791,732.19890229635,732.19971825227,732.20018086644,732.19922520471,732.19783086177,732.19908238963,732.19953329451,732.1999935062,732.19988838002,732.1986086487,732.19961128791,732.20006268556,732.19917941778,732.19812423405,732.19945494423,732.19953329451,732.20005670994,732.20005670994,732.20107062668,732.20107062668,307.49419963157,1326.9747120209,307.66587376543,1490.4705051609,279.43007679647,0
3.2e-05,21742050.607273,2.1995977856332e-06,9.4977463179893e-06,1.9554143476067e-06,1.0004360406259,607.67673531622,607.67673531622,607.67511139193,607.67511139193,607.67805352484,607.67796447731,607.6755398257,607.67636445837,607.67758349811,607.67685399539,607.67461170916,607.67570641848,607.67536384116,607.67716524844,607.67661854207,607.67521825388,607.67650389202,607.67830687859,607.67815151861,607.6752714545,607.67589850852,607.67788002511,607.67745037401,607.67536384116,607.67464714153,607.67538966086,607.67760800191,607.6776900341,607.67589338478,607.67675934508,607.67725335,607.67623650488,607.67475502185,607.67608535371,607.67656486051,607.67705470738,607.67694115522,607.67558239523,607.67664700942,607.67712846834,607.67618823463,607.6750673971,607.67648178746,607.67656486051,607.6771194553,607.6771194553,607.67819707845,607.67819707845,-0.0015040748375712,-9.8253735137933e-06,-0.0013351349783692,-0.00014965483385453,0.00043700361540333,0.0069378869150336,-0.0032029454878091,1.8259893346739e-05,0.00012840623113062,3.47810063221e-05,0.00040368162123694,-0.027450479258996,-8.4009444029457e-07,-2.3571628545567e-05,0.00057219211897037,-0.02414619712237,-6.3605978077199e-05,0.00064979204242766,0.0065006050984407,-0.0052030646843499,-0.00012026930801803,9.9280950791696e-05,1.7500789916374e-05,-0.013013028934819,0.0011612190031815,-0.021181276359436,0.0001328512575716,0.0034904345382955,-0.0010021111605352,-5.6703775334042e-05,7.8103040628425e-05,0.00050346120229755,6.4010629198608e-05,-0.018036422550513,-0.0002759024289868,-5.3886670420242e-05,0.0012085803516306,-0.007861931304512,-1.1962597718303e-05,-1.1711954697412e-05,0.00013297970152514,-0.035771064446882,-7.2930923246051e-05,-5.8100490226603e-05,-0.00088222338558345,-0.00011601680655319,0.000293260207705,0.00077225562167949,732.19954241275,732.19954241275,732.19791848845,732.19791848845,732.20086062137,732.20077157384,732.19834692222,732.1991715549,732.20039059464,732.19966109192,732.19741880568,732.19851351501,732.19817093769,732.19997234497,732.19942563859,732.1980253504,732.19931098854,732.20111397512,732.20095861514,732.19807855102,732.19870560504,732.20068712163,732.20025747054,732.19817093769,732.19745423806,732.19819675739,732.20041509844,732.20049713062,732.19870048131,732.19956644161,732.20006044652,732.19904360141,732.19756211837,732.19889245024,732.19937195703,732.19986180391,732.19974825174,732.19838949175,732.19945410595,732.19993556487,732.19899533115,732.19787449362,732.19928888398,732.19937195703,732.19992655183,732.19992655183,732.20100417497,732.20100417497,312.9428431674,1327.9220834399,308.62555653428,1494.7216378834,280.30247256014,0
3.21e-05,21808522.60398,2.2064668941794e-06,9.5274274872217e-06,1.9615511279677e-06,1.0004518147495,607.67655537842,607.67655537842,607.67482787305,607.67482787305,607.67795466311,607.67785845932,607.67528379015,607.67615848912,607.67745591736,607.67668001915,607.67429825976,607.67546070393,607.6750979889,607.67701297854,607.67643047946,607.67494398418,607.67630874239,607.67822340707,607.67805730934,607.67499825558,607.67566354805,607.6777704662,607.6773132863,607.6750979889,607.67433546394,607.67512377366,607.67748181563,607.67756696092,607.67565993942,607.67657813507,607.67710552784,607.67602439905,607.67445087009,607.67586382462,607.67637430592,607.67689541813,607.6767727832,607.67533086578,607.67646029369,607.67697378327,607.67597364239,607.67478356321,607.67628566881,607.67637430592,607.67696134246,607.67696134246,607.67810637876,607.67810637876,-0.0015934075121418,-1.0450917711488e-05,-0.0014207528781481,-0.00015746459445239,0.0004651895560885,0.0073582816822586,-0.0034042842593683,1.9450932807495e-05,0.00013669815757171,3.6874421471043e-05,0.00042951419573157,-0.029076253643148,-8.9395700481936e-07,-2.5090100353353e-05,0.00060885856623497,-0.025442725451697,-6.7707614293519e-05,0.00069173208891021,0.0068944075152463,-0.0055272802489844,-0.00012799146868071,0.00010564507990648,1.8632105835173e-05,-0.013728055076722,0.0012355587635833,-0.022442836283024,0.00014141736685738,0.0037011230002954,-0.0010654506382207,-6.0332239617523e-05,8.31585611756e-05,0.00053191042192713,6.8107086793979e-05,-0.01910184169515,-0.00029188234100575,-5.7358332164543e-05,0.0012860493606662,-0.0082783909978295,-1.2729561802735e-05,-1.2438785633566e-05,0.00014150116679641,-0.037712667776301,-7.7635404392683e-05,-6.1797608056478e-05,-0.00093881677226852,-0.00012278066102514,0.00031221028953688,0.00081797705703745,732.19938285051,732.19938285051,732.19765534514,732.19765534514,732.2007821352,732.2006859314,732.19811126224,732.19898596121,732.20028338945,732.19950749124,732.19712573185,732.19828817602,732.19792546099,732.19984045063,732.19925795154,732.19777145627,732.19913621447,732.20105087916,732.20088478143,732.19782572767,732.19849102014,732.20059793828,732.20014075839,732.19792546099,732.19716293603,732.19795124574,732.20030928772,732.20039443301,732.19848741151,732.19940560716,732.19993299993,732.19885187114,732.19727834218,732.19869129671,732.19920177801,732.19972289022,732.19960025528,732.19815833787,732.19928776578,732.19980125536,732.19880111447,732.1976110353,732.1991131409,732.19920177801,732.19978881455,732.19978881455,732.20093385085,732.20093385085,318.24393974162,1328.8180529448,309.58512022745,1498.9467238039,281.17480538288,0
3.22e-05,21876178.330319,2.2133358750115e-06,9.5571087093604e-06,1.9676895191898e-06,1.0004678331684,607.67636481198,607.67636481198,607.67452781592,607.67452781592,607.6778500688,607.67774615002,607.67501322357,607.67594018469,607.67732075704,607.67649613574,607.67396705238,607.67520038325,607.67481737166,607.67685210796,607.676231885,607.67465460316,607.67610209732,607.67813497996,607.67795749134,607.67470938982,607.6754146224,607.67765438199,607.6771682652,607.67481737166,607.67400595201,607.67484216256,607.67734847381,607.67743660652,607.6754133781,607.67638605086,607.67694894479,607.6758003585,607.67412963828,607.67562910054,607.67617318121,607.67672725315,607.67659483106,607.67506547574,607.67626258139,607.67681020041,607.67574713381,607.67448406715,607.67607799018,607.67617318121,607.67679390754,607.67679390754,607.67801026332,607.67801026332,-0.0016879227837912,-1.1113894785019e-05,-0.0015115389635734,-0.0001661144929456,0.00049509709663453,0.0078012255258528,-0.0036172664568594,2.0716345718409e-05,0.0001454975441337,3.908058897566e-05,0.00045689902232413,-0.03079497440156,-9.5106598990872e-07,-2.6701234765918e-05,0.00064773386635364,-0.026792748193866,-7.2059745661822e-05,0.00073623751756722,0.0073093170349216,-0.0058699150725262,-0.00013618126409299,0.00011239321265904,1.9832882947652e-05,-0.014474353801871,0.001314369495535,-0.023776529879852,0.00015050627699335,0.0039230114878394,-0.0011324936235333,-6.417873944885e-05,8.8524725245384e-05,0.00056169204115629,7.2449726753593e-05,-0.020228323183745,-0.00030866298443458,-6.1041813737382e-05,0.0013681883377147,-0.0087114256516525,-1.3543063720674e-05,-1.3209088057039e-05,0.00015053597466103,-0.039736654245286,-8.2627287150969e-05,-6.5714403151868e-05,-0.00099882784168419,-0.00012987445460498,0.00033232219598326,0.00086601523143257,732.19921403371,732.19921403371,732.19737703765,732.19737703765,732.20069929053,732.20059537175,732.1978624453,732.19878940641,732.20016997877,732.19934535747,732.19681627411,732.19804960498,732.19766659338,732.19970132968,732.19908110673,732.19750382489,732.19895131905,732.20098420168,732.20080671307,732.19755861154,732.19826384413,732.20050360372,732.20001748693,732.19766659338,732.19685517374,732.19769138428,732.20019769553,732.20028582825,732.19826259983,732.19923527259,732.19979816652,732.19864958022,732.19697886,732.19847832227,732.19902240294,732.19957647488,732.19944405278,732.19791469747,732.19911180312,732.19965942213,732.19859635554,732.19733328888,732.1989272119,732.19902240294,732.19964312926,732.19964312926,732.20085948505,732.20085948505,323.39583005045,1329.664618313,310.54455937979,1503.1447342295,282.0470733241,0
3.23e-05,21944991.172851,2.2202047267886e-06,9.5867899867945e-06,1.9738296208747e-06,1.0004840885514,607.67616301923,607.67616301923,607.67421034003,607.67421034003,607.67773945432,607.6776272214,607.6747274198,607.67570884688,607.67717759231,607.67630186607,607.67361721965,607.67492462888,607.67452131927,607.67668221542,607.67602227393,607.67434944031,607.6758833221,607.67804133546,607.67785177188,607.67440406871,607.67515095315,607.67753141085,607.67701491254,607.67452131927,607.67365770674,607.67454395225,607.6772076356,607.67729858848,607.67515308489,607.67618247691,607.67678310732,607.6755638228,607.67379051698,607.67538042701,607.67596100959,607.67654980042,607.67640683631,607.67478561014,607.67605327119,607.676637256,607.67550817315,607.67416821071,607.675858108,607.67596100959,607.67661665084,607.67661665084,607.67790844189,607.67790844189,-0.0017879155404766,-1.1816406376953e-05,-0.0016077837694391,-0.00017571544566224,0.00052682550670874,0.0082676832463841,-0.0038424877631226,2.2060604079106e-05,0.00015483374430907,4.1404780552648e-05,0.00048592253531737,-0.032611793022298,-1.0116027699438e-06,-2.8410375610157e-05,0.00068894153773097,-0.02819732234537,-7.667682142159e-05,0.00078345667581541,0.0077462343903424,-0.0062318766115227,-0.00014486518478708,0.00011954697874271,2.1107174415729e-05,-0.015252726530345,0.0013979005875493,-0.025186313718435,0.00016014808066266,0.0041565669510277,-0.0012034339178152,-6.8255417437123e-05,9.4219609779524e-05,0.00059284974158967,7.7052264539585e-05,-0.021419286183306,-0.00032627726981869,-6.4949324275679e-05,0.0014552588444712,-0.0091613032201915,-1.4405771150061e-05,-1.402535593864e-05,0.00016011282739334,-0.041844884164995,-8.7923152335407e-05,-6.9862827067763e-05,-0.0010624488340385,-0.0001373083178943,0.00035366341787613,0.00091645236789971,732.19903546345,732.19903546345,732.19708278424,732.19708278424,732.20061189854,732.20049966562,732.19759986402,732.1985812911,732.20005003653,732.19917431029,732.19648966387,732.1977970731,732.19739376349,732.19955465964,732.19889471815,732.19722188453,732.19875576632,732.20091377968,732.2007242161,732.19727651293,732.19802339737,732.20040385507,732.19988735676,732.19739376349,732.19653015096,732.19741639647,732.20008007982,732.20017103269,732.19802552911,732.19905492113,732.19965555154,732.19843626702,732.1966629612,732.19825287123,732.19883345381,732.19942224464,732.19927928053,732.19765805436,732.19892571541,732.19950970022,732.19838061737,732.19704065493,732.19873055222,732.19883345381,732.19948909506,732.19948909506,732.20078088611,732.20078088611,328.39753607851,1330.4637716734,311.50386820211,1507.3146332678,282.91927444382,0
3.24e-05,22014934.326658,2.227073448307e-06,9.6164713219706e-06,1.9799715386028e-06,1.0005005735778,607.67594937054,607.67594937054,607.6738745231,607.6738745231,607.67762252072,607.67750133164,607.67442564608,607.6754637407,607.67702597612,607.67609671374,607.6732478607,607.67463256873,607.67420914145,607.67650286303,607.6758011465,607.67402780647,607.67565174945,607.67794220028,607.67773984602,607.67408147106,607.67487172172,607.67740117289,607.67685281437,607.67420914145,607.67328979138,607.67422822192,607.67705894838,607.67715250776,607.67487842302,607.67596676539,607.6766074956,607.6753142128,607.67343266827,607.67511700822,607.67573730028,607.67636263424,607.6762083198,607.67449063696,607.67583173175,607.67645446492,607.67525620936,607.67383527599,607.67562534507,607.67573730028,607.67642904925,607.67642904925,607.67780061109,607.67780061109,-0.0018936959535418,-1.2560666035552e-05,-0.0017097926329237,-0.00018639041402073,0.00056047942874864,0.0087586400494655,-0.0040805681335162,2.3488441236197e-05,0.00016473771019694,4.3852492904991e-05,0.00051667547586846,-0.034532121600474,-1.0757579278715e-06,-3.0223157342504e-05,0.00073261136623928,-0.029657466023701,-8.1574075404319e-05,0.0008335459839522,0.0082060789807842,-0.0066141059767209,-0.00015407109670745,0.00012712913186658,2.2459258626623e-05,-0.01606396719676,0.0014864139035229,-0.026676341124697,0.00017037449384709,0.004402264691475,-0.0012784736317663,-7.2575026052615e-05,0.00010026228263269,0.00062542785776294,8.1929100081669e-05,-0.022678325158759,-0.00034475934674891,-6.909373626669e-05,0.0015475357538187,-0.0096282754836247,-1.5320495767534e-05,-1.489021468658e-05,0.00017026188428111,-0.044039176246837,-9.3540480982198e-05,-7.4255400477559e-05,-0.001129881857458,-0.00014509209667778,0.00037630515019895,0.00096937022766916,732.19884659178,732.19884659178,732.19677174433,732.19677174433,732.20051974195,732.20039855288,732.19732286731,732.19836096194,732.19992319735,732.19899393497,732.19614508193,732.19752978997,732.19710636269,732.19940008427,732.19869836774,732.1969250277,732.19854897069,732.20083942152,732.20063706725,732.19697869229,732.19776894296,732.20029839412,732.19975003561,732.19710636269,732.19618701261,732.19712544315,732.19995616961,732.20004972899,732.19777564425,732.19886398662,732.19950471683,732.19821143403,732.1963298895,732.19801422946,732.19863452152,732.19925985547,732.19910554104,732.19738785819,732.19872895299,732.19935168616,732.1981534306,732.19673249722,732.1985225663,732.19863452152,732.19932627049,732.19932627049,732.20069783232,732.20069783232,333.24871352005,1331.2174914718,312.46304061989,1511.4553817141,283.79140679542,0
3.25e-05,22085980.910199,2.2339420385572e-06,9.6461527173958e-06,1.9861153843181e-06,1.0005172809637,607.67572320278,607.67572320278,607.6735193994,607.6735193994,607.67749895745,607.67736812486,607.67410714238,607.67520409262,607.67686543819,607.67588016467,607.67285804024,607.67432328406,607.67388012766,607.67631359576,607.67556798788,607.67368899388,607.67540667815,607.67783728929,607.67762139633,607.67374074192,607.67457606761,607.67726326926,607.67668154062,607.67388012766,607.67290123016,607.67389400312,607.67690204746,607.67699794824,607.6745887345,607.67573823469,607.67642156225,607.6750509304,607.67305522507,607.67483800499,607.6755015484,607.67616531495,607.67599878543,607.67417990711,607.67559730047,607.6762613198,607.67499067619,607.67348452534,607.67537898891,607.6755015484,607.67623055539,607.67623055539,607.677686454,607.677686454,-0.0020055900935472,-1.3349004968142e-05,-0.0018178865811946,-0.00019827551760733,0.00059616915987185,0.0092751002505736,-0.0043321522211896,2.5004865303592e-05,0.00017524207365826,4.6429460839328e-05,0.00054925317852168,-0.036561643424763,-1.143731601286e-06,-3.2145519959013e-05,0.00077887968138034,-0.031174158935572,-8.6767565961743e-05,0.00088667036743849,0.0086897876376781,-0.0070175782022611,-0.00016382832456762,0.00013516360347761,2.3893652209413e-05,-0.016908862530499,0.0015801845796559,-0.02825097019965,0.00018121893999409,0.0046605875416478,-0.0013578233718939,-7.7150953888432e-05,0.00010667285303174,0.00065947143184216,8.7095365097787e-05,-0.02400921698366,-0.00036414470299547,-7.3488619581305e-05,0.0016453078357502,-0.010112578394354,-1.6290200533043e-05,-1.5806426964149e-05,0.00018101482653317,-0.046321308050348,-9.9497700123505e-05,-7.8905233717589e-05,-0.0012013393283848,-0.00015323527752621,0.00040032249777552,0.0010248497431708,732.19864686298,732.19864686298,732.1964430596,732.1964430596,732.20042261764,732.20029178505,732.19703080258,732.19812775282,732.19978909838,732.19880382487,732.19578170043,732.19724694426,732.19680378786,732.19923725596,732.19849164807,732.19661265408,732.19833033834,732.20076094949,732.20054505653,732.19666440211,732.19749972781,732.20018692946,732.19960520082,732.19680378786,732.19582489036,732.19681766332,732.19982570766,732.19992160844,732.19751239469,732.19866189488,732.19934522244,732.19797459059,732.19597888527,732.19776166519,732.1984252086,732.19908897515,732.19892244562,732.1971035673,732.19852096066,732.19918498,732.19791433639,732.19640818553,732.1983026491,732.1984252086,732.19915421559,732.19915421559,732.2006101142,732.2006101142,337.94960050303,1331.9277353245,313.42207024393,1515.565939194,284.66346839789,0
3.26e-05,22158104.070658,2.2408104967408e-06,9.6758341756388e-06,1.9922612765849e-06,1.000534203485,607.67548381772,607.67548381772,607.67314395795,607.67314395795,607.67736844203,607.67722723065,607.67377112071,607.67492908887,607.67669548397,607.67565168681,607.67244678754,607.67399580721,607.67353354693,607.67611394092,607.67532226806,607.67333227615,607.67514737139,607.67772630511,607.67749609259,607.67338099144,607.67426308649,607.67711728136,607.67650064466,607.67353354693,607.67249100698,607.6735402776,607.67673655596,607.6768344762,607.67428333975,607.67549616797,607.67622473104,607.67477335822,607.67265729057,607.67454253264,607.67525323488,607.67595738876,607.67577771977,607.67385275439,607.67534928209,607.67605729011,607.67471099211,607.67311520131,607.67511829015,607.67525323488,607.67602059665,607.67602059665,607.67756563976,607.67756563976,-0.0021239405305848,-1.4183878226662e-05,-0.0019324028728749,-0.00021152114387428,0.00063401092707426,0.009818085664046,-0.0045979098264189,2.6615175799648e-05,0.00018638123150141,4.9141672064025e-05,0.00058375570401807,-0.03870632361629,-1.2157338209151e-06,-3.4183724561608e-05,0.00082788960452745,-0.032748344304886,-9.2274217843669e-05,0.00094300366924674,0.0091983130394315,-0.0074433025535605,-0.00017416770587963,0.00014367555834483,2.5415121496341e-05,-0.017788193085577,0.0016795014262671,-0.029914771936704,0.00019271663329584,0.0049320248976423,-0.0014417024317628,-8.1997251223894e-05,0.00011347252431556,0.00069502629767089,9.2566943999061e-05,-0.025415928019077,-0.00038447026365318,-7.8148276967777e-05,0.0017488783032453,-0.010614432916231,-1.731800737118e-05,-1.6776898516336e-05,0.00019240491366699,-0.048693018509746,-0.00010581423077142,-8.3826047718332e-05,-0.0012770444027444,-0.0001617469068145,0.00042579466112229,0.001082970568931,732.198435688,732.198435688,732.19609582823,732.19609582823,732.20032031231,732.20017910093,732.19672299099,732.19788095915,732.19964735425,732.19860355709,732.19539865782,732.19694767749,732.19648541721,732.1990658112,732.19827413834,732.19628414643,732.19809924167,732.20067817539,732.20044796288,732.19633286172,732.19721495677,732.20006915164,732.19945251494,732.19648541721,732.19544287726,732.19649214788,732.19968842624,732.19978634648,732.19723521003,732.19844803825,732.19917660132,732.1977252285,732.19560916085,732.19749440292,732.19820510516,732.19890925904,732.19872959006,732.19680462467,732.19830115237,732.19900916039,732.19766286239,732.19606707159,732.19807016043,732.19820510516,732.19897246693,732.19897246693,732.20051751004,732.20051751004,342.5009660591,1332.596433414,314.38095037378,1519.6452686766,285.53545718737,0
3.27e-05,22231277.079434,2.2476788222683e-06,9.7055156993239e-06,1.9984093410115e-06,1.0005513339984,607.67523048033,607.67523048033,607.67274714061,607.67274714061,607.67723063978,607.67707826383,607.67341676429,607.6746378736,607.67651559356,607.67541072968,607.6720130954,607.67364911929,607.67316864771,607.67590340758,607.67506344173,607.67295690814,607.67487305528,607.6776089378,607.67736359148,607.67300129375,607.67393182827,607.67696276995,607.6763096629,607.67316864771,607.67205806393,607.67316597499,607.67656208451,607.6766616398,607.6739615372,607.67523981158,607.67601639554,607.67448085936,607.67223793752,607.67422965878,607.67499182636,607.67573838739,607.67554459179,607.67350849545,607.67508694736,607.67584182123,607.67441656033,607.67272652658,607.67484246082,607.67499182636,607.67579857431,607.67579857431,607.67743782306,607.67743782306,-0.0022491070582574,-1.5067871099473e-05,-0.002053695685171,-0.00022629314128466,0.00067412718874244,0.010388633887256,-0.0048785362521369,2.8324980093846e-05,0.0001981914345665,5.1995383020727e-05,0.00062028802657008,-0.040972420935251,-1.2919849182548e-06,-3.6344369746137e-05,0.00087979133041697,-0.034380931227634,-9.8111865951779e-05,0.001002729112267,0.009732622038064,-0.0078923226597925,-0.00018512165867741,0.00015269145275136,2.7028696657816e-05,-0.01870273443029,0.0017846674773832,-0.031672538924508,0.00020490466926367,0.0052170716862117,-0.0015303389582717,-8.7128657132681e-05,0.00012068364919369,0.00073213917247444,9.836050361362e-05,-0.026902622223378,-0.00040577450118192,-8.308778139618e-05,0.0018585654169647,-0.011134046050384,-1.840720515351e-05,-1.780468496503e-05,0.00020446704896246,-0.051156010967862,-0.00011251053806829,-8.9032195084866e-05,-0.0013572314384031,-0.00017063550507789,0.00045280515714293,0.0011438106153885,732.19821242548,732.19821242548,732.19572908575,732.19572908575,732.20021258492,732.20006020897,732.19639870943,732.19761981874,732.1994975387,732.19839267482,732.19499504055,732.19663106443,732.19615059285,732.19888535272,732.19804538688,732.19593885329,732.19785500042,732.20059088294,732.20034553662,732.1959832389,732.19691377341,732.19994471509,732.19929160804,732.19615059285,732.19504000908,732.19614792014,732.19954402966,732.19964358494,732.19694348235,732.19822175673,732.19899834068,732.1974628045,732.19521988266,732.19721160393,732.1979737715,732.19872033253,732.19852653693,732.19649044059,732.1980688925,732.19882376637,732.19739850547,732.19570847172,732.19782440596,732.1979737715,732.19878051945,732.19878051945,732.2004197682,732.2004197682,346.90405720432,1333.2254827705,315.33967393026,1523.692339354,286.40737111265,0
3.28e-05,22305473.417919,2.2545470148322e-06,9.7351972911332e-06,2.0045597105253e-06,1.0005686654595,607.67496241706,607.67496241706,607.67232784023,607.67232784023,607.67708520348,607.67692082398,607.67304322681,607.67432954707,607.67632522056,607.6751567241,607.67155591903,607.67328214777,607.67278465764,607.67568148599,607.67479094818,607.67256212593,607.67458291713,607.67748486447,607.67722353628,607.67260068571,607.67358129509,607.67679927439,607.67610811439,607.67278465764,607.6716012999,607.67276997049,607.67637823106,607.67647896855,607.6736226028,607.6749683735,607.67579591771,607.67417277702,607.67179620748,607.67389840104,607.67471677503,607.67550782781,607.67529885244,607.67314642967,607.67480953155,607.67561433345,607.67410676874,607.6723177038,607.67455067254,607.67471677503,607.67556386256,607.67556386256,607.67730264379,607.67730264379,-0.0023814673830491,-1.6003705057519e-05,-0.0021821368489076,-0.00024277419696774,0.00071664694484679,0.010987796432871,-0.0051747526251289,3.0140210780889e-05,0.00021071088086884,5.4997136213014e-05,0.00065896024882867,-0.043366499875472,-1.372715905543e-06,-3.863440874976e-05,0.00093474241405001,-0.036072798152951,-0.00010429930026858,0.0010660397720074,0.010293693838483,-0.0083657165787483,-0.00019672425291245,0.00016223909543318,2.8739685590866e-05,-0.01965325886651,0.0018960006013623,-0.03352929462777,0.00021782211744291,0.0055162272483875,-0.001623970108022,-9.2560626997445e-05,0.00012832978739298,0.00077085776971944,0.00010449352878559,-0.02847366919531,-0.00042809755889257,-8.8323015235091e-05,0.0019747031020175,-0.011671612269043,-1.9561257844788e-05,-1.8892998461338e-05,0.00021723784622766,-0.053711957750833,-0.00011960818215129,-9.4538681861067e-05,-0.0014421464684255,-0.00017990897632664,0.0004814420396148,0.0012074455509275,732.19797642585,732.19797642585,732.19534184902,732.19534184902,732.20009921227,732.19993483277,732.1960572356,732.19734355586,732.19933922934,732.19817073289,732.19456992782,732.19629615656,732.19579866642,732.19869549478,732.19780495696,732.19557613472,732.19759692592,732.20049887326,732.20023754507,732.1956146945,732.19659530388,732.19981328318,732.19912212318,732.19579866642,732.19461530869,732.19578397928,732.19939223985,732.19949297734,732.19663661159,732.19798238229,732.1988099265,732.19718678581,732.19481021627,732.19691240983,732.19773078382,732.19852183659,732.19831286123,732.19616043846,732.19782354034,732.19862834223,732.19712077753,732.19533171259,732.19756468133,732.19773078382,732.19857787135,732.19857787135,732.20031665257,732.20031665257,351.16054715318,1333.8167420835,316.29823355068,1527.7061305353,287.27920813988,0
3.29e-05,22380666.853511,2.2614150746292e-06,9.7648789538078e-06,2.0107125258074e-06,1.0005861909386,607.67467881398,607.67467881398,607.67188489854,607.67188489854,607.67693177309,607.67675449518,607.67264963155,607.67400316367,607.67612379089,607.67488908173,607.67107417484,607.67289376399,607.67238078332,607.67544764693,607.67450421108,607.67214714664,607.67427610374,607.67735374888,607.67707555662,607.67217816561,607.67321043924,607.67662631172,607.67589550037,607.67238078332,607.67111956894,607.67235108231,607.6761845806,607.67628597283,607.67326578954,607.67468102165,607.67556262644,607.67384843422,607.67133111004,607.67354772465,607.6744275185,607.67526521186,607.67503993431,607.67276583906,607.67451623297,607.67537422089,607.6737809899,607.67188791547,607.67424205469,607.6744275185,607.67531580751,607.67531580751,607.67715972654,607.67715972654,-0.0025214177655415,-1.6994247823302e-05,-0.0023181165853996,-0.00026116517476102,0.00076170606399931,0.011616636614549,-0.0054873061467968,3.2067143946522e-05,0.00022397981372647,5.8153779213061e-05,0.00069988781055508,-0.04589544210585,-1.4581688242971e-06,-4.1061167385251e-05,0.00099290807037654,-0.037824797240832,-0.00011085631730928,0.0011331390715439,0.010882517934592,-0.0088645967389018,-0.00020901128285895,0.00017234771135529,3.0553688629708e-05,-0.020640537629601,0.0020138341007098,-0.035490302115695,0.00023151012083296,0.0058299940951033,-0.0017228421806773,-9.8309361667285e-05,0.00013643576657826,0.0008112309338692,0.00011098435648962,-0.030133651781959,-0.00045148138288821,-9.3870710869462e-05,0.0020976415970351,-0.012227315258834,-2.0783814160933e-05,-2.0045214051287e-05,0.00023075569852148,-0.056362505990936,-0.00012712987949023,-0.00010036118668846,-0.0015320477010131,-0.00018957451082515,0.00051179813000271,0.0012739482555482,732.19772700455,732.19772700455,732.19493308911,732.19493308911,732.19997996365,732.19980268575,732.19569782211,732.19705135424,732.19917198145,732.19793727229,732.1941223654,732.19594195455,732.19542897388,732.19849583749,732.19755240165,732.1951953372,732.1973242943,732.20040193945,732.20012374718,732.19522635618,732.1962586298,732.19967450228,732.19894369093,732.19542897388,732.1941677595,732.19539927288,732.19923277116,732.19933416339,732.19631398011,732.19772921222,732.198610817,732.19689662478,732.1943793006,732.19659591522,732.19747570906,732.19831340243,732.19808812487,732.19581402963,732.19756442353,732.19842241146,732.19682918046,732.19493610603,732.19729024525,732.19747570906,732.19836399808,732.19836399808,732.20020791711,732.20020791711,355.27248364052,1334.3720273254,317.25662156777,1531.6856356635,288.15096618569,0
3.3e-05,22456831.506269,2.2682830020067e-06,9.7945606901445e-06,2.0168679354116e-06,1.0006039036346,607.67437881494,607.67437881494,607.67141710411,607.67141710411,607.67676997539,607.67657884558,607.67223507045,607.67365772998,607.6759107016,607.67460719464,607.67056673921,607.6724827805,607.67195621003,607.67520134099,607.67420263841,607.67171116825,607.67395171962,607.67721524111,607.67691926813,607.67173269184,607.67281816097,607.67644337578,607.6756713038,607.67195621003,607.67061167866,607.6719080692,607.67598070489,607.67608214332,607.67289032692,607.67437688223,607.67531581602,607.67350713335,607.67084162194,607.67317654001,607.67412347954,607.67501002594,607.67476725123,607.67236598807,607.6742062114,607.67512085047,607.67343858092,607.67143632369,607.67391569245,607.67412347954,607.67505372617,607.67505372617,607.6770086802,607.6770086802,-0.002669373792557,-1.8042516275071e-05,-0.0024620442689089,-0.00028168652457256,0.00080944761599178,0.012276227606369,-0.0058169702715621,3.411241917705e-05,0.00023804062320448,6.1472484931681e-05,0.00074319169805492,-0.048566459009733,-1.5485973866627e-06,-4.363236057758e-05,0.0010544614724628,-0.039637759731024,-0.00011780376534686,0.0012042412941301,0.011500092215102,-0.0093901097491368,-0.00022202034399889,0.00018304800841992,3.2476614069845e-05,-0.021665343485362,0.0021385173208483,-0.037561073375035,0.00024601199402743,0.006158876740662,-0.0018272107343899,-0.00010439183405819,0.00014502774503022,0.00085330878960736,0.00011785220966898,-0.031887374662963,-0.00047596986285822,-9.9748489342546e-05,0.0022277480840222,-0.012801330045023,-2.2078715528278e-05,-2.1264876778725e-05,0.00024506085064761,-0.059109284755555,-0.00013509955116118,-0.00010651608214464,-0.0016272060015128,-0.0001996384893828,0.00054397126055602,0.0013433882924912,732.19746342748,732.19746342748,732.19450171664,732.19450171664,732.19985458792,732.19966345812,732.19531968298,732.19674234252,732.19899531414,732.19769180717,732.19365135174,732.19556739304,732.19504082256,732.19828595353,732.19728725094,732.19479578078,732.19703633216,732.20029985365,732.20000388066,732.19481730438,732.19590277351,732.19952798831,732.19875591633,732.19504082256,732.1936962912,732.19499268174,732.19906531742,732.19916675586,732.19597493945,732.19746149477,732.19840042856,732.19659174589,732.19392623448,732.19626115254,732.19720809208,732.19809463848,732.19785186377,732.19545060061,732.19729082394,732.19820546301,732.19652319345,732.19452093623,732.19700030498,732.19720809208,732.19813833871,732.19813833871,732.20009329274,732.20009329274,359.24223965423,1334.8931082849,318.2148297868,1535.6298655461,289.02264308712,0
3.31e-05,22533941.906693,2.2751507978795e-06,9.8242425029984e-06,2.023026096451e-06,1.0006217968858,607.67406151958,607.67406151958,607.67092319007,607.67092319007,607.67659942365,607.6763934271,607.67179860314,607.67329220267,607.67568531964,607.6743104349,607.67003244709,607.67204794843,607.67151010134,607.67494199788,607.67388562217,607.67125336935,607.67360882513,607.67706897712,607.67675427222,607.67126318143,607.67240330629,607.67624993629,607.67543498893,607.67151010134,607.67007638847,607.67143962772,607.67576616216,607.67586695049,607.67249542032,607.67405503796,607.67505474458,607.67314815582,607.67032668613,607.67278370009,607.67380406591,607.67474174052,607.67448019785,607.67194612334,607.67387858652,607.67485356066,607.67307888336,607.67096206989,607.67357062481,607.67380406591,607.6747769054,607.6747769054,607.67684909745,607.67684909745,-0.0028257711138843,-1.9151687224881e-05,-0.002614349195763,-0.0003045797454177,0.00086002223180838,0.012967649767968,-0.0061645448487631,3.6283058991781e-05,0.00025293795250366,6.496077379359e-05,0.00078899866617752,-0.051387104310271,-1.6442670487778e-06,-4.6356121210382e-05,0.001119584057349,-0.041512502391329,-0.00012516360005589,0.001279572130108,0.012147420341984,-0.0099434361459497,-0.0002357909072564,0.00019437224647098,3.4514694507206e-05,-0.022728453934078,0.0022704162831411,-0.039747378797248,0.00026137333268374,0.0065033801740942,-0.0019373406858393,-0.00011082582106752,0.00015413327712394,0.00089714291712123,0.00012511723384111,-0.033739872864528,-0.00050160898223281,-0.00010597492370447,0.0023654073660671,-0.013393825475792,-2.3450006393728e-05,-2.2555711004095e-05,0.00026019546605007,-0.061953913762908,-0.00014354238894092,-0.000113020464792,-0.0017279054246597,-0.00021010637245168,0.00057806453005322,0.0014158312536816,732.19718492077,732.19718492077,732.19404659126,732.19404659126,732.19972282485,732.1995168283,732.19492200434,732.19641560387,732.19880872083,732.1974338361,732.19315584829,732.19517134963,732.19463350254,732.19806539907,732.19700902337,732.19437677055,732.19673222633,732.20019237832,732.19987767342,732.19438658263,732.19552670749,732.19937333749,732.19855839013,732.19463350254,732.19319978967,732.19456302892,732.19888956336,732.19899035169,732.19561882152,732.19717843916,732.19817814578,732.19627155702,732.19345008733,732.19590710129,732.19692746711,732.19786514172,732.19760359905,732.19506952454,732.19700198771,732.19797696185,732.19620228455,732.19408547109,732.19669402601,732.19692746711,732.19790030659,732.19790030659,732.19997249865,732.19997249865,363.07246694094,1335.3817047337,319.17284970885,1539.5378530018,289.89423675613,0
3.32e-05,22611973.044122,2.2820184633556e-06,9.8539243952791e-06,2.029187174603e-06,1.0006398641798,607.67372598124,607.67372598124,607.67040183187,607.67040183187,607.6764197173,607.67619777504,607.6713392559,607.67290548643,607.67544698047,607.67399815409,607.66947009061,607.67158795462,607.67104159876,607.67466902561,607.67355253823,607.67077290883,607.67324643453,607.67691457839,607.67658015577,607.67076850854,607.67196466462,607.67604543789,607.67518600082,607.67104159876,607.66951240774,607.67094438949,607.67554049682,607.67563984402,607.6720802504,607.67371452629,607.67477863247,607.67277076156,607.66978521075,607.6723679978,607.67346867001,607.67445980971,607.67417814919,607.6715054734,607.67353243616,607.67457166033,607.67270122306,607.67046427448,607.67320584251,607.67346867001,607.67448460081,607.67448460081,607.67668055437,607.67668055437,-0.00299106620305,-2.0325104627826e-05,-0.0027754813851586,-0.00033010895971092,0.00091358846956666,0.013691988430297,-0.0065308561241267,3.8586490853576e-05,0.00026871880973567,6.8626537063536e-05,0.00083744146074136,-0.054365286995777,-1.7454556612853e-06,-4.9241007448024e-05,0.0011884658443336,-0.04344983423993,-0.00013295893917591,0.0013593692364698,0.012825509583626,-0.010525789889978,-0.00025036440068271,0.00020635431041919,3.6674503836244e-05,-0.023830654529036,0.0024099143252199,-0.042055256857639,0.00027764212320577,0.0068640085473969,-0.002053506372265,-0.00011762993223365,0.00016378138274818,0.00094278653506425,0.00013280053359804,-0.035696420501178,-0.0005284469740097,-0.00011256955889591,0.0025110225436251,-0.014004966817318,-2.4901944451155e-05,-2.3921625058002e-05,0.00027620370354913,-0.064898012435186,-0.0001524849170595,-0.00011989216088504,-0.0018344437348449,-0.00022098259620531,0.00061418656770902,0.0014913381689466,732.1968906891,732.1968906891,732.19356653972,732.19356653972,732.19958442515,732.19936248289,732.19450396375,732.19607019428,732.19861168832,732.19716286195,732.19263479846,732.19475266247,732.19420630661,732.19783373346,732.19671724608,732.19393761668,732.19641114238,732.20007928624,732.19974486362,732.19393321639,732.19512937247,732.19921014575,732.19835070867,732.19420630661,732.19267711559,732.19410909734,732.19870520467,732.19880455187,732.19524495826,732.19687923414,732.19794334032,732.19593546941,732.1929499186,732.19553270566,732.19663337786,732.19762451756,732.19734285704,732.19467018125,732.19669714401,732.19773636818,732.19586593092,732.19362898233,732.19637055036,732.19663337786,732.19764930867,732.19764930867,732.19984526222,732.19984526222,366.76604757178,1335.839485458,320.13067239393,1543.4086574037,290.76574500958,0
3.33e-05,22690900.408643,2.2888859999197e-06,9.8836063699517e-06,2.0353513448838e-06,1.0006580991606,607.67337120493,607.67337120493,607.66985164485,607.66985164485,607.67623044151,607.67599140775,607.67085602052,607.67249643175,607.67519498682,607.67366968279,607.66887841745,607.67110141875,607.67054982121,607.67438180967,607.673202746,607.67026892542,607.67286351397,607.6767516515,607.67639649086,607.67024750288,607.67150096641,607.67582929919,607.6749237648,607.67054982121,607.66891839384,607.67042091832,607.67530323905,607.67540025225,607.67164397234,607.67335433756,607.67448666052,607.67237418851,607.66921606796,607.67192816323,607.67311666855,607.67416367075,607.67386046014,607.67104324831,607.67316679465,607.67427442744,607.67230490998,607.66994203641,607.67282028579,607.67311666855,607.6741760357,607.6741760357,607.67650260992,607.67650260992,-0.0031657371207795,-2.1566287874765e-05,-0.0029459123880504,-0.0003585624276736,0.00097031320897725,0.01445033125726,-0.0069167566771973,4.1030569889896e-05,0.00028543268511473,7.2478061391944e-05,0.00088865904865392,-0.057509283887804,-1.8524538238573e-06,-5.2296033051398e-05,0.0012613057533714,-0.045450564464245,-0.00014121411987837,0.0014438828419122,0.013535368220081,-0.011138417778301,-0.00026578428965365,0.00021902978728099,3.8962975323409e-05,-0.024972742678635,0.0025574127575074,-0.044491023393964,0.0002948688610905,0.0072412636581952,-0.002175991586261,-0.00012482364036214,0.0001740026195961,0.00099029469964766,0.00014092421071227,-0.037762539377966,-0.00055653448649759,-0.00011955297878231,0.0026650157072327,-0.014634918784899,-2.6439011169293e-05,-2.5366721062506e-05,0.00029313179068114,-0.067943210531295,-0.00016195505794124,-0.00012714975687638,-0.0019471329487819,-0.00023227046086565,0.00065245181749524,0.0015699648368068,732.19657988789,732.19657988789,732.19306032781,732.19306032781,732.19943912447,732.19920009071,732.19406470348,732.19570511471,732.19840366978,732.19687836576,732.19208710041,732.19431010172,732.19375850417,732.19759049263,732.19641142896,732.19347760838,732.19607219693,732.19996033446,732.19960517382,732.19345618584,732.19470964937,732.19903798215,732.19813244776,732.19375850417,732.19212707681,732.19362960129,732.19851192201,732.19860893521,732.1948526553,732.19656302052,732.19769534348,732.19558287147,732.19242475092,732.19513684619,732.19632535151,732.19737235371,732.1970691431,732.19425193127,732.19637547762,732.1974831104,732.19551359294,732.19315071937,732.19602896875,732.19632535151,732.19738471866,732.19738471866,732.19971129288,732.19971129288,370.32605957731,1336.268065264,321.08828851995,1547.2413665707,291.63716567396,0
3.34e-05,22770700.02414,2.2957534101164e-06,9.9132884300385e-06,2.0415187915713e-06,1.000676495635,607.67299614501,607.67299614501,607.66927118173,607.66927118173,607.67603116685,607.67577382626,607.67034785311,607.6720638327,607.67492860725,607.67332433003,607.66825612926,607.67058689035,607.6700338645,607.67407971211,607.67283558817,607.66974053728,607.67245897944,607.67657978774,607.67620283449,607.66969894798,607.67101088067,607.6756009117,607.67464768597,607.6700338645,607.66829295012,607.66986770727,607.67505390449,607.67514758166,607.67118571505,607.67297341309,607.67417796833,607.67195765211,607.6686180928,607.67146286077,607.67274742217,607.67385274341,607.67352646499,607.67055863918,607.67278065097,607.67396110772,607.67188923789,607.66939443265,607.67241284223,607.67274742217,607.67385039981,607.67385039981,607.67631480552,607.67631480552,-0.0033502843054683,-2.2878940879546e-05,-0.0031261360464125,-0.00039025421523867,0.0010303720463653,0.015243765522306,-0.0073231253027094,4.3623603055365e-05,0.00030313167194896,7.6524056973762e-05,0.00094279681950466,-0.060827753173575,-1.9655653206642e-06,-5.5530687901803e-05,0.001338311927363,-0.047515510803556,-0.00014995475906436,0.0015333763550503,0.014278002849856,-0.011782598737894,-0.00028209615554441,0.00023243604431663,4.1387421138997e-05,-0.026155532008123,0.0027133314485917,-0.047061281725528,0.0003131066699627,0.0076356433883539,-0.0023050895991035,-0.00013242731248858,0.00018482915779224,0.001039724542734,0.00014951139735336,-0.039944008130013,-0.00058592474903783,-0.00012694685350291,0.0028278286365989,-0.0152838486766,-2.8065922698875e-05,-2.6895302529844e-05,0.00031102809874487,-0.071091159704051,-0.00017198220114926,-0.00013481261805879,-0.0020662998857509,-0.00024397201294912,0.00069298083152476,0.0016517611207698,732.19625163414,732.19625163414,732.19252667086,732.19252667086,732.19928665597,732.19902931538,732.19360334223,732.19531932182,732.19818409637,732.19657981915,732.19151161838,732.19384237947,732.19328935362,732.19733520124,732.19609107729,732.1929960264,732.19571446856,732.19983527687,732.19945832361,732.1929544371,732.19426636979,732.19885640083,732.19790317509,732.19328935362,732.19154843924,732.19312319639,732.19830939362,732.19840307079,732.19444120418,732.19622890222,732.19743345745,732.19521314123,732.19187358193,732.1947183499,732.19600291129,732.19710823253,732.19678195412,732.1938141283,732.19603614009,732.19721659684,732.19514472701,732.19264992178,732.19566833135,732.19600291129,732.19710588893,732.19710588893,732.19957029464,732.19957029464,373.75573196776,1336.6690045857,322.04568817996,1551.0351028042,292.50849654253,0
3.35e-05,22851348.475596,2.3026206964812e-06,9.9429705786223e-06,2.0476897089959e-06,1.0006950475759,607.672599703,607.672599703,607.66865893005,607.66865893005,607.67582144887,607.67554451392,607.66981367281,607.67160642462,607.67464707469,607.6729613827,607.66760187983,607.67004284562,607.66949280068,607.67376207062,607.67245039036,607.66918684135,607.67203169456,607.67639856271,607.67599872833,607.66912157947,607.67049301239,607.67535963887,607.67435714867,607.66949280068,607.66763462368,607.66928317547,607.6747919938,607.67488121623,607.67070458035,607.67257064325,607.67385165242,607.67152034464,607.6679900818,607.6709706862,607.67236027496,607.6735264294,607.67317547687,607.67005081766,607.67237294688,607.67363091321,607.67145348409,607.6688205176,607.67198234433,607.67236027496,607.67350684822,607.67350684822,607.67611666455,607.67611666455,-0.0035452313527084,-2.4266960943349e-05,-0.0033166694436059,-0.00042552588888514,0.0010939497170992,0.016073375449362,-0.007750866675007,4.637437396811e-05,0.00032187059429185,8.0773684515028e-05,0.0010000068812778,-0.064329747342441,-2.0851075034531e-06,-5.895496178264e-05,0.0014197020620428,-0.049645508277669,-0.0001592078162452,0.0016281270064181,0.015054415778,-0.012459642775221,-0.00029934778750511,0.00024661231424034,4.3955550939381e-05,-0.027379856523978,0.0028781096437346,-0.049772932162254,0.00033241142796193,0.0080476401732397,-0.0024411031104593,-0.00014046224023282,0.00019629485879639,0.0010911354897591,0.00015858630612755,-0.042246871079031,-0.00061667375360552,-0.00013477399361838,0.0029999235146745,-0.015951929689688,-2.9787641781098e-05,-2.851188263069e-05,0.00032994321971408,-0.074343545228426,-0.00018259727525169,-0.00014290090730984,-0.0021922867257495,-0.00025608793523289,0.00073590056544743,0.0017367702705121,732.19590497813,732.19590497813,732.19196420518,732.19196420518,732.199126724,732.19884978905,732.19311894794,732.19491169975,732.19795234982,732.19626665783,732.19090715496,732.19334812075,732.19279807581,732.19706734574,732.19575566549,732.19249211648,732.19533696969,732.19970383784,732.19930400345,732.19242685459,732.19379828752,732.198664914,732.1976624238,732.19279807581,732.1909398988,732.1925884506,732.19809726893,732.19818649136,732.19400985548,732.19587591838,732.19715692754,732.19482561977,732.19129535693,732.19427596132,732.19566555009,732.19683170452,732.19648075199,732.19335609279,732.195678222,732.19693618834,732.19475875922,732.19212579273,732.19528761945,732.19566555009,732.19681212335,732.19681212335,732.19942193968,732.19942193968,377.05841474091,1337.0438083592,323.0028611313,1554.7890253992,293.37973540695,0
3.36e-05,22932822.92957,2.3094878623156e-06,9.9726528188448e-06,2.0538643016303e-06,1.0007137491262,607.67218072514,607.67218072514,607.66801330939,607.66801330939,607.67560082771,607.67530293609,607.66925236044,607.67112288174,607.67434958503,607.67258010497,607.66691427328,607.6694676843,607.66892567738,607.67342819745,607.67204646072,607.66860691275,607.67158046842,607.67620753585,607.67578369843,607.66851408316,607.66994589996,607.67510481498,607.6740515159,607.66892567738,607.66694190314,607.66866566505,607.67451699222,607.67460051691,607.670199642,607.67214486543,607.67350676436,607.6710614346,607.66733079159,607.67045016359,607.67195455398,607.67318411167,607.67280678712,607.66951893531,607.67194257504,607.67328302086,607.67099690909,607.66821932237,607.67152756715,607.67195455398,607.67314450008,607.67314450008,607.67590769191,607.67590769191,-0.0037511258518108,-2.5734448268608e-05,-0.0035180537192945,-0.00046474824346849,0.0011612405362239,0.016940239351216,-0.0082009110011982,4.9292169281549e-05,0.00034170713935347,8.5236584967189e-05,0.0010604482788452,-0.068024727044246,-2.2114117160639e-06,-6.2579369237928e-05,0.0015057037385685,-0.051841418393815,-0.00016900165947876,0.0017284265327711,0.015865602173458,-0.013170889892153,-0.00031758926855334,0.00026159978094061,4.6675493834191e-05,-0.028646575203479,0.0030522065948166,-0.05263318214699,0.00035284190085279,0.0084777393734027,-0.0025843442032638,-0.00014895067180959,0.00020843535741089,0.0011445895030468,0.00016817426642228,-0.044677447733687,-0.00064884042306469,-0.00014305840679843,0.0031817836531427,-0.016639344348563,-3.1609389771272e-05,-3.0221192946798e-05,0.00034993004349335,-0.077702098588623,-0.00019383282316387,-0.00015143560649354,-0.0023254515868521,-0.00026861742581848,0.00078134471043375,0.0018250281750857,732.19553893558,732.19553893558,732.19137151983,732.19137151983,732.19895903815,732.19866114653,732.19261057088,732.19448109218,732.19770779546,732.1959383154,732.19027248372,732.19282589474,732.19228388782,732.19678640789,732.19540467116,732.19196512319,732.19493867885,732.19956574629,732.19914190886,732.1918722936,732.1933041104,732.19846302541,732.19740972634,732.19228388782,732.19030011358,732.19202387548,732.19787520266,732.19795872734,732.19355785244,732.19550307587,732.1968649748,732.19441964504,732.19068900203,732.19380837403,732.19531276442,732.19654232211,732.19616499756,732.19287714575,732.19530078547,732.1966412313,732.19435511953,732.1915775328,732.19488577759,732.19531276442,732.19650271052,732.19650271052,732.19926590235,732.19926590235,380.23754430189,1337.3939258692,323.95979659604,1558.5023352818,294.25088001898,0
3.37e-05,23015101.149475,2.31635491148e-06,1.0002335153906e-05,2.0600427846578e-06,1.0007325946,607.67173799996,607.67173799996,607.66733266863,607.66733266863,607.67536882764,607.67504853973,607.66866275705,607.67061181473,607.67403529552,607.67217973758,607.666191862,607.66885972629,607.66833151694,607.67307737839,607.67162308949,607.66799980397,607.67110405316,607.67600625008,607.67555725498,607.66787509314,607.66936801239,607.67483574403,607.67373012872,607.66833151694,607.66621321623,607.66801343772,607.67422836913,607.67430482098,607.66966994474,607.67169486204,607.67314230884,607.67058006596,607.66663893737,607.66989974222,607.67152956864,607.67282515369,607.67241966475,607.66896212291,607.67148837699,607.6729165709,607.67051875612,607.66758985399,607.67104722577,607.67152956864,607.67276243738,607.67276243738,607.6756873735,607.6756873735,-0.0039685401840331,-2.728571601461e-05,-0.0037308549300317,-0.00050832303928978,0.0012324488605087,0.017845426757628,-0.0086742134758014,5.2386807249449e-05,0.00036270199643981,8.9922910372508e-05,0.0011242872487621,-0.071922573927678,-2.344823702632e-06,-6.6414975578898e-05,0.0015965547592608,-0.054104138532976,-0.00017936613412952,0.0018345818808803,0.016712547197977,-0.013917708709813,-0.00033687306061265,0.00027744167340484,4.95558197794e-05,-0.029956576648119,0.0032361022702987,-0.055649555577715,0.00037445988248436,0.0089264176562207,-0.0027351342175941,-0.00015791584306531,0.00022128814638493,0.0012001513311986,0.00017830176781973,-0.04724234166783,-0.00068248679420667,-0.0001518253571069,0.0033739142215172,-0.017346287999038,-3.3536659392898e-05,-3.2028192372751e-05,0.00037104383642168,-0.08116861028749,-0.00020572308070324,-0.0001604385333035,-0.0024661691031344,-0.00028155808202082,0.00082945402306301,0.0019165626090091,732.19515246229,732.19515246229,732.19074713096,732.19074713096,732.19878328997,732.19846300207,732.19207721938,732.19402627706,732.19744975785,732.19559419991,732.18960632433,732.19227418862,732.19174597928,732.19649184072,732.19503755182,732.1914142663,732.19451851549,732.19942071241,732.19897171731,732.19128955547,732.19278247472,732.19825020636,732.19714459105,732.19174597928,732.18962767856,732.19142790005,732.19764283147,732.19771928331,732.19308440707,732.19510932437,732.19655677117,732.19399452829,732.19005339971,732.19331420455,732.19494403097,732.19623961602,732.19583412708,732.19237658524,732.19490283932,732.19633103323,732.19393321845,732.19100431633,732.1944616881,732.19494403097,732.19617689971,732.19617689971,732.19910183583,732.19910183583,383.29661687084,1337.7207514447,324.9164832531,1562.1742773999,295.12192813795,0
3.38e-05,23098161.506377,2.3232218485639e-06,1.0032017587065e-05,2.0662253842702e-06,1.0007515784836,607.67127025574,607.67127025574,607.66661528296,607.66661528296,607.67512495662,607.67478075308,607.66804366238,607.67007176821,607.67370332324,607.6717594972,607.6654331446,607.66821720821,607.66770931561,607.6727088716,607.67117954854,607.66736454401,607.67060114168,607.67579423131,607.67531889206,607.66720318966,607.66875774656,607.67455169867,607.67339230565,607.66770931561,607.66544692728,607.66732467147,607.67392557755,607.67399344148,607.66911450317,607.67121935837,607.67275724164,607.67007535738,607.66591319127,607.66931779328,607.67108461007,607.67244889861,607.67201335571,607.66837948961,607.6710091411,607.67253066528,607.67001825072,607.66693109455,607.67053997272,607.67108461007,607.67235970363,607.67235970363,607.67545517574,607.67545517574,-0.0041980723520277,-2.8925299850287e-05,-0.0039556649158646,-0.00055668478141949,0.0013077895535547,0.018789995581689,-0.0091717536004275,5.5668666367677e-05,0.00038491900514318,9.484335602344e-05,0.0011916974662825,-0.076033604024706,-2.4857039762891e-06,-7.0473424061127e-05,0.0016925034857156,-0.05643461156569,-0.00019033263503907,0.0019469159346489,0.01759622317408,-0.014701494839274,-0.00035725409535852,0.00029418336114788,5.2605562727494e-05,-0.031310783873374,0.0034302980494709,-0.058829902350507,0.00039733033117809,0.0093941413923001,-0.0028938035992173,-0.00016738201087675,0.00023489266991792,0.0012578887652992,0.00018899650216191,-0.049948449842062,-0.00071767819602355,-0.00016110142665727,0.0035768429946494,-0.018072972349903,-3.5575228224329e-05,-3.3938076184529e-05,0.00039334231887989,-0.08474494304,-0.00021830405890652,-0.00016993235886478,-0.0026148310310146,-0.00029490578366819,0.00088037667667349,0.0020113924720915,732.19474443814,732.19474443814,732.19008946536,732.19008946536,732.19859913901,732.19825493547,732.19151784478,732.19354595061,732.19717750563,732.1952336796,732.18890732699,732.1916913906,732.19118349801,732.19618305399,732.19465373093,732.1908387264,732.19407532407,732.19926841371,732.19879307445,732.19067737205,732.19223192895,732.19802588106,732.19686648805,732.19118349801,732.18892110967,732.19079885387,732.19739975994,732.19746762387,732.19258868557,732.19469354076,732.19623142403,732.19354953978,732.18938737366,732.19279197567,732.19455879246,732.195923081,732.1954875381,732.19185367201,732.1944833235,732.19600484767,732.19349243311,732.19040527694,732.19401415511,732.19455879246,732.19583388602,732.19583388602,732.19892935813,732.19892935813,386.23916562566,1338.0256248006,325.87290923649,1565.8041447816,295.99287748412,0
3.39e-05,23181982.985443,2.3300886789957e-06,1.0061700121645e-05,2.0724123379383e-06,1.0007706954352,607.67077615789,607.67077615789,607.66585935095,607.66585935095,607.67486870584,607.67449898528,607.66739383329,607.6695012182,607.67335274347,607.67131857563,607.66463656365,607.66753827995,607.66705804254,607.67232190638,607.67071509081,607.66670013747,607.67007036511,607.67557098807,607.67506808735,607.66649689704,607.66811342433,607.67425191899,607.67303734202,607.66705804254,607.66464133455,607.666597457,607.67360805358,607.6736656666,607.66853230065,607.67071702045,607.67235046755,607.66954640142,607.66515218059,607.66870260653,607.67061895045,607.67205466843,607.67158708223,607.66777012214,607.67050360046,607.67212436596,607.66949460015,607.66624200013,607.67000439526,607.67061895045,607.67193530252,607.67193530252,607.67521054511,607.67521054511,-0.004440346806453,-3.0657969102665e-05,-0.0041931021715979,-0.00061030243384855,0.0013874885023383,0.019774989183288,-0.0096945345023021,5.9148718325511e-05,0.00040842530596199,0.00010000919355023,0.0012628603037941,-0.080368581067579,-2.6344282665919e-06,-7.4766964340777e-05,0.001793809189918,-0.058833835027553,-0.00020193418049879,0.0020657683003791,0.018517586620133,-0.015523669293676,-0.00037878985944055,0.00031187245745789,5.5834244805622e-05,-0.032710158875301,0.0036353174380418,-0.06218240783128,0.00042152153028889,0.0098813650191062,-0.0030606917293507,-0.00017737448289067,0.00024929041418469,0.0013178728913575,0.00020028740809846,-0.052802971881963,-0.00075448342376586,-0.00017091458089889,0.0037911211064111,-0.018819628850725,-3.7731171970098e-05,-3.5956285357819e-05,0.00041688574871144,-0.088433044345599,-0.00023161362891454,-0.00017994062758596,-0.0027718468402441,-0.00030865457659044,0.00093426863095465,0.0021095269962027,732.19431372182,732.19431372182,732.18939691488,732.18939691488,732.19840626977,732.19803654921,732.19093139722,732.19303878213,732.1968903074,732.19485613956,732.18817412758,732.19107584388,732.19059560647,732.19585947031,732.19425265474,732.1902377014,732.19360792904,732.199108552,732.19860565128,732.19003446097,732.19165098826,732.19778948292,732.19657490595,732.19059560647,732.18817889848,732.19013502093,732.19714561751,732.19720323053,732.19206986458,732.19425458438,732.19588803148,732.19308396535,732.18868974452,732.19224017046,732.19415651438,732.19559223236,732.19512464616,732.19130768607,732.19404116439,732.19566192989,732.19303216408,732.18977956406,732.19354195919,732.19415651438,732.19547286645,732.19547286645,732.19874810904,732.19874810904,389.06873876101,1338.3098321148,326.82906236929,1569.3912813109,296.86372566177,0
3.4e-05,23266545.188982,2.336955408796e-06,1.009138276103e-05,2.078603895155e-06,1.0007899402843,607.67025430621,607.67025430621,607.66506299134,607.66506299134,607.67459954927,607.67420262605,607.66671198203,607.66889856945,607.67298258798,607.67085613907,607.6638005034,607.66682100096,607.66637663873,607.67191568195,607.67022894978,607.66600556345,607.6695102903,607.67533601097,607.6748043019,607.66575468144,607.66743328961,607.67393561136,607.67266450933,607.66637663873,607.66379466757,607.6658297941,607.6732752159,607.67332075904,607.66792228805,607.67018645289,607.67192083827,607.66899226357,607.664354486,607.66805238691,607.67013184222,607.6716417631,607.67114004209,607.66713308376,607.66997043068,607.67169669318,607.66894699286,607.66552149979,607.66943901266,607.67013184222,607.67148819662,607.67148819662,607.6749529076,607.6749529076,-0.0046960152053149,-3.2488737565985e-05,-0.0044438127382566,-0.00066968120636711,0.0014717831154961,0.020801433578805,-0.01024358194156,6.2838558403229e-05,0.00043329149221112,0.00010543230546502,0.0013379650910526,-0.084938728560008,-2.7913878164391e-06,-7.9308482402357e-05,0.0019007423782354,-0.061302870063697,-0.00021420549532966,0.0021914960883101,0.019477575418732,-0.016385676376065,-0.0004015404909571,0.0003305589165761,5.9251901547898e-05,-0.034155707098976,0.0038517067890865,-0.065715601332875,0.00044710523423476,0.010388529486403,-0.0032361466631794,-0.00018791965043854,0.0002645250036881,0.0013801783432872,0.000212204716125,-0.055813418549566,-0.00079297491293221,-0.00018129423652614,0.004017323775365,-0.019586511963324,-4.0010881757928e-05,-3.8088515780747e-05,0.00044173699521627,-0.092234958781021,-0.00024569161500692,-0.00019048777200888,-0.002937644318958,-0.00032279656047863,0.00099129401137605,0.0022109649679306,732.1938591141,732.1938591141,732.18866779923,732.18866779923,732.19820435715,732.19780743394,732.19031678992,732.19250337734,732.19658739587,732.19446094695,732.18740531129,732.19042580885,732.18998144662,732.19552048984,732.19383375767,732.18961037134,732.19311509819,732.19894081886,732.19840910979,732.18935948933,732.19103809749,732.19754041925,732.19626931721,732.18998144662,732.18739947546,732.18943460198,732.19688002378,732.19692556693,732.19152709594,732.19379126078,732.19552564615,732.19259707146,732.18795929389,732.1916571948,732.19373665011,732.19524657098,732.19474484998,732.19073789165,732.19357523857,732.19530150107,732.19255180074,732.18912630768,732.19304382055,732.19373665011,732.19509300451,732.19509300451,732.19855771549,732.19855771549,391.78888222133,1338.5746073939,327.78492959518,1572.9350844046,297.73447038325,0
3.41e-05,23351828.336701,2.3438220447674e-06,1.0121065508672e-05,2.0848003174067e-06,1.0008093080302,607.66970323218,607.66970323218,607.66422423994,607.66422423994,607.67431694311,607.67389104531,607.66599677451,607.66826215284,607.6725918434,607.67037132725,607.66292328733,607.66606333658,607.66566401595,607.6714893661,607.66972033881,607.66527977446,607.66891941717,607.67508877237,607.67452697989,607.66497494855,607.66671550533,607.67360194724,607.67227305451,607.66566401595,607.66290508426,607.66501958798,607.67292646511,607.67295795539,607.66728338247,607.6696261966,607.67146715018,607.66841198139,607.66351863956,607.66736525095,607.66962251726,607.67120945948,607.67067140783,607.66646741325,607.66940824767,607.67124662363,607.66837459775,607.66476849437,607.66884227336,607.66962251726,607.67101730592,607.67101730592,607.67468166828,607.67468166828,-0.0049657572811087,-3.4422874454034e-05,-0.0047084710758231,-0.00073536437249854,0.0015609228763083,0.021870334600217,-0.01081994321189,6.6750440597019e-05,0.0004595917818236,0.00011112521981195,0.0014172093784113,-0.089755743026238,-2.9569897715961e-06,-8.4111531877243e-05,0.0020135851474435,-0.063842849811186,-0.00022718308541714,0.0023244747641115,0.02047710590979,-0.017288981405199,-0.00042556886756049,0.00035029515235559,6.2869108605836e-05,-0.035648481571491,0.0040800360219367,-0.069438365187774,0.00047415683750679,0.0109160606913,-0.0034205248304392,-0.00019904502045816,0.00028064230573711,0.0014448835435689,0.00022477999480116,-0.058987621208413,-0.00083322890553735,-0.00019227133275026,0.0042560510819253,-0.020373902223621,-4.2421075095836e-05,-4.0340728392672e-05,0.00046796162253022,-0.096152839479696,-0.0002605798822135,-0.00020159912873144,-0.0031126701992663,-0.00033732177736761,0.0010516255149195,0.0023156939254001,732.19337932572,732.19337932572,732.18790033348,732.18790033348,732.19799303665,732.19756713885,732.18967286806,732.19193824639,732.19626793695,732.1940474208,732.18659938087,732.18973943012,732.1893401095,732.19516545964,732.19339643236,732.188955868,732.19259551071,732.19876486591,732.19820307344,732.18865104209,732.19039159888,732.19727804079,732.19594914805,732.1893401095,732.1865811778,732.18869568152,732.19660255866,732.19663404893,732.19095947601,732.19330229015,732.19514324372,732.19208807493,732.1871947331,732.19104134449,732.19329861081,732.19488555302,732.19434750137,732.19014350679,732.19308434121,732.19492271717,732.19205069129,732.18844458792,732.19251836691,732.19329861081,732.19469339946,732.19469339946,732.19835776182,732.19835776182,394.40312563709,1338.8211339745,328.74049726873,1576.4350075572,298.60510925128,0
3.42e-05,23437813.263608,2.350688594776e-06,1.015074836809e-05,2.0910018788744e-06,1.0008287938403,607.66912139601,607.66912139601,607.66334104622,607.66334104622,607.67402032533,607.67356359282,607.66524682849,607.66759022258,607.67217944938,607.66986325265,607.66200317561,607.66526315419,607.66491905551,607.67104209378,607.6691884505,607.66452169517,607.66829617605,607.6748287258,607.67423554836,607.6641560412,607.6659581504,607.67325006189,607.67186219929,607.66491905551,607.66197066797,607.66416464545,607.67256118322,607.67257646548,607.66661446592,607.66903472655,607.67098814213,607.66780456343,607.66264312269,607.66663922318,607.66909018606,607.67075701039,607.67018032594,607.6657721238,607.66881560532,607.67077308856,607.66777656357,607.66398185522,607.66821255202,607.66909018606,607.67052150642,607.67052150642,607.6743962107,607.6743962107,-0.0052502816473726,-3.6465917017124e-05,-0.0049877809260016,-0.00080793506448916,0.0016551697849025,0.022982675139575,-0.011424685888689,7.089731368489e-05,0.00048740418812508,0.00011710114667552,0.0015007992018728,-0.094831806643174,-3.1316575437292e-06,-8.9190366289463e-05,0.0021326315323376,-0.066454987616156,-0.00024090533241199,0.0024650988995549,0.021517070024858,-0.018235068225341,-0.00045094069479654,0.00037113615000662,6.6697009240888e-05,-0.037189587063105,0.0043208993394893,-0.073359943369513,0.00050275548699423,0.011464367977216,-0.0036141906803371,-0.00021077924757454,0.00029769053644354,0.001512070949587,0.00023804619773984,-0.06233374080474,-0.00087532561457679,-0.00020387840490597,0.0045079287353842,-0.021182109184223,-4.4968816716744e-05,-4.271915897921e-05,0.00049562797064255,-0.10018895954838,-0.00027632244204938,-0.00021330095252611,-0.0032973907875186,-0.00035221810514379,0.0011154448074959,0.0024236893293088,732.19287301915,732.19287301915,732.18709266936,732.18709266936,732.19777194847,732.19731521596,732.18899845163,732.19134184572,732.19593107253,732.19361487579,732.18575479875,732.18901477733,732.18867067865,732.19479371692,732.19294007364,732.18827331831,732.19204779919,732.19858034894,732.1979871715,732.18790766435,732.18970977354,732.19700168503,732.19561382243,732.18867067865,732.18572229112,732.18791626859,732.19631280636,732.19632808862,732.19036608906,732.19278634969,732.19473976527,732.19155618657,732.18639474583,732.19039084632,732.1928418092,732.19450863353,732.19393194908,732.18952374694,732.19256722846,732.1945247117,732.19152818671,732.18773347836,732.19196417516,732.1928418092,732.19427312956,732.19427312956,732.19814783384,732.19814783384,396.91497039307,1339.0505463009,329.69575125594,1579.8905624224,299.67828024834,0
3.43e-05,23524481.416144,2.3575550675008e-06,1.0180431342869e-05,2.0972088666479e-06,1.0008483930476,607.66850718377,607.66850718377,607.66241127004,607.66241127004,607.67370911515,607.67321959784,607.66446071166,607.66688095342,607.67174429683,607.66933099955,607.66103836251,607.66441821931,607.66414060701,607.67057296573,607.66863245597,607.66373022115,607.66763892492,607.6745553056,607.67392941699,607.66329623695,607.66515921649,607.67287905311,607.6714311394,607.66414060701,607.66098942453,607.66326267102,607.67217873293,607.67217547176,607.66591438391,607.6684104494,607.67048249307,607.66716898826,607.66172636407,607.66587223243,607.66853403676,607.67028364351,607.66966591603,607.6650462018,607.66819099318,607.67027497187,607.66715201809,607.66316042287,607.66754814653,607.66853403676,607.66999962868,607.66999962868,607.67409589645,607.67409589645,-0.0055503265516082,-3.862368121708e-05,-0.0052824761978786,-0.00088801802168587,0.0017547990393279,0.02413941255249,-0.012058896392809,7.5292858567501e-05,0.00051681069950097,0.00012337401456266,0.0015889493517256,-0.10017959852022,-3.3158310450606e-06,-9.4559973545972e-05,0.0022581878276004,-0.069140583693421,-0.00025541257328955,0.0026137831574839,0.022598332590695,-0.019225436404932,-0.00047772460136923,0.00039313959065404,7.0747343327625e-05,-0.03878018337102,0.0045749159533723,-0.077489948934624,0.00053298431238461,0.012033842721778,-0.0038175162716615,-0.0002231521604263,0.00031572037172501,0.0015818272699576,0.00025203771157891,-0.065860276056863,-0.00091934937227039,-0.00021614966367577,0.0047736087864658,-0.02201147382638,-4.7661530056783e-05,-4.5230328147255e-05,0.00052480723004068,-0.10434572119096,-0.0002929655451213,-0.00022562043594656,-0.0034922925486132,-0.00036747115559913,0.0011829429643647,0.0025349137976834,732.19233879891,732.19233879891,732.18624288518,732.18624288518,732.19754073028,732.19705121297,732.1882923268,732.19071256856,732.19557591197,732.19316261469,732.18486997765,732.18824983445,732.18797222215,732.19440458086,732.19246407111,732.18756183628,732.19147054006,732.19838692073,732.19776103213,732.18712785209,732.18899083163,732.19671066825,732.19526275454,732.18797222215,732.18482103967,732.18709428616,732.19601034806,732.1960070869,732.18974599904,732.19224206453,732.1943141082,732.1910006034,732.18555797921,732.18970384757,732.19236565189,732.19411525865,732.19349753117,732.18887781694,732.19202260831,732.19410658701,732.19098363322,732.186992038,732.19137976167,732.19236565189,732.19383124381,732.19383124381,732.19792751159,732.19792751159,399.32788072617,1339.2639318871,330.65067673445,1583.3013203839,300.93213313103,0
3.44e-05,23611814.847082,2.3644214725509e-06,1.021011443667e-05,2.103421580992e-06,1.0008681011489,607.66785890436,607.66785890436,607.66143267813,607.66143267813,607.67338271247,607.67285836877,607.66363693973,607.66613243789,607.67128522607,607.66877362314,607.66002697373,607.66352619163,607.66332748699,607.67008104692,607.66805150418,607.66290421747,607.66694594658,607.67426792639,607.67360797783,607.66239374554,607.66431660492,607.67248797998,607.67097904387,607.66332748699,607.65995927905,607.66231126292,607.67177845703,607.67175412863,607.66518194401,607.66775170118,607.66994881973,607.66650420332,607.66076673745,607.66506210802,607.66795323421,607.66978856025,607.66912727001,607.66428860561,607.66753283398,607.6697511081,607.66650006735,607.66230300564,607.66684727497,607.66795323421,607.66945045633,607.66945045633,607.67378006459,607.67378006459,-0.0058666606420293,-4.0902275704487e-05,-0.0055933218024897,-0.00097628134587814,0.0018600997359353,0.02534147594775,-0.0127236783981,7.995153374758e-05,0.00054789746704842,0.00012995850788546,0.0016818836411318,-0.10581230614555,-3.5099670491031e-06,-0.00010023611153303,0.0023905729444718,-0.071901031329062,-0.00027074720721232,0.0027709633667199,0.023721728446779,-0.020261598216701,-0.00050599221484406,0.00041636597608304,7.5032479416446e-05,-0.040421488361043,0.0048427307945635,-0.081838371479304,0.00056493064340565,0.012624856900455,-0.0040308808006533,-0.00023619479372616,0.00033478506330777,0.0016542436735151,0.00026679040475224,-0.069576071805597,-0.00096538877276041,-0.00022912107585936,0.0050537704147661,-0.022862370774539,-5.0507022776009e-05,-4.7881051549748e-05,0.00055557352544308,-0.10862566424025,-0.00031055779889984,-0.00023858571915675,-0.0036978827624897,-0.00038306417503424,0.0012543209711634,0.0026493162466393,732.19177519578,732.19177519578,732.18534896955,732.18534896955,732.1972990039,732.1967746602,732.18755323116,732.19004872932,732.1952015175,732.19268991457,732.18394326515,732.18744248306,732.18724377842,732.19399733834,732.1919677956,732.18682050889,732.190862238,732.19818421782,732.19752426925,732.18631003696,732.18823289634,732.19640427141,732.1948953353,732.18724377842,732.18387557047,732.18622755434,732.19569474845,732.19567042005,732.18909823544,732.19166799261,732.19386511115,732.19042049475,732.18468302888,732.18897839944,732.19186952563,732.19370485168,732.19304356143,732.18820489703,732.19144912541,732.19366739952,732.19041635878,732.18621929706,732.19076356639,732.19186952563,732.19336674775,732.19336674775,732.19769635601,732.19769635601,401.64527733423,1339.4623331842,331.60525817007,1586.666914238,302.20068553199,0
3.45e-05,23699796.209302,2.3712878206623e-06,1.0239797653221e-05,2.1096403362084e-06,1.0008879138019,607.66717478638,607.66717478638,607.66040294059,607.66040294059,607.67304049741,607.67247919281,607.66277397446,607.66534268333,607.67080102493,607.66819014857,607.65896706355,607.6625846209,607.66247847762,607.66956536507,607.66744472109,607.66204251735,607.66621544575,607.67396598264,607.67327060508,607.66144670634,607.6634281233,607.67207586149,607.67050505424,607.66247847762,607.65887807281,607.66130790904,607.67135967771,607.67131156176,607.6644159144,607.66705674488,607.66938567417,607.66580912385,607.65976255939,607.66420657589,607.66734691902,607.66927093462,607.6685634511,607.66349826425,607.66683948125,607.66920028034,607.66581979484,607.66140837818,607.66610807243,607.66734691902,607.66887272455,607.66887272455,607.67344803114,607.67344803114,-0.0062000837282384,-4.3308113674784e-05,-0.005921114498951,-0.0010734382827538,0.0019713754303463,0.02658976397715,-0.013420150973248,8.4888613595829e-05,0.00058075500009803,0.00013687010441992,0.0017798351764747,-0.11174363649253,-3.7145394171789e-06,-0.00010623534507748,0.0025301187668529,-0.074737821637556,-0.0002869537791968,0.0029370974239281,0.024888060051116,-0.021345075222801,-0.00053581825462689,0.00044087876323647,7.9565445763586e-05,-0.042114780332558,0.0051250152241391,-0.086415584182085,0.00059868617093315,0.013237761913344,-0.0042546700376499,-0.00024993942876961,0.00035494055958016,0.0017294159751742,0.00028234167711312,-0.07349032722774,-0.0010135368051664,-0.00024283044708005,0.0053491207447128,-0.023735209973431,-5.3513496053625e-05,-5.0678450325068e-05,0.00058800399598662,-0.11303147273733,-0.00032915026811047,-0.00025222589065854,-0.0039146902366416,-0.00039897795607694,0.001329790177382,0.0027668311314035,732.19118067386,732.19118067386,732.18440882806,732.18440882806,732.19704638488,732.19648508028,732.18677986193,732.1893485708,732.1948069124,732.19219603604,732.18297295102,732.18659050837,732.18648436509,732.19357125254,732.19145060857,732.18604840482,732.19022133322,732.19797187011,732.19727649255,732.18545259381,732.18743401077,732.19608174896,732.19451094171,732.18648436509,732.18288396028,732.18531379651,732.19536556518,732.19531744923,732.18842180188,732.19106263235,732.19339156164,732.18981501132,732.18376844686,732.18821246336,732.19135280649,732.19327682209,732.19256933857,732.18750415172,732.19084536872,732.19320616781,732.18982568231,732.18541426565,732.1901139599,732.19135280649,732.19287861202,732.19287861202,732.19745391861,732.19745391861,403.87053168683,1339.6467498214,332.55947924103,1589.987038138,303.48413753218,0
3.46e-05,23788408.74913,2.3781541236395e-06,1.0269480996333e-05,2.1158654602955e-06,1.0009078268228,607.66645297509,607.66645297509,607.65931962736,607.65931962736,607.67268182969,607.67208133558,607.66187022163,607.66450960904,607.67029042684,607.66757956999,607.65785661214,607.66159094278,607.66159232523,607.66902490908,607.66681120896,607.66114392069,607.66544554618,607.67364884816,607.67291665487,607.66045318578,607.66249148233,607.6716416752,607.67000828377,607.66159232523,607.65774356001,607.66024998283,607.67092169592,607.67084686748,607.66361502235,607.66632376801,607.66879154133,607.66508263171,607.65871208695,607.66330325467,607.66671420651,607.66872991201,607.66797349302,607.66267407609,607.66610921677,607.66862121821,607.66511026062,607.66047527997,607.66532858784,607.66671420651,607.66826511855,607.66826511855,607.67309908856,607.67309908856,-0.0065514274956172,-4.5847926419403e-05,-0.0062666836171783,-0.0011802487228692,0.0020889447759169,0.027885142172681,-0.014149446741365,9.0120235693095e-05,0.00061547837055328,0.00014412511372659,0.0018830466146411,-0.1179878258167,-3.930039322976e-06,-0.00011257508515147,0.0026771704675713,-0.077652547606451,-0.00030407908916329,0.0031126662979125,0.026098094617288,-0.0224773948789,-0.00056728059866965,0.00046674450286956,8.4359964480068e-05,-0.043861399921085,0.0054224676810411,-0.091232349481027,0.00063434714094973,0.013872887210898,-0.0044892757675744,-0.00026441961741397,0.00037624563220015,0.001807444805092,0.0002987305088428,-0.077612603377836,-0.001063890961688,-0.00025731751208283,0.0056603955457587,-0.024630438093452,-5.668956890725e-05,-5.362996160332e-05,0.00062217886994444,-0.11756598045819,-0.00034879659556022,-0.00026657100483036,-0.0041432658946478,-0.00041519074537963,0.0014095727925712,0.0028873775916916,732.19055361143,732.19055361143,732.1834202637,732.1834202637,732.19678246603,732.19618197192,732.18597085797,732.18861024538,732.19439106318,732.19168020633,732.18195724848,732.18569157912,732.18569296157,732.19312554542,732.19091184531,732.18524455703,732.18954618252,732.1977494845,732.19701729121,732.18455382212,732.18659211867,732.19574231155,732.19410892011,732.18569296157,732.18184419635,732.18435061917,732.19502233226,732.19494750382,732.18771565869,732.19042440435,732.19289217767,732.18918326805,732.1828127233,732.18740389101,732.19081484285,732.19283054835,732.19207412936,732.18677471243,732.19020985311,732.19272185455,732.18921089697,732.18457591631,732.18942922418,732.19081484285,732.19236575489,732.19236575489,732.1971997249,732.1971997249,406.00696367622,1339.8181412484,333.51332300381,1593.2614503732,304.7826748178,0
3.47e-05,23877636.300418,2.3850203944092e-06,1.0299164469883e-05,2.1220972960168e-06,1.0009278361837,607.66569152911,607.66569152911,607.65818020453,607.65818020453,607.67230604811,607.67166404076,607.66092402902,607.66363104328,607.66975210888,607.66694084957,607.6566935226,607.66054247468,607.66066773888,607.66845862739,607.66615004549,607.66020719258,607.66463428761,607.67331587564,607.67254546496,607.65941117472,607.66150429237,607.6711843559,607.66948781667,607.66066773888,607.65655340448,607.65913473909,607.67046379063,607.67035911207,607.66277795268,607.66555088015,607.66816483647,607.66432357419,607.65761351536,607.66234965166,607.6660541857,607.66816460804,607.667356399,607.66181490751,607.66534024801,607.66801259565,607.66437050047,607.65950241382,607.66450678069,607.6660541857,607.66762627199,607.66762627199,607.67273250516,607.67273250516,-0.0069215561709684,-4.8528778139211e-05,-0.0066308919922691,-0.0012975210752115,0.0022131422196186,0.029228441060707,-0.014912709630507,9.5663444910894e-05,0.00065216742575811,0.00015174071649626,0.0019917704537286,-0.12455964961278,-4.1569754324848e-06,-0.00011927362957545,0.0028320868533963,-0.080646906425438,-0.00032217230280795,0.0032981751188325,0.0273525619534,-0.023660086528351,-0.00060046038924907,0.00049403298743127,8.9430486780098e-05,-0.045662751166082,0.0057358144521027,-0.09629982533948,0.00067201456449009,0.014530539337853,-0.0047350950984038,-0.00027967021322882,0.00039876200760701,0.0018884357509116,0.00031599751363009,-0.081952830521443,-0.0011165533647293,-0.00027262402705354,0.0059883600123824,-0.02554853933418,-6.0044300067304e-05,-5.6743348993727e-05,0.00065818154389046,-0.12223217408532,-0.00036955312786648,-0.00028165209006479,-0.0043841834451368,-0.00043167817009586,0.0014939024133732,0.003010858698716,732.18989232098,732.18989232098,732.1823809964,732.1823809964,732.19650683999,732.19586483263,732.1851248209,732.18783183515,732.19395290075,732.19114164144,732.18089431448,732.18474326655,732.18486853076,732.19265941927,732.19035083736,732.18440798446,732.18883507948,732.19751666752,732.19674625684,732.1836119666,732.18570508425,732.19538514778,732.19368860855,732.18486853076,732.18075419636,732.18333553096,732.19466458251,732.19455990395,732.18697874456,732.18975167202,732.19236562834,732.18852436607,732.18181430724,732.18655044353,732.19025497758,732.19236539991,732.19155719088,732.18601569938,732.18954103988,732.19221338752,732.18857129235,732.18370320569,732.18870757257,732.19025497758,732.19182706386,732.19182706386,732.19693329704,732.19693329704,408.05784458174,1339.9774278376,334.46677166992,1596.4899707835,306.09646778247,0
3.48e-05,23967463.276677,2.3918866471144e-06,1.0328848077836e-05,2.1283362006378e-06,1.0009479380097,607.66488841719,607.66488841719,607.65698203073,607.65698203073,607.67191247003,607.67122652979,607.65993368441,607.66270472031,607.66918468975,607.66627291649,607.65547561812,607.65943641141,607.65970338896,607.6678654264,607.66546028301,607.65923106184,607.66377962274,607.67296639618,607.6721563546,607.65831858579,607.66046406012,607.67070279415,607.66894270729,607.65970338896,607.65530517638,607.65795930972,607.6699852182,607.66984733111,607.6619033463,607.66473611045,607.66750390264,607.6635307629,607.65646497566,607.66134315874,607.66536591831,607.66757410728,607.66671114087,607.66091959151,607.66453070557,607.66737302877,607.66359952499,607.65848844428,607.66364051774,607.66536591831,607.66695476542,607.66695476542,607.67234752461,607.67234752461,-0.0073113671520309,-5.1358078921182e-05,-0.0070146366483046,-0.0014261136358459,0.0023443187013507,0.030620453625516,-0.015711092572263,0.00010153624418626,0.00069092700736341,0.00015973500222133,0.0021062692903616,-0.13147443054837,-4.3958740734948e-06,-0.00012635020543102,0.0029952406973055,-0.083722700754788,-0.00034128505355551,0.0034941542768863,0.028652151577355,-0.024894677343781,-0.00063544209684909,0.00052281739696641,9.4792229779218e-05,-0.047520301941196,0.0060658103014036,-0.10162956918505,0.00071179443142881,0.015211000700016,-0.0049925297375385,-0.0002957274011172,0.00042255450310332,0.0019724994713943,0.00033418498899152,-0.086521314598064,-0.001171630852536,-0.00028879386633357,0.0063338095177118,-0.026490035832168,-6.3587204390405e-05,-6.0026713175058e-05,0.00069609865948302,-0.1270331948233,-0.00039147903299867,-0.00029750115605212,-0.0046380400393136,-0.00044841315655806,0.0015830245632523,0.0031371605241823,732.18919503013,732.18919503013,732.18128864367,732.18128864367,732.19621908297,732.19553314273,732.18424029734,732.18701133325,732.19349130269,732.19057952943,732.17978223106,732.18374302435,732.1840100019,732.19217203934,732.18976689595,732.18353767478,732.18808623568,732.19727300912,732.19646296754,732.18262519873,732.18477067306,732.19500940708,732.19324932023,732.1840100019,732.17961178932,732.18226592266,732.19429183114,732.19415394405,732.18620995924,732.18904272339,732.19181051558,732.18783737583,732.1807715886,732.18564977168,732.18967253125,732.19188072022,732.19101775381,732.18522620444,732.18883731851,732.19167964171,732.18790613793,732.18279505722,732.18794713068,732.18967253125,732.19126137836,732.19126137836,732.19665413755,732.19665413755,410.0263879629,1340.1254936684,335.41980670613,1599.6724822536,307.42567165968,0
3.49e-05,24057874.664705,2.398752897017e-06,1.0358531824236e-05,2.1345825466867e-06,1.0009681285771,607.66404151494,607.66404151494,607.65572235346,607.65572235346,607.6715003908,607.67076800147,607.65889741346,607.66172827738,607.6685867278,607.66557466596,607.65420063909,607.65826982091,607.65869790568,607.66724416878,607.66474094772,607.65821421952,607.6628794142,607.67259971878,607.67174862422,607.65717325076,607.65936818517,607.67019583489,607.66837197929,607.65869790568,607.65399634885,607.65672069948,607.66948521167,607.66931052878,607.66098979865,607.66387740515,607.66680700808,607.66270297247,607.6552645323,607.66028104828,607.66464843768,607.66695746204,607.66603665808,607.65998692636,607.66367864059,607.66670107362,607.66279631872,607.65743199614,607.66272756962,607.66464843768,607.66624912469,607.66624912469,607.67194336534,607.67194336534,-0.0077217916298573,-5.4343598266953e-05,-0.0074188495122692,-0.0015669361369307,0.0024828423931594,0.032061933628465,-0.016545754972675,0.00010775764651858,0.00073186719422761,0.00016812698948883,0.0022268160854416,-0.13874804666891,-4.6472792727861e-06,-0.00013382501366081,0.0031670190659166,-0.086881838165403,-0.00036147156466043,0.0037011605886514,0.029997510762043,-0.026182687931652,-0.00067231359082449,0.00055317448002186,0.00010046121269404,-0.049435583400142,0.006413239121237,-0.10723354216654,0.00075379793549064,0.015914528746245,-0.0052619851913171,-0.00031262872710608,0.00044769117626452,0.0020597517246089,0.00035333696827875,-0.091328743777651,-0.0012292350569512,-0.0003058731236128,0.0066975703657271,-0.027455487421553,-6.7328278074678e-05,-6.3488502803474e-05,0.00073602017804938,-0.13197233745589,-0.0004146364375388,-0.00031415120024389,-0.0049054569382331,-0.000465365867391,0.0016771972657405,0.0032661514694295,732.18845989138,732.18845989138,732.1801407299,732.1801407299,732.19591876724,732.19518637791,732.1833157899,732.18614665382,732.19300510424,732.1899930424,732.17861901553,732.18268819735,732.18311628212,732.19166254522,732.18915932416,732.18263259596,732.18729779064,732.19701809522,732.19616700066,732.1815916272,732.18378656161,732.19461421133,732.19279035573,732.18311628212,732.17841472529,732.18113907592,732.19390358811,732.19372890522,732.18540817509,732.18829578159,732.19122538452,732.18712134891,732.17968290874,732.18469942472,732.18906681412,732.19137583848,732.19045503452,732.1844053028,732.18809701703,732.19111945006,732.18721469516,732.18185037258,732.18714594606,732.18906681412,732.19066750113,732.19066750113,732.19636174178,732.19636174178,411.91575628671,1340.2631889738,336.37240870322,1602.8089294812,308.77042624421,0
3.5e-05,24148856.019024,2.4056191606906e-06,1.0388215713217e-05,2.1408367221055e-06,1.0009884043106,607.66314860143,607.66314860143,607.65439830539,607.65439830539,607.67106908318,607.67028763165,607.65781337779,607.66069925168,607.66795671891,607.66484495822,607.65286624018,607.65703963985,607.65764987762,607.66659367183,607.66399103881,607.65715531744,607.66193143136,607.67221512986,607.67132155523,607.65597291788,607.65821395661,607.66966227604,607.66777462483,607.65764987762,607.65262429472,607.65541578159,607.66896298008,607.66874767724,607.66003585823,607.66297262503,607.66607234353,607.66183893947,607.65401018084,607.65916046891,607.66390074782,607.66631369115,607.66533185681,607.65901567428,607.66278202204,607.665995224,607.6619598393,607.65633165291,607.66176560747,607.66390074782,607.66550781937,607.66550781937,607.67151922002,607.67151922002,-0.0081537950991209,-5.7493482504294e-05,-0.0078444980949794,-0.0017209511076794,0.0026290994569225,0.033553593629921,-0.017417860029199,0.00011434772644988,0.00077510352463672,0.00017693668448546,0.0023536944314581,-0.14639693777405,-4.9117528580881e-06,-0.00014171927536756,0.0033478236464515,-0.090126329584883,-0.00038278876832746,0.0039197784954814,0.031389242116727,-0.027525627737573,-0.00071116620841713,0.00058518469312213,0.00010645430005778,-0.051410188999075,0.0067789145732046,-0.1131241119722,0.00079814170474294,0.016641355064678,-0.0055438699056829,-0.00033041312921687,0.00047424346412358,0.0021503134880062,0.00037349927382214,-0.096386193785349,-0.0012894824696657,-0.00032391021719724,0.0070805005444671,-0.028445491030278,-7.1278020705989e-05,-6.7137525041792e-05,0.00077803945532831,-0.13705304801627,-0.0004390905624057,-0.00033163621309442,-0.0051870801868354,-0.00048250363837013,0.0017766916358311,0.0033976813490884,732.1876849786,732.1876849786,732.17893468256,732.17893468256,732.19560546036,732.19482400883,732.18234975496,732.18523562886,732.19249309608,732.18938133539,732.17740261736,732.18157601702,732.1821862548,732.19113004901,732.18852741599,732.18169169462,732.18646780853,732.19675150704,732.19585793241,732.18050929505,732.18275033378,732.19419865321,732.19231100201,732.1821862548,732.1771606719,732.17995215877,732.19349935725,732.19328405442,732.18457223541,732.18750900221,732.1906087207,732.18637531665,732.17854655801,732.18369684609,732.18843712499,732.19085006832,732.18986823398,732.18355205146,732.18731839921,732.19053160118,732.18649621648,732.18086803008,732.18630198465,732.18843712499,732.19004419654,732.19004419654,732.19605559719,732.19605559719,413.72906440956,1340.3913317082,337.32455740089,1605.8993180592,310.13085582602,0
3.51e-05,24240393.456077,2.4124854564433e-06,1.0417899748977e-05,2.1470991307172e-06,1.001008761781,607.66220735582,607.66220735582,607.65300690064,607.65300690064,607.67061779689,607.66978457287,607.65667967293,607.65961507735,607.66729309446,607.66408261751,607.6514699875,607.65574266925,607.65655785038,607.66591270584,607.66320952774,607.65605296678,607.66093334725,607.6718118928,607.67087440981,607.65471524931,607.65699854959,607.66910086696,607.6671496038,607.65655785038,607.65118628316,607.6540412935,607.66841770782,607.66815771592,607.65904002514,607.66201954288,607.66529801963,607.66093736117,607.65269984553,607.65797844137,607.6631218224,607.6656417787,607.66459560898,607.65800456013,607.66183873411,607.66525390915,607.66108901655,607.65518595531,607.6607521995,607.6631218224,607.66472926109,607.66472926109,607.67107425495,607.67107425495,-0.008608377833966,-6.0816276443963e-05,-0.0082925859964098,-0.0018891750625324,0.0027834948438732,0.035096102590235,-0.018328571912727,0.00012132765615601,0.00082075723856833,0.00018618513503016,0.0024871987660866,-0.15443811097407,-5.1898745005105e-06,-0.00015005528010862,0.0035380710653157,-0.093458286299228,-0.00040529643174474,0.0041506213238297,0.032827900749992,-0.028924990295669,-0.00075209482001878,0.00061893237762103,0.00011278924633267,-0.053445772747736,0.0071636805737349,-0.11931405475479,0.0008449480494542,0.017391684299261,-0.0058385943499911,-0.00034912097809315,0.0005022863199407,0.0022443110367931,0.00039471956167317,-0.10170513281285,-0.0013524944840644,-0.00034295599984222,0.0074834904649392,-0.029460679555808,-7.5447458885526e-05,-7.0982956168251e-05,0.00082225331401778,-0.14227891942504,-0.00046490986634672,-0.00034999118248413,-0.0054835812853677,-0.000499790910647,0.001881792501231,0.0035315804476258,732.18686827173,732.18686827173,732.17766781655,732.17766781655,732.19527871279,732.19444548877,732.18134058884,732.18427599325,732.19195401036,732.18874353341,732.1761309034,732.18040358515,732.18121876629,732.19057362175,732.18787044364,732.18071388269,732.18559426316,732.19647280871,732.19553532571,732.17937616522,732.18165946549,732.19376178287,732.19181051971,732.18121876629,732.17584719906,732.17870220941,732.19307862373,732.19281863183,732.18370094104,732.18668045879,732.18995893553,732.18559827708,732.17736076144,732.18263935728,732.1877827383,732.19030269461,732.18925652488,732.18266547604,732.18649965001,732.18991482505,732.18574993246,732.17984687121,732.1854131154,732.1877827383,732.18939017699,732.18939017699,732.19573517085,732.19573517085,415.46937836613,1340.5107093538,338.276231674,1608.9437131757,311.50706919138,0
3.52e-05,24332473.648841,2.4193518036283e-06,1.0447583935813e-05,2.1533701923083e-06,1.0010291977038,607.66121535398,607.66121535398,607.65154503118,607.65154503118,607.67014575797,607.66925795401,607.65549432642,607.65847308236,607.66659421923,607.66328643114,607.65000935572,607.65437557004,607.65542032514,607.66519999236,607.66239535738,607.65490573666,607.65988273541,607.67138924744,607.67040643066,607.65339781853,607.65571902189,607.66851030707,607.66649584295,607.65542032514,607.64967947641,607.65259383244,607.66784855402,607.66753955089,607.65800074965,607.66101584097,607.66448206417,607.65999689441,607.6513313771,607.65673185421,607.66231060382,607.66494067288,607.66382675135,607.65695227015,607.66084657355,607.66447549149,607.66018275171,607.65399339984,607.65968480751,607.66231060382,607.66391180201,607.66391180201,607.67060760953,607.67060760953,-0.0090865753067204,-6.4320932813115e-05,-0.0087641535900988,-0.0020726797189082,0.0029464531029244,0.036690084743859,-0.019279052673688,0.00012871980377978,0.00086895555676918,0.00019589445607072,0.0026276346799844,-0.16288914526638,-5.482241574328e-06,-0.0001588564367646,0.0037381932137252,-0.096879915278093,-0.00042905728982668,0.0043943325774383,0.034313992686135,-0.030382248048034,-0.00079519786110072,0.00065450594678667,0.00011948473832745,-0.055544046301996,0.0075684120058538,-0.12581655624927,0.0008943452056426,0.018165693706897,-0.0061465700138715,-0.00036879408499518,0.00053189840161056,0.0023418758963665,0.00041704738414808,-0.10729742579871,-0.0014183974404428,-0.00036306387383487,0.0079074637334504,-0.030501720213266,-7.9848172431296e-05,-7.5034352380878e-05,0.00086876211584652,-0.14765368453923,-0.00049216619557826,-0.00036925209678357,-0.0057956579039404,-0.00051718919047803,0.0019927990479288,0.0036676588078246,732.18600764636,732.18600764636,732.17633732356,732.17633732356,732.19493805035,732.19405024639,732.1802866188,732.18326537474,732.19138651161,732.18807872351,732.1748016481,732.17916786241,732.18021261752,732.18999228474,732.18718764976,732.17969802904,732.18467502779,732.19618153981,732.19519872303,732.17819011091,732.18051131426,732.19330259944,732.19128813533,732.18021261752,732.17447176879,732.17738612482,732.19264084639,732.19233184327,732.18279304203,732.18580813334,732.18927435654,732.18478918679,732.17612366947,732.18152414658,732.18710289619,732.18973296525,732.18861904373,732.18174456252,732.18563886592,732.18926778387,732.18497504409,732.17878569222,732.18447709989,732.18710289619,732.18870409439,732.18870409439,732.19539990191,732.19539990191,417.13971710737,1340.6220822238,339.22740939033,1611.9422376838,312.89915966955,0
3.53e-05,24425083.824138,2.4262182231815e-06,1.0477268278115e-05,2.1596503430743e-06,1.0010497089366,607.660170065,607.660170065,607.65000946314,607.65000946314,607.66965216836,607.66870688002,607.6542552959,607.65727048556,607.66585838927,607.66245514849,607.64848172536,607.65293485863,607.65423575736,607.66445420261,607.66154744134,607.65371215286,607.65877706669,607.67094640958,607.66991684081,607.6520181078,607.6543723105,607.66788924428,607.66581223511,607.65423575736,607.64810092656,607.65106985113,607.66725465185,607.66689205418,607.65691643088,607.65995910848,607.66362241941,607.65901615449,607.64990255044,607.65541745954,607.66146600229,607.66420928472,607.66302408461,607.65585745074,607.65980324695,607.66365826442,607.65923991659,607.65275243742,607.65856078347,607.66146600229,607.66305373318,607.66305373318,607.67011839569,607.67011839569,-0.0095894585080409,-6.8016829309951e-05,-0.0092602784752292,-0.00227259287801,0.0031184192345173,0.038336117833923,-0.020270459112482,0.0001365477851175,0.00091983197143316,0.00020608787402926,0.0027753191418684,-0.17176819439795,-5.7894690428682e-06,-0.00016814732592519,0.0039486375169309,-0.10039351384902,-0.00045413718260969,0.0046515872908362,0.035847972580803,-0.031898847233495,-0.00084057737821855,0.00069199809644655,0.00012656044187454,-0.057706775998195,0.0079940152061376,-0.13264521146219,0.00094646760011909,0.018963532442034,-0.0064682083609405,-0.00038947572778142,0.00056316224851045,0.0024431448469998,0.00044053423826169,-0.1131753376066,-0.0014873226406131,-0.00038428991096796,0.0083533777741517,-0.03156931257743,-8.4492320292033e-05,-7.9301660145945e-05,0.00091766982459713,-0.15318120854796,-0.00052093493960214,-0.00038945595060812,-0.0061240344617951,-0.00053465700013121,0.0021100254913414,0.0038057053627555,732.1851008873,732.1851008873,732.17494028544,732.17494028544,732.19458299066,732.19363770232,732.1791861182,732.18220130786,732.19078921157,732.18738597079,732.17341254766,732.17786568093,732.17916657966,732.18938502491,732.18647826364,732.17864297515,732.18370788899,732.19587723188,732.19484766311,732.1769489301,732.1793031328,732.19282006658,732.19074305741,732.17916657966,732.17303174886,732.17600067343,732.19218547415,732.19182287647,732.18184725318,732.18488993078,732.1885532417,732.18394697679,732.17483337274,732.18034828184,732.18639682458,732.18914010702,732.18795490691,732.18078827304,732.18473406925,732.18858908671,732.18417073889,732.17768325972,732.18349160577,732.18639682458,732.18798455548,732.18798455548,732.19504921799,732.19504921799,418.74306462968,1340.7261832312,340.17806752696,1614.8950702276,314.3072053151,0
3.54e-05,24518211.757596,2.4330847375436e-06,1.0506952780346e-05,2.1659400358021e-06,1.0010702924774,607.6590688478,607.6590688478,607.6483968332,607.6483968332,607.66913620533,607.66813043153,607.65296046729,607.65600439356,607.66508382979,607.66158748009,607.64688438001,607.65141690247,607.65300255548,607.66367395581,607.66066466321,607.65247069655,607.6576137061,607.67048257053,607.66940484338,607.6505735057,607.65295522822,607.66723627359,607.6650976384,607.65300255548,607.64644757235,607.6494656534,607.66663510803,607.66621406313,607.65578541549,607.65884683901,607.66271693933,607.65799371406,607.64841106248,607.65403186879,607.66058689501,607.66344648701,607.66218637248,607.65471870739,607.65870636812,607.66280044994,607.65825935286,607.65146147206,607.657377366,607.66058689501,607.66215328295,607.66215328295,607.66960569729,607.66960569729,-0.01011813418459,-7.191378858649e-05,-0.0097820757903352,-0.0024900991435828,0.0032998595659197,0.040034730621028,-0.021303939553197,0.00014483652857487,0.00097352650103555,0.00021678976877899,0.0029305807074267,-0.18109398844502,-6.1121892836683e-06,-0.00017795375515111,0.0041698672691313,-0.10400146259299,-0.00048060519770187,0.0049230934299082,0.037430240702864,-0.033476202625217,-0.00088833904696028,0.0007315059751898,0.00013403705074639,-0.059935778761093,0.0084414283774549,-0.13981402324357,0.0010014561196378,0.019785320512865,-0.0068039197621087,-0.00041121068567182,0.00059616443935868,0.002548259878623,0.00046523361348729,-0.11935153538002,-0.0015594063497884,-0.0004066929772615,0.0088222246388752,-0.03266418606319,-8.9392667657634e-05,-8.3795226618745e-05,0.00096908407845218,-0.15886547862269,-0.00055129519279564,-0.00041064074724674,-0.0064694628945548,-0.0005521498180472,0.0022338017792597,0.0039454869419895,732.18414566777,732.18414566777,732.17347365317,732.17347365317,732.1942130253,732.1932072515,732.17803728726,732.18108121353,732.19016064976,732.18666430006,732.17196119998,732.17649372244,732.17807937545,732.18875077578,732.18574148318,732.17754751652,732.18269052607,732.1955593905,732.19448166335,732.17565032567,732.17803204819,732.19231309356,732.19017445837,732.17807937545,732.17152439232,732.17454247337,732.191711928,732.1912908831,732.18086223546,732.18392365898,732.1877937593,732.18307053403,732.17348788245,732.17910868876,732.18566371498,732.18852330698,732.18726319245,732.17979552736,732.18378318809,732.18787726991,732.18333617283,732.17653829203,732.18245418597,732.18566371498,732.18723010292,732.18723010292,732.19468251726,732.19468251726,420.2823592011,1340.8237208128,341.12818210683,1617.8024429732,315.73126907929,0
3.55e-05,24611845.771299,2.4399513708995e-06,1.0536637447051e-05,2.1722397403184e-06,1.0010909454635,607.65790894763,607.65790894763,607.64670364508,607.64670364508,607.66859702102,607.66752766456,607.65160765307,607.6546717978,607.66426869301,607.66068209669,607.64521450371,607.64981791564,607.65171907979,607.66285781756,607.65974587589,607.65117980318,607.65638990965,607.66999689663,607.66886962139,607.64906130477,607.65146446029,607.66654993552,607.66435087545,607.65171907979,607.64471623607,607.64777738993,607.66598900219,607.6655043798,607.65460599646,607.657676428,607.66176338691,607.65692810211,607.6468545301,607.65257154838,607.65967212537,607.66265111314,607.66131234084,607.6535346036,607.65755345538,607.6619001965,607.65723987137,607.65011885965,607.6561316769,607.65967212537,607.66120861539,607.66120861539,607.66906856955,607.66906856955,-0.010673744997568,-7.602209665197e-05,-0.01033069855121,-0.0027264405299343,0.0034912626702342,0.041786401565532,-0.022380630304337,0.00015361234279024,0.0010301859944417,0.00022802571671763,0.0030937597518763,-0.1908858340961,-6.4510518576924e-06,-0.00018830281628032,0.004402361977544,-0.10770621732036,-0.00050853381927531,0.0052095933649079,0.039061140997491,-0.035115691880903,-0.00093859219281699,0.00077313140396189,0.00014193633724162,-0.062232917529626,0.0089116220516582,-0.14733739975114,0.0010594583930025,0.020631148347491,-0.0071541123003007,-0.00043404527723181,0.00063099577773934,0.0026573681318615,0.00049120104413297,-0.12583909006819,-0.001634789787624,-0.00043033486245104,0.0093150318487891,-0.03378709709371,-9.4562614306637e-05,-8.8525809897377e-05,0.0010231162634662,-0.16471059224153,-0.00058332992318466,-0.00043284549639105,-0.0068327234660781,-0.00056962004465772,0.0023644743272354,0.0040867474186618,732.18313956397,732.18313956397,732.17193426142,732.17193426142,732.19382763737,732.1927582809,732.17683826941,732.17990241415,732.18949930935,732.18591271304,732.17044512006,732.17504853199,732.17694969614,732.18808843391,732.18497649224,732.17641041953,732.181620526,732.19522751298,732.19410023774,732.17429192112,732.17669507664,732.19178055187,732.1895814918,732.17694969614,732.16994685242,732.17300800628,732.19121961854,732.19073499615,732.17983661281,732.18290704435,732.18699400326,732.18215871846,732.17208514645,732.17780216473,732.18490274171,732.18788172949,732.18654295719,732.17876521995,732.18278407172,732.18713081284,732.18247048771,732.175349476,732.18136229325,732.18490274171,732.18643923174,732.18643923174,732.19429918589,732.19429918589,421.76050545823,1342.4368023929,342.07772797522,1620.6646388119,317.17139910309,0
3.56e-05,24705974.73177,2.4468181489191e-06,1.056632228287e-05,2.1785499434349e-06,1.0011116651692,607.65668749268,607.65668749268,607.64492626605,607.64492626605,607.66803374197,607.66689761022,607.65019459063,607.65326957153,607.66341105606,607.65973762841,607.64346917848,607.64813395443,607.65038364129,607.66200429827,607.65878990099,607.6498378614,607.65510282123,607.66948852877,607.66831033754,607.6474786992,607.64989656108,607.66582871464,607.66357073264,607.65038364129,607.64290362059,607.64600105395,607.66531538639,607.66476177031,607.65337641198,607.6564451703,607.66075943142,607.65581780302,607.64523048812,607.65103281553,607.65872050224,607.66182195602,607.66040067695,607.65230365993,607.65634192895,607.66095557669,607.65618025147,607.6487229069,607.65482071773,607.65872050224,607.66021782875,607.66021782875,607.66850603849,607.66850603849,-0.011257469538316,-8.0352523527234e-05,-0.010907337917428,-0.0029829166541074,0.0036931402825409,0.0435915569429,-0.023501652231401,0.00016290298688166,0.0010899644408177,0.00023982253776244,0.0032652086877738,-0.20116361268328,-6.8067231433156e-06,-0.00019922294524707,0.0046466176438537,-0.11151030030826,-0.00053799908532793,0.0055118653508915,0.040740958577635,-0.036818650161275,-0.00099144980457777,0.0008169810965801,0.00015028120675879,-0.064600096306769,0.0094055995045092,-0.15523015015336,0.001120629073738,0.021501076108657,-0.0075191905959987,-0.00045802738601997,0.00066775148148639,0.0027706218326276,0.00051849415963004,-0.13265147642976,-0.0017136191067197,-0.00045528041620593,0.0098328630887881,-0.034938826010255,-0.00010001622539045,-9.3504588843249e-05,0.0010798815743879,-0.17072074448549,-0.00061712614990213,-0.00045611022029127,-0.0072146254585627,-0.00058701695943338,0.0025024067791854,0.0042292067713282,732.18208003954,732.18208003954,732.17031881292,732.17031881292,732.19342628884,732.19229015709,732.17558713749,732.1786621184,732.18880360292,732.18513017528,732.16886172534,732.1735265013,732.17577618815,732.18739684514,732.18418244786,732.17523040827,732.18049536809,732.19488107563,732.1937028844,732.17287124607,732.17528910794,732.19122126151,732.1889632795,732.17577618815,732.16829616746,732.17139360082,732.19070793326,732.19015431717,732.17876895885,732.18183771716,732.18615197829,732.18121034988,732.17062303498,732.1764253624,732.18411304911,732.18721450289,732.18579322382,732.1776962068,732.18173447582,732.18634812355,732.18157279834,732.17411545377,732.1802132646,732.18411304911,732.18561037562,732.18561037562,732.19389858535,732.19389858535,423.18037576095,1345.4952414617,343.02667905175,1623.4819887479,318.6276290249,0
3.57e-05,24800588.04825,2.4536850990307e-06,1.0596007292524e-05,2.1848711493222e-06,1.0011324490051,607.65540149062,607.65540149062,607.64306092355,607.64306092355,607.66744546864,607.66623927444,607.64871894072,607.65179446686,607.66250891882,607.65875266389,607.64164538182,607.64636091301,607.64899450067,607.66111185162,607.65779552821,607.64844321215,607.65374946944,607.66895658191,607.66772613401,607.64582278261,607.64824795079,607.6650710381,607.66275595935,607.64899450067,607.64100630642,607.64413247704,607.66461328461,607.66398496422,607.65209484443,607.65515025761,607.65970264566,607.65466125556,607.64353638743,607.64941183398,607.65773079935,607.6609577671,607.65945002862,607.65102435322,607.65506910833,607.65996458507,607.65507924053,607.64727187028,607.65344136636,607.65773079935,607.6591789539,607.6591789539,607.66791710035,607.66791710035,-0.011870522243861,-8.4916343258157e-05,-0.011513223237947,-0.0032608847742184,0.0039060282890853,0.045450568645421,-0.024668107168463,0.00017273774785611,0.0011530232765066,0.00025220834202432,0.0034452921420593,-0.21194777687039,-7.1798859332361e-06,-0.00021074398431327,0.0049031470586634,-0.11541629064233,-0.00056908074738016,0.0058307251085924,0.042469916878117,-0.038586364562099,-0.0010470285124865,0.00086316687209599,0.00015909575175457,-0.067039254749446,0.0099243970262434,-0.16350747928835,0.0011851301495462,0.022395132876777,-0.0078995545763803,-0.00048320649115204,0.00070653137394257,0.0028881782107478,0.00054717273001577,-0.13980257209874,-0.0017960453486375,-0.00048159768885105,0.010376818948258,-0.036120173684083,-0.00010576826155438,-9.8743172699411e-05,0.0011394990768229,-0.17690021402791,-0.00065277512450459,-0.00048047595708985,-0.0076160079256486,-0.00060428667513669,0.0026479807908553,0.0043725600655818,732.180964458,732.180964458,732.16862389093,732.16862389093,732.19300843602,732.19180224182,732.1742819081,732.17735743424,732.1880718862,732.18431563127,732.1672083492,732.17192388039,732.17455746805,732.186674819,732.18335849559,732.17400617953,732.17931243682,732.19451954929,732.19328910139,732.17138574999,732.17381091817,732.19063400548,732.18831892673,732.17455746805,732.1665692738,732.16969544442,732.19017625199,732.1895479316,732.17765781181,732.18071322499,732.18526561304,732.18022422294,732.16909935481,732.17497480136,732.18329376673,732.18652073448,732.185012996,732.1765873206,732.18063207571,732.18552755244,732.18064220791,732.17283483766,732.17900433373,732.18329376673,732.18474192128,732.18474192128,732.19348006773,732.19348006773,424.54481142877,1348.505266542,343.97500812426,1626.2548688638,320.09997835297,0
3.58e-05,24895675.671916,2.4605522502165e-06,1.0625692480816e-05,2.191203879769e-06,1.0011532945164,607.65404782524,607.65404782524,607.64110370187,607.64110370187,607.66683127503,607.66555163764,607.64717828604,607.6502431119,607.66156020186,607.6577257495,607.63973998447,607.64449451909,607.64754986746,607.66017887303,607.65676151488,607.64699414784,607.65232676458,607.66840014466,607.6671161323,607.64409054602,607.64651491228,607.6642752741,607.66190526727,607.64754986746,607.63902074896,607.64216732496,607.66388169235,607.663172654,607.65075941945,607.65378877612,607.65859050327,607.65345685214,607.64176959329,607.64770460979,607.65670175472,607.66005725534,607.65845900347,607.64969511581,607.65373220973,607.65892513596,607.65393555336,607.64576395521,607.65199037353,607.65670175472,607.65808995287,607.65808995287,607.66730072102,607.66730072102,-0.012514153205293,-8.9725355829226e-05,-0.012149622066662,-0.0035617594781828,0.0041304877160431,0.047363752332543,-0.025881074258756,0.00018314751928218,0.001219531723436,0.00026521257929726,0.0036343871385757,-0.22325934554054,-7.5712388805809e-06,-0.0002228972474096,0.0051724800882785,-0.11942681373621,-0.00060186244035139,0.0061670274440942,0.044248175105858,-0.040420068551639,-0.0011054485606273,0.00091180589858124,0.00016840531151485,-0.069552362260014,0.010469084197997,-0.1721849807478,0.0012531312444794,0.023313316038352,-0.0082955981974054,-0.00050963369226494,0.00074744009083435,0.0030101994071155,0.00057729871255176,-0.14730665552235,-0.001882224394636,-0.00050935807972996,0.010948037641021,-0.037331957884409,-0.00011183421024394,-0.00010425361048195,0.0012020917667719,-0.18325334784393,-0.0006903725229336,-0.00050598476647413,-0.0080377404130354,-0.00062137209326006,0.0028015968688664,0.0045164764842377,732.17979007385,732.17979007385,732.16684595049,732.16684595049,732.19257352364,732.19129388625,732.17292053466,732.17598536051,732.18730245047,732.18346799811,732.16548223309,732.1702367677,732.17329211607,732.18592112164,732.1825037635,732.17273639645,732.17806901319,732.19414239328,732.19285838091,732.16983279463,732.1722571609,732.19001752272,732.18764751588,732.17329211607,732.16476299757,732.16790957358,732.18962394096,732.18891490262,732.17650166806,732.17953102473,732.18433275188,732.17919910075,732.1675118419,732.17344685841,732.18244400333,732.18579950396,732.18420125209,732.17543736442,732.17947445834,732.18466738458,732.17967780197,732.17150620382,732.17773262214,732.18244400333,732.18383220148,732.18383220148,732.19304296963,732.19304296963,425.85662688438,1351.4648128084,344.92268679317,1628.9836972143,321.58845288447,0
3.59e-05,24991228.094939,2.4674196334124e-06,1.0655377852628e-05,2.1975486740898e-06,1.0011741993817,607.65262325306,607.65262325306,607.63905053902,607.63905053902,607.66619020821,607.66483365448,607.6455701299,607.64861200792,607.66056274427,607.65665538861,607.63774974827,607.64253032972,607.64604789917,607.65920369821,607.65568658546,607.64548891166,607.65083149559,607.66781827883,607.666479433,607.64227887585,607.64469358792,607.66343973045,607.66101732967,607.64604789917,607.63694327585,607.64010109367,607.66311957617,607.66232349444,607.64936820514,607.65235770409,607.65742037608,607.65220293797,607.63992738363,607.64590698728,607.65563207019,607.65911908638,607.65742616827,607.64831433494,607.65232834352,607.65783506135,607.65274787189,607.64419731526,607.65046435958,607.65563207019,607.65694871732,607.65694871732,607.66665583546,607.66665583546,-0.013189647820715,-9.4791910684392e-05,-0.012817840038289,-0.0038870119658864,0.0043671056994286,0.049331365115268,-0.027141606334988,0.00019416486829929,0.0012896671307796,0.00027886609129335,0.0038328832553169,-0.23511989638074,-7.9814959779623e-06,-0.00023571558763252,0.0054551640477426,-0.12354453068679,-0.0006364318581115,0.0065216678125738,0.046075825201009,-0.042320936566874,-0.0011668337839807,0.00096302093505174,0.00017823653060046,-0.072141412083068,0.011040764073741,-0.18127862819048,0.0013248099255367,0.02425559047417,-0.0087077081717183,-0.00053736176150734,0.00079058728845018,0.0031368523895151,0.00060893629585993,-0.15517840230259,-0.0019723168984456,-0.00053863648993548,0.011547695977819,-0.038575009584679,-0.0001182303215749,-0.00011004839999138,0.0012677866432191,-0.18978454574221,-0.00073001864376765,-0.0005326797389921,-0.0084807239473723,-0.00063821286705648,0.002963675173591,0.0046605982493265,732.17855401672,732.17855401672,732.16498130268,732.16498130268,732.19212097187,732.19076441814,732.17150089356,732.17454277158,732.18649350793,732.18258615227,732.16368051194,732.16846109339,732.17197866284,732.18513446187,732.18161734912,732.17141967532,732.17676225926,732.19374904249,732.19241019666,732.16820963951,732.17062435158,732.18937049411,732.18694809333,732.17197866284,732.16287403952,732.16603185733,732.18905033984,732.1882542581,732.1752989688,732.17828846775,732.18335113974,732.17813370163,732.16585814729,732.17183775094,732.18156283385,732.18504985004,732.18335693193,732.17424509861,732.17825910718,732.18376582501,732.17867863555,732.17012807892,732.17639512324,732.18156283385,732.18287948098,732.18287948098,732.19258659913,732.19258659913,427.11860881996,1354.3718086795,345.86968564256,1631.668930616,323.09304515195,0
3.6e-05,25087236.350637,2.4742872812638e-06,1.068506341292e-05,2.2039060894787e-06,1.0011951614118,607.65112440007,607.65112440007,607.63689722361,607.63689722361,607.665521288,607.66408425362,607.64389189504,607.64689752659,607.65951430166,607.6555400409,607.63567132412,607.64046372713,607.64448670068,607.6581846018,607.65456943114,607.64392569705,607.64926032709,607.66721001895,607.66581511564,607.64038455209,607.64277997656,607.66256265307,607.6600907808,607.64448670068,607.6347700845,607.63792910527,607.66232587341,607.66143610207,607.64791921135,607.65085390953,607.65618953144,607.65089781037,607.63800694766,607.64401464486,607.65452041107,607.65814188162,607.65635004824,607.64688035233,607.65085451178,607.65669210875,607.65151484479,607.64257005159,607.6488598111,607.65452041107,607.65575306718,607.65575306718,607.66598134718,607.66598134718,-0.013898326312656,-0.00010012893030529,-0.013519220583962,-0.0042381690012965,0.0046164965926955,0.051353603315828,-0.028450726250018,0.00020582413949009,0.0013636153297387,0.00029320116670028,0.0040411827513889,-0.24755155659035,-8.4113858368309e-06,-0.00024923346921919,0.0057517639719312,-0.12777212715303,-0.00067288093748812,0.0068955841273497,0.047952888873571,-0.044290078678631,-0.0012313115097139,0.0010169405857805,0.00018861742374312,-0.074808415209316,0.011640573274009,-0.19080476522654,0.0014003520463998,0.025221887798039,-0.0091362626501394,-0.00056644516721132,0.00083608786237806,0.0032683088710219,0.00064215193842064,-0.16343288022676,-0.0020664882077196,-0.00056951148227167,0.012177010077318,-0.039850169128886,-0.00012497364240609,-0.00011614049853057,0.0013367147617401,-0.19649824420142,-0.00077181861604352,-0.00056060500073443,-0.008945891793233,-0.00065474535154863,0.0031346564436646,0.0048045395758936,732.17725329239,732.17725329239,732.16302611594,732.16302611594,732.19165018033,732.19021314594,732.17002078736,732.17302641892,732.18564319399,732.18166893323,732.16180021644,732.16659261946,732.17061559301,732.18431349412,732.18069832347,732.17005458938,732.17538921942,732.19333891128,732.19194400796,732.16651344442,732.16890886889,732.1886915454,732.18621967312,732.17061559301,732.16089897683,732.16405799759,732.18845476574,732.1875649944,732.17404810368,732.17698280185,732.18231842377,732.1770267027,732.16413583998,732.17014353719,732.18064930339,732.18427077394,732.18247894057,732.17300924466,732.17698340411,732.18282100108,732.17764373711,732.16869894392,732.17498870343,732.18064930339,732.18188195951,732.18188195951,732.1921102395,732.1921102395,428.33352101809,1357.224182642,346.81597391618,1634.31106129,324.61373488184,0
3.61e-05,25183692.013319,2.48115522853e-06,1.0714749166728e-05,2.210276700967e-06,1.0012161785489,607.64954775845,607.64954775845,607.634639392,607.634639392,607.66482350659,607.66330233747,607.64214092259,607.6450959073,607.65841254411,607.65437812174,607.63350125013,607.63828991468,607.64286432363,607.65711979595,607.65340870957,607.6423026473,607.64760979647,607.6665743719,607.66512223852,607.63840424666,607.6407699306,607.6616422246,607.6591242152,607.64286432363,607.6324972397,607.63564650425,607.66149949183,607.66050905472,607.64641038913,607.6492741479,607.65489512965,607.64953971821,607.63600538448,607.64202309116,607.6533654058,607.6571242175,607.6552291265,607.64539146375,607.64930760589,607.65549393922,607.65023508722,607.64088021245,607.64717307776,607.6533654058,607.65450074924,607.65450074924,607.66527612761,607.66527612761,-0.014641543068494,-0.00010574993620933,-0.01425514452448,-0.004616811494338,0.0048793031210283,0.053430600149175,-0.029809423298288,0.00021816154002779,0.0014415710023287,0.00030825159937651,0.0042597006804421,-0.26057699139749,-8.8616509599699e-06,-0.00026348703765144,0.0060628629179348,-0.13211230223659,-0.000711306047213,0.0072897586446902,0.049879314505311,-0.046328535484361,-0.0012990124680203,0.0010736995640172,0.00019957744036682,-0.077555394282954,0.012269682014058,-0.20078009371002,0.0014799521058497,0.026212105595216,-0.009581629932361,-0.00059694011162126,0.00088406217105006,0.0034047452385081,0.00067701440688366,-0.17208554269588,-0.002164908272272,-0.00060206544309706,0.012837236161255,-0.041158282423386,-0.00013208205499874,-0.000122543326919,0.001409011293855,-0.20339890015799,-0.00081588261232505,-0.00058980572068584,-0.0094342102950887,-0.00067090256463968,0.0033150029410418,0.0049478855666395,732.17588478478,732.17588478478,732.16097641833,732.16097641833,732.19116053291,732.1896393638,732.16847794892,732.17143293363,732.18474957043,732.18071514806,732.15983827645,732.164626941,732.16920134995,732.18345682228,732.17974573589,732.16863967362,732.17394682279,732.19291139823,732.19145926484,732.16474127299,732.16710695692,732.18797925093,732.18546124153,732.16920134995,732.15883426603,732.16198353058,732.18783651816,732.18684608105,732.17274741545,732.17561117423,732.18123215597,732.17587674453,732.1623424108,732.16836011748,732.17970243212,732.18346124383,732.18156615282,732.17172849008,732.17564463222,732.18183096555,732.17657211355,732.16721723878,732.17351010408,732.17970243212,732.18083777556,732.18083777556,732.19161315394,732.19161315394,429.50410290804,1360.0198704177,347.76151971413,1636.910613525,326.15048950765,0
3.62e-05,25280587.198797,2.4880235115367e-06,1.0744435119158e-05,2.2166611016167e-06,1.0012372488645,607.64788968344,607.64788968344,607.6322725255,607.6322725255,607.66409582818,607.66248678196,607.64031447116,607.64320325457,607.65725505412,607.65316800157,607.63123594997,607.63600391289,607.64117876599,607.65600742911,607.65220304452,607.6406178552,607.64587631109,607.66591031645,607.66439983852,607.6363345218,607.63865915316,607.66067656297,607.65811618717,607.64117876599,607.63012067151,607.63324825377,607.66063930936,607.65954089096,607.64483963023,607.64761505996,607.65353422139,607.64812686127,607.63391970194,607.63992766105,607.65216564581,607.65606462478,607.6540618435,607.64384591882,607.6476844042,607.65423812534,607.64890718071,607.63912579287,607.64540036911,607.65216564581,607.65318943581,607.65318943581,607.66453901564,607.66453901564,-0.015420685810558,-0.00011166907507876,-0.015027029503127,-0.0050245725639576,0.0051561974480175,0.055562423065711,-0.031218649623429,0.00023121522860601,0.0015237380817979,0.00032405274997324,0.0044888649672971,-0.27421938986314,-9.3330467391518e-06,-0.00027851420132757,0.0063890623003765,-0.136567757368,-0.00075180818568234,0.0077052197152211,0.051854973744006,-0.048437273167789,-0.0013700706840794,0.0011334389827389,0.00021114753243681,-0.080384377588116,0.012929294022936,-0.21122165983443,0.0015638135849894,0.02722610650769,-0.010044167135375,-0.00062890458158627,0.00093463628046905,0.0035463424957267,0.00071359480813,-0.18115222035331,-0.0022677515390278,-0.00063638477124381,0.013529671491962,-0.042500197153909,-0.00013957430393302,-0.00012927077915042,0.0014848155845019,-0.21049097479364,-0.00086232607522452,-0.00062032815029035,-0.0099466798991881,-0.00068661412078109,0.003505199371241,0.0050901910953933,732.17444525439,732.17444525439,732.15882809645,732.15882809645,732.19065139913,732.1890423529,732.16687004211,732.16975882552,732.18381062507,732.17972357252,732.15779152092,732.16255948384,732.16773433694,732.18256300006,732.17875861546,732.16717342615,732.17243188204,732.19246588739,732.19095540947,732.16289009275,732.1652147241,732.18723213392,732.18467175812,732.16773433694,732.15667624245,732.15980382471,732.18719488031,732.1860964619,732.17139520118,732.17417063091,732.18008979233,732.17468243221,732.16047527289,732.16648323199,732.17872121675,732.18262019573,732.18061741444,732.17040148976,732.17423997514,732.18079369628,732.17546275166,732.16568136382,732.17195594006,732.17872121675,732.17974500676,732.17974500676,732.19109458658,732.19109458658,430.63307247197,1362.7568224066,348.70628986358,1639.4681403448,327.70326467591,0
3.63e-05,25377914.563613,2.4948921686442e-06,1.0774121275372e-05,2.2230599023421e-06,1.0012583705592,607.64614639026,607.64614639026,607.62979194775,607.62979194775,607.66333718872,607.66163643631,607.63840971602,607.6412155356,607.65603932475,607.65190800544,607.62887173135,607.63360055573,607.63942797178,607.65484558479,607.65095102572,607.63886936301,607.64405614558,607.66521680285,607.663646931,607.63417182873,607.6364431954,607.65966371999,607.65706521016,607.63942797178,607.62763617319,607.63072913204,607.6597441739,607.65853010967,607.64320476683,607.64587316964,607.65210374528,607.64665738988,607.63174681562,607.63772351194,607.65091968537,607.65496158788,607.65284659654,607.64224192091,607.64598156976,607.65292214936,607.64752967303,607.63730473444,607.64353775164,607.65091968537,607.65181672351,607.65181672351,607.66376881703,607.66376881703,-0.016237174601425,-0.00011790115011308,-0.015836329224694,-0.005463135125945,0.0054478823487483,0.057749071289964,-0.032679316898716,0.00024502541716656,0.0016103301234726,0.00034064161328838,0.004729116449464,-0.28850244874283,-9.8263405858101e-06,-0.00029435470501976,0.0067309822229815,-0.1411411854861,-0.00079449319149571,0.0081430437731245,0.053879658249124,-0.050617179054618,-0.0014446233277991,0.0011963066243904,0.00022336023420933,-0.083297393376841,0.013620646347774,-0.22214683884099,0.0016521493071355,0.028263717447384,-0.010524218961022,-0.00066239838747062,0.0009879421847783,0.0036932862379854,0.00075196661631266,-0.19064911125956,-0.0023751968305663,-0.00067256003450528,0.014255655270478,-0.043876759101513,-0.00014747005557687,-0.00013633722860013,0.0015642712130741,-0.21777891783715,-0.00091126994853488,-0.00065221960850386,-0.010484336116577,-0.00070180620860238,0.0037057539684908,0.0052309796775261,732.17293135163,732.17293135163,732.15657690912,732.15657690912,732.19012215009,732.18842139769,732.16519467739,732.16800049697,732.18282428612,732.17869296681,732.15565669272,732.1603855171,732.16621293315,732.18163054616,732.17773598709,732.16565432438,732.17084110695,732.19200176423,732.19043189237,732.1609567901,732.16322815677,732.18644868136,732.18385017153,732.16621293315,732.15442113456,732.15751409341,732.18652913527,732.18531507105,732.1699897282,732.17265813101,732.17888870665,732.17344235125,732.15853177699,732.16450847331,732.17770464674,732.18174654925,732.17963155791,732.16902688228,732.17276653113,732.17970711073,732.1743146344,732.16408969581,732.17032271302,732.17770464674,732.17860168488,732.17860168488,732.1905537784,732.1905537784,431.72312050203,1365.4330113403,350.78241121125,1641.9842202003,329.27200476244,0
3.64e-05,25475667.306059,2.5017612401352e-06,1.0803807640613e-05,2.2294737320382e-06,1.0012795419609,607.64431395113,607.64431395113,607.62719282231,607.62719282231,607.66254649559,607.66075012288,607.63642374849,607.63912857787,607.65476275765,607.65059641252,607.62640478467,607.6310744869,607.63760983081,607.6536322804,607.64965120872,607.63705516236,607.64214543919,607.6644927525,607.66286250955,607.63191250639,607.634117454,607.65860168002,607.65596975628,607.63760983081,607.62503939947,607.62808372903,607.65881290315,607.65747516963,607.64150357123,607.64404488201,607.65060052545,607.64512940449,607.62948354799,607.63540562016,607.64962604158,607.65381354432,607.65158173935,607.64057762715,607.6441956482,607.65154340138,607.6461010782,607.63541492525,607.6415811458,607.64962604158,607.65038013201,607.65038013201,607.66296430389,607.66296430389,-0.01709246063772,-0.00012446164683796,-0.016684532542095,-0.0059342290438105,0.0057550923088087,0.059990473348687,-0.034192292925934,0.00025963446555529,0.0017015707378648,0.00035805688754287,0.0049809088907041,-0.30345035346829,-1.0342310777228e-05,-0.00031105021685505,0.007089261805669,-0.14583526049056,-0.00083947195031051,0.0086043571556421,0.055953076427085,-0.052869057258066,-0.0015228105436431,0.0012624572570383,0.00023624973124674,-0.086296464295266,0.014345009070263,-0.23357331759689,0.0017451817853079,0.029324728825513,-0.011022116397091,-0.00069748321452813,0.0010441180742569,0.003845766640522,0.00079220569547976,-0.20059276901884,-0.0024874272114496,-0.00071068617274399,0.015016569561186,-0.045288808606997,-0.0001557899167265,-0.00014375753469875,0.0016475260480438,-0.22526715211374,-0.00096284091915928,-0.00068552853126139,-0.011048250542565,-0.00071640152411415,0.0039171994448806,0.0053697423645668,732.17133957912,732.17133957912,732.1542184503,732.1542184503,732.18957212358,732.18777575087,732.16344937648,732.16615420586,732.18178838564,732.1776220405,732.15343041266,732.15810011489,732.1646354588,732.18065790839,732.17667683671,732.16408079035,732.16917106718,732.19151838049,732.18988813754,732.15893813438,732.16114308198,732.18562730801,732.18299538427,732.1646354588,732.15206502746,732.15510935702,732.18583853114,732.18450079762,732.16852919922,732.17107051,732.17762615344,732.17215503248,732.15650917597,732.16243124814,732.17665166957,732.18083917231,732.17860736733,732.16760325514,732.17122127619,732.17856902936,732.17312670619,732.16244055324,732.16860677379,732.17665166957,732.17740575999,732.17740575999,732.18998993188,732.18998993188,432.77691855529,1368.0464399984,353.33268997568,1644.4594535786,330.8566433964,0
3.65e-05,25573839.165593,2.5086307684322e-06,1.0833494220166e-05,2.2359032375314e-06,1.0013007615234,607.64238829245,607.64238829245,607.62447015043,607.62447015043,607.66172262735,607.65982663692,607.63435357545,607.63693806696,607.65342266129,607.64923145566,607.62383118186,607.6284201564,607.63572217864,607.65236546621,607.64830211478,607.63517319439,607.64014019335,607.66373705747,607.66204554595,607.62955278041,607.63167716868,607.6574883587,607.65482825579,607.63572217864,607.62232586489,607.62530644318,607.65784428444,607.65637448904,607.63973375585,607.64212648139,607.64902126926,607.64354095541,607.62712662765,607.63296877744,607.64828319443,607.65261888423,607.65026558168,607.63885114856,607.6423230657,607.65009917756,607.64461987656,607.63345419998,607.63952632322,607.64828319443,607.64887710291,607.64887710291,607.66212421418,607.66212421418,-0.017988024845968,-0.00013136677181323,-0.017573162408103,-0.0064396276768474,0.0060785949118657,0.062286484202174,-0.035758398568272,0.0002750869822971,0.001797694014803,0.00037633905023403,0.0052447089486909,-0.31908775654254,-1.0881745246061e-05,-0.00032864441347774,0.0074645595205154,-0.150652627429,-0.00088686062708473,0.0090903383790043,0.058074849792882,-0.05519362496034,-0.0016047752630867,0.0013320529441988,0.00024985194095803,-0.08938360260181,0.015103684905402,-0.24551907525662,0.0018431436614102,0.030408893613241,-0.01153817552096,-0.00073422267596796,0.0011033085819946,0.0040039785006206,0.00083439031374621,-0.21100008904798,-0.0026046298673058,-0.00075086268922717,0.015813840254706,-0.046737177271301,-0.00016455549598407,-0.00015154704826552,0.0017347323015372,-0.23296005943145,-0.0010171716709627,-0.00072030449868752,-0.011639531931644,-0.00073031922821448,0.0041400941477842,0.0055059365870516,732.16966630673,732.16966630673,732.15174816471,732.15174816471,732.18900064163,732.18710465119,732.16163158973,732.16421608124,732.18070067557,732.17650946993,732.15110919613,732.15569817067,732.16300019292,732.17964348048,732.17558012906,732.16245120867,732.16741820762,732.19101507174,732.18932356022,732.15683079468,732.15895518296,732.18476637298,732.18210627007,732.16300019292,732.14960387917,732.15258445746,732.18512229872,732.18365250332,732.16701177013,732.16940449567,732.17629928354,732.17081896969,732.15440464193,732.16024679172,732.1755612087,732.17989689851,732.17754359596,732.16612916284,732.16960107997,732.17737719184,732.17189789084,732.16073221426,732.16680433749,732.1755612087,732.17615511719,732.17615511719,732.18940222845,732.18940222845,433.79711184279,1370.5951490959,355.90750409849,1646.894459842,332.45710399343,0
3.66e-05,25672424.42233,2.5155007976948e-06,1.0863181019372e-05,2.2423490832738e-06,1.0013220278252,607.64036519205,607.64036519205,607.62161876896,607.62161876896,607.66086443349,607.65886474641,607.63219611894,607.63463954441,607.65201624916,607.64781132109,607.62114687542,607.62563181721,607.63376279655,607.65104302431,607.64690223087,607.63322135003,607.63803626926,607.66294858018,607.66119498992,607.62708876215,607.62911742008,607.65632160163,607.65363909666,607.63376279655,607.61949094236,607.62239147846,607.65683707468,607.65522644523,607.63789297317,607.64011412955,607.64736256508,607.64189004255,607.62467268889,607.63040758769,607.64688958689,607.65137594991,607.648896389,607.63706055029,607.64036012699,607.64858667855,607.64308451488,607.63142034007,607.63736890405,607.64688958689,607.64730499872,607.64730499872,607.66124725117,607.66124725117,-0.018925376251412,-0.00013863347937005,-0.018503774539195,-0.0069811438957784,0.0064191920063648,0.064636883362458,-0.037378404864724,0.00029142993205932,0.0018989449621048,0.00039553043904018,0.0055209960949229,-0.33543975320122,-1.1445440296584e-05,-0.00034718307046528,0.0078575535799219,-0.15559589384692,-0.00093678089272562,0.0096022201126451,0.060244510277004,-0.057591509150207,-0.0016906629578699,0.0014052633696008,0.00026420459187059,-0.092560805966935,0.015898008640954,-0.2580023620151,0.0019462780739231,0.031515926907305,-0.01207269634591,-0.00077268237835341,0.0011656650574924,0.0041681213179893,0.00087860115073953,-0.22188829279378,-0.0027269959388404,-0.00079319385405714,0.016648938182545,-0.048222685064501,-0.00017378943787488,-0.00015972161646905,0.0018260465906457,-0.24086196802766,-0.0010744011447435,-0.00075659827318813,-0.012259327424238,-0.00074347490543479,0.0043750231260257,0.0056389851466506,732.16790777049,732.16790777049,732.1491613474,732.1491613474,732.18840701193,732.18640732485,732.15973869738,732.16218212285,732.1795588276,732.17535389953,732.14868945386,732.15317439564,732.16130537499,732.17858560275,732.17444480931,732.16076392846,732.1655788477,732.19049115861,732.18873756835,732.15463134059,732.15665999852,732.18386418007,732.1811816751,732.16130537499,732.1470335208,732.1499340569,732.18437965312,732.18276902366,732.16543555161,732.16765670799,732.17490514352,732.16943262099,732.15221526733,732.15795016612,732.17443216533,732.17891852835,732.17643896744,732.16460312873,732.16790270543,732.17612925699,732.17062709332,732.15896291851,732.16491148249,732.17443216533,732.17484757716,732.17484757716,732.18878982961,732.18878982961,434.78631962669,1373.0772253251,358.50604240759,1649.2898741785,334.07330026399,0
3.67e-05,25771417.896056,2.5223713741906e-06,1.089286804362e-05,2.2488119514404e-06,1.0013433395676,607.63824027665,607.63824027665,607.61863334855,607.61863334855,607.65997073419,607.65786319191,607.62994821598,607.63222840582,607.65054063813,607.64633414809,607.61834769765,607.62270352227,607.63172941172,607.64966276775,607.64545000965,607.63119747026,607.63582938573,607.66212615301,607.66030976902,607.62451644802,607.62643312762,607.6550991832,607.65240062412,607.63172941172,607.61652986197,607.61933284153,607.65579000027,607.65402937421,607.63597881586,607.63800386402,607.64562088015,607.64017461529,607.62211827123,607.6277164638,607.64544362517,607.65008303543,607.64747238221,607.63520385194,607.63830301364,607.64700300789,607.64149340656,607.62931107404,607.63510435451,607.64544362517,607.64566110179,607.64566110179,607.66033208297,607.66033208297,-0.019906050127607,-0.00014627951737186,-0.019477955890352,-0.0075606255692022,0.0067777209277214,0.06704137164042,-0.039053030350513,0.00030871274245526,0.0020055799622421,0.00041567533690311,0.0058102624856504,-0.35253185429336,-1.2034199117937e-05,-0.00036671415437629,0.0082689422723323,-0.16066762120076,-0.00098936016444237,0.010141291287719,0.062461496217974,-0.060063243822289,-0.0017806213661218,0.0014822661844262,0.00027934730808576,-0.095830053583701,0.016729346448335,-0.27104167586218,0.0020548390340379,0.032645504862849,-0.012625961724819,-0.00081292998141835,0.0012313458227035,0.0043383994084506,0.00092492129564495,-0.23327490991445,-0.0028547203569148,-0.00083778891426125,0.0175233801162,-0.049746137487471,-0.00018351546909902,-0.0001682975863908,0.0019216299868025,-0.24897714020758,-0.0011346748098797,-0.00079446185396618,-0.012908823691889,-0.00075578050503167,0.0046225992833215,0.0057682750356917,732.16606007841,732.16606007841,732.14645315031,732.14645315031,732.18779053595,732.18568299367,732.15776801774,732.16004820758,732.17836043989,732.17415394985,732.14616749941,732.15052332403,732.15954921348,732.17748256951,732.17326981141,732.15901727202,732.16364918749,732.18994595477,732.18812957078,732.15233624978,732.15425292938,732.18291898496,732.18022042588,732.15954921348,732.14434966374,732.14715264329,732.18360980203,732.18184917597,732.16379861762,732.16582366578,732.17344068191,732.16799441705,732.149938073,732.15553626556,732.17326342693,732.17790283719,732.17529218397,732.1630236537,732.1661228154,732.17482280965,732.16931320832,732.1571308758,732.16292415628,732.17326342693,732.17348090356,732.17348090356,732.18815188473,732.18815188473,435.74713316808,1375.4908092089,361.12748399902,1651.6463446236,335.70513672122,0
3.68e-05,25870814.944468,2.5292425459159e-06,1.0922555298333e-05,2.2552925416728e-06,1.0013646955734,607.63600901944,607.63600901944,607.61550839198,607.61550839198,607.65904032012,607.65682068636,607.62760661844,607.62969989905,607.64899284683,607.64479802872,607.61542935999,607.61962912162,607.62961969735,607.64822243963,607.64394386954,607.62909934664,607.63351511709,607.66126857795,607.65938878849,607.62183171888,607.62361904771,607.65381880541,607.65111114028,607.62961969735,607.61343770996,607.61612433923,607.65470175706,607.65278157041,607.63398881701,607.63579159658,607.64379255866,607.63839257238,607.61945981923,607.62488962486,607.64394367893,607.64873838633,607.64599173735,607.63327902802,607.63614778232,607.6453451706,607.63984493184,607.62712407785,607.63272798452,607.64394367893,607.64394261349,607.64394261349,607.65937734202,607.65937734202,-0.020931605894807,-0.00015432345955679,-0.020497322968319,-0.0081799503927508,0.0071550558738608,0.069499570018202,-0.04078293868279,0.0003269874142951,0.0021178672559019,0.00043682006427484,0.0061130127718123,-0.37038995600174,-1.2648830108049e-05,-0.00038728792162105,0.008699444312275,-0.16587031777882,-0.001044731862804,0.010708899394431,0.064725150426433,-0.062609267829277,-0.0018748001954148,0.0015632473644502,0.00029532169728498,-0.099193303299488,0.017599095040683,-0.28465573708104,0.0021690918669035,0.033797264676374,-0.01319823634264,-0.00085503527167466,0.0013005164698223,0.0045150220809451,0.00097343623416852,-0.24517775813741,-0.0029880016612626,-0.00088476231851862,0.018438729854038,-0.051308323235003,-0.00019375845181356,-0.00017729180851372,0.0020216480616567,-0.25730976226904,-0.0011981449493684,-0.00083394855016492,-0.013589248216129,-0.00076714431812403,0.0048834645899125,0.0058931565614198,732.16411918917,732.16411918917,732.14361856172,732.14361856172,732.18715048986,732.18493085609,732.15571678818,732.15781006878,732.17710301656,732.17290819845,732.14353952973,732.14773929135,732.15772986708,732.17633260936,732.17205403928,732.15720951638,732.16162528683,732.18937874768,732.18749895823,732.14994188862,732.15172921744,732.18192897514,732.17922131002,732.15772986708,732.1415478797,732.14423450897,732.18281192679,732.18089174015,732.16209898674,732.16390176632,732.1719027284,732.16650274211,732.14756998896,732.1529997946,732.17205384867,732.17684855606,732.17410190709,732.16138919776,732.16425795206,732.17345534033,732.16795510158,732.15523424759,732.16083815426,732.17205384867,732.17205278323,732.17205278323,732.18748751176,732.18748751176,436.6821125001,1377.8341028161,363.77100093052,1653.9645290795,337.35250917627,0
3.69e-05,25970611.460902,2.5361143631368e-06,1.0952242788971e-05,2.261791570719e-06,1.0013860947843,607.63366673788,607.63366673788,607.61223823283,607.61223823283,607.65807195224,607.65573591488,607.6251679931,607.62704912265,607.64736979419,607.64320100761,607.61238745264,607.61640225978,607.62743127303,607.64671971238,607.64238219481,607.62692472178,607.63108889132,607.66037462619,607.65843093103,607.61903033963,607.62066977204,607.65247809679,607.64976890376,607.62743127303,607.6102094279,607.61275957627,607.65357101034,607.65148128637,607.63192045042,607.63347311184,607.64187381987,607.63654176192,607.61669368236,607.62192109343,607.6423880816,607.64734019937,607.64445258549,607.63128400841,607.63389036331,607.64361007182,607.63813743809,607.62485697545,607.63023494557,607.6423880816,607.6421466533,607.6421466533,607.65838162459,607.65838162459,-0.022003624771027,-0.00016278472591844,-0.021563519910067,-0.0088410202096124,0.0075521092109579,0.072011017422453,-0.04256873658176,0.00034630863214557,0.0022360874259242,0.00045901307628717,0.006429763850956,-0.38904030679138,-1.3290145523206e-05,-0.00040895701757019,0.009149799380447,-0.17120643262522,-0.0011030356370838,0.011306452723091,0.067034717229968,-0.065229923366587,-0.0019733507852964,0.0016484015816465,0.00031217144032352,-0.10265248954437,0.018508680672283,-0.298863460901,0.0022893136252137,0.034970804067906,-0.013789765771503,-0.00089907025722653,0.0013733501427445,0.0046982038672494,0.0010242338252539,-0.2576149209711,-0.0031270418063278,-0.00093423393696547,0.019396599730899,-0.052910012199193,-0.00020454441922276,-0.00018672163814406,0.0021262709728507,-0.26586393600198,-0.0012649709005211,-0.00087511300642085,-0.014301870872324,-0.00077747093529605,0.005158291303563,0.0060129423960298,732.16208092191,732.16208092191,732.14065241686,732.14065241686,732.18648613627,732.18415009891,732.15358217713,732.15546330668,732.17578397822,732.17161519164,732.14080163667,732.14481644382,732.15584545706,732.17513389641,732.17079637884,732.15533890582,732.15950307535,732.18878881022,732.18684511506,732.14744452367,732.14908395607,732.18089228082,732.17818308779,732.15584545706,732.13862361193,732.1411737603,732.18198519437,732.1798954704,732.16033463445,732.16188729587,732.1702880039,732.16495594595,732.1451078664,732.15033527746,732.17080226563,732.1757543834,732.17286676952,732.15969819244,732.16230454734,732.17202425585,732.16655162212,732.15327115948,732.1586491296,732.17080226563,732.17056083733,732.17056083733,732.18679580862,732.18679580862,437.59378430146,1380.1053775315,366.43576084425,1656.2450927698,339.01530521269,0
3.7e-05,26070803.871085,2.5429868777293e-06,1.0981930521014e-05,2.2683097722353e-06,1.0014075362595,607.63120859163,607.63120859163,607.60881703425,607.60881703425,607.65706436157,607.65460753465,607.62262892179,607.62427102446,607.64566829805,607.64154108176,607.60921744426,607.6130163735,607.62516170504,607.64515218706,607.64076333564,607.62467128998,607.62854598837,607.65944303781,607.65743505662,607.61610795901,607.6175797262,607.65107461136,607.64837212929,607.62516170504,607.60683981213,607.60923195319,607.65239639483,607.65012673236,607.62977113101,607.63104406599,607.63986075643,607.63461998135,607.61381611512,607.61880469315,607.64077513073,607.64588662232,607.64285301246,607.62921667896,607.63152655912,607.64179451566,607.63636924007,607.62250733929,607.62762022881,607.64077513073,607.64027025812,607.64027025812,607.6573434903,607.6573434903,-0.023123707150737,-0.00017168365835012,-0.022678216229724,-0.0095457546482652,0.007969832785536,0.074575169408077,-0.044410972076002,0.00036673388368183,0.0023605339123493,0.00048230506617932,0.0067610445285136,-0.40850947101957,-1.3958959355276e-05,-0.0004317765819433,0.0096207684580435,-0.17667835057315,-0.0011644176804643,0.011935422641323,0.069389340387432,-0.067925455103588,-0.0020764257046175,0.0017379325975488,0.00032994238486751,-0.10620952206279,0.019459557896138,-0.31368392781001,0.0024157935012394,0.036165681242483,-0.01440077564909,-0.00094510924976966,0.0014500278388401,0.0048881648080334,0.0010774042614185,-0.27060472292287,-0.0032720459498142,-0.0009863293016308,0.020398651742595,-0.054551953860917,-0.00021590064114957,-0.00019660493712491,0.0022356734964645,-0.2746436718444,-0.0013353194315096,-0.00091801130143942,-0.015048005309414,-0.00078666122064387,0.0054477832279525,0.0061269067369397,732.15994097621,732.15994097621,732.13754941883,732.13754941883,732.18579674615,732.18333991923,732.15136130637,732.15300340904,732.17440068263,732.17027346634,732.13794982884,732.14174875808,732.15389408962,732.17388457164,732.16949572022,732.15340367456,732.15727837295,732.18817542239,732.1861674412,732.14484034359,732.14631211078,732.17980699594,732.17710451387,732.15389408962,732.13557219671,732.13796433777,732.18112877941,732.17885911694,732.15850351559,732.15977645057,732.16859314101,732.16335236593,732.1425484997,732.14753707773,732.16950751531,732.1746190069,732.17158539704,732.15794906353,732.1602589437,732.17052690024,732.16510162465,732.15123972387,732.15635261339,732.16950751531,732.1690026427,732.1690026427,732.18607587488,732.18607587488,438.48463786145,1382.3029814372,369.12092951469,1658.488705725,340.69340465845,0
3.71e-05,26171389.129078,2.5498601438981e-06,1.1011618499977e-05,2.274847896354e-06,1.0014290191729,607.6286295808,607.6286295808,607.60523878811,607.60523878811,607.65601624898,607.65343417463,607.6199859017,607.62136040039,607.64388507388,607.63981620039,607.60591468197,607.60946468966,607.62280850678,607.64351739276,607.63908560827,607.62233669785,607.62588153861,607.65847252135,607.65640000231,607.61306010951,607.61434316843,607.64960582767,607.64691898743,607.62280850678,607.60332351333,607.60553466466,607.65117651469,607.64871607618,607.62753821524,607.62849998574,607.6377493328,607.63262497751,607.61082327717,607.61553404664,607.63910308834,607.64437575376,607.64119105875,607.62707488208,607.62905204327,607.63989520404,607.63453862025,607.62007269099,607.62487866331,607.63910308834,607.63831038159,607.63831038159,607.65626146164,607.65626146164,-0.02429346970481,-0.00018104156858431,-0.023843104471022,-0.010296084126093,0.0084092192967804,0.077191397562821,-0.046310133211271,0.00038832357364183,0.0024915135277698,0.00050674907453868,0.0071073951386755,-0.42882428916717,-1.4656085574005e-05,-0.00045580435837501,0.010113134274284,-0.18228838872597,-0.0012290309975861,0.012597346011979,0.071788061730542,-0.070696010179085,-0.0021841783388149,0.0018320536661782,0.00034868264336527,-0.1098662857295,0.020453208235064,-0.32913635159639,0.0025488332473078,0.037381415231422,-0.015031470987296,-0.00099322895571929,0.0015307387021425,0.0050851308041727,0.0011330400206293,-0.28416570215665,-0.0034232222417828,-0.0010411798568407,0.021446598889231,-0.056234876149953,-0.0002278556715896,-0.00020696007410345,0.0023500350878614,-0.28365288433292,-0.0014093650432098,-0.0009627010470486,-0.015829010459599,-0.00079461229836273,0.0057526770536248,0.0062342846058998,732.15769491279,732.15769491279,732.13430412009,732.13430412009,732.18508158096,732.18249950661,732.14905123368,732.15042573237,732.17295040586,732.16888153237,732.13498001396,732.13853002164,732.15187383877,732.17258272474,732.16815094025,732.15140202984,732.1549468706,732.18753785334,732.1854653343,732.14212544149,732.14340850042,732.17867115966,732.17598431941,732.15187383877,732.13238884531,732.13459999665,732.18024184667,732.17778140817,732.15660354722,732.15756531773,732.16681466479,732.1616903095,732.13988860915,732.14459937862,732.16816842032,732.17344108575,732.17025639073,732.15614021407,732.15811737526,732.16896053603,732.16360395223,732.14913802298,732.15394399529,732.16816842032,732.16737571357,732.16737571357,732.18532679362,732.18532679362,439.35712181299,1384.425346521,371.82567314083,1660.6960404828,342.38668002705,0
3.72e-05,26272364.711808,2.5567342170884e-06,1.1041306731375e-05,2.2814067094245e-06,1.0014505428106,607.6259245443,607.6259245443,607.60149731428,607.60149731428,607.65492628499,607.65221443537,607.61723534569,607.61831189342,607.64201673364,607.63802426477,607.60247439141,607.6057402236,607.62036913922,607.64181278605,607.63734729507,607.61991854507,607.62309052163,607.65746175346,607.65532458196,607.60988220744,607.6109541887,607.64806914789,607.64540760418,607.62036913922,607.59965503641,607.60166069803,607.64990994351,607.64724744285,607.62521900167,607.62583626742,607.63553538395,607.63055444671,607.60771123365,607.61210257368,607.63737018135,607.64280564301,607.63946471937,607.62485641745,607.6264623593,607.63790873582,607.63264382909,607.61755050202,607.6220049146,607.63737018135,607.63626389349,607.63626389349,607.65513402345,607.65513402345,-0.025514542251188,-0.00019088078163717,-0.025059897307029,-0.011093942399675,0.0088713037605373,0.079858988969879,-0.048266647063851,0.00041114115076052,0.0026293470011167,0.00053240060397933,0.0074693670001971,-0.45001183574844,-1.5382334510625e-05,-0.00048110080744823,0.010627701710728,-0.1880387938114,-0.0012970356968371,0.013293827707892,0.074229819908246,-0.073541638784886,-0.0022967623667772,0.0019309879540111,0.00036844269313313,-0.11362464105556,0.021491138417313,-0.34524004586401,0.0026887476506631,0.038617486294269,-0.015682035579634,-0.0010435085933685,0.0016156803420002,0.0052893340195846,0.0011912357882828,-0.29831658129582,-0.0035807815559914,-0.0010989232126084,0.022542206594507,-0.057959484583109,-0.00024043940396642,-0.00021780592407311,0.0024695399029174,-0.29289538888644,-0.0014872902937405,-0.0010092414864646,-0.016646292253904,-0.00080121754086567,0.0060737437269506,0.0063342712153719,732.15533812877,732.15533812877,732.13091089875,732.13091089875,732.18433986946,732.18162801984,732.14664893016,732.14772547789,732.17143031811,732.16743784924,732.13188797588,732.13515380807,732.14978272369,732.17122637052,732.16676087954,732.14933212954,732.1525041061,732.18687533793,732.18473816643,732.13929579191,732.14036777317,732.17748273236,732.17482118865,732.14978272369,732.12906862088,732.1310742825,732.17932352798,732.17666102732,732.15463258614,732.15524985189,732.16494896842,732.15996803118,732.13712481812,732.14151615814,732.16678376582,732.17221922748,732.16887830384,732.15427000191,732.15587594377,732.16732232029,732.16205741355,732.14696408649,732.15141849906,732.16678376582,732.16567747796,732.16567747796,732.18454760792,732.18454760792,440.21363831267,1386.4709953683,374.5491604979,1662.8677698235,344.09499687968,0
3.73e-05,26373728.612981,2.5636091549692e-06,1.1070995220737e-05,2.2879869933727e-06,1.0014721065683,607.62308815854,607.62308815854,607.59758626031,607.59758626031,607.65379310955,607.65094688876,607.61437358286,607.61511999287,607.64005978478,607.6361631281,607.59889167701,607.60183577775,607.61784101136,607.64003575058,607.63554664464,607.61741438505,607.62016776509,607.65640937848,607.65420758591,607.60656955329,607.60740670797,607.64646189699,607.64383606068,607.61784101136,607.59582874054,607.59760283224,607.6485952243,607.6457189143,607.6228107315,607.62304817619,607.63321461411,607.62840603482,607.60447595565,607.60850348967,607.63557460196,607.64117429,607.63767194373,607.6225590426,607.62375291988,607.63583160592,607.63068308531,607.61493819436,607.61899348341,607.63557460196,607.6341275793,607.6341275793,607.65395962245,607.65395962245,-0.026788564274134,-0.00020122468941708,-0.026330324737038,-0.011941258519675,0.0093571649185916,0.082577146372755,-0.050280879047166,0.00043525322385768,0.0027743695397222,0.00055931774127856,0.0078475218492395,-0.47209937311425,-1.6138511941076e-05,-0.0005077291720798,0.011165298387694,-0.19393174121229,-0.0013685993034549,0.014026543102793,0.076713449829672,-0.076462295373369,-0.0024143312810179,0.002034968986851,0.00038927547969329,-0.1174864260244,0.022574878595567,-0.36201438786228,0.0028358649753067,0.039873336701182,-0.016352631495757,-0.0010960300208644,0.0017050591520259,0.0055010133669838,0.0012520883737759,-0.31307623505858,-0.0037449372680213,-0.0011597033066771,0.023687294428871,-0.059726461996197,-0.00025368314034432,-0.00022916185437629,0.0025943768862125,-0.30237490128391,-0.0015692861407438,-0.0010576935508189,-0.017501305529972,-0.00080636657129881,0.0064117898470783,0.0064260214695419,732.15286590043,732.15286590043,732.12736400219,732.12736400219,732.18357085144,732.18072463065,732.14415132475,732.14489773476,732.16983752667,732.16594086999,732.1286694189,732.13161351964,732.14761875325,732.16981349246,732.16532438653,732.14719212694,732.14994550697,732.18618712037,732.1839853278,732.13634729517,732.13718444986,732.17623963888,732.17361380257,732.14761875325,732.12560648243,732.12738057413,732.17837296619,732.17549665619,732.15258847339,732.15282591808,732.162992356,732.15818377671,732.13425369753,732.13828123155,732.16535234384,732.17095203189,732.16744968561,732.15233678449,732.15353066176,732.1656093478,732.1604608272,732.14471593624,732.1487712253,732.16535234384,732.16390532118,732.16390532118,732.18373736433,732.18373736433,441.05654071761,1388.4385473624,377.29056525534,1665.0045649683,345.81821436497,0
3.74e-05,26475479.335385,2.570485016689e-06,1.1100683973582e-05,2.2945895455289e-06,1.0014937099478,607.62011493637,607.62011493637,607.59349910127,607.59349910127,607.65261533176,607.64963007769,607.61139685911,607.61177903383,607.63801062935,607.63423059537,607.59516152247,607.59774394059,607.61522148073,607.63818359666,607.63368187186,607.61482172576,607.61710794392,607.65531400804,607.65304778064,607.60311733202,607.60369447777,607.644781322,607.64220239284,607.61522148073,607.59183883942,607.59335363709,607.64723086949,607.64412852912,607.62031058921,607.62013084556,607.63078259583,607.62617733738,607.60111332067,607.6047298045,607.63371450802,607.63947964521,607.63581063546,607.62018047369,607.62091900613,607.6336602047,607.62865457616,607.61223314127,607.61583870475,607.63371450802,607.63189813974,607.63189813974,607.65273666666,607.65273666666,-0.028117181176684,-0.00021209780482146,-0.027656130766519,-0.012839948057015,0.0098679266688695,0.08534498989762,-0.052353133039482,0.00046072967266217,0.0029269313992944,0.00058756128261318,0.0082424311234242,-0.49511430206434,-1.6925418425508e-05,-0.0005357556166127,0.011726775178372,-0.19996933530009,-0.0014438970313684,0.014797240628548,0.07923768364055,-0.079457841226059,-0.0025370378068878,0.0021442411103489,0.00041123652424509,-0.12145345870508,0.023705980189731,-0.3794787801722,0.0029905274143442,0.041148372299553,-0.017043398844312,-0.0011508778649391,0.00179909063132,0.0057204150357658,0.00131569659796,-0.32846365546445,-0.0039159049471107,-0.0012236707144495,0.024883737645106,-0.061536468636529,-0.00026761961714818,-0.00024104772644549,0.0027247398503132,-0.31209503906695,-0.0016555522632394,-0.0011081200169655,-0.018395555800131,-0.00080994527728531,0.0067676591166669,0.0065086497256517,732.15027334408,732.15027334408,732.12365750898,732.12365750898,732.18277373948,732.17978848541,732.14155526682,732.14193744155,732.16816903706,732.16438900309,732.12531993019,732.12790234831,732.14537988844,732.16834200438,732.16384027958,732.14498013348,732.14726635164,732.18547241576,732.18320618835,732.13327573974,732.13385288549,732.17493972972,732.17236080056,732.14537988844,732.12199724714,732.12351204481,732.17738927721,732.17428693684,732.15046899693,732.15028925328,732.16094100355,732.1563357451,732.13127172839,732.13488821222,732.16387291574,732.16963805293,732.16596904318,732.15033888141,732.15107741385,732.16381861242,732.15881298388,732.14239154898,732.14599711247,732.16387291574,732.16205654746,732.16205654746,732.18289507438,732.18289507438,441.88812707142,1390.3267248957,380.04906753131,1667.1070937537,347.55618538505,0
3.75e-05,26577615.882047,2.5773618631797e-06,1.113037299544e-05,2.301215177493e-06,1.001515352554,607.61699922625,607.61699922625,607.58922913994,607.58922913994,607.65139152961,607.64826251573,607.60830133774,607.60828319691,607.63586556324,607.63222442318,607.59127879136,607.59345708602,607.61250785386,607.63625356103,607.63175115791,607.61213803041,607.6139055798,607.65417422057,607.65184390836,607.59952061377,607.59981108003,607.64302459134,607.64050459103,607.61250785386,607.5876794018,607.58890547284,607.64581536082,607.64247428221,607.61771570318,607.617079277,607.62823476918,607.62386589965,607.59761911336,607.60077432178,607.63178802343,607.63771960966,607.63387865235,607.61771838613,607.61795576722,607.63139081746,607.62655645757,607.60943266798,607.6125347472,607.63178802343,607.62957219049,607.62957219049,607.65146352493,607.65146352493,-0.029502040210703,-0.00022352582362879,-0.029039069903114,-0.013791903885671,0.010404759509403,0.088161558225544,-0.054483651551304,0.00048764377869601,0.0030873984786829,0.00061719486393365,0.0086546751352562,-0.51908410912955,-1.7743845349435e-05,-0.00056524944476018,0.012313006691601,-0.20615361089119,-0.0015231121330079,0.015607744377015,0.081801151191029,-0.082528047256967,-0.0026650332829935,0.0022590599603064,0.0004343840323216,-0.12552754101743,0.0248860134783,-0.39765261031389,0.0031530915330856,0.042441963854632,-0.017754455557556,-0.0012081396598733,0.0018979997204467,0.0059477930917893,0.001382161159888,-0.34449791433897,-0.0040939020968848,-0.0012909831301581,0.026133468857741,-0.063390142617965,-0.00028228309002493,-0.00025348391128079,0.0028608275028102,-0.32205932496152,-0.0017462974420942,-0.0011605857814945,-0.019330601248463,-0.00081183583917026,0.0071422338214844,0.0065812294700552,732.14755544384,732.14755544384,732.11978535754,732.11978535754,732.1819477472,732.17881873333,732.13885755534,732.1388394145,732.16642178084,732.16278064078,732.12183500895,732.12401330362,732.14306407146,732.16680977863,732.16230737551,732.142694248,732.14446179739,732.18473043816,732.18240012595,732.13007683136,732.13036729763,732.17358080894,732.17106080862,732.14306407146,732.1182356194,732.11946169043,732.17637157842,732.17303049981,732.14827192078,732.1476354946,732.15879098677,732.15442211725,732.12817533095,732.13133053937,732.16234424103,732.16827582725,732.16443486995,732.14827460372,732.14851198482,732.16194703505,732.15711267516,732.13998888558,732.14309096479,732.16234424103,732.16012840809,732.16012840809,732.18201974253,732.18201974253,442.71063560491,1392.134358559,382.82385593782,1669.1760192915,349.30875713025,0
3.76e-05,26680137.745844,2.5842397564635e-06,1.116006229182e-05,2.3078647151001e-06,1.0015370340913,607.61373521182,607.61373521182,607.5847695073,607.5847695073,607.65012024964,607.64684268672,607.60508310032,607.60462650817,607.6336207757,607.63014231961,607.58723822787,607.58896737315,607.6096973868,607.63424280663,607.62975265022,607.60936071819,607.61055504076,607.65298856087,607.65059468653,607.59577435451,607.59574992723,607.64118879427,607.63874059964,607.6096973868,607.58334435222,607.58425049022,607.64434714931,607.6407541245,607.61502314636,607.61388833982,607.62556644121,607.62146921673,607.59398902614,607.59662963836,607.62979323848,607.63589203486,607.63187380612,607.61517041524,607.61485822007,607.62901962404,607.62438685429,607.60653405243,607.60907561251,607.62979323848,607.62714626195,607.62714626195,607.65013852633,607.65013852633,-0.030944786134687,-0.00023553569864127,-0.030480903383416,-0.014798986499432,0.010968881859537,0.091025811610103,-0.056672616515095,0.00051607235236369,0.0032561529316484,0.0006482850977481,0.0090848421287297,-0.54403631088144,-1.8594572836995e-05,-0.00059628317118885,0.012924891773663,-0.21248653586202,-0.0016064362649293,0.016459956539036,0.084402382287664,-0.08567259781045,-0.0027984669910078,0.0023796929658404,0.00045877900370824,-0.12971046314802,0.026116564929454,-0.41655520849937,0.0033239286764836,0.043753449332752,-0.018485897377508,-0.0012679059878972,0.0020020211392668,0.0061834101310208,0.0014515844792982,-0.36119812346015,-0.0042791478482342,-0.0013618055399379,0.027438479693343,-0.065288100767459,-0.00029770940312452,-0.0002664912718252,0.003002843495886,-0.33227119189905,-0.0018417399740964,-0.0012151579498692,-0.020308054685595,-0.00081191676781886,0.0075364362680228,0.0066427933214571,732.14470701084,732.14470701084,732.11574130633,732.11574130633,732.18109204866,732.17781448574,732.13605489934,732.13559830719,732.16459257472,732.16111411864,732.11821002689,732.11993917218,732.14066918583,732.16521460565,732.16072444924,732.14033251721,732.14152683978,732.18396035989,732.18156648555,732.12674615354,732.12672172625,732.17216059329,732.16971239866,732.14066918583,732.11431615124,732.11522228924,732.17531894834,732.17172592352,732.14599494538,732.14486013885,732.15653824023,732.15244101575,732.12496082516,732.12760143738,732.1607650375,732.16686383388,732.16284560514,732.14614221427,732.1458300191,732.15999142306,732.15535865331,732.13750585146,732.14004741154,732.1607650375,732.15811806097,732.15811806097,732.18111032535,732.18111032535,443.5262386996,1393.8603915951,385.61412882813,1671.2119978928,351.07577117498,0
3.77e-05,26783044.897781,2.5911187605178e-06,1.1189751868223e-05,2.3145389973457e-06,1.001558754359,607.61031691167,607.61031691167,607.58011316327,607.58011316327,607.64880000664,607.64536904425,607.60173814741,607.60080283943,607.63127234882,607.62798194401,607.58303445777,607.58426674646,607.60678728549,607.63214842247,607.62768446235,607.60648716495,607.60705054122,607.65175553957,607.64929880729,607.59187339701,607.59150426283,607.63927094032,607.63690831674,607.60678728549,607.57882747191,607.57938063086,607.6428246551,607.63896596254,607.6122299369,607.61055277124,607.62277278563,607.61898473356,607.59021866008,607.59228814443,607.62772821013,607.63399472282,607.62979386225,607.61253415689,607.61162124934,607.6265426987,607.62214385993,607.60353452589,607.60545513562,607.62772821013,607.62461679908,607.62461679908,607.64875995954,607.64875995954,-0.032447056540921,-0.00024815570438237,-0.031983394735115,-0.015863013719949,0.011561561718505,0.093936634942392,-0.058920150695841,0.00054609585103107,0.0034335937722269,0.00068090171252277,0.0095335270898184,-0.56999839461187,-1.9478366603965e-05,-0.00062893265831295,0.013563354033573,-0.21897001535228,-0.0016940698056892,0.017355860429259,0.087039809021201,-0.088891095502511,-0.0029374854073349,0.0025064198461501,0.00048448535388361,-0.13400400937581,0.027399233885121,-0.43620580309524,0.003503425480833,0.045082136223364,-0.019237798073474,-0.0013302706459951,0.0021113997118093,0.0064275380033738,0.00152407049734,-0.3785833918119,-0.0044718626231678,-0.0014363105410796,0.028800822601733,-0.067230939909851,-0.000313936039819,-0.00028009115706397,0.003150996463885,-0.34273399082192,-0.0019421080278337,-0.0012719060643402,-0.021329585713505,-0.00081006294088816,0.0079512305017604,0.0066923330037587,732.14172269811,732.14172269811,732.11151894971,732.11151894971,732.18020579308,732.17677483069,732.13314393385,732.13220862587,732.16267813525,732.15938773045,732.11444024421,732.1156725329,732.13819307192,732.16355420891,732.15909024878,732.13789295139,732.13845632766,732.18316132601,732.18070459372,732.12327918345,732.12291004927,732.17067672676,732.16831410318,732.13819307192,732.11023325835,732.11078641729,732.17423044154,732.17037174898,732.14363572334,732.14195855767,732.15417857207,732.15039051999,732.12162444652,732.12369393087,732.15913399656,732.16540050925,732.16119964869,732.14393994332,732.14302703577,732.15794848513,732.15354964636,732.13494031233,732.13686092206,732.15913399656,732.15602258551,732.15602258551,732.18016574598,732.18016574598,444.33703771116,1395.5038847058,388.4190961812,1673.2156790509,352.85706403674,0
3.78e-05,26886337.773678,2.5979989398673e-06,1.1219441730111e-05,2.3212388758612e-06,1.001580513248,607.60673817958,607.60673817958,607.57525289783,607.57525289783,607.64742928319,607.64384001117,607.59826239952,607.59680590874,607.62881625738,607.62574090675,607.57866198952,607.57934693646,607.60377470619,607.62996742364,607.62554467382,607.60351470388,607.60338614224,607.65047363257,607.64795493677,607.58781247185,607.58706716203,607.63726795898,607.63500559364,607.60377470619,607.57412240007,607.57428762811,607.64124626726,607.63710765814,607.60933303888,607.60706717665,607.61984884276,607.61640984494,607.5863035258,607.58774202391,607.62559096225,607.63202542603,607.6276365398,607.609807168,607.60823960759,607.62395601007,607.61982553692,607.60043127361,607.60166698484,607.62559096225,607.62198016134,607.62198016134,607.64732607229,607.64732607229,-0.034010476873245,-0.00026141550948097,-0.033548305810833,-0.016985750080307,0.012184118093586,0.096892842740483,-0.061226319229154,0.00057779849168596,0.0036201375283033,0.00071511769793156,0.010001330639048,-0.5969977553847,-2.0395976044421e-05,-0.00066327725184956,0.01422934256286,-0.22560589634138,-0.0017862222321695,0.018297523130583,0.089711769899932,-0.092183066352171,-0.0030822314807183,0.0026395331238655,0.00051157003089621,-0.13840996423099,0.028735629596284,-0.45662347370739,0.0036919843212125,0.0464273048916,-0.020010209666956,-0.0013953308467331,0.0022263907433426,0.0066804585746464,0.0015997244808109,-0.39667278004956,-0.0046722678002345,-0.0015146786449292,0.030222613085579,-0.06921923829041,-0.00033100220155915,-0.00029430539426925,0.0033055001098151,-0.35345099905855,-0.00204764006449,-0.0013309022489012,-0.022396923237399,-0.00080614571807069,0.0083876238686564,0.0067287996137798,732.13859703097,732.13859703097,732.10711174922,732.10711174922,732.17928813458,732.17569886256,732.13012125091,732.12866476012,732.16067510877,732.15759975814,732.11052084091,732.11120578785,732.13563355757,732.16182627503,732.15740352521,732.13537355527,732.13524499363,732.18233248395,732.17981378816,732.11967132324,732.11892601342,732.16912681037,732.16686444503,732.13563355757,732.10598125145,732.1061464795,732.17310511865,732.16896650953,732.14119189027,732.13892602803,732.15170769414,732.14826869633,732.11816237719,732.1196008753,732.15744981364,732.16388427742,732.15949539118,732.14166601939,732.14009845898,732.15581486146,732.1516843883,732.132290125,732.13352583623,732.15744981364,732.15383901273,732.15383901273,732.17918492368,732.17918492368,445.14505691598,1397.0640187707,391.23798061665,1675.1877034805,354.65246737488,0
3.79e-05,26990017.259512,2.6048803606929e-06,1.1249131882942e-05,2.3279652140055e-06,1.0016023107355,607.60299270498,607.60299270498,607.57018133242,607.57018133242,607.64600652924,607.64225397889,607.59465169803,607.5926292812,607.62624836877,607.62341676897,607.57411521548,607.57419946079,607.60065675581,607.62769675131,607.62333132981,607.60044062602,607.59955575207,607.64914128041,607.64656171441,607.58358619864,607.58243153288,607.63517669931,607.63303023436,607.60065675581,607.5692226352,607.56896300836,607.63961034355,607.63517702792,607.60632936289,607.60342603017,607.61678951969,607.61374189549,607.58223904439,607.58298325538,607.62337948586,607.62998184751,607.62539951105,607.60698696714,607.60470791577,607.62125542138,607.61742991634,607.5972214354,607.59770466254,607.62337948586,607.61923262275,607.61923262275,607.64583507059,607.64583507059,-0.035636655152793,-0.00027534625149184,-0.03517739168397,-0.018168895824147,0.012837922368054,0.0998931835906,-0.063591131793877,0.00061126835912954,0.0038162188792551,0.00075100944231193,0.010488857494231,-0.6250616303945,-2.13481309519e-05,-0.00069939993763381,0.014923832409819,-0.23239597386942,-0.0018831124441562,0.019287098028944,0.092416513585048,-0.095547965937971,-0.0032328437901213,0.0027793386677052,0.00054010311813273,-0.14293011942843,0.030127367115498,-0.47782710285969,0.0038900237358637,0.047788211580694,-0.020803162906599,-0.001463187407006,0.0023472603539063,0.0069424644970239,0.0016786527544819,-0.4154852526068,-0.0048805853340546,-0.0015970986397051,0.031706031485028,-0.07125355749149,-0.00034894884358026,-0.00030915628346702,0.0034665732228501,-0.36442543108955,-0.0021585852133653,-0.0013922214777354,-0.02351185771723,-0.00080003294159636,0.0088466684553249,0.0067511039044468,732.13532437892,732.13532437892,732.10251300635,732.10251300635,732.17833820317,732.17458565282,732.12698337196,732.12496095513,732.1585800427,732.1557484429,732.10644688941,732.10653113472,732.13298842975,732.16002842525,732.15566300375,732.13277229995,732.131887426,732.18147295435,732.17889338835,732.11591787258,732.11476320681,732.16750837324,732.16536190829,732.13298842975,732.10155430914,732.1012946823,732.17194201748,732.16750870185,732.13866103682,732.1357577041,732.14912119362,732.14607356943,732.11457071832,732.11531492931,732.15571115979,732.16231352144,732.15773118499,732.13931864107,732.13703958971,732.15358709531,732.14976159027,732.12955310933,732.13003633648,732.15571115979,732.15156429669,732.15156429669,732.17816674452,732.17816674452,446.45417879961,1398.5400980325,394.07001855497,1677.12870242,356.46180801534,0
3.8e-05,27094084.674885,2.6117630898337e-06,1.127882233212e-05,2.334718886195e-06,1.0016241468805,607.59907401388,607.59907401388,607.56489092174,607.56489092174,607.64453016157,607.64060930664,607.59090180621,607.58826637013,607.62356444312,607.62100704221,607.56938841335,607.56881562584,607.59743049221,607.62533327291,607.6210424408,607.59726218082,607.59555312705,607.64775688768,607.64511775201,607.57918908745,607.57759011767,607.63299392977,607.63097999515,607.59743049221,607.56412153688,607.56339809276,607.63791521012,607.63317184281,607.6032157667,607.59962367539,607.61358959081,607.61097817954,607.57802054847,607.57800361345,607.62109173915,607.62786164074,607.62308040126,607.60407103487,607.60102066384,607.61843669079,607.61495499765,607.59390210608,607.59356150613,607.62109173915,607.61637037197,607.61637037197,607.64428511809,607.64428511809,-0.03732717641909,-0.00028998062903856,-0.036872395681304,-0.019414075451747,0.013524399915953,0.10293634592492,-0.066014545316837,0.00064659752681158,0.0040222913259834,0.00078865688262997,0.010996714901121,-0.65421703023908,-2.2335539043275e-05,-0.00073738748456203,0.015647825164651,-0.23934199771953,-0.0019849692165492,0.020326828002487,0.095152203795326,-0.098985186393698,-0.0033894556767675,0.002926156255963,0.00057015798828991,-0.14756628167996,0.031576063213241,-0.49983532574294,0.0040979788926788,0.049164092171,-0.021616667931925,-0.0015339449441903,0.0024742858345073,0.0072138600583444,0.0017609624200044,-0.43503962733066,-0.005097037381262,-0.0016837679189855,0.033253324965674,-0.07333444444685,-0.00036781878134816,-0.0003246665877158,0.0036344397282302,-0.3756604504348,-0.0022752037644154,-0.0014559418179883,-0.024676243560055,-0.00079158901318668,0.0093294631216221,0.0067581166596174,732.13189896475,732.13189896475,732.09771587261,732.09771587261,732.17735511244,732.17343425751,732.12372675708,732.121091321,732.15638939399,732.15383199308,732.10221336422,732.10164057671,732.13025544308,732.15815822378,732.15386739167,732.13008713169,732.12837807792,732.18058183855,732.17794270288,732.11201403832,732.11041506854,732.16581888064,732.16380494602,732.13025544308,732.09694648775,732.09622304363,732.17074016099,732.16599679368,732.13604071757,732.13244862626,732.14641454168,732.14380313041,732.11084549934,732.11082856432,732.15391669002,732.16068659161,732.15590535213,732.13689598574,732.13384561471,732.15126164166,732.14777994852,732.12672705695,732.126386457,732.15391669002,732.14919532284,732.14919532284,732.17711006896,732.17711006896,451.59312234306,1399.9315525135,396.91446138695,1679.0392977289,358.28490855036,0
3.81e-05,27198541.755134,2.6186471952945e-06,1.1308513083041e-05,2.3415007766354e-06,1.0016460218186,607.59497547015,607.59497547015,607.55937395583,607.55937395583,607.64299856323,607.63890432066,607.58700841032,607.58371043846,607.62076013365,607.61850918807,607.56447574775,607.56318652888,607.59409292437,607.62287378234,607.61867598202,607.59397657657,607.59137187285,607.64631882221,607.64362163283,607.57461554025,607.5725354948,607.63071633809,607.62885258391,607.59409292437,607.55881232758,607.55758399948,607.63615916116,607.6310898275,607.59998905586,607.5956543264,607.61024369852,607.60811594093,607.57364328331,607.57279467068,607.61872564761,607.62566240974,607.62067678825,607.60105681413,607.59717221173,607.615495472,607.61239874827,607.59047033596,607.58923068944,607.61872564761,607.6133895125,607.6133895125,607.64267433528,607.64267433528,-0.039083596824743,-0.00030535298366567,-0.038635044033724,-0.020722825972029,0.014245031357605,0.10602096541688,-0.068496466948484,0.00068388214168147,0.004238828028249,0.00082814364949049,0.011525510873366,-0.68449066630014,-2.3358882743413e-05,-0.00077733060026197,0.016402349531089,-0.24644567989609,-0.0020920315847949,0.021419047944785,0.097916925733074,-0.10249406388686,-0.0035521943646064,0.0030803203156244,0.00060181141325055,-0.1523202809698,0.033083331841533,-0.52266647758782,0.004316301942458,0.050554166727944,-0.022450715019824,-0.0016077121052244,0.0026077560762968,0.0074949620463875,0.0018467610389428,-0.45535452201292,-0.0053218458947707,-0.001774892848038,0.034866809612036,-0.07546243367053,-0.00038765675654421,-0.00034085952268655,0.0038093287149919,-0.38715918278174,-0.0023977675998145,-0.0015221447050563,-0.025892001699454,-0.00078067499106832,0.0098371550295698,0.0067486692419362,732.1283148434,732.1283148434,732.09271332909,732.09271332909,732.17633793649,732.17224369392,732.12034778358,732.11704981172,732.15409950691,732.15184856133,732.09781512101,732.09652590214,732.12743229763,732.1562131556,732.15201535528,732.12731594983,732.12471124611,732.17965819547,732.17696100609,732.10795491351,732.10587486806,732.16405571135,732.16219195717,732.12743229763,732.09215170084,732.09092337274,732.16949853442,732.16442920076,732.13332842912,732.12899369966,732.14358307178,732.14145531419,732.10698265657,732.10613404394,732.15206502087,732.159001783,732.1540161615,732.13439618739,732.13051158499,732.14883484526,732.14573812153,732.12380970922,732.1225700627,732.15206502087,732.14672888576,732.14672888576,732.17601370854,732.17601370854,456.62747798048,1401.2379389747,399.77057614552,1680.9201005869,360.12158731288,0
3.82e-05,27303390.631714,2.625532744231e-06,1.133820414105e-05,2.3483117786775e-06,1.0016679357564,607.59069027722,607.59069027722,607.55362256257,607.55362256257,607.64141008288,607.63713731323,607.58296712071,607.57895460053,607.61783098722,607.61592061774,607.55937127194,607.5573030607,607.59064101251,607.62031500028,607.61622989289,607.59058098069,607.58700544603,607.64482541436,607.64207191043,607.56985985272,607.56726008086,607.62834053126,607.62664565957,607.59064101251,607.55328809494,607.55151164646,607.63434045836,607.62892865986,607.59664598427,607.591512069,607.60674635435,607.60515237283,607.56910240798,607.56734779997,607.61627910389,607.623381709,607.61818620192,607.59794171052,607.59315679054,607.61242731502,607.60975910306,607.58692313112,607.58470522449,607.61627910389,607.61028606301,607.61028606301,607.64100079867,607.64100079867,-0.04090743752069,-0.00032149939696175,-0.040467040192914,-0.022096585062004,0.015001354239243,0.10914563107208,-0.07103675741718,0.00072322255272465,0.004466322411643,0.0008695572070073,0.012075852160997,-0.71590887601424,-2.4418817176437e-05,-0.00081932409457402,0.017188462176072,-0.2537087024351,-0.0022045492587894,0.022566187881872,0.1007086912844,-0.10607388658324,-0.0037211799741309,0.0032421804255077,0.00063514369822628,-0.15719397882622,0.034650779015672,-0.54633853987765,0.0045454625551562,0.051957643465226,-0.023305275508872,-0.0016846017914508,0.0027479718851312,0.0077861005942954,0.0019361562613012,-0.47644829913509,-0.0055552321995017,-0.0018706891385361,0.036548872978018,-0.077638049591645,-0.00040850951078182,-0.00035775874807648,0.0039914745428214,-0.39892472949083,-0.0025265606584679,-0.001590915236269,-0.027161122356175,-0.0007671486507556,0.010370941499523,0.0067215540239524,732.12456594791,732.12456594791,732.08749823326,732.08749823326,732.17528575358,732.17101298393,732.11684279141,732.11283027123,732.15170665791,732.14979628844,732.09324694264,732.0911787314,732.1245166832,732.15419067098,732.15010556358,732.12445665139,732.12088111672,732.17870108506,732.17594758112,732.10373552342,732.10113575156,732.16221620196,732.16052133026,732.1245166832,732.08716376564,732.08538731716,732.16821612906,732.16280433056,732.13052165497,732.12538773969,732.14062202505,732.13902804353,732.10297807868,732.10122347066,732.15015477459,732.1572573797,732.15206187261,732.13181738121,732.12703246123,732.14630298572,732.14363477376,732.12079880181,732.11858089519,732.15015477459,732.1441617337,732.1441617337,732.17487646937,732.17487646937,461.55800176847,1402.458941801,402.63764627378,1682.7717110926,361.97165856579,0
3.83e-05,27408633.811149,2.6324198053709e-06,1.1367895511455e-05,2.3551527938185e-06,1.0016898889662,607.58621148019,607.58621148019,607.54762871052,607.54762871052,607.63976303409,607.63530654158,607.57877347301,607.57399182417,607.61477244505,607.61323869149,607.55406892976,607.55115590883,607.58707166814,607.61765357465,607.61370207625,607.58707252002,607.58244715594,607.64327495616,607.64046710747,607.56491621601,607.56175613326,607.62586303565,607.62435683134,607.58707166814,607.54754179414,607.54517175468,607.63245733048,607.62668597022,607.59318325474,607.58719086226,607.60309194028,607.6020846174,607.56439299658,607.56165417753,607.61374996773,607.62101704353,607.61560612381,607.59472309241,607.58896850399,607.60922766719,607.6070339636,607.58325745364,607.5799779637,607.61374996773,607.60705595765,607.60705595765,607.63926253994,607.63926253994,-0.042800178200529,-0.0003384577823777,-0.042370059064256,-0.023536678908732,0.015794964325401,0.11230889444994,-0.073635234958686,0.00076472336831921,0.0047052889327035,0.00091298899474298,0.012648342149603,-0.74849754468057,-2.5515966729074e-05,-0.00086346704920185,0.018007248236291,-0.26113272627032,-0.0023227829951717,0.023770775677444,0.10352544735017,-0.10972390354605,-0.0038965245919613,0.0034121019991056,0.00067023880742011,-0.16218927767781,0.036279997561526,-0.57086908457019,0.0047859482670759,0.053373724162936,-0.024180302891189,-0.0017647314190009,0.0028952463765742,0.0080876200832696,0.0020292554384032,-0.49833900773682,-0.0057974165793956,-0.0019713822468427,0.038301976111442,-0.079861809125429,-0.00043042582553126,-0.00037538835712755,0.0041811168496766,-0.41096018318453,-0.0026618793722535,-0.0016623425004103,-0.028485667673165,-0.00075086457555604,0.010932071737972,0.0066755254005496,732.12064606171,732.12064606171,732.08206329203,732.08206329203,732.1741976156,732.16974112309,732.11320805453,732.10842640568,732.14920702656,732.147673273,732.08850351127,732.08559049034,732.12150624965,732.15208815616,732.14813665776,732.12150710153,732.11688173745,732.17770953767,732.17490168898,732.09935079752,732.09619071477,732.16029761717,732.15879141285,732.12150624965,732.08197637565,732.07960633619,732.16689191199,732.16112055174,732.12761783625,732.12162544377,732.13752652179,732.13651919891,732.09882757809,732.09608875904,732.14818454924,732.15545162505,732.15004070532,732.12915767392,732.1234030855,732.1436622487,732.14146854511,732.11769203515,732.11441254521,732.14818454924,732.14149053916,732.14149053916,732.17369712145,732.17369712145,466.3855471833,1403.5943728389,405.51497247636,1684.5947191366,363.83493298852,0
3.84e-05,27514274.152217,2.639308446587e-06,1.1397587199538e-05,2.3620247304146e-06,1.0017118817795,607.58153196841,607.58153196841,607.5413842122,607.5413842122,607.63805569452,607.63341022672,607.57442292937,607.56881493317,607.61157984377,607.61046071807,607.54856255767,607.54473556137,607.583381754,607.61488608108,607.61109039751,607.58344828095,607.57769016711,607.64166570037,607.63880571435,607.55977871886,607.5560157531,607.62328029718,607.62198365806,607.583381754,607.54156625063,607.53855485198,607.63050797264,607.62435934068,607.58959751947,607.58268454033,607.59927471049,607.5989097654,607.55951003955,607.55570478643,607.61113606566,607.61856586884,607.61293398644,607.59139829106,607.58460133023,607.60589187437,607.60422119735,607.57947022179,607.57504160253,607.61113606566,607.60369504663,607.60369504663,607.63745754497,607.63745754497,-0.044763250465978,-0.0003562679926052,-0.044345740718764,-0.025044309946122,0.016627516981721,0.11550927712047,-0.076291679332627,0.00080849355297042,0.0049562638165932,0.00095853455610109,0.013243578441167,-0.78228202501878,-2.6650922423823e-05,-0.00090986298809742,0.018859821861761,-0.26871939959326,-0.0024470051168275,0.02503543989733,0.10636508198237,-0.1134433336843,-0.0040783312376341,0.003590466875632,0.00070718449466145,-0.16730812939612,0.037972561134503,-0.59627521701749,0.0050382648638729,0.054801608858392,-0.025075734001524,-0.0018482231481481,0.0030499053487238,0.008399879972874,0.0021261651739752,-0.52104432346989,-0.0060486178245217,-0.0020772077698127,0.040128655577206,-0.082134224119471,-0.00045345665129206,-0.00039377286658971,0.0043785005773379,-0.42326864215814,-0.0028040332161069,-0.0017365199174547,-0.029867774250946,-0.00073167422001797,0.011521848665749,0.0066092998713884,732.11654882982,732.11654882982,732.07640107361,732.07640107361,732.17307255593,732.16842708813,732.10943979078,732.10383179458,732.14659670518,732.14547757948,732.08357941908,732.07975242278,732.11839861541,732.14990294249,732.14610725892,732.11846514236,732.11270702852,732.17668256178,732.17382257576,732.09479558027,732.09103261451,732.15829715859,732.15700051947,732.11839861541,732.07658311204,732.07357171339,732.16552483405,732.15937620209,732.12461438088,732.11770140175,732.1342915719,732.13392662681,732.09452690096,732.09072164784,732.14615292707,732.15358273025,732.14795084785,732.12641515247,732.11961819164,732.14090873578,732.13923805876,732.1144870832,732.11005846395,732.14615292707,732.13871190804,732.13871190804,732.17247440638,732.17247440638,471.11105766659,1404.6441710882,408.40187281973,1686.3897026847,365.7112174005,0
3.85e-05,27620314.841965,2.6461987360196e-06,1.1427279210516e-05,2.3689285029288e-06,1.001733914581,607.57664447845,607.57664447845,607.53488072768,607.53488072768,607.63628630504,607.63144655211,607.56991087972,607.56341661009,607.60824841658,607.60758395409,607.54284588703,607.53803231134,607.57956808392,607.61200902357,607.60839268363,607.57970530946,607.57272750186,607.63999585955,607.63708618769,607.55444134975,607.5500308886,607.62058868168,607.61952364728,607.57956808392,607.53535416318,607.53165127746,607.62849054569,607.62194630423,607.58588538053,607.57798681449,607.59528879337,607.59562485572,607.55444844504,607.54949042071,607.60843519073,607.61602559087,607.61016717273,607.58796460055,607.58004912382,607.60241518245,607.60131863671,607.57555831001,607.56988868255,607.60843519073,607.6001990967,607.6001990967,607.63558375288,607.63558375288,-0.04679803091136,-0.00037497192950928,-0.046395684151082,-0.02662054442614,0.017500728552214,0.11874527982031,-0.079005836416627,0.00085464646473149,0.0052198058235376,0.0010062936677251,0.013862150257864,-0.81728705428169,-2.7824239491034e-05,-0.00095862005749811,0.01974732697094,-0.27647036672855,-0.002577499964617,0.026362912719201,0.10922543232531,-0.11723137568547,-0.0042666929196768,0.0037776739978231,0.0007460724375128,-0.17255254446716,0.039730017909121,-0.6225735176752,0.0053029367504104,0.05624050130929,-0.02599149031989,-0.0019352041846486,0.0032122876587746,0.0087232556615774,0.0022269908377811,-0.54458148645857,-0.0063090527597233,-0.0021884118686068,0.042031525998178,-0.084455803835025,-0.00047765518436723,-0.00041293720606449,0.0045838760399896,-0.43585322601387,-0.0029533452132627,-0.0018135455961592,-0.0313096561572,-0.00070942597506344,0.012141630799369,0.0065215566984001,732.11226777254,732.11226777254,732.07050402177,732.07050402177,732.17190959913,732.1670698462,732.10553417381,732.09903990418,732.14387171067,732.14320724818,732.07846918112,732.07365560543,732.11519137801,732.14763231766,732.14401597772,732.11532860355,732.10835079594,732.17561915364,732.17270948178,732.09006464384,732.08565418269,732.15621197576,732.15514694137,732.11519137801,732.07097745726,732.06727457155,732.16411383978,732.15756959832,732.12150867462,732.11361010858,732.13091208746,732.1312481498,732.09007173913,732.0851137148,732.14405848482,732.15164888496,732.14579046682,732.12358789464,732.1156724179,732.13803847654,732.1369419308,732.1111816041,732.10551197664,732.14405848482,732.13582239078,732.13582239078,732.17120704697,732.17120704697,475.73554560153,1405.6084012293,411.29768329635,1688.1572288955,367.60031520937,0
3.86e-05,27726759.370151,2.6530907408277e-06,1.1456971549575e-05,2.3758650301031e-06,1.0017559878021,607.57154159762,607.57154159762,607.52810976871,607.52810976871,607.63445306885,607.62941366223,607.56523264318,607.55778939946,607.60477329473,607.60460560329,607.53691254659,607.53103626175,607.57562742257,607.60901883521,607.60560672199,607.57584061107,607.56755204341,607.638263605,607.63530694871,607.54889799935,607.54379333882,607.61778447531,607.61697425449,607.57562742257,607.52889810708,607.52445118642,607.62640317539,607.61944434394,607.58204339031,607.5730912755,607.59112819397,607.59222687488,607.54920304038,607.54300169007,607.60564510201,607.61339356607,607.6073030152,607.58441927767,607.57530561813,607.59879273903,607.59832407779,607.5715185489,607.56451159497,607.60564510201,607.59656379186,607.59656379186,607.63363905497,607.63363905497,-0.048905833965057,-0.00039461365636624,-0.048521440293176,-0.028266300311478,0.018416377657854,0.12201539214412,-0.081777422714115,0.00090329993492065,0.0054964970260329,0.0010563704617855,0.014504635656522,-0.85353666811469,-2.9036434347253e-05,-0.0010098512124172,0.020670937914097,-0.28438727713103,-0.0027145643538569,0.02775603272572,0.11210429324342,-0.12108721746878,-0.004461691448593,0.0039741401216986,0.00078699836561207,-0.17792460114235,0.041553883766569,-0.64977998179842,0.0055805072903968,0.057689614659565,-0.02692747938654,-0.0020258070536105,0.0033827456017436,0.009058139329398,0.0023318360436446,-0.56896723667241,-0.0065789357916489,-0.0023052517073404,0.044013282401182,-0.086827057449945,-0.00050307693717234,-0.00043290670791695,0.0047974989661769,-0.44871709149456,-0.0031101524507706,-0.0018935227318632,-0.032813607734563,-0.00068396522299025,0.012792834071143,0.0064109388265655,732.10779626018,732.10779626018,732.06436443127,732.06436443127,732.17070773141,732.16566832479,732.10148730574,732.09404406202,732.1410279573,732.14086026586,732.07316720915,732.06729092431,732.11188208513,732.14527349778,732.14186138456,732.11209527363,732.10380670598,732.17451826756,732.17156161128,732.08515266192,732.08004800139,732.15403913787,732.15322891705,732.11188208513,732.06515276965,732.06070584898,732.16265783795,732.15569900651,732.11829805287,732.10934593807,732.12738285653,732.12848153744,732.08545770295,732.07925635263,732.14189976457,732.14964822863,732.14355767776,732.12067394024,732.1115602807,732.1350474016,732.13457874036,732.10777321146,732.10076625754,732.14189976457,732.13281845443,732.13281845443,732.16989371754,732.16989371754,480.26008827277,1406.4872514658,414.2017582568,1689.8978536679,369.5020265059,0
3.87e-05,27833611.502189,2.659984526644e-06,1.1486664221872e-05,2.3828352344291e-06,1.0017781019144,607.56621576788,607.56621576788,607.52106270315,607.52106270315,607.63255415035,607.62730966098,607.56038346942,607.55192571132,607.60114950923,607.60152281578,607.53075606505,607.52373733118,607.57155648515,607.60591187903,607.60273025916,607.57185115066,607.56215653944,607.63646706562,607.63346638145,607.5431424631,607.53729475794,607.61486388519,607.6143328821,607.57155648515,607.52219053783,607.51694455592,607.62424395151,607.61685089193,607.57806805188,607.56799139632,607.58678679665,607.58871275639,607.5437685736,607.53622902525,607.60276352412,607.6106671013,607.6043387952,607.58075954167,607.57036442803,607.59501959538,607.59523527919,607.56734772503,607.55890258466,607.60276352412,607.59278473419,607.59278473419,607.63162129362,607.63162129362,-0.051087904639925,-0.00041523951369427,-0.050724505291029,-0.02998233465685,0.019376306547235,0.12531810120635,-0.084606130702592,0.00095457628881947,0.0057869436270972,0.0011088735196892,0.015171598508134,-0.89105411397552,-3.0287982317757e-05,-0.0010636744025004,0.021631860111314,-0.29247179302525,-0.0028585080581036,0.029217747892846,0.11499942434584,-0.1250100471525,-0.0046633964352245,0.0041803005071966,0.00083006219684648,-0.18342645307503,0.043445635082551,-0.67790995929581,0.0058715391388222,0.059148176720899,-0.027883596433815,-0.0021201699025365,0.0035616453029065,0.0094049406275251,0.0024408020755726,-0.59421774861873,-0.0068584784322448,-0.0024279958940707,0.046076702518147,-0.089248496152534,-0.00052977982390585,-0.00045370709662475,0.005019630542202,-0.46186344585307,-0.003274806614527,-0.001976560018421,-0.034382006454167,-0.00065513436773303,0.013476933814862,0.0062760528894623,732.10312752234,732.10312752234,732.0579744576,732.0579744576,732.16946590481,732.16422141543,732.09729522388,732.08883746577,732.13806126368,732.13843457024,732.06766781951,732.06064908564,732.1084682396,732.14282363349,732.13964201361,732.10876290512,732.0990682939,732.17337882007,732.1703781359,732.08005421756,732.07420651239,732.15177563965,732.15124463655,732.1084682396,732.05910229228,732.05385631037,732.16115570597,732.15376264639,732.11497980633,732.10490315078,732.1236985511,732.12562451085,732.08068032806,732.0731407797,732.13967527858,732.14757885576,732.14125054966,732.11767129612,732.10727618249,732.13193134984,732.13214703365,732.10425947949,732.09581433912,732.13967527858,732.12969648864,732.12969648864,732.16853304808,732.16853304808,488.56251304654,1407.2810312826,417.11347019784,1691.6121220327,371.41614816983,0
3.88e-05,27940875.251087,2.6668801587686e-06,1.151635723252e-05,2.3898400405821e-06,1.0018002574224,607.56065929037,607.56065929037,607.51373075996,607.51373075996,607.63058767416,607.62513261002,607.55535854019,607.54581782522,607.59737199278,607.59833268717,607.52436987401,607.51612526014,607.567351937,607.60268444896,607.59976099944,607.56773385228,607.55653360591,607.63460432677,607.63156283081,607.53716844397,607.53052665982,607.61182304006,607.61159687852,607.567351937,607.51522379496,607.50912119098,607.62201092693,607.61416332841,607.57395581939,607.56268053502,607.58225836828,607.5850793801,607.53813971505,607.52916268399,607.59978814659,607.60784345389,607.60127174209,607.57698257392,607.56521905282,607.59109070866,607.5920499605,607.56304258074,607.55305375465,607.59978814659,607.58885744464,607.58885744464,607.62952826112,607.62952826112,-0.053345411074016,-0.00043689824789221,-0.053006313343236,-0.031769231580422,0.020382422294104,0.12865190200887,-0.087491633876724,0.001008602363268,0.0060917767588653,0.0011639159698759,0.015863585271139,-0.9298617620398,-3.1579315140684e-05,-0.0011202127740597,0.022631330730303,-0.30072559814504,-0.0030096543287259,0.030751118364429,0.1179085589234,-0.12899906331581,-0.0048718642072121,0.0043966096382963,0.00087536816846224,-0.18906033802403,0.045406701011692,-0.70697809315714,0.0061766145229169,0.060615435966807,-0.028859725930974,-0.0022184368110374,0.0037493670913365,0.009764087431923,0.0025539872753626,-0.62034856402089,-0.0071478888132983,-0.0025569249625026,0.048224649155751,-0.091720635444041,-0.00055782425297053,-0.00047536448046337,0.0052505374651283,-0.47529556238352,-0.0034476745638059,-0.0020627720961411,-0.036017315784459,-0.00062277286029117,0.014195466667672,0.0061154698116277,732.09825471535,732.09825471535,732.05132618494,732.05132618494,732.16818309914,732.162728035,732.09295396517,732.0834132502,732.13496741777,732.13592811215,732.061965299,732.05372068513,732.10494736198,732.14027987395,732.13735642443,732.10532927727,732.09412903089,732.17219975175,732.16915825579,732.07476386895,732.0681220848,732.14941846504,732.1491923035,732.10494736198,732.05281921994,732.04671661596,732.15960635192,732.15175875339,732.11155124437,732.10027596001,732.11985379326,732.12267480508,732.07573514003,732.06675810897,732.13738357157,732.14543887887,732.13886716707,732.1145779989,732.1028144778,732.12868613364,732.12964538548,732.10063800572,732.09064917963,732.13738357157,732.12645286962,732.12645286962,732.1671236861,732.1671236861,497.43174848908,1407.9901683537,420.03221018876,1693.3005685768,373.34247419343,0
3.89e-05,28048554.848146,2.6737777005434e-06,1.1546050586597e-05,2.396880374017e-06,1.001822454857,607.55486433027,607.55486433027,607.50610503452,607.50610503452,607.62855172384,607.62288052691,607.55015297084,607.53945789455,607.59343558204,607.5950322577,607.517747311,607.508189618,607.56301039313,607.59933277095,607.59669660344,607.56348559877,607.55067573149,607.632673429,607.62959460053,607.53096955548,607.52348042322,607.60865799113,607.60876353709,607.56301039313,607.50799010634,607.50097073133,607.61970211658,607.61137898053,607.56970309843,607.55715193809,607.57753656171,607.58132357143,607.53231105913,607.52179275763,607.59671662315,607.60491983158,607.59809903224,607.57308551753,607.55986287957,607.58700094436,607.58876580073,607.55859981377,607.5469570711,607.59671662315,607.58477736413,607.58477736413,607.62735769845,607.62735769845,-0.055679436928032,-0.00045964113209583,-0.055368229942038,-0.033627390622808,0.021436697808714,0.13201530694112,-0.090433591629794,0.0010655094831573,0.0064116533260301,0.0012216155582453,0.016581121638671,-0.96998101406922,-3.2910818864878e-05,-0.0011795948660698,0.023670619395312,-0.30915040367715,-0.0031683403697719,0.032359318878797,0.12082941190278,-0.13305348485748,-0.0050871368425711,0.0046235419778997,0.00092302495031386,-0.19482858423102,0.047438455657264,-0.73699825681406,0.0064963354511712,0.062090667109222,-0.029855743127198,-0.0023207581200227,0.0039463058935066,0.010136026420531,0.0026714863955291,-0.64737452285894,-0.0074473712409174,-0.0026923318379093,0.050460072629514,-0.094243996612124,-0.00058727319422044,-0.00049790534223579,0.0054904920049459,-0.48901679131557,-0.0036291388645053,-0.0021522799911295,-0.037722088110205,-0.00058671719364232,0.014950032242247,0.005927725119093,732.09317085728,732.09317085728,732.04441156153,732.04441156153,732.16685825085,732.16118705393,732.08845949785,732.07776442156,732.13174210905,732.13333878472,732.05605383802,732.04649614501,732.10131692015,732.13763929796,732.13500313046,732.10179212578,732.08898225851,732.17097995601,732.16790112754,732.0692760825,732.06178695024,732.14696451814,732.14707006411,732.10131692015,732.04629663335,732.03927725834,732.15800864359,732.14968550754,732.10800962544,732.0954584651,732.11584308872,732.11963009844,732.07061758614,732.06009928465,732.13502315016,732.14322635859,732.13640555926,732.11139204454,732.09816940659,732.12530747137,732.12707232774,732.09690634079,732.08526359811,732.13502315016,732.12308389115,732.12308389115,732.16566422546,732.16566422546,506.23258456363,1408.6152045443,422.95738748878,1694.9637166671,375.28079518018,0
3.9e-05,28156654.712612,2.6806772130171e-06,1.157574428914e-05,2.4039571599338e-06,1.001844694768,607.54882292233,607.54882292233,607.49817649455,607.49817649455,607.62644434071,607.62055138321,607.54476181203,607.53283795132,607.58933502005,607.59161851132,607.51088162279,607.49991981059,607.5585284177,607.59585300415,607.59353468638,607.55910323136,607.54457528231,607.63067236676,607.62755995097,607.52453932495,607.5161472973,607.60536471309,607.60583009504,607.5585284177,607.5004815927,607.49248265888,607.6173154963,607.60849512127,607.56530624631,607.55139874402,607.5726149196,607.57744210064,607.52627712617,607.51410917843,607.59354657096,607.60189339261,607.59481778813,607.56906547683,607.5542891868,607.5827450791,607.58538043661,607.55401607693,607.54060436883,607.59354657096,607.58053985464,607.58053985464,607.62510729405,607.62510729405,-0.058090973752275,-0.00048352210274809,-0.057811544708281,-0.035557014498263,0.022541172983576,0.13540685470321,-0.093431655190075,0.0011254334212401,0.0067472568472394,0.00128209470456,0.017324708958034,-1.0114322124708,-3.4282831789003e-05,-0.0012419548206454,0.024751028844489,-0.31774795605127,-0.0033349178893708,0.034045641686269,0.12375968703904,-0.13717256249438,-0.005309241165726,0.0048615927295005,0.00097314578769811,-0.20073361779327,0.049542209687119,-0.76798349198814,0.0068313239211634,0.063573176405786,-0.030871515951879,-0.0024272907683,0.0041528716085698,0.010521223645399,0.0027933899094988,-0.67530969425008,-0.0077571257390128,-0.0028345223454511,0.052786013091417,-0.096819108680009,-0.00061819227972533,-0.00052135653196148,0.0057397720564723,-0.50303057369106,-0.0038195983918865,-0.0022452116222116,-0.039498967574236,-0.00054680086995532,0.015742295256647,0.005711318957644,732.08786881963,732.08786881963,732.03722239184,732.03722239184,732.16549023801,732.1595972805,732.08380770933,732.07188384862,732.12838091735,732.13066440861,732.04992752009,732.03896570789,732.097574315,732.13489890145,732.13258058368,732.09814912866,732.0836211796,732.16971826406,732.16660584827,732.06358522225,732.0551931946,732.14441061039,732.14487599234,732.097574315,732.03952749,732.03152855618,732.1563613936,732.14754101857,732.10435214361,732.09044464132,732.1116608169,732.11648799794,732.06532302346,732.05315507573,732.13259246826,732.14093928991,732.13386368543,732.10811137413,732.0933350841,732.1217909764,732.1244263339,732.09306197423,732.07965026612,732.13259246826,732.11958575194,732.11958575194,732.16415319135,732.16415319135,514.95990334059,1409.1567921778,425.8884298223,1696.6020799717,377.23089933031,0
3.91e-05,28265179.420795,2.6875787545488e-06,1.1605438345171e-05,2.4110713213666e-06,1.0018669777168,607.54252697683,607.54252697683,607.48993598634,607.48993598634,607.62426352256,607.61814310235,607.53918005143,607.52594991135,607.58506495905,607.58808837467,607.50376596893,607.49130508856,607.55390252343,607.59224124233,607.5902728164,607.55458354924,607.53822450717,607.62859908704,607.62545709683,607.51787119688,607.5085184077,607.60193910525,607.60279373232,607.55390252343,607.49269027261,607.48364630576,607.61484900172,607.6055089682,607.56076157246,607.54541398722,607.56748687873,607.57343168198,607.52003236436,607.50610172744,607.59027556974,607.59876124572,607.59142507727,607.56491951683,607.54849114845,607.57831780364,607.58189146072,607.5492879776,607.53398735727,607.59027556974,607.57614020045,607.57614020045,607.62277468247,607.62277468247,-0.060580913255664,-0.00050859790754842,-0.060337464225964,-0.037558097892688,0.023697955772465,0.13882512262424,-0.096485472818075,0.0011885143565535,0.0070992983086376,0.0013454805324432,0.018094820522152,-1.0542345475832,-3.569564261842e-05,-0.0013074325951657,0.025873895741629,-0.32652004271161,-0.0035097536871662,0.035813499367563,0.12669708740487,-0.14135558894248,-0.0055381877163186,0.0051112786198508,0.0010258486352239,-0.20677796824414,0.051719201719153,-0.79994594567335,0.0071822220924097,0.065062308447799,-0.031906906653234,-0.0025381986458653,0.0043694894809499,0.010920164946671,0.0029197832925793,-0.70416730595552,-0.0080773475994467,-0.002983815722255,0.055205603123201,-0.099446509722663,-0.00065064991095701,-0.00054574526088737,0.005998661235418,-0.5173404519199,-0.0040194689757494,-0.0023417023019691,-0.0413506930627,-0.00050285438079307,0.016573987585655,0.0054647165172416,732.0823413758,732.0823413758,732.02975038531,732.02975038531,732.16407792153,732.15795750132,732.0789944504,732.06576431032,732.12487935802,732.12790277364,732.0435803679,732.03111948753,732.09371692239,732.1320556413,732.13008721537,732.09439794821,732.07803890614,732.168413486,732.16527149579,732.05768559585,732.04833280667,732.14175350422,732.14260813129,732.09371692239,732.03250467157,732.02346070473,732.15466340068,732.14532336717,732.10057597143,732.08522838619,732.1073012777,732.11324608095,732.05984676332,732.04591612641,732.13008996871,732.13857564469,732.13123947624,732.1047339158,732.08830554741,732.11813220261,732.12170585969,732.08910237657,732.07380175623,732.13008996871,732.11595459942,732.11595459942,732.16258908144,732.16258908144,523.60866804751,1409.6156898419,428.82478305549,1698.2161625175,379.19257211721,0
3.92e-05,28374133.674402,2.6944823812448e-06,1.1635132759673e-05,2.4182237782468e-06,1.0018893042695,607.53596828605,607.53596828605,607.48137424162,607.48137424162,607.62200722222,607.61565355751,607.53340261558,607.51878557984,607.58061996348,607.58443871613,607.49639342558,607.48233455631,607.54912917099,607.58849351534,607.58690851272,607.549923309,607.53161554325,607.62645148791,607.62328420459,607.51095853669,607.50058476306,607.59837699277,607.59965157049,607.54912917099,607.48460806768,607.47445086307,607.61230052695,607.60241768224,607.55606533868,607.53919060229,607.56214577463,607.56928897283,607.51357115188,607.49776004316,607.58690116085,607.59552045022,607.58791791118,607.56064466256,607.54246183819,607.57371372612,607.57829641957,607.54441207726,607.527097627,607.58690116085,607.57157360955,607.57157360955,607.62035744304,607.62035744304,-0.06315003960978,-0.0005349282526964,-0.062947104564723,-0.039630416552614,0.024909223135936,0.14226873168472,-0.09959469489364,0.001254896788576,0.0074685168749816,0.001411904877002,0.018891897591762,-1.0984059650834,-3.7149489228816e-05,-0.0013761741808714,0.027040591389415,-0.33546849511965,-0.0036932302054997,0.03766642753457,0.12963931852241,-0.14560190880478,-0.0057739697382274,0.0053731385267771,0.0010812562853038,-0.21296427253506,0.053970589095652,-0.83289680745486,0.0075496923886445,0.066557449593068,-0.032961773449965,-0.0026536529567821,0.004596600395682,0.011333356259747,0.0030507462500863,-0.73395967388758,-0.0084082269322123,-0.0031405451466502,0.05772207008329,-0.1021267472537,-0.00068471734512359,-0.00057109909797193,0.0062674489602347,-0.53195007626492,-0.0042291840107445,-0.0024418952666666,-0.04328010097924,-0.00045470506848015,0.01744691030193,0.005186347202754,732.07658120162,732.07658120162,732.0219871572,732.0219871572,732.16262013779,732.15626647309,732.07401553116,732.05939849541,732.12123287905,732.1250516317,732.03700634115,732.02294747189,732.08974208656,732.12910643091,732.12752142829,732.09053622457,732.07222845882,732.16706440348,732.16389712016,732.05157145226,732.04119767863,732.13898990834,732.14026448606,732.08974208656,732.02522098325,732.01506377864,732.15291344252,732.14303059781,732.09667825426,732.07980351786,732.1027586902,732.1099018884,732.05418406745,732.03837295873,732.12751407642,732.13613336579,732.12853082675,732.10125757813,732.08307475376,732.1143266417,732.11890933515,732.08502499283,732.06771054257,732.12751407642,732.11218652513,732.11218652513,732.16097035862,732.16097035862,532.17394225541,1409.9927565079,431.76591088854,1699.8064581599,381.16559627059,0
3.93e-05,28483522.268194,2.7013881454994e-06,1.1664827537619e-05,2.4254154458803e-06,1.0019116749895,607.5291385313,607.5291385313,607.47248188482,607.47248188482,607.61967334618,607.61308056934,607.5274243719,607.5113366574,607.57599451328,607.58066634476,607.48875698956,607.47299718174,607.54420476841,607.58460579077,607.58343924371,607.54511922407,607.52474042221,607.62422741712,607.62103939005,607.50379463461,607.49233726199,607.59467412816,607.59640067154,607.54420476841,607.4762268083,607.46488539022,607.60966792333,607.5992183663,607.55121375955,607.53272142855,607.55658484657,607.56501057286,607.50688779918,607.48907363078,607.5834208463,607.59216801611,607.58429324425,607.55623789844,607.53619423419,607.56892737575,607.57459281151,607.53938489096,607.51992665677,607.5834208463,607.56683521516,607.56683521516,607.61785309849,607.61785309849,-0.065799021805854,-0.00056257593124506,-0.065641484845105,-0.041773516531825,0.02617722198027,0.14573635902979,-0.10275897955943,0.0013247294151255,0.0078556810527248,0.0014815042578788,0.019716345560877,-1.1439630738391,-3.8644555821627e-05,-0.0014483318274725,0.0282525224103,-0.34459519322116,-0.0038857461168174,0.039608087384206,0.13258409880973,-0.14991092922142,-0.006016562366647,0.0056477345609756,0.001139496483649,-0.21929527850377,0.056297439215861,-0.86684624747582,0.0079344176208108,0.068058034733599,-0.034035972331111,-0.002773832579496,0.004834661419698,0.011761323772963,0.0031863519591257,-0.76469813180132,-0.0087499482978431,-0.0033050582889381,0.060338738395068,-0.10486037917848,-0.00072046879959425,-0.00059744596716647,0.0065464305213187,-0.54686321275243,-0.0044491950919099,-0.0025459422326151,-0.045290127953208,-0.00040217706534883,0.018362935569953,0.0048746048272287,732.07058088072,732.07058088072,732.01392423424,732.01392423424,732.16111569561,732.15452291877,732.06886672132,732.05277900683,732.11743686271,732.12210869418,732.03019933899,732.01443953117,732.08564711783,732.1260481402,732.12488159314,732.0865615735,732.06618277163,732.16566976655,732.16248173948,732.04523698404,732.03377961142,732.13611647758,732.13784302096,732.08564711783,732.01766915772,732.00632773965,732.15111027276,732.14066071572,732.09265610898,732.07416377798,732.098027196,732.10645292228,732.0483301486,732.0305159802,732.12486319572,732.13361036554,732.12573559368,732.09768024787,732.07763658362,732.11036972518,732.11603516094,732.08082724038,732.0613690062,732.12486319572,732.10827756459,732.10827756459,732.15929544792,732.15929544792,540.65087921058,1410.2889475915,434.71129438288,1701.3734519271,383.14975219012,0
3.94e-05,28593350.057764,2.7082960958073e-06,1.1694522683957e-05,2.4326472329988e-06,1.00193409043,607.52202929044,607.52202929044,607.46324944081,607.46324944081,607.61725975313,607.61042190355,607.52124013072,607.50359474651,607.57118300752,607.5767680093,607.4808495827,607.46328180655,607.53912567039,607.58057397581,607.57986242497,607.54016796418,607.51759107675,607.62192467054,607.61872071559,607.49637270989,607.48376670062,607.59082619282,607.59303803671,607.53912567039,607.46753823963,607.45493882501,607.60694899806,607.59590806398,607.54620300275,607.52599921501,607.55079724309,607.56059302315,607.49997655137,607.48003187212,607.57983208775,607.58870090425,607.58054797269,607.55169616759,607.52968122409,607.56395320658,607.57077808463,607.53420288678,607.51246582105,607.57983208775,607.56192007739,607.56192007739,607.61525911353,607.61525911353,-0.068528406040662,-0.00059160698733613,-0.068421519595002,-0.043986704166971,0.027504269722615,0.14922674414912,-0.10597799766798,0.0013981649964973,0.008261589509484,0.0015544198267798,0.020568529696326,-1.1909210531682,-4.0180974044815e-05,-0.0015240642706575,0.029511131768112,-0.35390206674141,-0.0040877169163376,0.041642267878611,0.13552916373299,-0.15428212926359,-0.0062659216598483,0.0059356528520146,0.0012007020380896,-0.22577384723607,0.058700719687903,-0.90180335423614,0.0083371009319993,0.069563551098396,-0.03512935868329,-0.0028989244792814,0.0050841461164032,0.012204613995598,0.0033266662397687,-0.79639296057839,-0.0091026902981554,-0.0034777178720805,0.063059032404648,-0.10764797351623,-0.00075798153339282,-0.00062481414749582,0.0068359072610258,-0.56208374713528,-0.0046799726735333,-0.0026540039825839,-0.047383813885781,-0.00034509109657023,0.019324008476941,0.004527846839302,732.06433286792,732.06433286792,732.00555301829,732.00555301829,732.15956333061,732.15272548103,732.0635437082,732.04589832399,732.113486585,732.11907158678,732.02315316018,732.00558538403,732.08142924787,732.12287755328,732.12216600245,732.08247154166,732.05989465423,732.16422824802,732.16102429307,732.03867628737,732.0260702781,732.1331297703,732.13534161419,732.08142924787,732.00984181711,731.99724240249,732.14925257554,732.13821164146,732.08850658023,732.06830279249,732.09310082057,732.10289660063,732.04228012885,732.0223354496,732.12213566523,732.13100448173,732.12285155017,732.09399974507,732.07198480157,732.10625678406,732.11308166211,732.07650646426,732.05476939853,732.12213566523,732.10422365487,732.10422365487,732.15756269101,732.15756269101,549.03474799423,1410.5053087336,437.66043222157,1702.9176199777,385.14481793725,0
3.95e-05,28703621.927095,2.7152062767164e-06,1.1724218203633e-05,2.4399200407683e-06,1.0019565511273,607.51463204597,607.51463204597,607.45366734323,607.45366734323,607.61476425244,607.60767526847,607.51484464758,607.49555135837,607.56617976822,607.57274039716,607.47266405651,607.45317715733,607.53388817775,607.57639391911,607.57617541724,607.53506615474,607.51015934768,607.61954099063,607.61632618738,607.48868591525,607.47486378052,607.58682879886,607.58956060531,607.53388817775,607.45853402805,607.44459999426,607.60414151278,607.59248375819,607.5410291895,607.51901662554,607.54477602771,607.55603280535,607.49283159091,607.47062403623,607.57613230545,607.58511602654,607.57667893337,607.54701637108,607.52291561045,607.55878560171,607.56684963457,607.52886248533,607.50470639803,607.57613230545,607.55682318505,607.55682318505,607.61257289339,607.61257289339,-0.071338608290709,-0.00062209087155472,-0.071288013198378,-0.046269036348892,0.028892754939308,0.15273869820409,-0.10925143771897,0.0014753601308611,0.0086870719466391,0.0016307972741761,0.021448771241364,-1.23929356192,-4.1758820645426e-05,-0.0016035369647666,0.030817899555474,-0.3633910963565,-0.004299575523527,0.043772888134321,0.13847227286008,-0.15871506939,-0.006521984016677,0.0062375043465758,0.0012650109323377,-0.23240295408157,0.061181289774693,-0.93777607391434,0.0087584657325749,0.071073543419938,-0.036241788825658,-0.0030291241155079,0.0053455448905929,0.012663793636464,0.0034717467687725,-0.82905331878771,-0.0094666252932324,-0.0036589022473349,0.065886478776911,-0.110490108252,-0.00079733594866929,-0.00065323227585154,0.0071361866868917,-0.57761568782041,-0.0049220067226933,-0.0027662509488413,-0.049564304634999,-0.00028326432794941,0.020332149010888,0.0041443936052421,732.05782957591,732.05782957591,731.99686487316,731.99686487316,732.15796178238,732.1508727984,732.05804217751,732.03874888831,732.10937729816,732.1159379271,732.01586158645,731.99637468726,732.07708570768,732.11959144904,732.11937294718,732.07826368468,732.05335687761,732.16273852056,732.15952371732,732.03188344518,732.01806131045,732.13002632879,732.13275813525,732.07708570768,732.00173155798,731.98779752419,732.14733904272,732.13568128813,732.08422671944,732.06221415548,732.08797355764,732.09923033528,732.03602912084,732.01382156617,732.11932983539,732.12831355648,732.1198764633,732.09021390101,732.06611314038,732.10198313165,732.1100471645,732.07206001527,732.04790392796,732.11932983539,732.10002071499,732.10002071499,732.15577042333,732.15577042333,557.32093649513,1410.6429702616,440.61283969075,1704.4394296661,387.15056930393,0
3.96e-05,28814342.756573,2.7221187276742e-06,1.1753914101584e-05,2.4472347608957e-06,1.0019790575934,607.50693819351,607.50693819351,607.44372594322,607.44372594322,607.6121846026,607.60483831251,607.50823262557,607.4871979202,607.56097904456,607.56858013341,607.46419319708,607.44267185724,607.52848853679,607.57206141301,607.57237552437,607.52981037629,607.50243699132,607.61707406486,607.61385375253,607.48072734157,607.46561911717,607.58267749095,607.58596525357,607.52848853679,607.44920576795,607.43385762519,607.60124318221,607.58894236973,607.53568839501,607.51176624454,607.5385141852,607.55132634083,607.48544704034,607.46083929066,607.57231887717,607.58141024621,607.57268290272,607.54219536727,607.51589011645,607.55341887775,607.56280480225,607.52336005921,607.49663957824,607.57231887717,607.55153945765,607.55153945765,607.60979178244,607.60979178244,-0.074229907065606,-0.0006541006112597,-0.074241652839702,-0.048619311604992,0.030345137798758,0.15627111004766,-0.11257901056945,0.0015564750608535,0.0091329898974605,0.0017107866973358,0.022357343142665,-1.2890926484441,-4.337811731174e-05,-0.0016869223254365,0.032174343980931,-0.37306431272495,-0.0045217729579683,0.046003999457465,0.14141121371247,-0.16320940018715,-0.0067846653390187,0.00655392557324,0.0013325664238088,-0.23918568801571,0.06373989064905,-0.97477115050004,0.009199255578932,0.072587617479518,-0.037373121581267,-0.0031646358571605,0.0056193652891912,0.01313944931457,0.0036216422391696,-0.8626871740274,-0.0098419190674819,-0.0038490059948684,0.068824709180534,-0.11338737044735,-0.00083861570906486,-0.00068272935408387,0.0074475826540017,-0.59346316548227,-0.0051758074507655,-0.0028828638475266,-0.051834854792518,-0.00021651011366482,0.021389453867769,0.0037225273616367,732.05106333189,732.05106333189,731.9878510816,731.9878510816,732.15630974098,732.14896345089,732.05235776395,732.03132305858,732.10510418294,732.11270527179,732.00831833546,731.98679699562,732.07261367517,732.11618655139,732.11650066275,732.07393551467,732.0465621297,732.16119920324,732.15797889091,732.02485247995,732.00974425555,732.12680262932,732.13009039195,732.07261367517,731.99333090632,731.97798276357,732.14536832059,732.13306750811,732.07981353339,732.05589138292,732.08263932358,732.09545147921,732.02957217872,732.00496442904,732.11644401555,732.12553538459,732.1168080411,732.08632050565,732.06001525483,732.09754401613,732.10692994063,732.06748519759,732.04076471662,732.11644401555,732.09566459602,732.09566459602,732.15391692082,732.15391692082,565.50497101244,1413.3123565214,443.56804849809,1705.9393401261,389.16678000528,0
3.97e-05,28925517.391084,2.7290334830696e-06,1.1783610382746e-05,2.4545922743035e-06,1.0020016103096,607.49893905091,607.49893905091,607.4334155187,607.4334155187,607.6095185097,607.60190862158,607.5013987179,607.47852578291,607.55557501723,607.5642837798,607.45542973036,607.43175443847,607.5229229388,607.56757219578,607.56845999118,607.52439716395,607.49441568746,607.61452152416,607.61130129611,607.47249002294,607.45602324887,607.57836774843,607.58224879343,607.5229229388,607.43954498896,607.42270035738,607.59825167264,607.58528075587,607.53017664901,607.50424058277,607.53200462817,607.54646998996,607.47781696535,607.45066671332,607.5683891371,607.57758037814,607.56855659566,607.5372299711,607.50859739206,607.54784728949,607.55864087165,607.51769193254,607.48825647355,607.5683891371,607.54606374745,607.54606374745,607.60691306268,607.60691306268,-0.077202436442908,-0.00068771295618616,-0.077283003509033,-0.051036061658307,0.0318639505267,0.15982295327501,-0.11596045395062,0.0016416733804679,0.0096002377276144,0.0017945424216621,0.02329446609352,-1.3403286635806,-4.5038829694328e-05,-0.0017743999680701,0.033582022287854,-0.38292379389465,-0.0047547789239429,0.048339787618155,0.1443438064254,-0.16776487081893,-0.0070538606070956,0.0068855795697524,0.00140351714564,-0.24612524930792,0.0663771368281,-1.012794068223,0.009660233971803,0.074105444039876,-0.038523219707897,-0.0033056734062522,0.0059061324145611,0.013632187061902,0.0037763915548057,-0.89730123644779,-0.010228730673665,-0.0040484405267398,0.071877462734572,-0.11634035492762,-0.00088190779849787,-0.00071333475724539,0.007770415543261,-0.60963042984447,-0.0054419059601588,-0.0030040343174517,-0.054198830190032,-0.00014463773673669,0.022498098449553,0.0032604910035755,732.04402640137,732.04402640137,731.97850286916,731.97850286916,732.15460586016,732.14699597204,732.04648606836,732.02361313337,732.10066236769,732.10937113026,732.00051708082,731.97684178892,732.06801028925,732.11265954624,732.11354734164,732.0694845144,732.03950303791,732.15960887461,732.15638864656,732.0175773734,732.00111059932,732.12345509889,732.12733614389,732.06801028925,731.98463233942,731.96778770784,732.1433390231,732.13036810633,732.07526399946,732.04932793323,732.07709197863,732.09155734042,732.0229043158,731.99575406378,732.11347648756,732.12266772859,732.11364394611,732.08231732156,732.05368474251,732.09293463995,732.1037282221,732.062779283,732.03334382401,732.11347648756,732.09115109791,732.09115109791,732.15200041314,732.15200041314,573.58252660279,1417.3919688487,446.52560621697,1707.4178023274,391.19322173636,0
3.98e-05,29037150.609461,2.7359505716064e-06,1.1813307052079e-05,2.4619934491303e-06,1.0020242097194,607.49062586775,607.49062586775,607.4227262841,607.4227262841,607.60676362581,607.59888371639,607.49433753059,607.46952622925,607.54996180321,607.55984783391,607.44636632771,607.42041335518,607.51718751958,607.56292195409,607.56442600141,607.51882300695,607.48608704767,607.61188094122,607.60866663814,607.46396694189,607.44606664615,607.57389498759,607.57840797149,607.51718751958,607.4295431636,607.41111675534,607.59516460054,607.581495709,607.52448993632,607.49643208362,607.52524020399,607.54146005131,607.46993537802,607.440095305,607.56434037485,607.57362318928,607.5642966645,607.53211695344,607.50103002041,607.54206503496,607.55435506749,607.5118543806,607.47954812673,607.56434037485,607.54039084186,607.54039084186,607.60393395232,607.60393395232,-0.080256179293378,-0.00072300856346206,-0.080412501966417,-0.053517543603624,0.033451797504549,0.16339329213592,-0.11939553660568,0.0017311217405788,0.010089743724445,0.0018822227805656,0.024260304436384,-1.3930101733969,-4.6740867711084e-05,-0.0018661569566315,0.035042531882314,-0.39297166241157,-0.0049990825341127,0.050784574565566,0.14726790733368,-0.17238133681262,-0.0073294432859457,0.0072331570021088,0.0014780171893785,-0.25322494697705,0.069093506980565,-1.0518489939393,0.01014218404602,0.075626762124345,-0.039691951204852,-0.0034524602520643,0.0062063893158375,0.014142631720059,0.0039360230148559,-0.93290089245493,-0.010627212229896,-0.0042576347164044,0.075048588803767,-0.11934966278714,-0.00092730266656855,-0.00074507824621275,0.0081050125048408,-0.62612184618272,-0.0057208550160817,-0.0031299655949836,-0.056659710587828,-6.7452104814936e-05,0.02366033861703,0.0027564867915491,732.03671099747,732.03671099747,731.96881141381,731.96881141381,732.15284875552,732.1449688461,732.0404226603,732.01561135896,732.09604693293,732.10593296362,731.99245145742,731.96649848489,732.06327264929,732.1090070838,732.11051113112,732.06490813666,732.03217217738,732.15796607094,732.15475176785,732.0100520716,731.99215177587,732.1199801173,732.1244931012,732.06327264929,731.97562829331,731.95720188505,732.14124973025,732.12758083871,732.07057506603,732.04251721333,732.0713253337,732.08754518102,732.01602050773,731.98618043471,732.11042550456,732.11970831899,732.11038179421,732.07820208315,732.04711515012,732.08815016467,732.1004401972,732.05793951031,732.02563325644,732.11042550456,732.08647597157,732.08647597157,732.15001908204,732.15001908204,581.5494460127,1421.4717597424,449.48507579837,1708.8752595011,393.22966434297,0
3.99e-05,29149247.094039,2.7428700153006e-06,1.1843004114536e-05,2.4694391397723e-06,1.0020468562228,607.48198983538,607.48198983538,607.41164840058,607.41164840058,607.60391754741,607.59576104977,607.48704362534,607.46019048229,607.54413346067,607.55526872822,607.4369956118,607.40863699723,607.51127835906,607.55810632561,607.56027067558,607.51308434819,607.47744262407,607.60914982898,607.60594753052,607.45515103496,607.43573972162,607.56925456404,607.57443946787,607.51127835906,607.41919171524,607.39909532172,607.59197953106,607.57758395515,607.5186241976,607.48833312963,607.51821370213,607.53629276106,607.46179624027,607.42911400249,607.56016983433,607.56953539916,607.55989969793,607.52685304048,607.49318052464,607.53606626067,607.54994455299,607.50584362945,607.47050552144,607.56016983433,607.53451546576,607.53451546576,607.60085160434,607.60085160434,-0.083390961081786,-0.00076007215518412,-0.083630452955537,-0.056061733051314,0.035111355176228,0.16698128520928,-0.12288406170451,0.0018249894814424,0.010602470903521,0.0019739898382284,0.025254962471298,-1.4471438793343,-4.8484084936577e-05,-0.0019623880306284,0.036557511349826,-0.40321007917746,-0.0052551929782283,0.053342819782279,0.15018141031176,-0.17705876664346,-0.0076112651082129,0.0075973769106829,0.0015562261746064,-0.26048819368503,0.071889336157335,-1.0919387247675,0.010645908199337,0.077151381178842,-0.040879190370841,-0.003605230114352,0.0065206972880026,0.014671426077003,0.0041005535473187,-0.96949014374328,-0.011037508834071,-0.0044770354605547,0.078342049458665,-0.12241589896625,-0.00097489435896994,-0.0007779899823276,0.008451707687216,-0.64294188651243,-0.006013229758526,-0.0032608730917384,-0.059221091986461,1.5246555100447e-05,0.024878512281813,0.0022086745228078,732.02910925965,732.02910925965,731.95876782484,731.95876782484,732.15103697167,732.14288047403,732.03416304961,732.00730990656,732.09125288493,732.10238815248,731.98411503606,731.95575642149,732.05839778332,732.10522574987,732.10739009984,732.06020377245,732.02456204833,732.15626925324,732.15306695478,732.00227045922,731.98285914588,732.1163739883,732.12155889213,732.05839778332,731.9663111395,731.94621474598,732.13909895532,732.12470337941,732.06574362186,732.03545255389,732.06533312639,732.08341218532,732.00891566453,731.97623342675,732.10728925859,732.11665482343,732.10701912219,732.07397246474,732.0402999489,732.08318568493,732.09706397725,732.05296305371,732.0176249457,732.10728925859,732.08163489002,732.08163489002,732.1479710286,732.1479710286,589.40175831992,1425.5511620505,452.44603498836,1710.3121468813,395.27587585872,0
4e-05,29261811.402724,2.7497918299739e-06,1.1872701575104e-05,2.4769301846284e-06,1.0020695501699,607.47302209734,607.47302209734,607.40017198675,607.40017198675,607.60097781384,607.59253800396,607.47951152266,607.45050971433,607.53808399422,607.55054282938,607.42731016281,607.39641370441,607.50519148105,607.55312090185,607.55599106894,607.50717758391,607.46847391848,607.60632563892,607.60314165389,607.44603519858,607.42503284023,607.56444177527,607.57033989523,607.50519148105,607.40848202656,607.38662451112,607.58869397663,607.5735421527,607.51257533006,607.47993604941,607.51091786182,607.53096429245,607.45339346761,607.41771169228,607.5558747128,607.56531368048,607.55536222008,607.52143491322,607.48504137497,607.5298450672,607.54540642762,607.49965585574,607.46111959269,607.5558747128,607.52843228419,607.52843228419,607.59766310504,607.59766310504,-0.086606443789025,-0.0007989926965392,-0.086937024820272,-0.058666317503107,0.036845372278525,0.1705861901301,-0.12642587050207,0.0019234482732471,0.011139418010738,0.002070009059572,0.026278480750028,-1.5027345360557,-5.0268278598429e-05,-0.0020632958674171,0.038128641873586,-0.41364123799741,-0.0055236402290053,0.056019122398708,0.15308224911696,-0.18179724857634,-0.0078991557258407,0.0079789877408035,0.0016383093255977,-0.26791850035933,0.074764807752181,-1.1330646342012,0.011172227737242,0.078679183564023,-0.042084818924606,-0.0037642274318359,0.0068496362119091,0.015219229836625,0.0042699879551891,-1.0070715452268,-0.01145975854041,-0.00470710835734,0.081761922671612,-0.12553967003948,-0.0010247806158115,-0.00081210054853658,0.0088108425738661,-0.66009512162291,-0.0063196284626817,-0.0033969851397227,-0.061886689365516,0.00010366309550252,0.026155041402314,0.0016151698416814,732.02121331599,732.02121331599,731.9483632054,731.9483632054,732.14916903249,732.14072922261,732.02770274131,731.99870093298,732.08627521287,732.09873404803,731.97550138146,731.94460492306,732.0533826997,732.1013121205,732.10418228759,732.05536880257,732.01666513713,732.15451685757,732.15133287254,731.99422641723,731.97322405888,732.11263299392,732.11853111388,732.0533826997,731.95667324521,731.93481572977,732.13688519528,732.12173337135,732.06076654871,732.02812726806,732.05910908047,732.0791555111,732.00158468626,731.96590291093,732.10406593145,732.11350489913,732.10355343873,732.06962613187,732.03323259362,732.07803628585,732.09359764627,732.04784707439,732.00931081134,732.10406593145,732.07662350284,732.07662350284,732.14585432369,732.14585432369,597.13569124278,1429.6295824457,455.40807583593,1711.7288924065,397.33162270208,0
4.01e-05,29374847.941509,2.7567160236928e-06,1.1902399438793e-05,2.4844674048351e-06,1.0020922918554,607.46371376026,607.46371376026,607.38828712979,607.38828712979,607.59794190567,607.58921188786,607.47173570502,607.44047505612,607.53180736037,607.54566643749,607.41730252495,607.38373178126,607.49892285305,607.54796123109,607.55158416945,607.50109906345,607.45917239193,607.60340575955,607.60024661448,607.43661229517,607.41393632998,607.55945186346,607.56610579777,607.49892285305,607.39740544829,607.37369274442,607.5853053955,607.56936689092,607.50633918843,607.47123312472,607.50334538004,607.52547075528,607.44472093303,607.40587722478,607.55145215989,607.56095465975,607.55068068956,607.51585920696,607.47660499614,607.52339551498,607.54073772489,607.49328718656,607.45138123769,607.55145215989,607.5221359051,607.5221359051,607.59436547271,607.59436547271,-0.089902120520317,-0.00083986356933324,-0.090332246535037,-0.061328690999738,0.038656669388174,0.17420736627803,-0.13002084497156,0.0020266716630716,0.01170162046075,0.0021704489126825,0.027330832724194,-1.5597848777081,-5.2093188974138e-05,-0.0021690913683075,0.039757648314269,-0.42426735770985,-0.0058049757354496,0.05881822215187,0.15596839782754,-0.1865969958683,-0.0081929226868468,0.0083787682937559,0.001724437503721,-0.27551946877973,0.077719946477016,-1.1752266242003,0.011721982292149,0.0802101259752,-0.04330872681991,-0.0039297078242935,0.0071938048737446,0.015786718332317,0.0044443182199989,-1.0456461491166,-0.011894092438363,-0.0049483384878074,0.085312404653944,-0.12872158136333,-0.0010770628750407,-0.00084744097817829,0.0091827662635618,-0.67758620901027,-0.0066406733126403,-0.0035385439187881,-0.064660338673916,0.00019800800631502,0.027492433378845,0.00097404229187662,732.01301525516,732.01301525516,731.93758862468,731.93758862468,732.14724340057,732.13851338276,732.02103719992,731.98977655102,732.08110885527,732.09496793239,731.96660401985,731.93303327616,732.04822434795,732.09726272599,732.10088566435,732.05040055835,732.00847388683,732.15270725444,732.14954810938,731.98591379007,731.96323782488,732.10875335836,732.11540729267,732.04822434795,731.94670694319,731.92299423932,732.1346068904,732.11866838582,732.05564068333,732.02053461962,732.05264687494,732.07477225018,731.99402242792,731.95517871968,732.10075365479,732.11025615465,732.09998218445,732.06516070185,732.02590649104,732.07269700988,732.09003921979,732.04258868146,732.00068273259,732.10075365479,732.0714374,732.0714374,732.14366696761,732.14366696761,604.747693219,1433.7064001198,458.3708038862,1713.1259161686,399.39666970763,0
4.02e-05,29488360.939426,2.763642596988e-06,1.1932097710652e-05,2.4920516025589e-06,1.0021150815138,607.45405590513,607.45405590513,607.375983897,607.375983897,607.59480724318,607.58577993426,607.46371062036,607.43007760653,607.52529747326,607.5406357855,607.40696521329,607.37057951247,607.49246838625,607.54262282149,607.54704689581,607.4948450891,607.44952947465,607.60038751473,607.59725994097,607.42687515951,607.40244049308,607.55428001827,607.56173365035,607.49246838625,607.38595330847,607.36028842363,607.58181119035,607.56505468874,607.49991158589,607.46221659797,607.49548891985,607.5198081956,607.43577247124,607.39359942912,607.54689927666,607.55645491812,607.54585149865,607.51012251099,607.46786377515,607.51671163033,607.53593541027,607.48673369947,607.44128132722,607.54689927666,607.51562088226,607.51562088226,607.59095565622,607.59095565622,-0.093277310533626,-0.00088278274006582,-0.093816005247068,-0.064045949218565,0.040548138630655,0.17784427650464,-0.13366891031579,0.0021348346186266,0.012290151272652,0.0022754804181115,0.028411921637033,-1.6182955462091,-5.3958498988401e-05,-0.0022799938977684,0.041446300756887,-0.43509067337972,-0.0060997731421173,0.061745000612645,0.15883787014386,-0.19145835169428,-0.0084923514023558,0.0087975286700672,0.0018147872505833,-0.28329478407286,0.080754611929584,-1.2184230785621,0.012296029296891,0.081744240347392,-0.044550812933063,-0.0041019386019793,0.0075538212672142,0.01637458111963,0.0046235228502433,-1.0852134510555,-0.012340634802295,-0.0052012310158916,0.088997813146877,-0.1319622338832,-0.0011318464345636,-0.00088404278281979,0.0095678358572979,-0.69541987982394,-0.0069770111470366,-0.0036858060704306,-0.067545999383456,0.00029849780702577,0.028893282654114,0.00028331291096737,732.00450715468,732.00450715468,731.92643514655,731.92643514655,732.14525849273,732.13623118381,732.01416186991,731.98052885608,732.07574872281,732.09108703505,731.95741646284,731.92103076202,732.0429196358,732.09307407104,732.09749814536,732.04529633864,731.99998072419,732.15083876428,732.14771119052,731.97732640906,731.95289174263,732.10473126782,732.1121848999,732.0429196358,731.93640455802,731.91073967318,732.1322624399,732.11550593829,732.05036283544,732.01266784752,732.0459401694,732.07025944515,731.98622372079,731.94405067867,732.09735052621,732.10690616767,732.0963027482,732.06057376054,732.0183150247,732.06716287987,732.08638665982,732.03718494902,731.99173257677,732.09735052621,732.0660721318,732.0660721318,732.14140690577,732.14140690577,612.23444956942,1437.7809664157,461.33383786948,1714.5036309013,401.47078033152,0
4.03e-05,29602354.425413,2.7705715418883e-06,1.1961796395768e-05,2.4996835593517e-06,1.0021379193144,607.444039599,607.444039599,607.36325234784,607.36325234784,607.59157118485,607.58223929712,607.45543068569,607.41930844246,607.51854821054,607.53544703868,607.39629072096,607.35694517875,607.48582393565,607.53710114438,607.54237609551,607.48841191607,607.43953657621,607.59726816218,607.59417908128,607.41681660545,607.39053561736,607.54892137995,607.55721985768,607.48582393565,607.37411692187,607.34639994729,607.57820870696,607.56060199345,607.49328829528,607.45287867989,607.48734111894,607.51397259549,607.42654188311,607.38086712832,607.54221311481,607.55181099222,607.54087097259,607.50422136829,607.45881006925,607.50978741175,607.53099637907,607.47999142259,607.43081071718,607.54221311481,607.50888171835,607.50888171835,607.58743053373,607.58743053373,-0.096731154891514,-0.00092785294358499,-0.097388044885346,-0.066814885583675,0.042522743162854,0.18149648772286,-0.13737003696192,0.0022481130139412,0.012906121924748,0.0023852766038033,0.029521577851712,-1.6782650254151,-5.5863833907888e-05,-0.0023962315351433,0.043196416059307,-0.4461134258783,-0.0064086290516564,0.064804482435494,0.16168871795639,-0.19638179319538,-0.0087972052953836,0.0092361112447717,0.001909540842417,-0.29124820221195,0.083868493222333,-1.2626508204479,0.012895243281958,0.083281634047348,-0.045810985603303,-0.004281199260754,0.007930322814174,0.01698351998021,0.004807566313609,-1.1257713408722,-0.012799503355924,-0.0054663118645707,0.092822590379832,-0.13526222075591,-0.0011892405584717,-0.00092193798499503,0.009966416893798,-0.71360092097353,-0.0073293142716315,-0.0038390434941279,-0.070547756537411,0.00040535557840232,0.030360272577734,-0.00045904784041943,731.99568108187,731.99568108187,731.9148938307,731.9148938307,732.14321266772,732.13388077999,732.00707216855,731.97094992533,732.07018969341,732.08708852155,731.94793220382,731.90858666161,732.03746541851,732.08874262725,732.09401757837,732.04005339893,731.99117805908,732.14890964505,732.14582056415,731.96845808832,731.94217710023,732.10056286282,732.10886134055,732.03746541851,731.92575840474,731.89804143016,732.12985018983,732.11224347631,732.04492977815,732.00452016276,732.03898260181,732.06561407836,731.97818336598,731.93250861119,732.09385459768,732.10345247509,732.09251245545,732.05586285115,732.01045155212,732.06142889462,732.08263786193,732.03163290546,731.98245220005,732.09385459768,732.06052320122,732.06052320122,732.1390720166,732.1390720166,619.59289894572,1441.8526035593,464.29680845275,1715.8624413117,403.55371652461,0
4.04e-05,29716832.207698,2.7775028415124e-06,1.1991495499279e-05,2.5073640344106e-06,1.0021608053571,607.43365590691,607.43365590691,607.35008254621,607.35008254621,607.58823102582,607.57858704883,607.44689029087,607.40815862907,607.51155341957,607.53009629426,607.38527152653,607.34281707314,607.47898530028,607.5313916377,607.53756854306,607.48179575267,607.4291850962,607.59404489193,607.59100139943,607.40642943283,607.37821198819,607.54337104248,607.55256075357,607.47898530028,607.36188759998,607.33201572628,607.57449523285,607.55600517944,607.48646505031,607.44321155753,607.47889459856,607.50795987296,607.41702294036,607.36766915503,607.5373906759,607.54701937518,607.53573536883,607.4981522754,607.44943621422,607.50261683645,607.52591745451,607.47305633493,607.41996026071,607.5373906759,607.50191286824,607.50191286824,607.5837869114,607.5837869114,-0.10026261266698,-0.00097518185897493,-0.10104796607906,-0.069631987979157,0.044583516260797,0.18516367255446,-0.14112424201436,0.0023666830679103,0.013550683489729,0.0025000119430453,0.030659556687135,-1.7396895801052,-5.7808760379672e-05,-0.0025180413358844,0.045009859324556,-0.45733785387208,-0.0067321638124738,0.068001835685731,0.16451903063408,-0.2013679347206,-0.009107226177714,0.0096953917559125,0.0020088862767255,-0.29938354723323,0.087061104832319,-1.3079050733942,0.01352051507356,0.08482249046374,-0.047089162955111,-0.0044677820007766,0.0083239667917974,0.017614247596876,0.0049963985697373,-1.1673160571322,-0.01327080964997,-0.005744128411274,0.096791305832361,-0.13862212419649,-0.0012493585940291,-0.00096115915729688,0.010378883778115,-0.73213416598515,-0.0076982813038306,-0.0039985441282368,-0.073669822676237,0.00051881144931707,0.031896176530015,-0.0012551226416383,731.98652909593,731.98652909593,731.90295573523,731.90295573523,732.14110421484,732.13146023785,731.99976347989,731.96103181809,732.06442660859,732.08296948329,731.93814471555,731.89569026216,732.03185848931,732.08426482672,732.09044173208,732.03466894169,731.98205828522,732.14691808095,732.14387458845,731.95930262185,731.93108517721,732.09624423151,732.10543394259,732.03185848931,731.914760789,731.88488891531,732.12736842188,732.10887836846,732.03933823933,731.99608474655,732.03176778758,732.06083306198,731.96989612938,731.92054234405,732.09026386492,732.0998925642,732.08860855785,732.05102546442,732.00230940324,732.05549002547,732.07879064353,732.02592952395,731.97283344973,732.09026386492,732.05478605726,732.05478605726,732.13666010042,732.13666010042,626.82024714002,1445.9206044149,467.25935866754,1717.2027450918,405.64523925059,0
4.05e-05,29831797.855399,2.784436469483e-06,1.202119502637e-05,2.5150937633867e-06,1.002183739669,607.42289590425,607.42289590425,607.33646457319,607.33646457319,607.58478399646,607.57482017752,607.43808380262,607.39661923032,607.50430692367,607.52457958113,607.37390010176,607.3281835178,607.47194822369,607.52548970953,607.53262093823,607.47499276049,607.41846643496,607.59071482477,607.58772417237,607.39570643458,607.36545990053,607.53762405691,607.54775260026,607.47194822369,607.34925666109,607.31712420005,607.57066799605,607.55126054707,607.47943754692,607.43320740238,607.47014197256,607.50176588196,607.40720939044,607.35399436754,607.53242891063,607.54207651767,607.53044087652,607.49191168236,607.43973453289,607.49519386696,607.52069538585,607.46592436678,607.40872082042,607.53242891063,607.49470874228,607.49470874228,607.58002152218,607.58002152218,-0.10387045787213,-0.0010248822704788,-0.10479522698196,-0.072493435814404,0.04673356026808,0.18884560590235,-0.14493159048788,0.0024907207704513,0.014225027538112,0.0026198616282463,0.03182553661814,-1.8025631991135,-5.9792784755254e-05,-0.0026456695911952,0.046888545850053,-0.46876617825614,-0.0070710222993155,0.071342372062654,0.16732692963647,-0.20641753037848,-0.0094221347146292,0.010176280315747,0.0021130172566192,-0.30770468949235,0.09033178338318,-1.354179423682,0.014172750914505,0.086367067167533,-0.048385273260424,-0.0046619922619632,0.0087354305692055,0.018267484546149,0.0051899546666595,-1.2098421462381,-0.013754659532732,-0.0060352501955673,0.10090865996967,-0.14204251111942,-0.0013123180871508,-0.0010017394661225,0.010805620307761,-0.7510244652953,-0.0080846379791625,-0.0041646128052951,-0.076916540222098,0.00063910322431047,0.03350385910275,-0.0021070501453194,731.97704328498,731.97704328498,731.89061195392,731.89061195392,732.13893137719,732.12896755825,731.99223118335,731.95076661105,732.0584543044,732.07872696186,731.92804748249,731.88233089853,732.02609560442,732.07963709026,732.08676831896,732.02914014122,731.97261381569,732.1448622055,732.1418715531,731.94985381531,731.91960728126,732.09177143764,732.101899981,732.02609560442,731.90340404182,731.87127158079,732.12481537678,732.1054079278,732.03358492765,731.98735478311,732.02428935329,732.05591326269,731.96135677117,731.90814174827,732.08657629136,732.0962238984,732.08458825725,732.04605906309,731.99388191362,732.04934124769,732.07484276658,732.02007174751,731.96286820115,732.08657629136,732.04885612301,732.04885612301,732.13416890291,732.13416890291,633.91398958058,1449.9842314168,470.22114179332,1718.5249310573,407.74510790678,0
4.06e-05,29947254.683598,2.7913723896868e-06,1.2050894982301e-05,2.5228734563727e-06,1.0022067222014,607.41175068931,607.41175068931,607.32238854006,607.32238854006,607.58122726097,607.5709355844,607.42900556868,607.38468131971,607.49680252868,607.51889285964,607.36216891962,607.31303288111,607.46470839447,607.51939074181,607.52752990438,607.46799905485,607.40737200476,607.58727501088,607.5843445869,607.38464040415,607.35226967147,607.53167543474,607.54279158795,607.46470839447,607.33621544085,607.30171385322,607.56672416385,607.54636432158,607.47220144485,607.42285837879,607.46107585679,607.49538641262,607.39709496174,607.33983166624,607.5273247183,607.53697882911,607.52498361604,607.48549599283,607.42969734387,607.48751245806,607.51532684664,607.45859140033,607.39708328104,607.5273247183,607.48726370988,607.48726370988,607.57613102465,607.57613102465,-0.10755327707994,-0.0010770722560333,-0.10862914525803,-0.075395099632677,0.04897604553627,0.19254216486438,-0.14879219408604,0.0026204011947516,0.014930386916944,0.0027450008492086,0.033019118079828,-1.8668775498345,-6.1815350291153e-05,-0.0027793720774239,0.048834442746397,-0.48040059492422,-0.0074258746712619,0.074831547189588,0.17011056648304,-0.21153147413367,-0.0097416310918635,0.010679722310452,0.0022221331574336,-0.31621554654923,0.093679685798632,-1.4014657936345,0.014852871541404,0.087915695386553,-0.049699253819727,-0.0048641492813697,0.0091654117542826,0.018943957781825,0.005388154460972,-1.253342428148,-0.014251153739876,-0.0063402696084638,0.10517948700259,-0.14552393003083,-0.0013782408380924,-0.0010437127187131,0.011247020167164,-0.77027668073843,-0.0084891379650945,-0.0043375719801603,-0.080292383030734,0.0007664770451615,0.035186277316962,-0.0030170274855351,731.96721578098,731.96721578098,731.87785363173,731.87785363173,732.13669235264,732.12640067607,731.98447066034,731.94014641138,732.05226762035,732.07435795131,731.91763401129,731.86849797277,732.02017348614,732.07485583348,732.08299499605,732.02346414652,731.96283709643,732.14274010255,732.13980967857,731.94010549581,731.90773476314,732.08714052641,732.09825667962,732.02017348614,731.89168053252,731.85717894489,732.12218925552,732.10182941325,732.02766653652,731.97832347046,732.01654094846,732.05085150429,731.95256005341,731.8952967579,732.08278980997,732.09244392077,732.08044870771,732.0409610845,731.98516243554,732.04297754973,732.07079193831,732.014056492,731.95254837271,732.08278980997,732.04272880155,732.04272880155,732.13159611632,732.13159611632,640.87191272309,1454.0427143557,473.18182198882,1719.8293800733,409.85308118068,0
4.07e-05,30063205.740999,2.7983105554895e-06,1.2080595372355e-05,2.5307037963962e-06,1.0022297528274,607.40021139609,607.40021139609,607.30784460155,607.30784460155,607.57755791598,607.56693008118,607.41964992205,607.37233599129,607.48903402956,607.51303202162,607.35007046244,607.29735359505,607.45726144701,607.51309009416,607.52229198698,607.4608107053,607.3958932411,607.58372242835,607.58085973656,607.37322414306,607.3386316528,607.52552015154,607.53767383424,607.45726144701,607.32275530297,607.28577323246,607.56266084168,607.54131265199,607.46475236923,607.41215665253,607.45168887851,607.48881719154,607.38667336888,607.32517001027,607.52207494624,607.53172267894,607.51935963859,607.47890156428,607.41931697046,607.47956656378,607.50980843307,607.45105327036,607.38503856221,607.52207494624,607.47957210312,607.47957210312,607.57211200192,607.57211200192,-0.11130946783405,-0.0011318753295879,-0.11254890142981,-0.078332539012095,0.051314208994552,0.19625332598357,-0.15270621451444,0.0027558979458248,0.015668037038871,0.0028756039371595,0.034239822877634,-1.9326219343929,-6.3875834919662e-05,-0.0029194143150929,0.050849570895637,-0.49224326183128,-0.0077974172012307,0.078474960380407,0.17286811826788,-0.21671080400426,-0.010065395746669,0.011206699726141,0.0023364389925723,-0.32492006213414,0.09710378891071,-1.4497544126734,0.015561811129077,0.089468778210292,-0.051031052632763,-0.0050745865587456,0.0096146286769735,0.019644397314445,0.0055909024555785,-1.2978079661335,-0.01476038856395,-0.0066598026205723,0.10960875823602,-0.14906690762491,-0.001447253024096,-0.0010871134152478,0.011703487515879,-0.78989565934637,-0.0089125637181156,-0.0045177627714233,-0.083801958138349,0.00090118801462073,0.036946481710937,-0.0039873128747967,731.9570387856,731.9570387856,731.86467199106,731.86467199106,732.1343853055,732.12375747069,731.97647731156,731.92916338081,732.04586141907,732.06985941113,731.90689785196,731.85418098456,732.01408883652,732.06991748367,732.07911937649,732.01763809481,731.95272063061,732.14054981787,732.13768712608,731.93005153257,731.89545904232,732.08234754105,732.09450122375,732.01408883652,731.87958269249,731.84260062197,732.11948823119,732.0981400415,732.02157975874,731.96898404205,732.00851626803,732.04564458105,731.9435007584,731.88199739979,732.07890233576,732.08855006846,732.07618702811,732.03572895379,731.97614435997,732.03639395329,732.06663582259,732.00788065987,731.94186595173,732.07890233576,732.03639949263,732.03639949263,732.12893939143,732.12893939143,647.69211318366,1458.0952521412,476.14107286396,1721.116464983,411.96891654583,0
4.08e-05,30179653.801376,2.8052509091014e-06,1.2110296201931e-05,2.5385854379772e-06,1.00225283134,607.38826920724,607.38826920724,607.29282296934,607.29282296934,607.57377298928,607.56280038743,607.41001118551,607.35957437075,607.48099521714,607.50699289036,607.33759723039,607.28113417293,607.44960296238,607.50658310777,607.51690365212,607.45342373628,607.38402161413,607.58005398185,607.57726661862,607.36145046865,607.32453624393,607.51915315051,607.53239538383,607.44960296238,607.30886765015,607.26929096365,607.55847507201,607.53610161018,607.45708591232,607.40109439948,607.44197368613,607.48205388221,607.37593831828,607.30999843449,607.51667638945,607.526304398,607.51356492595,607.4721247083,607.4085857497,607.47135014451,607.50413666245,607.44330576515,607.37257763151,607.51667638945,607.47162822047,607.47162822047,607.56796096055,607.56796096055,-0.11513723772342,-0.0011894206106178,-0.11655354355413,-0.081301003217519,0.053751352432295,0.19997916200501,-0.15667386095194,0.0028973823736678,0.01643929659914,0.0030118434281151,0.035487094244661,-1.9997832529411,-6.5973545350001e-05,-0.0030660718160153,0.052936006721382,-0.50429628632741,-0.008186373095476,0.082278354029744,0.17559778277262,-0.22195669977203,-0.010393090444781,0.011758231995991,0.0024561453412866,-0.33382219775125,0.10060289056345,-1.4990337944703,0.016300516082519,0.091026788503877,-0.052380627006702,-0.0052936524364346,0.010083820515211,0.020369533588704,0.0057980877683487,-1.3432280415623,-0.015282456791962,-0.0069944894817488,0.11420158494873,-0.15267194479233,-0.0015194853184621,-0.0011319768054224,0.012175437533308,-0.80988621545911,-0.0093557273327982,-0.0047055457588643,-0.087450007116132,0.0010435008169523,0.038787617237264,-0.0050202283089044,731.94650453596,731.94650453596,731.85105829806,731.85105829806,732.132008318,732.12103571614,731.96824651423,731.91780969947,732.03923054585,732.06522821908,731.89583255911,731.83936950165,732.0078382911,732.06481843649,732.07513898084,732.011659065,731.94225694284,732.13828931056,732.13550194734,731.91968579736,731.88277157264,732.07738847923,732.09063071255,732.0078382911,731.86710297887,731.82752629237,732.11671040072,732.0943369389,732.01532124104,731.95932972819,732.00020901485,732.04028921093,731.93417364699,731.86823376321,732.07491171816,732.08453972672,732.07180025467,732.03036003702,731.96682107842,732.02958547322,732.06237199116,732.00154109386,731.93081296023,732.07491171816,732.02986354918,732.02986354918,732.12619628927,732.12619628927,654.37300626073,1462.1410099873,479.09857696897,1722.3865494337,414.09237052612,0
4.09e-05,30296601.357601,2.8121933813095e-06,1.2139997476485e-05,2.5465190056557e-06,1.0022759574511,607.37591536723,607.37591536723,607.27731392573,607.27731392573,607.56986943853,607.55854312816,607.40008367612,607.34638762671,607.47267988501,607.50077122085,607.32474175002,607.2643632272,607.44172846938,607.49986510944,607.51136128523,607.44583412794,607.37174864034,607.57626650128,607.57356213109,607.34931222192,607.30997390486,607.51256934627,607.52695220822,607.44172846938,607.29454393524,607.25225576923,607.55416383328,607.53072718998,607.44919763537,607.38966381442,607.43192295891,607.47509208565,607.36488351382,607.29430606656,607.51112579019,607.52072027994,607.50759539027,607.46516169109,607.39749604158,607.46285717428,607.49830797182,607.43534462749,607.35969151758,607.51112579019,607.46342633063,607.46342633063,607.56367432963,607.56367432963,-0.11903460432188,-0.0012498429739008,-0.12064199310127,-0.084295431876432,0.056290841040832,0.20371983953386,-0.16069538947326,0.0030450229335457,0.017245528777408,0.0031538890532766,0.036760297641681,-2.0683459767905,-6.8107713001612e-05,-0.0032196303269359,0.055095884424835,-0.5165617152923,-0.0085934933804491,0.086247613179625,0.17829777475039,-0.22727048326661,-0.010724359241872,0.012335377445403,0.0025814682549926,-0.34292592069181,0.1041756124209,-1.5492907211777,0.017069943950454,0.092590267006231,-0.053747942837532,-0.0055217106326625,0.010573747617169,0.021120094346443,0.006009584248643,-1.3895901359543,-0.015817448633974,-0.0073449954330143,0.11896322206778,-0.15633951379101,-0.001595073074144,-0.0011783389475043,0.012663297100713,-0.83025311396132,-0.0098194714162294,-0.0049013018434861,-0.091241407768609,0.0011936903718568,0.040712924041583,-0.0061181619055405,731.93560532465,731.93560532465,731.83700388316,731.83700388316,732.12955939595,732.11823308558,731.95977363355,731.90607758413,732.03236984243,732.06046117827,731.88443170745,731.82405318463,732.00141842681,732.05955506686,732.07105124265,732.00552408536,731.93143859776,732.1359564587,732.13325208851,731.90900217935,731.86966386228,732.07225930369,732.08664216564,732.00141842681,731.85423389266,731.81194572666,732.11385379071,732.0904171474,732.00888759279,731.94935377184,731.99161291633,732.03478204307,731.92457347124,731.85399602399,732.07081574761,732.08041023737,732.06728534769,732.02485164851,731.957185999,732.0225471317,732.05799792924,731.99503458491,731.919381475,732.07081574761,732.02311628805,732.02311628805,732.12336428705,732.12336428705,660.91333157839,1466.1791190865,482.05402506671,1723.6399878383,416.22319871114,0
4.1e-05,30414050.620199,2.8191378909424e-06,1.2169699201553e-05,2.5545050921644e-06,1.0022991307911,607.36314119549,607.36314119549,607.26130783745,607.26130783745,607.56584415003,607.55415483132,607.38986170993,607.33276698209,607.46408183641,607.4943627,607.31149658304,607.24702948747,607.43363344569,607.49293141559,607.50566118982,607.43803781705,607.35906589425,607.57235674054,607.56974306981,607.33680227558,607.29493516934,607.50576362858,607.52134020551,607.43363344569,607.27977567248,607.23465648568,607.54972403899,607.52518530627,607.44108307054,607.37785711994,607.42152941679,607.46792734104,607.35350266274,607.27808214417,607.50541983778,607.51496658277,607.50144687399,607.45800873397,607.3860402383,607.45408164804,607.49231871667,607.42716555584,607.34637132338,607.50541983778,607.45496067644,607.45496067644,607.55924845978,607.55924845978,-0.12299939613707,-0.0013132832456148,-0.12481305183674,-0.087310456754205,0.058936101434671,0.20747561133651,-0.16477110233915,0.0031989844695236,0.018088142016233,0.0033019066212798,0.038058722064747,-2.1382921296206,-7.0277487147006e-05,-0.003380386054379,0.057331398305739,-0.52904152371334,-0.0090195576310439,0.090388764369271,0.18096631679335,-0.2326536173499,-0.011058829708892,0.012939234217794,0.0027126291342754,-0.3522351915844,0.10782040388,-1.6005102325024,0.017871062143795,0.094159818115655,-0.055132974466419,-0.0057591407595008,0.011085191581948,0.02189680121046,0.0062252507031445,-1.4368799201573,-0.016365452828743,-0.0077120113729416,0.12389907178269,-0.16007005514775,-0.0016741562130506,-0.0012262367707117,0.013167505515473,-0.85100105128144,-0.010304669939025,-0.0051054331885695,-0.09518117544924,0.0013520426505039,0.04272573798652,-0.0072835712781285,731.92433352207,731.92433352207,731.82250016404,731.82250016404,732.12703647661,732.11534715791,731.95105403651,731.89395930867,732.02527416299,732.05555502659,731.87268890963,731.80822181406,731.99482577228,732.05412374217,732.06685351641,731.99923014364,731.92025822083,732.13354906713,732.13093539639,731.89799460216,731.85612749592,732.06695595516,732.08253253209,731.99482577228,731.84096799906,731.79584881226,732.11091636558,732.08637763285,732.00227539713,731.93904944653,731.98272174338,732.02911966763,731.91469498933,731.83927447075,732.06661216437,732.07615890936,732.06263920058,732.01920106056,731.94723256489,732.01527397462,732.05351104325,731.98835788243,731.90756364997,732.06661216437,732.01615300303,732.01615300303,732.12044078637,732.12044078637,667.31216442782,1470.2086757836,485.00711543096,1724.8771248979,418.36115577897,0
4.11e-05,30532003.519085,2.8260843444105e-06,1.2199401382749e-05,2.5625442575029e-06,1.0023223509091,607.3499380997,607.3499380997,607.24479516948,607.24479516948,607.5616939376,607.54963192548,607.37933960665,607.31870372548,607.45519489122,607.48776294707,607.29785433512,607.22912181849,607.42531331916,607.48577733643,607.49979958641,607.43003069801,607.34596502013,607.5683213763,607.56580612561,607.32391354202,607.27941065798,607.49873086619,607.51555520031,607.42531331916,607.26455444884,607.21648208098,607.5451525367,607.51947179427,607.43273772294,607.36566657539,607.41078583034,607.46055512658,607.34178948155,607.26131603227,607.4995551684,607.50903953041,607.49511514986,607.45066201405,607.37421077359,607.44501758902,607.48616516978,607.4187642056,607.33260823948,607.4995551684,607.44622547882,607.44622547882,607.55467962234,607.55467962234,-0.12702925410698,-0.0013798882205469,-0.12906541090237,-0.090340403976581,0.061690619411938,0.21124681678918,-0.16890134657897,0.0033594274490121,0.018968591065474,0.0034560568212085,0.03938158241965,-2.2096012725339,-7.2481923377603e-05,-0.0035486459281669,0.059644804658195,-0.54173760525534,-0.009465374756356,0.094707974196964,0.1836016389031,-0.23810770442239,-0.011396114444886,0.013570941408176,0.002849854602099,-0.36175395327498,0.11153554850524,-1.6526756170282,0.018704846523366,0.095736108978783,-0.056535703881961,-0.0060063388815496,0.011618955702659,0.022700366097199,0.0064449313326526,-1.4850812470665,-0.016926557863094,-0.0080962546444131,0.1290146866201,-0.1638639751997,-0.001756879341317,-0.001275708147559,0.013688515061408,-0.87213463960778,-0.010812228970476,-0.005318364238659,-0.099274464350935,0.0015188553352899,0.04482949114876,-0.0085189850760649,731.91268159833,731.91268159833,731.8075386681,731.8075386681,732.12443743623,732.11237542411,731.94208310528,731.88144722411,732.01793838985,732.0505064457,731.86059783375,731.79186531712,731.98805681779,732.04852083506,732.06254308504,731.99277419664,731.90870851876,732.13106487493,732.12854962423,731.88665704064,731.84215415661,732.06147436482,732.07829869894,731.98805681779,731.82729794747,731.77922557961,732.10789603533,732.08221529289,731.99548122157,731.92841007402,731.97352932897,732.02329862521,731.90453298018,731.8240595309,732.06229866703,732.07178302904,732.05785864849,732.01340551268,731.93695427222,732.00776108765,732.04890866841,731.98150770423,731.89535173811,732.06229866703,732.00896897745,732.00896897745,732.11742312096,732.11742312096,673.5689034812,1474.2287407016,487.95755310246,1726.0982951029,420.50599550911,0
4.12e-05,30650461.709448,2.8330326349886e-06,1.2229104025778e-05,2.57063702682e-06,1.0023456172741,607.33629758898,607.33629758898,607.22776649892,607.22776649892,607.55741554145,607.54497073746,607.3685116945,607.30418922258,607.4460128929,607.48096751408,607.28380766476,607.21062923821,607.4167634692,607.47839818008,607.49377261144,607.42180862399,607.33243774378,607.5641570068,607.56174788151,607.31063898145,607.26339109145,607.49146591071,607.50959294369,607.4167634692,607.24887193543,607.19772167223,607.54044610722,607.51358240876,607.42415707267,607.35308448574,607.39968503053,607.45297086037,607.32973770205,607.24399724037,607.49352836494,607.50293531431,607.48859592096,607.44311766494,607.36200013203,607.43565905608,607.47984352016,607.41013619045,607.31839355731,607.49352836494,607.43721494075,607.43721494075,607.5499640085,607.5499640085,-0.13112163421431,-0.0014498109313442,-0.13339766046672,-0.093379297309579,0.064557937643721,0.21503387341887,-0.17308651226038,0.0035265072397942,0.019888377750083,0.0036164939312115,0.040728022347158,-2.2822505029091,-7.4719975897445e-05,-0.0037247278276299,0.062038424192832,-0.55465176379286,-0.0099317840027794,0.099211547594572,0.18620196912259,-0.24363448440518,-0.011735812582058,0.014231680166906,0.0029933763372339,-0.37148611995977,0.1153191714058,-1.7057684137879,0.019572279991946,0.097319864764383,-0.057956119894058,-0.0062637180076085,0.012175864900304,0.023531487378035,0.0066684562663917,-1.5341761543218,-0.017500853297799,-0.0084984697236572,0.13431577285716,-0.16772164408307,-0.0018433919080814,-0.0013267919673465,0.014226791811203,-0.89365839232834,-0.011343087732171,-0.0055405426913733,-0.10352656834905,0.0016944385446855,0.047027712026956,-0.009827005917031,731.90064219191,731.90064219191,731.79211110185,731.79211110185,732.12176014438,732.10931534039,731.93285629743,731.86853382551,732.01035749583,732.04531211701,731.84815226769,731.77497384114,731.98110807213,732.04274278301,732.05811721437,731.98615322692,731.89678234671,732.12850160973,732.12609248444,731.87498358438,731.82773569438,732.05581051364,732.07393754662,731.98110807213,731.81321653836,731.76206627516,732.10479071015,732.07792701169,731.9885016756,731.91742908867,731.96402963346,732.01731546329,731.89408230498,731.8083418433,732.05787296787,732.06727991724,732.05294052389,732.00746226787,731.92634473496,732.00000365901,732.04418812309,731.97448079338,731.88273816024,732.05787296787,732.00155954368,732.00155954368,732.11430861143,732.11430861143,679.68329192189,1478.2383379648,490.90504916304,1727.3038221925,422.6574707634,0
4.13e-05,30769426.581371,2.8399826425037e-06,1.2258807136428e-05,2.5787838895924e-06,1.0023689292762,607.32221128703,607.32221128703,607.2102125288,607.2102125288,607.55300562708,607.5401674901,607.35737231492,607.28921492746,607.43652971544,607.47397188632,607.26934929218,607.19154093568,607.40797922828,607.47078925672,607.4875763164,607.41336740808,607.3184758842,607.55986015074,607.55756481,607.29697160996,607.24686730352,607.48396360042,607.50344911318,607.40797922828,607.23271989879,607.17836454298,607.53560146377,607.50751282343,607.41533657694,607.34010321052,607.3882199186,607.44516990134,607.31734107737,607.22611543965,607.48733595699,607.49665009511,607.48188482084,607.43537177755,607.34940085833,607.42600015102,607.47334987209,607.40127708383,607.30371868235,607.48733595699,607.42792325126,607.42792325126,607.54509772859,607.54509772859,-0.13527381093117,-0.0015232106496084,-0.13780830106209,-0.096420862250172,0.06754165291813,0.21883727470358,-0.17732703081338,0.003700373349219,0.020849052125913,0.0037833644352206,0.042097117947593,-2.356214459224,-7.6990484198191e-05,-0.0039089607586939,0.06451464392626,-0.5677857043886,-0.010419655705884,0.10390592534464,0.18876553095045,-0.24923583246918,-0.012077511550822,0.014922675003738,0.0031434308710504,-0.3814355661341,0.11916924865261,-1.7597684172486,0.020474350932779,0.098911866480751,-0.059394217353409,-0.006531708568925,0.012756766227423,0.024390845782571,0.0068956422813396,-1.5841448725339,-0.018088431236844,-0.0089194288326834,0.13980819319953,-0.1716433937271,-0.0019338481927147,-0.0013795281984233,0.014782816235133,-0.91557670863325,-0.011898219391078,-0.0057724404291752,-0.10794292151365,0.0018791155567548,0.049324025332829,-0.011210311808976,731.88820800759,731.88820800759,731.77620924936,731.77620924936,732.11900234764,732.10616421067,731.92336903548,731.85521164802,732.002526436,732.03996860688,731.83534601274,731.75753765624,731.97397594884,732.03678597728,732.05357303696,731.97936412864,731.88447260476,732.1258568713,732.12356153056,731.86296833052,731.81286402408,732.04996032098,732.06944583374,731.97397594884,731.79871661935,731.74436126354,732.10159818433,732.07350954399,731.9813332975,731.90609993108,731.95421663916,732.01116662191,731.88333779793,731.79211216021,732.05333267755,732.06264681567,732.0478815414,732.00136849811,731.91539757889,731.99199687158,732.03934659265,731.96727380439,731.86971540291,732.05333267755,731.99391997182,731.99391997182,732.11109444916,732.11109444916,685.6553996692,1482.2364542839,493.84932003025,1728.4940184383,424.81533346528,0
4.14e-05,30888899.273382,2.8469342329995e-06,1.2288510720581e-05,2.5869852981026e-06,1.002392286229,607.30767094517,607.30767094517,607.19212410176,607.19212410176,607.54846078427,607.53521830009,607.34591582741,607.27377239384,607.42673927026,607.46677148297,607.25447200815,607.17184628879,607.39895588341,607.46294588266,607.48120666689,607.40470282456,607.30407136512,607.55542724615,607.55325327042,607.28290450749,607.22983025401,607.47621876411,607.49711931284,607.39895588341,607.21609021219,607.15840016056,607.53061525118,607.50125863021,607.40627167221,607.32671517259,607.37638347577,607.43714755038,607.30459338804,607.20766047992,607.48097442075,607.49018000429,607.47497741373,607.42742040094,607.33640556651,607.41603502584,607.46668024423,607.3921824204,607.28857514719,607.48097442075,607.41834458941,607.41834458941,607.5400768113,607.5400768113,-0.13948288142428,-0.0016002530052772,-0.14229575532578,-0.099458530334545,0.07064541388606,0.22265758378712,-0.18162337306021,0.0038811687627239,0.021852213447254,0.0039568055675508,0.0434878821155,-2.4314653330049,-7.9292159814712e-05,-0.0041016850876291,0.067075919886071,-0.58114102953111,-0.01092989235194,0.10879768258194,0.19129053632035,-0.25491375647412,-0.012420788640384,0.01564519495399,0.0033002594145844,-0.39160611845855,0.12308361793341,-1.8146536866407,0.02141205177787,0.10051294710636,-0.060849996237603,-0.0068107588949752,0.013362529052723,0.025279100181801,0.0071262936536447,-1.6349658395029,-0.018689387873996,-0.009359932701643,0.14549797071493,-0.17562951749716,-0.0020284075265208,-0.0014339579607368,0.01535708405389,-0.93789386615675,-0.012478632025987,-0.0060145545925292,-0.11252909907202,0.0020732235383525,0.051722152416442,-0.012671658795055,731.87537189241,731.87537189241,731.759825049,731.759825049,732.11616173151,732.10291924733,731.91361677465,731.84147334108,731.9944402175,732.03447243021,731.82217295539,731.73954723603,731.96665683065,732.0306468299,732.04890761413,731.9724037718,731.87177231236,732.12312819339,732.12095421766,731.85060545473,731.79753120125,732.04391971135,732.06482026008,731.96665683065,731.78379115943,731.7261011078,732.09831619842,732.06895957745,731.97397261945,731.89441611983,731.94408442301,732.00484849762,731.87229433528,731.77536142716,732.04867536799,732.05788095153,732.04267836097,731.99512134818,731.90410651375,731.98373597308,732.03438119147,731.95988336764,731.85627609443,732.04867536799,731.98604553665,731.98604553665,732.10777775854,732.10777775854,691.48562928784,1486.222038468,496.79008670438,1729.6691843162,426.97933456209,0
4.15e-05,31008880.690053,2.8538872582932e-06,1.2318214784223e-05,2.5952416663691e-06,1.0024156873729,607.29266845512,607.29266845512,607.17349221347,607.17349221347,607.54377752609,607.53011917582,607.33413661419,607.25785328611,607.41663551297,607.45936165768,607.2391686827,607.15153488182,607.38968867774,607.45486338448,607.4746595419,607.39581061013,607.28921622649,607.5508546494,607.54880950634,607.26843082572,607.21227104161,607.46822622489,607.4905990734,607.38968867774,607.19897486671,607.13781819308,607.52548404516,607.4948153387,607.39695777625,607.31291286682,607.36416877282,607.42889905132,607.29148844798,607.18862240642,607.47444017909,607.48352114582,607.4678691947,607.41925954316,607.323006949,607.4057578899,607.45983056885,607.38284769759,607.27295462443,607.47444017909,607.40847312818,607.40847312818,607.534897203,607.534897203,-0.1437457706912,-0.0016811100760805,-0.14685838098627,-0.10248544477777,0.07387291804674,0.22649542963697,-0.18597604721847,0.0040690292051522,0.022899511043428,0.0041369437683324,0.044899269551228,-2.5079728921659,-8.1623567537069e-05,-0.0043032527032076,0.069724779053525,-0.59471923341824,-0.011463429404284,0.11389352579327,0.19377518159413,-0.26067039404349,-0.012765212971533,0.016400554671201,0.0034641076129281,-0.40200154650217,0.12705999062068,-1.8704005638946,0.022386377393477,0.10212398863706,-0.062323460806591,-0.0071013356301406,0.013994045262954,0.026196883082084,0.0073602031597181,-1.6866157226795,-0.019303825060028,-0.0098208111456164,0.15139129140523,-0.17968026941233,-0.0021272343207597,-0.0014901235979286,0.015950106869624,-0.96061401047204,-0.013085369490961,-0.0062674085514864,-0.11729081752063,0.0022771142385463,0.054225910734251,-0.014213882671893,731.86212680659,731.86212680659,731.74295056494,731.74295056494,732.11323587756,732.0995775273,731.90359496566,731.82731163758,731.98609386444,732.02882000915,731.80862703417,731.72099323329,731.95914702921,732.02432173595,732.04411789337,731.96526896161,731.85867457796,732.12031300087,732.11826785781,731.8378891772,731.78172939309,732.03768457636,732.06005742487,731.95914702921,731.76843321818,731.70727654455,732.09494239664,732.06427369017,731.96641612772,731.88237121829,731.93362712429,731.99835740279,731.86094679945,731.75808075789,732.04389853057,732.05297949729,732.03732754617,731.98871789463,731.89246530047,731.97521624137,732.02928892032,731.95230604906,731.8424129759,732.04389853057,731.97793147965,731.97793147965,732.10435555447,732.10435555447,697.17470436768,1490.1940006507,499.72707406806,1730.8296077384,429.14922396275,0
4.16e-05,31129371.523232,2.8608415551025e-06,1.234791933342e-05,2.6035533674658e-06,1.0024391318781,607.27719586164,607.27719586164,607.15430802593,607.15430802593,607.53895228787,607.52486601531,607.32202908482,607.24144939017,607.40621245004,607.45173769921,607.22343227371,607.13059652257,607.38017281213,607.44653710296,607.46793073298,607.38668646522,607.27390263561,607.54613863407,607.54422964307,607.25354379587,607.19418091637,607.45998080386,607.48388385232,607.38017281213,607.18136598221,607.11660852614,607.52020435154,607.48817837555,607.38739029027,607.29868886858,607.3515689795,607.42041959202,607.27802011034,607.16899147621,607.46772960154,607.47666959777,607.46055558989,607.41088517212,607.30919778552,607.39516301694,607.45279669104,607.37326837712,607.2568489393,607.46772960154,607.39830303835,607.39830303835,607.52955476707,607.52955476707,-0.14805923767276,-0.0017659604700142,-0.15149448700071,-0.10549446648305,0.077227908513433,0.23035150246527,-0.19038559672181,0.0042640823962581,0.023992645242795,0.0043238930698423,0.046330182742081,-2.5857045119396,-8.3983105572296e-05,-0.0045140272101688,0.072463821770369,-0.60852169866202,-0.012021236203116,0.11920028941888,0.19621764289782,-0.26650800929754,-0.013110347865067,0.017190115606187,0.0036352252818067,-0.4126255549531,0.13109596654553,-1.9269836957564,0.023398323343911,0.10374591889447,-0.063814618723677,-0.0074039241719468,0.014652229464593,0.02714479596208,0.0075971532450048,-1.7390694485978,-0.019931852261711,-0.010302923752133,0.15749450752623,-0.18379586435144,-0.002230498098603,-0.0015480687543507,0.016562412930308,-0.98374114828224,-0.013719512334291,-0.0065315529961092,-0.12223393506858,0.0024911547389652,0.056839213124133,-0.015839900684756,731.84846583144,731.84846583144,731.72557799573,731.72557799573,732.11022225767,732.09613598512,731.89329905462,731.81271935998,731.97748241984,732.02300766901,731.79470224351,731.70186649237,731.95144278193,732.01780707276,732.03920070278,731.95795643502,731.84517260541,732.11740860387,732.11549961287,731.82481376568,731.76545088617,732.03125077366,732.05515382212,731.95144278193,731.75263595201,731.68787849594,732.09147432134,732.05944834535,731.95866026007,731.86995883838,731.9228389493,731.99168956182,731.84929008015,731.74026144602,732.03899957134,732.04793956757,732.0318255597,731.98215514192,731.88046775532,731.96643298674,732.02406666084,731.94453834692,731.8281189091,732.03899957134,731.96957300815,731.96957300815,732.10082473687,732.10082473687,702.72366449079,1494.1512114198,502.66001008035,1731.9755631992,431.32475041726,0
4.17e-05,31250372.278188,2.8677969450844e-06,1.2377624374344e-05,2.6119207346601e-06,1.002462618849,607.26124537478,607.26124537478,607.13456288034,607.13456288034,607.53398142627,607.51945460418,607.30958768071,607.22455262404,607.3954641453,607.44389483202,607.20725583525,607.1090212592,607.37040344668,607.43796239697,607.46101594356,607.37732605516,607.25812289806,607.54127538999,607.53950968516,607.23823673616,607.17555129188,607.45147732377,607.47696903395,607.37040344668,607.16325581789,607.09476127918,607.51477260553,607.48134308386,607.37756460087,607.284035842,607.33857737367,607.41170430548,607.26418227337,607.14875817428,607.46083900425,607.4696214139,607.45303195679,607.40229321644,607.29497095175,607.38424475188,607.44557436803,607.36343988648,607.24025008202,607.46083900425,607.38782849221,607.38782849221,607.52404528323,607.52404528323,-0.15241988206599,-0.0018549893301612,-0.15620234770927,-0.10847818108734,0.080714171090626,0.23422655049693,-0.1948525985807,0.0044664474322182,0.025133368402319,0.0045177534252284,0.047779478180307,-2.6646252174678,-8.6368985540565e-05,-0.004734384082207,0.075295723808228,-0.62254969635678,-0.012604316699097,0.12472493297177,0.19861607299809,-0.27242899016864,-0.013455752737605,0.018015287321436,0.0038138661460039,-0.42348177790682,0.13518904853731,-1.9843760649476,0.024448884304151,0.10537970883306,-0.065323480342898,-0.0077190290606717,0.015338019257223,0.028123404491678,0.0078369172877282,-1.792300240102,-0.020573588276073,-0.010807160470424,0.16381414027918,-0.18797647919695,-0.0023383734962812,-0.0016078384452541,0.017194547811818,-1.0072791458901,-0.014382178499244,-0.0068075669529764,-0.12736445173674,0.0027157281103104,0.059566067309081,-0.017552712797076,731.83438224941,731.83438224941,731.70769975497,731.70769975497,732.1071183009,732.09259147881,731.88272455534,731.79768949867,731.96860101993,732.01703170664,731.78039270988,731.68215813382,731.94354032131,732.0110992716,732.03415281819,731.95046292978,731.83125977269,732.11441226461,732.11264655979,731.81137361078,731.74868816651,732.0246141984,732.05010590858,731.94354032131,731.73639269252,731.66789815381,732.08790948016,732.05447995849,731.9507014755,731.85717271663,731.91171424829,731.98484118011,731.837319148,731.72189504891,732.03397587887,732.04275828852,732.02616883142,731.97543009107,731.86810782638,731.95738162651,732.01871124266,731.93657676111,731.81338695665,732.03397587887,731.96096536683,731.96096536683,732.09718215786,732.09718215786,708.13385290898,1498.0925016907,505.58862515723,1733.1073114612,433.50566146248,0
4.18e-05,31371883.301209,2.8747532343438e-06,1.2407329913259e-05,2.6203440588288e-06,1.0024861473292,607.24480938183,607.24480938183,607.11424830958,607.11424830958,607.52886121831,607.51388061363,607.29680687942,607.20715504799,607.3843847262,607.4358282169,607.1906325257,607.08679939649,607.36037570225,607.42913464725,607.45391078822,607.36772501139,607.24186946833,607.53626102218,607.53464551405,607.2225030591,607.15637375717,607.44271061248,607.46984992963,607.36037570225,607.14463678267,607.0722668213,607.50918517102,607.47430472265,607.367476082,607.26894654801,607.32518735023,607.40274827084,607.24996888588,607.1279132291,607.45376465002,607.46237262517,607.44529358435,607.39347956625,607.28031942772,607.3729975175,607.43815926847,607.35335762039,607.22315021971,607.45376465002,607.37704366718,607.37704366718,607.5183644469,607.5183644469,-0.15682415186542,-0.0019483883948048,-0.16098021919255,-0.11142890636882,0.084335530935972,0.23812137636374,-0.19937766134684,0.0046762341645413,0.026323485751463,0.0047186089838296,0.049245973320782,-2.7446977304677,-8.8779204647865e-05,-0.0049647107597809,0.078223238291871,-0.63680438645431,-0.013213710543094,0.13047453728777,0.20096859824562,-0.27843584500368,-0.013800985381428,0.018877528593692,0.0040002875411978,-0.43457377337956,0.13933665891466,-2.0425490231804,0.025539052351883,0.10702636970738,-0.066850057956431,-0.0080471742444429,0.016052375441715,0.029133233583018,0.0080792609973922,-1.8462796580172,-0.021229163187129,-0.011334442118043,0.17035688205589,-0.19222225429854,-0.0024510403693492,-0.0016694791162818,0.017847075044467,-1.0312317280583,-0.015074524412823,-0.0070960588430495,-0.1326885087283,0.0029512341009828,0.062410574867142,-0.019355402570503,731.81986951302,731.81986951302,731.68930844077,731.68930844077,732.1039213495,732.08894074482,731.87186701061,731.78221517919,731.95944485739,732.01088834809,731.76569265689,731.66185952768,731.93543583344,732.00419477844,732.02897091941,731.94278514258,731.81692959952,732.11132115337,732.10970564525,731.79756319029,731.73143388836,732.01777074367,732.04491006082,731.93543583344,731.71969691386,731.64732695249,732.08424530221,732.04936485384,731.94253621319,731.8440066792,731.90024748142,731.97780840204,731.82502901707,731.70297336029,732.02882478121,732.03743275636,732.02035371554,731.96853969744,731.85537955891,731.94805764869,732.01321939966,731.92841775159,731.7982103509,732.02882478121,731.95210379837,731.95210379837,732.09342457809,732.09342457809,713.40690964213,1502.0166620566,508.51265146155,1734.2250989334,435.69170328647,0
4.19e-05,31493904.814483,2.8817102129213e-06,1.2437035956537e-05,2.6288235873675e-06,1.0025097163062,607.22788045877,607.22788045877,607.09335605028,607.09335605028,607.52358786036,607.50813959852,607.28368119875,607.18924887449,607.37296838989,607.42753295152,607.17355561551,607.06392151164,607.35008466183,607.42004925996,607.44661079198,607.35787893261,607.22513495995,607.53109154986,607.52963288567,607.20633627847,607.13664008802,607.43367550633,607.46252177775,607.35008466183,607.12550144503,607.04911578659,607.50343833979,607.46705846617,607.3571200967,607.25341385199,607.31139242966,607.39354651437,607.23537395265,607.10644762771,607.44650274822,607.45491924115,607.43733569321,607.3844400739,607.26523630592,607.36141582073,607.43054697177,607.34301694217,607.20554170801,607.44650274822,607.36594274924,607.36594274924,607.5125078685,607.5125078685,-0.16126835199581,-0.0020463559552048,-0.16582635573978,-0.11433870069628,0.088095849131078,0.2420368329219,-0.20396142371818,0.0048935426007848,0.027564856441133,0.0049265263369333,0.050728453948635,-2.8258825315775,-9.1211518510263e-05,-0.0052054068413619,0.081249197584112,-0.65128682105454,-0.013850493751318,0.13645630058005,0.20327331462902,-0.28453119982264,-0.014145604220031,0.019778348699321,0.0041947501076593,-0.4459050196863,0.14353615673803,-2.1014723355877,0.026669815262934,0.1086869500708,-0.068394365300539,-0.0083889033790336,0.016796282331319,0.030174762389501,0.0083239439059702,-1.9009776539893,-0.021898720293796,-0.01188572107709,0.17712959865586,-0.19653329590234,-0.0025686837140789,-0.0017330387258468,0.018520576746895,-1.0556024813134,-0.015797745622874,-0.0073976676123162,-0.13821238798404,0.0031980898948589,0.065376930088,-0.021251138558014,731.80492124573,731.80492124573,731.67039683724,731.67039683724,732.10062864732,732.08518038548,731.86072198572,731.76628966145,731.95000917686,732.00457373848,731.75059640247,731.6409622986,731.9271254488,731.99709004692,732.02365157895,731.93491971957,731.80217574692,732.10813233682,732.10667367264,731.78337706544,731.71368087498,732.0107162933,732.03956256471,731.9271254488,731.702542232,731.62615657355,732.08047912675,732.04409925313,731.93416088366,731.83045463895,731.88843321662,731.97058730133,731.81241473961,731.68348841467,732.02354353519,732.03196002811,732.01437648017,731.96148086086,731.84227709289,731.9384566077,732.00758775873,731.92005772913,731.78258249498,732.02354353519,731.94298353621,731.94298353621,732.08954865547,732.08954865547,718.5447571958,1505.922442263,511.431821905,1735.3291560172,437.88262052275,0
4.2e-05,31616436.950449,2.8886676546959e-06,1.2466742510646e-05,2.6373595238361e-06,1.0025333247174,607.21045138139,607.21045138139,607.0718780543,607.0718780543,607.51815746721,607.5022269954,607.27020520064,607.17082647753,607.36120940898,607.41900407088,607.15601849459,607.04037846937,607.33952537192,607.41070167009,607.43911138958,607.34778338567,607.20791215535,607.52576290544,607.52446742814,607.18973001594,607.11634225793,607.42436685331,607.4549797438,607.33952537192,607.10584254252,607.02529908876,607.49752833075,607.4595994033,607.34649199877,607.23743073113,607.29718626626,607.38409401031,607.22039153947,607.08435263019,607.43904945464,607.44725725134,607.42915343577,607.3751705546,607.24971479902,607.34949425882,607.42273296733,607.33241318492,607.18741710209,607.43904945464,607.3545199362,607.3545199362,607.50647107282,607.50647107282,-0.16574865340033,-0.0021490968365315,-0.17073902702327,-0.11719937174953,0.09199901929891,0.24597382254101,-0.20860455279194,0.0051184623923626,0.028859394467305,0.005141552736479,0.052225681872983,-2.9081379248523,-9.3663410531417e-05,-0.0054568841807255,0.084376515221531,-0.66599794820269,-0.014515779711825,0.14267753454262,0.20552828782088,-0.29071779495163,-0.014489170739396,0.020719308624368,0.004397517484743,-0.45747891233652,0.14778485574698,-2.1611142254716,0.027842154821968,0.11036253422588,-0.069956416969823,-0.0087447800123083,0.017570748019275,0.031248419190735,0.008570720934248,-1.9563626261607,-0.022582418104271,-0.012461981816477,0.18413933161048,-0.20090967876522,-0.002691493742733,-0.0017985668048584,0.019215654234148,-1.0803948583295,-0.016553077747292,-0.007713063834918,-0.14394251156204,0.0034567307361827,0.068469418851146,-0.023243174571438,731.78953125755,731.78953125755,731.65095793046,731.65095793046,732.09723734337,732.08130687156,731.84928507681,731.74990635369,731.94028928515,731.99808394704,731.73509837075,731.61945834553,731.91860524808,731.98978154626,732.01819126575,731.92686326183,731.78699203151,732.1048427816,732.1035473043,731.7688098921,731.6954221341,732.00344672948,732.03405961997,731.91860524808,731.68492241869,731.60437896492,732.07660820692,732.03867927946,731.92557187494,731.8165106073,731.87626614243,731.96317388648,731.79947141564,731.66343250635,732.0181293308,732.02633712751,732.00823331194,731.95425043076,731.82879467519,731.92857413498,732.00181284349,731.91149306109,731.76649697826,732.0181293308,731.93359981237,731.93359981237,732.08555094899,732.08555094899,723.54958194036,1509.8085512326,514.34586989398,1736.419697977,440.07815619245,0
4.21e-05,31739479.792515,2.8956253167211e-06,1.2496449582157e-05,2.6459520262749e-06,1.0025569714563,607.19251513572,607.19251513572,607.04980649964,607.04980649964,607.51256607103,607.49613812059,607.2563734947,607.15188040158,607.34910213699,607.41023654773,607.13801467927,607.01616143633,607.32869284361,607.40108734466,607.4314079247,607.33743390652,607.19019401506,607.52027093342,607.51914463947,607.17267800722,607.09547244841,607.41477951602,607.44721892034,607.32869284361,607.08565299065,607.00080793516,607.49145128912,607.45192253684,607.33558713423,607.22099028137,607.28256265591,607.37438568172,607.20501577788,607.06161978346,607.43140087127,607.43938262634,607.42074189625,607.36566678692,607.23374824715,607.33722752499,607.41471265385,607.3215416527,607.16876916721,607.43140087127,607.34276944069,607.34276944069,607.50024949823,607.50024949823,-0.17026110281324,-0.0022568223398894,-0.17571653598637,-0.12000248595946,0.096048964106482,0.24993329364248,-0.21330774324594,0.0053510723402464,0.030209069576535,0.0053637143212012,0.053736403198718,-2.9914201144982,-9.6132057216711e-05,-0.0057195669247536,0.087608187452809,-0.68093861946546,-0.015210720015484,0.14914565999602,0.20773155026543,-0.2969984827189,-0.014831251960838,0.021702022170875,0.0046088559768338,-0.46929876315519,0.15208004361682,-2.2214414290722,0.029057045145746,0.11205423958298,-0.071536228262944,-0.0091153877376148,0.018376804660077,0.032354576331209,0.0088193440673215,-2.0124014827912,-0.023280432375427,-0.013064241296553,0.19139329968565,-0.20535145004238,-0.0028196658936839,-0.0018661145044762,0.019932928538739,-1.1056121878409,-0.017341797260569,-0.0080429507601541,-0.14988544053274,0.0037276105489767,0.071692417074075,-0.025334850745675,731.77369362812,731.77369362812,731.63098499205,731.63098499205,732.09374456344,732.07731661299,731.8375519871,731.73305889399,731.9302806294,731.99141504014,731.71919317168,731.59733992874,731.90987133602,731.98226583707,732.01258641711,731.91861239893,731.77137250747,732.10144942583,732.10032313187,731.75385649963,731.67665094081,731.99595800843,732.02839741275,731.90987133602,731.66683148306,731.58198642757,732.07262978153,732.03310102925,731.91676562664,731.80216877378,731.86374114832,731.95556417412,731.78619427029,731.64279827587,732.01257936368,732.02056111875,732.00192038866,731.94684527933,731.81492673956,731.9184060174,731.99589114626,731.9027201451,731.74994765962,732.01257936368,731.92394793309,731.92394793309,732.08142799064,732.08142799064,728.42382679348,1513.6736569674,517.25452832737,1737.4969233433,442.2780514472,0
4.22e-05,31863033.41784,2.9025829389876e-06,1.2526157177727e-05,2.6546012069812e-06,1.0025806553791,607.174064928,607.174064928,607.02713380074,607.02713380074,607.50680962033,607.48986816826,607.24218074149,607.13240336997,607.33664101351,607.40122529287,607.11953781884,606.99126189479,607.31758205365,607.39120178563,607.42349564916,607.32682600085,607.17197368654,607.51461138936,607.51365988534,607.15517410787,607.07402305871,607.40490837444,607.43923432686,607.31758205365,607.06492589127,606.97563383999,607.48520328554,607.44402278277,607.32440084256,607.20408572384,607.26751554341,607.36441640103,607.18924086955,607.03824093437,607.42355304606,607.43129131889,607.41209609059,607.35592451319,607.2173301248,607.32461041391,607.40648133853,607.31039762136,607.14959088866,607.42355304606,607.33068549293,607.33068549293,607.49383849599,607.49383849599,-0.17480163357475,-0.0023697501919923,-0.18075723606155,-0.12273937913812,0.10024963148859,0.25391624066923,-0.21807171657892,0.0055914399543302,0.031615908050222,0.0055930143530533,0.055259356465635,-3.0756832948712,-9.861428831476e-05,-0.005993891621003,0.090947294097968,-0.69610959734941,-0.015936505406283,0.15586820195293,0.20988110182737,-0.30337622496128,-0.015171422924441,0.022728157053568,0.004829034211015,-0.48136779946143,0.1564190007068,-2.2824192591083,0.030315450968545,0.11376321568817,-0.073133815077327,-0.0095013302389798,0.019215508641437,0.033493545121222,0.0090695640207011,-2.0690597159566,-0.023992958140034,-0.013693549519125,0.19889889925451,-0.20985863317228,-0.0029534008305973,-0.0019357346619964,0.020673040714972,-1.1312576844655,-0.018165222406914,-0.0083880654567698,-0.15604787318293,0.0040112025252031,0.075050388844089,-0.027529593696538,731.75740263618,731.75740263618,731.61047150892,731.61047150892,732.09014732851,732.07320587644,731.82551844967,731.71574107815,731.91997872169,731.98456300106,731.70287552702,731.57459960297,731.90091976183,731.97453949382,732.00683335735,731.91016370903,731.75531139472,732.09794909754,732.09699759352,731.73851181605,731.65736076689,731.98824608263,732.02257203504,731.90091976183,731.64826359946,731.55897154818,732.06854099373,732.02736049095,731.90773855074,731.78742343203,731.8508532516,731.94775410922,731.77257857773,731.62157864256,732.00689075424,732.01462902708,731.99543379877,731.93926222137,731.80066783299,731.90794812209,731.98981904671,731.89373532954,731.73292859684,732.00689075424,731.91402320111,731.91402320111,732.07717620417,732.07717620417,733.17016967563,1517.5163863827,520.15752901616,1738.5610134149,444.48204541642,0
4.23e-05,31987097.943296,2.9095402442878e-06,1.2555865304141e-05,2.6633071314419e-06,1.0026043753113,607.15509419393,607.15509419393,607.00385261794,607.00385261794,607.50088397882,607.48341220851,607.22762165542,607.11238829258,607.32382056889,607.39196515527,607.10058170144,606.96567165539,607.30618794521,607.38104053258,607.41536972202,607.31595514462,607.15324451226,607.50877993875,607.50800839687,607.13721229852,607.05198671485,607.39474832844,607.43102090956,607.30618794521,607.0436545403,606.94976863663,607.47878031516,607.43589496937,607.31292845772,607.18671041089,607.25203902936,607.35418099061,607.17306109024,607.01420824192,607.41550197239,607.42297926472,607.40321096627,607.34593943965,607.20045404717,607.3116378266,607.39803423612,607.29897633935,607.12987548104,607.41550197239,607.31826234325,607.31826234325,607.48723332937,607.48723332937,-0.17936607644038,-0.0024881043952422,-0.18585954866814,-0.1254011670955,0.10460499100114,0.25792370257551,-0.22289722043392,0.005839621108391,0.03308199374887,0.0058294315120049,0.056793281076416,-3.1608797400474,-0.00010110654583905,-0.0062803071898616,0.094397000254103,-0.71151156465245,-0.016694366629358,0.16285278481574,0.21197490927411,-0.30985409046876,-0.015509269168816,0.023799435958074,0.0050583228089709,-0.49368916526146,0.16079901944846,-2.3440116677968,0.031618325993379,0.11549064249601,-0.074749193914236,-0.0099032312954047,0.020087941154757,0.034665570915525,0.0093211319612172,-2.1263014753701,-0.024720211688321,-0.014350989806788,0.20666370599424,-0.21443123228939,-0.0030929043620085,-0.002007481832631,0.021436652393179,-1.1573344620031,-0.019024714013988,-0.0087491798147651,-0.16243664373839,0.0043079998245986,0.078547884581208,-0.029830916738231,731.740652752,731.740652752,731.589411176,731.589411176,732.08644253689,732.06897076657,731.81318021348,731.69794685065,731.90937912696,731.97752371333,731.6861402595,731.55123021345,731.89174650327,731.96659909064,732.00092828009,731.90151370269,731.73880307033,732.09433849682,732.09356695493,731.72277085658,731.63754527291,731.9803068865,732.01657946763,731.89174650327,731.62921309837,731.5353271947,732.06433887322,732.02145352743,731.89848701579,731.77226896895,731.83759758742,731.93973954868,731.7586196483,731.59976679999,732.00106053045,732.00853782278,731.98876952434,731.93149799771,731.78601260524,731.89719638466,731.98359279419,731.88453489741,731.7154340391,732.00106053045,731.90382090131,731.90382090131,732.07279188743,732.07279188743,737.7915116292,1521.3353255471,523.05460198417,1739.6121316632,446.68987496208,0
4.24e-05,32111673.573771,2.9164969379347e-06,1.2585573968261e-05,2.6720698176276e-06,1.0026281300552,607.13559660733,607.13559660733,606.97995586627,606.97995586627,607.49478492435,607.47676518542,607.21269100727,607.09182827305,607.31063542861,607.38245092208,607.08114025949,606.93938286903,607.29450542852,607.37059916507,607.40702520862,607.30481678437,607.13400003726,607.50277215585,607.50218526837,607.1187866896,607.02935627794,607.38429429995,607.42257354106,607.29450542852,607.02183243475,606.9232044891,607.47217829656,607.42753383633,607.30116530897,607.16885783151,607.2361273764,607.34367422302,607.15647079335,606.98951418865,607.40724358863,607.4144423832,607.39408140204,607.33570723653,607.18311377597,607.29830477504,607.38936646807,607.28727302819,607.10961639687,607.40724358863,607.30549426423,607.30549426423,607.48042917282,607.48042917282,-0.18395017145071,-0.0026121150926308,-0.19102198059024,-0.12797875638359,0.10911903050714,0.26195676298491,-0.2277850293035,0.0060956597443243,0.03460946926831,0.0060729182565004,0.058336925684286,-3.2469599047189,-0.00010360484673603,-0.0065792749807137,0.097960557314266,-0.72714513719407,-0.017485575216615,0.17010712793378,0.21401090717543,-0.31643525395621,-0.015844389289163,0.024917638123827,0.0052969940647038,-0.50626592399282,0.16521742362596,-2.4061813164991,0.032966611386586,0.11723772950025,-0.07638238247815,-0.010321734664098,0.020995208530893,0.035870828341056,0.009573801217632,-2.1840896517094,-0.02546243255588,-0.015037679294336,0.2146954752861,-0.21906923775533,-0.0032383874055428,-0.0020814123285834,0.022224446146226,-1.1838455515076,-0.019921676195758,-0.009127101741263,-0.16905872022189,0.0046185161101048,0.082189539226715,-0.032242419943071,731.72343874709,731.72343874709,731.56779800603,731.56779800603,732.08262706411,732.06460732518,731.80053314703,731.67967041281,731.89847756837,731.97029306184,731.66898239925,731.52722500879,731.88234756828,731.95844130483,731.99486734838,731.89265892414,731.72184217702,732.09061429561,732.09002740813,731.70662882936,731.6171984177,731.97213643971,732.01041568082,731.88234756828,731.60967457451,731.51104662886,732.06002043633,732.01537597609,731.88900744873,731.75669997127,731.82396951616,731.93151636278,731.74431293311,731.57735632841,731.99508572839,732.00228452297,731.9819235418,731.92354937629,731.77095591573,731.8861469148,731.97720860783,731.87511516795,731.69745853663,731.99508572839,731.89333640399,731.89333640399,732.06827131258,732.06827131258,742.29095736502,1525.1290202098,525.94547490117,1740.6504233896,448.90127448551,0
4.25e-05,32236760.653498,2.9234527072795e-06,1.2615283177055e-05,2.6808892355375e-06,1.0026519183974,607.11556608793,607.11556608793,606.95543672336,606.95543672336,607.48850814758,607.4699219151,607.19738362627,607.07071661514,607.29708031716,607.37267731852,607.06120757443,606.91238803782,607.28252938118,607.35987330473,607.39845707949,607.29340633729,607.11423401596,607.49658352243,607.49618545518,607.09989152551,607.00612485172,607.37354123497,607.41388701987,607.28252938118,606.99945327906,606.89593390259,607.46539307074,607.41893403368,607.28910672129,607.15052161626,607.21977501499,607.33289082111,607.13946441297,606.96415159115,607.39877377736,607.40567657788,607.3847022074,607.32522353783,607.16530322468,607.28460638625,607.38047306137,607.27528288272,607.08880733447,607.39877377736,607.29237555258,607.29237555258,607.47342111097,607.47342111097,-0.18854958003999,-0.0027420183817914,-0.19624314042446,-0.13046285770166,0.11379575231095,0.26601655098216,-0.23273594413372,0.006359587646918,0.036200536727857,0.006323399266041,0.059889056470078,-3.3338725395751,-0.00010610473125552,-0.0068912687189923,0.10164130339161,-0.74301087484207,-0.018311444215362,0.17763904020926,0.21598699981204,-0.32312299333662,-0.016176397395719,0.026084600251459,0.0055453216260256,-0.51910106091582,0.1696715871935,-2.4688896591449,0.034361234143524,0.11900571521158,-0.0780333999135,-0.010757503921091,0.021938442614838,0.037109416656548,0.0098273289804999,-2.2423859671488,-0.026219885378528,-0.01575476913987,0.22300214186829,-0.22377263106304,-0.0033900658317135,-0.0021575842500712,0.023037125633777,-1.2107939171986,-0.020857557040825,-0.0095226761155727,-0.17592120219813,0.0049432861006136,0.085980070022923,-0.034767789777057,731.70575557909,731.70575557909,731.54562621453,731.54562621453,732.07869763874,732.06011140627,731.78757311744,731.66090610631,731.88726980832,731.96286680969,731.6513970656,731.50257752899,731.87271887234,731.9500627959,731.98864657066,731.88359582846,731.70442350713,732.0867730136,732.08637494634,731.69008101667,731.59631434289,731.96373072613,732.00407651103,731.87271887234,731.58964277022,731.48612339375,732.05558256191,732.00912352485,731.87929621246,731.74071110742,731.80996450616,731.92308031227,731.72965390413,731.55434108231,731.98896326853,731.99586606904,731.97489169857,731.91541302899,731.75549271585,731.87479587742,731.97066255253,731.86547237389,731.67899682563,731.98896326853,731.88256504375,731.88256504375,732.06361060213,732.06361060213,746.67180026437,1528.8959762265,528.82987237822,1741.6760149096,451.11597569445,0
4.26e-05,32362359.719163,2.9304072218194e-06,1.2644992937602e-05,2.6897653065262e-06,1.0026757391159,607.09499680853,607.09499680853,606.93028863652,606.93028863652,607.48204925077,607.4628770837,607.18169440182,607.0490468285,607.28315006142,607.36263900749,607.04077788089,606.88468002492,607.27025464829,607.34885861695,607.38966020923,607.28171919105,607.09394041829,607.49020942654,607.49000377141,607.08052118811,606.98228578925,607.36248410511,607.40495606983,607.27025464829,606.97651099061,606.86794973287,607.45842039984,607.4100901207,607.27674801568,607.1316955415,607.20297654851,607.32182545796,607.12203646641,606.93811360949,607.39008836459,607.39667773664,607.37506812203,607.31448394093,607.14701646321,607.27053790589,607.37134894743,607.26300107116,607.06744224496,607.39008836459,607.2789005306,607.2789005306,607.46620413759,607.46620413759,-0.19315989713787,-0.002878056096579,-0.20152175581688,-0.13284399732281,0.11863916999132,0.27010424125297,-0.2377507935156,0.0066314242687446,0.037857458665992,0.0065807700190352,0.061448465447333,-3.4215647995179,-0.00010860121452107,-0.0072167744604121,0.10544266397803,-0.75910929482129,-0.019173328978624,0.1854564154669,0.21790106170668,-0.3299206888444,-0.016504925756563,0.027302217472764,0.0058035801870868,-0.53219748701793,0.17415895347256,-2.5320970173641,0.035803105729271,0.12079586654678,-0.07970226778827,-0.011211222197844,0.022918801204789,0.038381355457148,0.010081477981436,-2.3011510635641,-0.026992861880924,-0.016503444842761,0.23159181972616,-0.22854139058997,-0.0035481603818716,-0.002236057491447,0.023875415831503,-1.2381824757412,-0.021833849305684,-0.0099367859469348,-0.18303131834827,0.0052828661280306,0.08992427435712,-0.037410799658313,731.68759849699,731.68759849699,731.52289032499,731.52289032499,732.07465093923,732.05547877217,731.77429609028,731.64164851697,731.87575174989,731.95524069595,731.63337956936,731.47728171339,731.86285633676,731.94146030542,731.9822618977,731.87432087951,731.68654210676,732.082811115,732.08260545987,731.67312287658,731.57488747772,731.95508579358,731.99755775829,731.86285633676,731.56911267908,731.46055142134,732.0510220883,732.00269180917,731.86934970415,731.72429722997,731.79557823698,731.91442714643,731.71463815487,731.53071529796,731.98269005306,731.98927942511,731.9676698105,731.9070856294,731.73961815167,731.86313959435,731.9639506359,731.85560275963,731.66004393343,731.98269005306,731.87150221907,731.87150221907,732.05880582605,732.05880582605,750.93750643043,1532.6346602187,531.70751542068,1742.6890131237,453.33370735454,0
4.27e-05,32488471.555445,2.9373601327253e-06,1.2674703257058e-05,2.6986979034484e-06,1.0026995909886,607.07388320127,607.07388320127,606.90450532881,606.90450532881,607.47540374635,607.45562524535,607.16561828461,607.02681263355,607.26883959366,607.35233058905,607.0198455701,606.85625206339,607.25767604229,607.33755081225,607.38062937514,607.26975070339,607.07311343505,607.48364516107,607.48363488777,607.06067019967,606.95783269875,607.35111790892,607.39577533933,607.25767604229,606.95299970454,606.83924519477,607.45125596585,607.40099656457,607.26408450899,607.11237353311,607.18572675774,607.3104727565,607.10418155626,606.91139375575,607.3811831187,607.38744173179,607.36517381497,607.30348400602,607.12824772185,607.25609470133,607.36198896078,607.2504227348,607.04551533859,607.3811831187,607.2650635473,607.2650635473,607.45877315443,607.45877315443,-0.19777666476582,-0.0030204755951909,-0.20685668918951,-0.13511253121323,0.12365330450747,0.27422105717529,-0.24283043483254,0.006911176615818,0.039582559185507,0.0068448955222136,0.063013978351522,-3.5099823766758,-0.00011108873375689,-0.0075562905122161,0.10936815224441,-0.77544088621726,-0.020072627998277,0.19356722651099,0.21975094180146,-0.3368318217573,-0.016829627375825,0.02857244468123,0.0060720451681233,-0.54555804415286,0.17867705313607,-2.5957626745383,0.037293120555045,0.12260947939358,-0.081389011051111,-0.011683591822023,0.023937468614515,0.03968658076836,0.01033601810234,-2.360344607543,-0.027781682605087,-0.017284926416705,0.24047280128884,-0.23337549748182,-0.0037128965622311,-0.0023168937603408,0.024740063154685,-1.2660141176752,-0.022852091200706,-0.010370353334137,-0.19039642360103,0.005637834638407,0.094027026912294,-0.040175309124893,731.66896294425,731.66896294425,731.4995850718,731.4995850718,732.07048348933,732.05070498834,731.7606980276,731.62189237653,731.86391933664,731.94741033203,731.61492531309,731.45133180637,731.85275578528,731.93263055523,731.97570911813,731.86483044637,731.66819317804,732.07872490405,732.07871463075,731.65574994266,731.55291244174,731.9461976519,731.99085508232,731.85275578528,731.54807944752,731.43432493775,732.04633570884,731.99607630756,731.85916425198,731.70745327609,731.78080650073,731.90555249949,731.69926129925,731.50647349874,731.97626286168,731.98252147478,731.96025355795,731.898563749,731.72332746483,731.85117444431,731.95706870377,731.84550247779,731.64059508158,731.97626286168,731.86014329028,731.86014329028,732.05385289741,732.05385289741,755.09169638049,1536.3435007178,534.57812083794,1743.6895051504,455.55419506876,0
4.28e-05,32615097.251684,2.9443110730109e-06,1.2704414142747e-05,2.7076868491217e-06,1.0027234728002,607.05221996306,607.05221996306,606.87808080428,606.87808080428,607.46856705548,607.44816082011,607.14915028747,607.00400796563,607.25414395385,607.3417465997,606.99840519262,606.82709776381,607.24478834249,607.32594564729,607.37135925589,607.25749620147,607.05174748245,607.47688592235,607.47707332932,607.04033322513,606.93275944858,607.33943767275,607.38633940039,607.24478834249,606.92891377754,606.80981386936,607.44389536926,607.39164773898,607.25111151356,607.09254966937,607.16802060466,607.29882728897,607.08589437186,606.88398590135,607.37205374931,607.37796441981,607.35501388364,607.29221925518,607.1089913946,607.24127226424,607.35238783763,607.2375429875,607.02302109007,607.37205374931,607.2508589791,607.2508589791,607.45112296996,607.45112296996,-0.20239538454533,-0.0031695294822834,-0.21224695234095,-0.13725865794702,0.12884218120821,0.27836827006179,-0.24797575591852,0.007198839263901,0.041378224742445,0.0071156092283649,0.064584462009455,-3.599069626495,-0.00011356109088543,-0.007910327306055,0.11342136843941,-0.79200612386653,-0.02101078357807,0.20197952073945,0.22153446304932,-0.34385997387997,-0.017150178361968,0.029897297340484,0.0063509925367584,-0.55918551028814,0.18322352103388,-2.6598449654076,0.038832154764796,0.12444787789713,-0.083093659282615,-0.012175333866178,0.024995656109155,0.041024941528876,0.010590727871492,-2.419925389117,-0.028586698592789,-0.018100468517697,0.24965355522347,-0.23827494138012,-0.0038845044689034,-0.0024001565636466,0.025631835302616,-1.2942917280359,-0.02391386696781,-0.010824340502031,-0.19802399572409,0.0060087926859811,0.098293277882107,-0.043065264545561,731.64984461236,731.64984461236,731.47570545358,731.47570545358,732.06619170478,732.04578546942,731.74677493677,731.60163261494,731.85176860316,731.93937124901,731.59602984193,731.42472241312,731.84241299179,731.9235702966,731.96898390519,731.85512085078,731.64937213176,732.07451057165,732.07469797863,731.63795787444,731.53038409789,731.93706232205,731.98396404969,731.84241299179,731.52653842685,731.40743851866,732.04152001856,731.98927238829,731.84873616287,731.69017431868,731.76564525397,731.89645193827,731.68351902116,731.48161055066,731.96967839861,731.97558906912,731.95263853294,731.88984390448,731.70661604391,731.83889691354,731.95001248693,731.83516763681,731.62064573937,731.96967839861,731.84848362841,731.84848362841,732.04874761927,732.04874761927,759.13813595515,1540.0208893875,537.44140071602,1744.6775578985,457.77716101285,0
4.29e-05,32742238.260403,2.9512596569783e-06,1.273412560197e-05,2.7167319172198e-06,1.0027473833509,607.03000206009,607.03000206009,606.85100935205,606.85100935205,607.46153450645,607.44047809185,607.13228548549,606.98062697833,607.23905829161,607.33088151143,606.97645146038,606.79721112082,607.23158629435,607.31403892549,607.36184442988,607.24495098091,607.02983720585,607.46992680857,607.47031347324,607.01950507359,606.90706017119,607.32743845134,607.37664274751,607.23158629435,606.90424779097,606.7796497101,607.43633412743,607.38203792257,607.23782433646,607.07221818334,607.14985323553,607.28688357604,607.06716969017,606.85588428331,607.3626959059,607.36824164089,607.34458285269,607.28068517135,607.0892420418,607.22606621252,607.34254021431,607.22435691484,606.99995424302,607.3626959059,607.23628123014,607.23628123014,607.44324829799,607.44324829799,-0.20701153125085,-0.0033254753209515,-0.2176917203193,-0.1392724330178,0.13420982654035,0.28254720313465,-0.25318767731974,0.0074943943768654,0.04324690493166,0.0073927121434713,0.066158831379062,-3.6887697036863,-0.00011601139363303,-0.0082794072757823,0.11760599964496,-0.80880548430537,-0.02198928245366,0.2107014149143,0.22324942691119,-0.35100882713352,-0.017466280389588,0.031278852302919,0.0066406985623255,-0.5730826061639,0.18779611226381,-2.7243013721884,0.040421064982043,0.12631241563835,-0.084816248295806,-0.012687187568133,0.02609460237418,0.042396196584179,0.010845395888585,-2.4798514288142,-0.029408292929009,-0.018951360585231,0.25914272460421,-0.24323972656424,-0.0040632184879767,-0.0024859111985835,0.026551521209905,-1.3230182102543,-0.025020807468819,-0.011299750844351,-0.20592163159816,0.0063963644707373,0.10272805034869,-0.046084698887768,731.63023948736,731.63023948736,731.45124677932,731.45124677932,732.06177193372,732.04071551912,731.73252291275,731.58086440559,731.83929571887,731.9311189387,731.57668888764,731.39744854808,731.83182372162,731.91427635276,731.96208185714,731.84518840818,731.63007463311,732.07016423583,732.07055090051,731.61974250086,731.50729759846,731.92767587861,731.97688017477,731.83182372162,731.50448521823,731.37988713737,732.0365715547,731.98227534984,731.83806176373,731.6724556106,731.7500906628,731.88712100331,731.66740711744,731.45612171057,731.96293333317,731.96847906816,731.94482027995,731.88092259861,731.68947946906,731.82630363979,731.94277764158,731.82459434211,731.60019167029,731.96293333317,731.83651865741,731.83651865741,732.04348572526,732.04348572526,763.08070979802,1543.6651823495,540.29706199436,1745.6532178564,460.00232375509,0
4.3e-05,32869896.456709,2.958205480727e-06,1.2763837642237e-05,2.7258328323705e-06,1.0027713214638,607.00722473151,607.00722473151,606.82328554957,606.82328554957,607.45430133307,607.43257120604,607.11501901584,606.95666404583,607.2235778674,607.31972973051,606.95397924789,606.76658651835,607.21806460847,607.3018264972,607.35207937363,607.23211030456,607.00737748265,607.46276281814,607.46334954654,606.99818069925,606.88072926617,607.31511532797,607.36667979641,607.21806460847,606.87899655293,606.74874704774,607.42856767304,607.37216129722,607.22421827843,607.05137346433,607.1312199833,607.27463608579,607.04800237617,606.82708350938,607.35310517632,607.35826921818,607.33387517262,607.26887719697,607.06899439197,607.21047229176,607.3324406256,607.21085957303,606.97630981358,607.35310517632,607.22132473216,607.22132473216,607.43514375614,607.43514375614,-0.21162056612347,-0.0034885752630594,-0.22319034539572,-0.14114378357931,0.13976026479507,0.28675923515579,-0.25846715438667,0.0077978117691662,0.045191113644773,0.007675972195867,0.067736056434129,-3.7790247044138,-0.00011843199225918,-0.0086640646913066,0.12192581870102,-0.82583945859443,-0.0230096562228,0.21974108980792,0.22489361755684,-0.35828216289061,-0.017777663249849,0.032719248941785,0.0069414396199246,-0.58725200123829,0.19239271807821,-2.7890886256527,0.042060687126704,0.12820447680358,-0.086556821710868,-0.013219909730002,0.027235574254417,0.043800012309087,0.01109982219881,-2.5400800876863,-0.030246882244986,-0.019838926892131,0.26894912390124,-0.2482698772135,-0.0042492770380639,-0.0025742247249871,0.027499930737273,-1.3521965055078,-0.026174590506643,-0.011797629884821,-0.21409704333823,0.006801197724062,0.10733643756362,-0.049237731306952,731.61014388372,731.61014388372,731.42620470179,731.42620470179,732.05722048528,732.03549035825,731.71793816806,731.55958319804,731.82649701961,731.92264888272,731.5568984001,731.36950567056,731.82098376068,731.90474564941,731.95499852584,731.83502945677,731.61029663486,732.06568197035,732.06626869875,731.60109985146,731.48364841838,731.91803448018,731.96959894863,731.82098376068,731.48191570514,731.35166619996,732.03148682525,731.97508044944,731.82713743064,731.65429261654,731.73413913551,731.87755523801,731.65092152838,731.43000266159,731.95602432853,731.96118837039,731.93679432484,731.87179634918,731.67191354419,731.81339144397,731.93535977781,731.81377872524,731.5792289658,731.95602432853,731.82424388437,731.82424388437,732.03806290836,732.03806290836,772.1499800655,1547.2747018447,543.14480594071,1746.6165106486,462.22939795768,0
4.31e-05,32998074.198283,2.9651481215735e-06,1.2793550271113e-05,2.7349892694181e-06,1.0027952859924,606.9838834921,606.9838834921,606.79490426466,606.79490426466,607.4468626728,607.42443416749,607.097346077,606.93211376456,607.20769805332,607.30828559611,606.9309835928,606.73521873373,607.20421795924,607.28930425955,607.34205845993,607.21896940105,606.9843634243,607.45538884794,607.45617562377,606.97635520151,606.85376140229,607.30246341418,607.35644488255,607.20421795924,606.85315509957,606.71710059402,607.42059135224,607.36201194613,607.21028863247,607.03001005882,607.11211636921,607.26207923234,607.02838738255,606.79757856197,607.34327708505,607.34804295683,607.32288521823,607.25679073245,607.04824334303,607.19448637601,607.32208350287,607.19704598748,606.95208309298,607.34327708505,607.20598394387,607.20598394387,607.42680386422,607.42680386422,-0.21621795032774,-0.0036590957550662,-0.228742368512,-0.14286252394547,0.14549751535779,0.29100580112005,-0.26381517979566,0.0081090491058286,0.047213429787809,0.0079651238345269,0.069315168022345,-3.8697758134609,-0.00012081441533659,-0.0090648454296271,0.12638468297994,-0.84310856785986,-0.024073482372192,0.2291067855629,0.22646480291399,-0.36568386139086,-0.018084087099163,0.034220689833972,0.007253492071904,-0.60169632072083,0.19701137925392,-2.854162810248,0.04375183545864,0.13012547631642,-0.08831543281541,-0.013774273933235,0.02841986727748,0.045235960750614,0.011353819469285,-2.6005681804288,-0.031102918002647,-0.02076452644868,0.27908173545804,-0.25336544329358,-0.0044429225090999,-0.0026651659203087,0.028477894331961,-1.3818296159942,-0.027376941732736,-0.012319066128978,-0.22255805368739,0.0072239641617061,0.11212360061759,-0.052528567258655,731.58955430339,731.58955430339,731.40057507595,731.40057507595,732.05253348409,732.03010497878,731.70301688829,731.53778457585,731.81336886461,731.9139564074,731.53665440408,731.34088954502,731.80988877053,731.89497507084,731.94772927122,731.82464021233,731.59003423559,732.06105965923,732.06184643506,731.5820260128,731.45943221358,731.90813422547,731.96211569384,731.80988877053,731.45882591086,731.32277140531,732.02626216352,731.96768275742,731.81595944375,731.63568087011,731.7177871805,731.86775004362,731.63405819383,731.40324937325,731.94894789634,731.95371376811,731.92855602951,731.86246154374,731.65391415432,731.8001571873,731.92775431416,731.80271679876,731.55775390427,731.94894789634,731.81165475515,731.81165475515,732.03247467551,732.03247467551,781.86029499926,1550.8477383902,545.98432779629,1747.5674410291,464.45809423547,0
4.32e-05,33126774.385855,2.9720871384532e-06,1.2823263496276e-05,2.7442008540915e-06,1.0028192758285,606.95997413399,606.95997413399,606.76586065659,606.76586065659,607.43921356497,607.41606083812,607.07926192745,606.9069709538,607.19141433321,607.29654337868,606.90745969561,606.70310294043,607.19004098327,607.27646815586,607.33177595589,607.20552346304,606.96079037743,607.44779969148,607.44878562472,606.95402382447,606.82615151859,607.28947784914,607.34593225941,607.19004098327,606.82671869537,606.68470544405,607.4124004228,607.35158385183,607.19603068214,607.00812267048,607.09253810368,607.24920737423,607.00831974893,606.76736480084,607.33320709139,607.33755864273,607.3116072868,607.24442113436,607.02698396262,607.17810446804,607.31146317215,607.18291115114,606.92726964917,607.33320709139,607.19025335,607.19025335,607.41822304243,607.41822304243,-0.22079915836902,-0.0038373071526261,-0.23434753031091,-0.14441837064129,0.15142559012644,0.29528839498917,-0.26923278651139,0.0084280521238656,0.049316498378397,0.0082598679321966,0.070895263378991,-3.9609634535368,-0.00012314930074229,-0.0094823067845073,0.13098653307288,-0.8606133766546,-0.025182384620249,0.23880679718852,0.22796073733473,-0.37321790175167,-0.018385344663276,0.035785441745168,0.0075771321863976,-0.61641815307693,0.20165029891863,-2.9194794698953,0.045495301710392,0.13207686089252,-0.090092146644761,-0.014351069731984,0.02964880640853,0.046703518609934,0.011607214069048,-2.6612720902675,-0.031976887648447,-0.021729553011126,0.28954970597609,-0.25852650562085,-0.0046444007734797,-0.0027588052385549,0.029486262634523,-1.411920625607,-0.02862963498663,-0.012865192051699,-0.2313125915791,0.0076653599500543,0.117094766086,-0.055961498893732,731.56846756119,731.56846756119,731.37435408379,731.37435408379,732.04770699217,732.02455426531,731.68775535464,731.515464381,731.7999077604,731.90503680587,731.51595312281,731.31159636762,731.79853441047,731.88496158305,731.94026938309,731.81401689024,731.56928380463,732.05629311867,732.05727905191,731.56251725167,731.43464494578,731.89797127633,731.95442568661,731.79853441047,731.43521212256,731.29319887125,732.02089384999,731.96007727902,731.80452410934,731.61661609768,731.70103153088,731.85770080142,731.61681317612,731.37585822804,731.94170051858,731.94605206992,731.920100714,731.85291456155,731.63547738982,731.78659789523,731.91995659935,731.79140457834,731.53576307637,731.94170051858,731.79874677719,731.79874677719,732.02671646963,732.02671646963,791.45242869797,1554.3825527846,548.81531637004,1748.5059926196,466.68811890603,0
4.33e-05,33256000.524556,2.9790220718769e-06,1.2852977325502e-05,2.753467163111e-06,1.0028432899097,606.93549272746,606.93549272746,606.73615017613,606.73615017613,607.43134894872,607.40744493447,607.06076188393,606.88123065543,607.17472230212,607.28449727807,606.8834029187,606.67023470954,607.17552827747,607.26331417459,607.32122602086,607.19176764526,606.93665392408,607.43999003688,607.44117331203,606.93118195563,606.79789482432,607.27615379857,607.33513609663,607.17552827747,606.79968283258,606.65155707752,607.40399005209,607.3408708939,607.18143969952,606.98570615953,607.07248108641,607.2360148126,606.98779460043,606.73643796464,607.32289058738,607.32681204101,607.30003559619,607.2317637134,607.0052114878,607.1613226989,607.30057385203,607.16845002256,606.90186532748,607.32289058738,607.17412745979,607.17412745979,607.40939560946,607.40939560946,-0.22535969106773,-0.0040234833602245,-0.24000578090495,-0.14580095864455,0.15754849083492,0.29960857475136,-0.27472105077764,0.0087547548652448,0.051503030878966,0.0085598719942508,0.072475510933058,-4.0525274346446,-0.00012542632085854,-0.0099170172502281,0.13573539084267,-0.878354506392,-0.026338033353423,0.24884946973708,0.2293791666772,-0.38088836160337,-0.018681263515656,0.037415835942896,0.0079126360987365,-0.63142005720751,0.20630785371902,-2.9849937158425,0.047291854216998,0.13406011107339,-0.091887042120206,-0.014951101783965,0.030923746374918,0.048202066927444,0.011859847010525,-2.7221478821986,-0.032869315702669,-0.022735435057787,0.30036234199786,-0.26375318091494,-0.0048539607981951,-0.0028552147536826,0.030525905895861,-1.4424727202348,-0.029934492644434,-0.013437185042065,-0.24036868736473,0.0081261061489926,0.12225522345083,-0.059540904951125,731.54688073362,731.54688073362,731.34753818229,731.34753818229,732.04273695487,732.01883294063,731.67214989008,731.49261866159,731.78611030828,731.89588528423,731.49479092486,731.2816227157,731.78691628363,731.87470218075,731.93261402702,731.80315565141,731.54804193024,732.05137804304,732.05256131819,731.54256996179,731.40928283048,731.88754180473,731.94652410279,731.78691628363,731.41107083873,731.26294508368,732.01537805825,731.95225890006,731.79282770568,731.59709416568,731.68386909257,731.84740281876,731.59918260659,731.3478259708,731.93427859354,731.93820004717,731.91142360235,731.84315171956,731.61659949396,731.77271070506,731.91196185818,731.77983802872,731.51325333364,731.93427859354,731.78551546595,731.78551546595,732.02078361561,732.02078361561,800.92891660204,1557.8773787649,551.63745379613,1749.4321280256,468.91917385382,0
4.34e-05,33385756.783859,2.985952443716e-06,1.2882691766663e-05,2.7627877246588e-06,1.0028673272262,606.91043562069,606.91043562069,606.70576856443,606.70576856443,607.42326366092,607.39858002538,607.04184131918,606.8548881328,607.15761766531,607.27214142145,606.85880878451,606.63661001005,607.1606743969,607.24983834796,607.31040270421,607.17769706222,606.91194988101,607.43195446487,607.43333228886,606.90782512394,606.76898679805,607.26248645325,607.32405047797,607.1606743969,606.77204322974,606.61765135862,607.39535531497,607.3298668467,607.16651094281,606.96275554128,607.05194140567,607.22249578909,606.96680714571,606.70479417112,607.31232289566,607.31579889429,607.2881642826,607.21881373222,606.98292132388,607.14413732697,607.28940965141,607.15365752364,606.87586625027,607.31232289566,607.15760080509,607.15760080509,607.40031578037,607.40031578037,-0.22989508943877,-0.0042179013740675,-0.2457172888165,-0.14699985779944,0.16387020697535,0.30396796475913,-0.28028109513356,0.0090890800022157,0.053775806719984,0.00886477065901,0.074055154621422,-4.1444071214669,-0.0001276341097503,-0.010369556216476,0.14063535715831,-0.89633264699411,-0.027542146109474,0.25924319437276,0.23071783054274,-0.38869941647427,-0.018971708135658,0.039114269261106,0.0082602798451414,-0.64670456969378,0.2109826040609,-3.0506603447408,0.049142237306647,0.13607674229711,-0.093700214340717,-0.015575188859173,0.03224607289324,0.049730891538186,0.012111574766608,-2.7831514297583,-0.033780764612749,-0.023783635518399,0.31152910474531,-0.26904562613223,-0.0050718543033827,-0.0029544680892171,0.031597713297305,-1.4734892057649,-0.031293386034635,-0.01403626809717,-0.24973446745075,0.008606949055062,0.12761032297051,-0.06327125122831,731.52479113498,731.52479113498,731.32012407872,731.32012407872,732.03761917521,732.01293553967,731.65619683347,731.46924364709,731.7719731796,731.88649693574,731.4731642988,731.25096552434,731.7750299112,731.86419386225,731.9247582185,731.79205257651,731.5263053953,732.04630997916,732.04768780315,731.52218063823,731.38334231234,731.87684196754,731.93840599226,731.7750299112,731.38639874403,731.23200687291,732.00971082926,731.94422236099,731.7808664571,731.57711105557,731.66629691996,731.83685130338,731.58116266,731.31914968541,731.92667840995,731.93015440858,731.90251979689,731.83316924651,731.59727683817,731.75849284126,731.9037651657,731.76801303793,731.49022176456,731.92667840995,731.77195631938,731.77195631938,732.01467129466,732.01467129466,810.29195655482,1561.3304256608,554.4504152529,1750.3457887914,471.15095636114,0
4.35e-05,33516048.057952,2.9928777579737e-06,1.2912406827733e-05,2.7721620191411e-06,1.002891386828,606.88479943858,606.88479943858,606.67471185093,606.67471185093,607.41495243397,607.38945952937,607.0224956592,606.82793886859,607.14009623644,607.25946986099,606.83367297308,606.60222520765,607.14547385235,607.2360367501,607.299299943,607.16330678583,606.8866742981,607.42368744651,607.42525599639,606.88394899711,606.73942318556,607.24847102707,607.31266939893,607.14547385235,606.74379582927,606.58298453456,607.38649119151,607.31856537669,607.15123965369,606.93926598394,607.03091533685,607.20864448342,606.94535267439,606.67242991614,607.30149926708,607.30451492063,607.2759873982,607.20556640296,606.9601090425,607.12654473627,607.27796456727,607.13852853719,606.84926881561,607.30149926708,607.14066793792,607.14066793792,607.39097766443,607.39097766443,-0.23440094591107,-0.0044208408576423,-0.25148244790155,-0.14800458862254,0.17039471368819,0.30836825780394,-0.28591409168324,0.0094309392248278,0.05613767366041,0.0091741665517844,0.075633517247392,-4.236541570671,-0.00012976019330665,-0.010840513658421,0.14569060961023,-0.91454856864285,-0.028796487812708,0.2699964044197,0.23197446390382,-0.39665533958126,-0.019256581782331,0.040883204255838,0.0086203394758046,-0.66227421277783,0.21567330211251,-3.1164339402128,0.051047170706031,0.13812830589874,-0.095531776943051,-0.016224162742669,0.033617203147015,0.051289184460703,0.012362269894938,-2.8442385169694,-0.034711835405269,-0.02487565153527,0.32305960467655,-0.27440404263561,-0.0052983351908541,-0.0030566403277127,0.032702592299185,-1.5049735263551,-0.032708235625252,-0.014663710667199,-0.25941814851723,0.0091086606708143,0.13316547368575,-0.067157091362391,731.50219636903,731.50219636903,731.29210878138,731.29210878138,732.03234936442,732.00685645982,731.63989258965,731.44533579904,731.75749316688,731.87686679144,731.45106990353,731.2196221381,731.7628707828,731.85343368054,731.91669687345,731.78070371628,731.50407122855,732.04108437696,732.04265292684,731.50134592756,731.35682011601,731.86586795752,731.93006632938,731.7628707828,731.36119275972,731.200381465,732.00388812196,731.93596230713,731.76863658414,731.55666291438,731.64831226729,731.82604141387,731.56274960484,731.28982684658,731.91889619753,731.92191185107,731.89338432865,731.8229633334,731.57750597294,731.74394166672,731.89536149771,731.75592546763,731.46666574606,731.91889619753,731.75806486836,731.75806486836,732.00837459488,732.00837459488,819.54340863643,1564.7398816023,557.25386883216,1751.2468957014,473.38315900364,0
4.36e-05,33646880.024647,2.9997975003317e-06,1.2942122516788e-05,2.7815894795316e-06,1.0029154678312,606.85858108056,606.85858108056,606.64297635023,606.64297635023,607.40640989348,607.38007671213,607.00272038001,606.80037856191,607.12215393535,607.24647657131,606.80799131884,606.56707706246,607.12992110763,607.22190549479,607.28791155953,607.14859184267,606.8608234559,607.41518334093,607.4169377114,606.85954937829,606.70919999691,607.23410275469,607.3009867644,607.12992110763,606.71493679424,606.54755323307,607.37739256467,607.30696003981,607.13562105439,606.91523280567,607.00939934019,607.19445501083,606.92342655405,606.6393420715,607.2904148783,607.29295581131,607.26349890859,607.19201688464,606.93677037899,607.10854143428,607.26623248212,607.12305790421,606.82206969497,607.2904148783,607.12332342769,607.12332342769,607.38137526272,607.38137526272,-0.23887291865154,-0.0046325837100517,-0.25730188323792,-0.14880463964638,0.17712597012635,0.31281121880086,-0.29162126500411,0.0097802336382123,0.058591548673828,0.0094876314433538,0.077210003410632,-4.3288697098431,-0.00013179089815932,-0.011330489817958,0.15090539949115,-0.93300313098,-0.030102870975991,0.28111757179898,0.23314680011033,-0.40476050066598,-0.019535828227728,0.042725169814445,0.0089930912008546,-0.67813150103307,0.2203788988499,-3.1822689978903,0.053007349171925,0.14021639090189,-0.097381864493806,-0.016898867117734,0.035038586574552,0.05287604602544,0.012611821572742,-2.9053649736149,-0.035663168245443,-0.026013014273875,0.33496359505786,-0.27982867957356,-0.0055336590112086,-0.0031618079224361,0.03384146772546,-1.5369292785351,-0.034181011177292,-0.015320829525079,-0.26942803150955,0.0096320390517576,0.13892614134542,-0.071203067456662,731.47909434552,731.47909434552,731.26348961519,731.26348961519,732.02692315844,732.00058997708,731.62323364497,731.42089182687,731.7426672003,731.86698983627,731.42850458379,731.18759032741,731.75043437258,731.84241875974,731.90842482449,731.76910510762,731.48133672085,732.03569660589,732.03745097635,731.48006264324,731.32971326186,731.85461601964,731.92150002936,731.75043437258,731.33545005919,731.16806649802,731.99790582962,731.92747330477,731.75613431934,731.53574607062,731.62991260515,731.81496827579,731.543939819,731.25985533646,731.91092814326,731.91346907627,731.88401217355,731.81253014959,731.55728364394,731.72905469924,731.88674574707,731.74357116916,731.44258295992,731.91092814326,731.74383669265,731.74383669265,732.00188852767,732.00188852767,828.68480382803,1568.1039166672,560.04747536375,1752.1353488649,475.61546956802,0
4.37e-05,33778259.203627,3.0067111388195e-06,1.2971838842009e-05,2.7910694927002e-06,1.0029395694248,606.83177771742,606.83177771742,606.61055865785,606.61055865785,607.39763055584,607.37042468382,606.98251100402,606.77220312434,607.10378678504,607.23315544673,606.78175980661,606.53116272528,607.11401057667,607.20744073289,607.27623125878,607.13354721117,606.8343938622,607.40643639289,607.40837054377,606.83462220202,606.67831350234,607.21937688873,607.28899638588,607.11401057667,606.68546250416,606.51135445839,607.36805421781,607.29504427858,607.11965034441,606.89065147083,606.98739005777,607.17992141926,606.90102422653,606.60552788143,607.27906482912,607.28111722835,607.25069269002,607.17816028041,606.91290122893,607.09012404909,607.25420716158,607.10724042102,606.79426582987,607.27906482912,607.10556185791,607.10556185791,607.37150246556,607.37150246556,-0.24330674203431,-0.0048534136314184,-0.26317645718998,-0.14938948411659,0.18406791801092,0.31729868839355,-0.29740389501926,0.010136854176566,0.061140418443813,0.0098047077402307,0.078784101897214,-4.4213304787111,-0.0001337112692197,-0.011840094876122,0.15628404845141,-0.95169729089742,-0.031463155874963,0.29261520387631,0.23423257407488,-0.41301936475183,-0.019809433633655,0.044642761286788,0.0093788116107259,-0.69427894819991,0.22509855030179,-3.2481200306341,0.055023442171746,0.1423426257268,-0.099250634824954,-0.017600156371255,0.036511705541831,0.054490487908443,0.012860135990333,-2.9664867776601,-0.036635442842522,-0.027197288612556,0.34725096488316,-0.28531983665499,-0.0057780823487883,-0.0032700485963239,0.035015280778333,-1.56936022343,-0.035713731902798,-0.016008989425374,-0.27977249525133,0.010177908680985,0.14489784664953,-0.075413910583093,731.45548320279,731.45548320279,731.23426414322,731.23426414322,732.0213360412,731.99413016919,731.60621648938,731.39590860971,731.7274922704,731.8568609321,731.40546529197,731.15486821065,731.73771606204,731.83114621826,731.89993674415,731.75725269654,731.45809934756,732.03014187826,732.03207602914,731.45832768739,731.30201898771,731.84308237409,731.91270187125,731.73771606204,731.30916798953,731.13505994376,731.99175970317,731.91874976394,731.74335582977,731.51435695619,731.61109554314,731.80362690463,731.5247297119,731.2292333668,731.90277031449,731.90482271372,731.87439817539,731.80186576578,731.53660671429,731.71382953445,731.87791264695,731.73094590639,731.41797131523,731.90277031449,731.72926734328,731.72926734328,731.99520795093,731.99520795093,837.71736394906,1571.42068658,562.83088844949,1753.0110282218,477.84757100185,0
4.38e-05,33910193.013193,3.0136181240926e-06,1.3001555811676e-05,2.800601399426e-06,1.0029636908758,606.80438678722,606.80438678722,606.57745564507,606.57745564507,607.38860882568,607.36049639643,606.9618630959,606.74340867519,607.08499090819,607.21950029831,606.75497456706,606.49447973273,607.09773662042,607.19263864927,607.26425262577,607.1181678186,606.80738224779,607.39744073021,607.39954743393,606.80916352965,606.64676022733,607.20428869658,607.27669197867,607.09773662042,606.65536955012,606.47438558621,607.35847083217,607.28281141902,607.10332269711,606.86551758556,606.96488430967,607.16503768627,606.87814120392,606.57098495796,607.26744413983,607.26899480177,607.23756252645,607.16399163464,606.88849764399,607.07128932596,607.24188225173,607.09107083615,606.76585442766,607.26744413983,607.08737782246,607.08737782246,607.36135304992,607.36135304992,-0.24769823899872,-0.0050836157063705,-0.26910727305081,-0.14974859646593,0.19122448034141,0.32183258380521,-0.30326332023049,0.01050068212097,0.063787339723578,0.010124910325746,0.080355387178252,-4.5138629930534,-0.00013550498522271,-0.012369948698276,0.16183094549191,-0.97063211179784,-0.032879250782064,0.30449784056752,0.23522952238019,-0.42143649120372,-0.020077427966909,0.046638640457574,0.0097777779879585,-0.71071907509334,0.22983162160383,-3.3139416838265,0.057096093663273,0.14450867890014,-0.10113827157913,-0.018328894280658,0.038038075950308,0.056131437119893,0.013107136569238,-3.0275601777918,-0.037629378640967,-0.028430072959592,0.35993173211457,-0.2908778672111,-0.0060318622238078,-0.0033814412717713,0.036224988150892,-1.6022703010271,-0.037308466657383,-0.016729603867083,-0.29045998967729,0.010747120898686,0.15108616379083,-0.079794441871885,731.43136128579,731.43136128579,731.20443014364,731.20443014364,732.01558332425,731.98747089499,731.58883759447,731.37038317376,731.71196540676,731.84647479688,731.38194906563,731.12145423129,731.72471111899,731.81961314784,731.89122712433,731.74514231716,731.43435674636,732.02441522878,732.0265219325,731.43613802822,731.2737347259,731.83126319515,731.90366647724,731.72471111899,731.28234404868,731.10136008478,731.98544533074,731.90978591758,731.73029719567,731.49249208413,731.59185880824,731.79201218484,731.50511570249,731.19795945653,731.89441863839,731.89596930034,731.86453702502,731.79096613321,731.51547214255,731.69826382453,731.8688567503,731.71804533471,731.39282892623,731.89441863839,731.71435232103,731.71435232103,731.98832754849,731.98832754849,846.64202802503,1574.688336536,565.60375444838,1753.8737939314,480.0791414369,0
4.39e-05,34042689.824454,3.020517889569e-06,1.3031273434167e-05,2.8101844967273e-06,1.0029878315354,606.77640599018,606.77640599018,606.54366445277,606.54366445277,607.37933899332,607.35028464091,606.94077225815,606.71399153589,607.06576252302,607.2055048507,606.72763187143,606.45702600105,607.08109354348,607.17749545945,607.2519691228,607.10244853785,606.77978556136,607.38819036117,607.39046115031,606.78316954399,606.61453694663,607.18883345679,607.26406715883,607.08109354348,606.6246547289,606.43664435733,607.34863698425,607.27025466753,607.08663325595,606.83982689263,606.94187908941,607.14979771584,606.85477306393,606.53571127503,607.25554774838,607.25658412671,607.22410210649,607.14950592986,606.86355582704,607.05203412338,607.22925127646,607.07454384702,606.73683295633,607.25554774838,607.06876592146,607.06876592146,607.35092067654,607.35092067654,-0.25204333160254,-0.0053234759272603,-0.27509567767979,-0.14987147055688,0.19859956073759,0.32641490264462,-0.30920093943015,0.010871589576781,0.06653544057972,0.010447728650418,0.081923520413593,-4.6064066990852,-0.00013715427056711,-0.012920680377222,0.16755054316258,-0.989808766345,-0.034353111794156,0.31677405227804,0.23613538592512,-0.43001653078051,-0.020339886343258,0.04871553621172,0.010190268643856,-0.72745441470408,0.23457768995175,-3.3796888509925,0.059225922115661,0.14671626099624,-0.10304498620605,-0.019085952805762,0.039619248397394,0.057797740616383,0.013352764076653,-3.0885418031627,-0.038645734851344,-0.029712998713821,0.37301603603467,-0.29650317923405,-0.00629525530422,-0.0034960659359527,0.037471560879534,-1.6356636346577,-0.038967333798851,-0.017484135609918,-0.30149902947996,0.011340554198173,0.15749671919526,-0.084349573753254,731.40672724686,731.40672724686,731.17398570944,731.17398570944,732.00966024999,731.98060589759,731.57109351482,731.34431279257,731.69608377969,731.83582610737,731.35795312811,731.08734725772,731.71141480015,731.80781671612,731.88229037948,731.73276979453,731.41010681803,732.01851161784,732.02078240699,731.41349080067,731.2448582033,731.81915471346,731.8943884155,731.71141480015,731.25497598557,731.066965614,731.97895824092,731.9005759242,731.71695451263,731.4701481493,731.57220034608,731.78011897251,731.4850943206,731.16603253171,731.88586900505,731.88690538338,731.85442336316,731.77982718653,731.49387708371,731.68235538006,731.85957253313,731.7048651037,731.367154213,731.88586900505,731.69908717814,731.69908717814,731.98124193321,731.98124193321,855.45947793403,1577.9050052826,568.365712605,1754.7234869656,482.30985421337,0
4.4e-05,34175759.014455,3.0274098518883e-06,1.3060991717964e-05,2.8198180380722e-06,1.0030119908436,606.74783328274,606.74783328274,606.50918248429,606.50918248429,607.36981523198,607.33978204445,606.91923412617,606.68394822353,607.04609793855,607.19116273877,606.69972812566,606.41879981874,607.06407559063,607.16200740586,607.23937408671,607.08638418421,606.75160096349,607.3786791717,607.38110428673,606.75663654355,606.58164067736,607.17300645497,607.25111543992,607.06407559063,606.5933150365,606.39812887013,607.33854714303,607.2573671075,607.06957713063,606.8135752655,606.91837155865,607.13419533488,606.83091544491,606.4997051615,607.24337050753,607.24388076027,607.21030502012,607.1346980836,606.83807212656,607.03235540845,607.21630763473,607.05765409664,606.7071991383,607.24337050753,607.04972075677,607.04972075677,607.34019888696,607.34019888696,-0.25633805269892,-0.0055732807439716,-0.28114326344931,-0.14974763508825,0.20619704258657,0.33104772523777,-0.31521821420708,0.011249440005135,0.069387920367058,0.010772629159315,0.083488250013652,-4.6989015318842,-0.00013863980178403,-0.013492927955293,0.17344735315798,-1.0092285423414,-0.0358867425697,0.32945243768519,0.23694791152537,-0.43876422354959,-0.020596930189351,0.050876244078608,0.010616563351234,-0.74448751921598,0.23933654668116,-3.4453167818724,0.061413520450898,0.14896712593833,-0.1049710202901,-0.019872210684185,0.041256808624568,0.059488170890789,0.013596976639338,-3.1493887831652,-0.039685310390686,-0.031047730087969,0.3865141280439,-0.30219623722789,-0.0065685170044604,-0.0036140035540999,0.038755983069154,-1.6695445400167,-0.040692500926255,-0.018274097445224,-0.31289818613597,0.011959114646313,0.16413519049338,-0.089084310863199,731.38157998779,731.38157998779,731.14292918934,731.14292918934,732.00356193704,731.9735287495,731.55298083122,731.31769492858,731.6798446436,731.82490944382,731.33347483071,731.0525465238,731.69782229568,731.79575411091,731.87312079176,731.72013088926,731.38534766854,732.01242587675,732.01485099179,731.3903832486,731.21538738241,731.80675316002,731.88486214497,731.69782229568,731.22706174155,731.03187557518,731.97229384808,731.89111381255,731.70332383568,731.44732197055,731.5521182637,731.76794203993,731.46466214996,731.13345186655,731.87711721258,731.87762746532,731.84405172517,731.76844478865,731.47181883161,731.6661021135,731.85005433978,731.69140080169,731.34094584335,731.87711721258,731.68346746182,731.68346746182,731.97394559201,731.97394559201,864.17017744273,1581.0688293396,571.11639521598,1755.5599296974,484.53937799118,0
4.41e-05,34309411.016181,3.0342934115125e-06,1.3090710671653e-05,2.8295012353549e-06,1.0030361683341,606.71866687058,606.71866687058,606.47400739745,606.47400739745,607.36003159508,607.32898106749,606.89724436306,606.65327544353,607.02599354932,607.17646750412,606.6712598639,606.37979983801,607.04667694316,607.14617075372,607.22646072594,607.0699695119,606.72282581989,607.36890092256,607.37146925977,606.72956093607,606.54806867121,607.15680297942,607.23783022965,607.04667694316,606.5613476608,606.35883757194,607.32819566726,607.24414169589,607.05214939291,606.78675870183,606.89435904112,607.11822428966,606.80656404039,606.46296529289,607.2309071819,607.23088021826,607.19616475531,607.11956294521,606.81204303036,607.01225025176,607.20304459785,607.04039616998,606.67695094342,607.2309071819,607.03023692699,607.03023692699,607.32918110043,607.32918110043,-0.26057855349849,-0.005833316721995,-0.28725186889538,-0.14936667117169,0.21402078857905,0.33573321591543,-0.32131667065385,0.011634088783152,0.072348049702954,0.011099057951891,0.08504941147797,-4.7912880475318,-0.00013994061311206,-0.014087338031735,0.17952594233803,-1.0288928450622,-0.037482194483425,0.34254162212588,0.23766485188805,-0.44768439586641,-0.020848728208474,0.053123625585339,0.011056943841252,-0.76182096542556,0.24410819774623,-3.5107811866876,0.063659456171813,0.15126307195681,-0.10691664757768,-0.020688552093818,0.042952378052129,0.061201432178233,0.013839749608592,-3.2100588362159,-0.040748943555781,-0.032435963631994,0.40043636357111,-0.30795756292545,-0.0068519007800127,-0.00373533594563,0.040079250678623,-1.703917528574,-0.042486185102479,-0.019101052675831,-0.32466608091823,0.012603736247539,0.17100730585668,-0.094003751905795,731.35591862423,731.35591862423,731.1112591511,731.1112591511,731.99728334873,731.96623282114,731.53449611671,731.29052719718,731.66324530297,731.81371925777,731.30851161755,731.01705159165,731.68392869681,731.78342250736,731.86371247959,731.70722126554,731.36007757354,732.00615267621,732.00872101342,731.36681268972,731.18532042486,731.79405473306,731.8750819833,731.68392869681,731.19859941445,730.99608932558,731.96544742091,731.88139344954,731.68940114656,731.42401045547,731.53161079476,731.75547604331,731.44381579403,731.10021704653,731.86815893555,731.8681319719,731.83341650895,731.75681469886,731.449294784,731.64950200541,731.8402963515,731.67764792362,731.31420269707,731.86815893555,731.66748868063,731.66748868063,731.96643285408,731.96643285408,872.77441040403,1584.1779476194,573.85542792478,1756.3829267967,486.76737690346,0
4.42e-05,34443657.365928,3.0411679530189e-06,1.3120430303934e-05,2.8392332598314e-06,1.0030603636378,606.68890520096,606.68890520096,606.43813709566,606.43813709566,607.34998201331,607.31787400089,606.87479865413,606.62197008168,607.00544582957,607.16141259138,606.64222374158,606.3400250651,607.02889171511,607.12998178667,607.21322211768,607.05319921067,606.69345769391,607.35884924636,607.36154830612,606.70193923169,606.51381840593,607.14021831626,607.2242048263,607.02889171511,606.52874997364,606.31876924933,607.31757680258,607.23057125959,607.03434507243,606.75937331628,606.86983901593,607.10187824203,606.7817145933,606.42549068225,607.21815244497,607.21757797173,607.18167469451,607.10409529256,606.78546515866,606.99171582186,607.18945530669,607.02276459038,606.64608658113,607.21815244497,607.01030902221,607.01030902221,607.31786061067,607.31786061067,-0.26476111449404,-0.0061038700876263,-0.2934235782673,-0.14871822883908,0.22207464064397,0.34047362507321,-0.32749790066662,0.012025383779319,0.075419171022278,0.01142644369563,0.086606926736545,-4.8835075837191,-0.00014103400229272,-0.014704565456737,0.18579092889947,-1.0488031988402,-0.039141566074866,0.35605025647435,0.23828396664769,-0.45678195676526,-0.021095497119373,0.055460608208012,0.011511694317016,-0.7794573604143,0.2488928630713,-3.5760383478269,0.065964271610037,0.15360594280272,-0.10888217581766,-0.021535865229444,0.044707614619418,0.062936167435166,0.014081075324884,-3.2705103884384,-0.041837511629447,-0.033879427977113,0.41479319359034,-0.31378773562965,-0.0071456570827305,-0.0038601456919826,0.041442370451694,-1.7387873099968,-0.044350652361221,-0.019966615729314,-0.33681137705855,0.013275381263089,0.17811884339577,-0.099113090841234,731.32974251394,731.32974251394,731.07897440864,731.07897440864,731.99081932628,731.95871131387,731.51563596711,731.26280739466,731.64628314255,731.80224990436,731.28306105456,730.98086237808,731.66972902809,731.77081909965,731.85405943066,731.69403652364,731.33429500689,731.99968655934,732.0023856191,731.34277654467,731.1546557189,731.78105562924,731.86504213928,731.66972902809,731.16958728661,730.95960656231,731.95841411555,731.87140857257,731.67518238541,731.40021062926,731.51067632891,731.74271555501,731.42255190628,731.06632799523,731.85898975795,731.8584152847,731.82251200749,731.74493260554,731.42630247164,731.63255313484,731.83029261967,731.66360190336,731.28692389411,731.85898975795,731.65114633519,731.65114633519,731.95869792365,731.95869792365,881.27232058536,1587.2305060363,576.58243005809,1757.1922660653,488.99351076604,0
4.43e-05,34578510.747005,3.0480328458602e-06,1.31501506236e-05,2.8490132441265e-06,1.0030845764871,606.6585469541,606.6585469541,606.40156971827,606.40156971827,607.33966029172,607.30645296288,606.85189270103,606.59002919535,606.9844513269,607.1459913444,606.61261652785,606.29947484959,607.01071394934,607.11343680206,607.19965120489,607.03606790222,606.6634943382,607.34851764451,607.35133347989,606.67376803553,606.47888757576,607.1232477443,607.21023241506,607.01071394934,606.49551952215,606.27792301738,607.30668467862,607.21664849173,607.01615915224,606.73141533272,606.84480911016,607.08515076551,606.75636288981,606.38728066983,607.2051008761,607.20396944336,607.16682811103,607.08828982869,606.75833525661,606.97074937906,607.17553276887,607.00475381587,606.6146044917,607.2051008761,606.98993161839,606.98993161839,607.30623058247,607.30623058247,-0.26888215322758,-0.0063852263559853,-0.2996607206125,-0.14779204300281,0.23036241997406,0.34527129013447,-0.33376356237569,0.01242316596129,0.078604698597868,0.01175420069542,0.088160803199293,-4.9755023920598,-0.00014189542728287,-0.015345273002204,0.19224697750286,-1.0689612464542,-0.040867002620608,0.36998701638759,0.23880302212614,-0.46606189319165,-0.021337502226648,0.05789018480405,0.011981102039326,-0.7973993454989,0.25369097533243,-3.6410452172068,0.068328484199122,0.15599762853829,-0.11086794833425,-0.022415040913238,0.046524213335623,0.064690965711923,0.014320962816399,-3.3307026662938,-0.042951930335726,-0.035379883491732,0.42959515502191,-0.31968739195953,-0.0074500323192345,-0.0039885160354061,0.042846358441053,-1.7741587904795,-0.046288217376821,-0.02087245269879,-0.34934277200545,0.013975040613009,0.1854756310338,-0.10441761846573,731.30305123157,731.30305123157,731.04607399575,731.04607399575,731.9841645692,731.95095724036,731.49639697851,731.23453347283,731.62895560438,731.79049562188,731.25712080533,730.94397912707,731.65521822682,731.75794107954,731.84415548237,731.6805721797,731.30799861568,731.99302192199,731.99583775737,731.318272313,731.12339185323,731.76775202178,731.85473669254,731.65521822682,731.14002379963,730.92242729486,731.9511889561,731.86115276921,731.66066342972,731.3759196102,731.48931338763,731.72965504299,731.40086716728,731.03178494731,731.84960515358,731.84847372084,731.81133238851,731.73279410617,731.40283953408,731.61525365654,731.82003704635,731.64925809335,731.25910876918,731.84960515358,731.63443589587,731.63443589587,731.95073485995,731.95073485995,889.66395551372,1590.2246624163,579.29701507091,1757.9877195393,491.2174353504,0
4.44e-05,34713985.030381,3.0548874448487e-06,1.3179871639555e-05,2.8588402836647e-06,1.0031088067183,606.62759103379,606.62759103379,606.36430363016,606.36430363016,607.32906010677,607.29470989612,606.82852221569,606.55745000403,606.96300665539,607.13019700225,606.58243509769,606.25814887261,606.99213761358,607.09653210595,607.18574079336,607.0185701367,606.63293368575,607.33789948411,607.34081664994,606.64504403992,606.44327408136,607.10588652945,607.19590606415,606.99213761358,606.46165401959,606.23629830791,607.29551330615,607.20236594787,606.99758656434,606.70288107588,606.8192670908,607.06803534128,606.73050475287,606.34833491177,607.19174695746,607.19005000373,607.15161816529,607.0721411785,606.73065018613,606.94934826893,607.16126985597,606.9863582354,606.58250333679,607.19174695746,606.96909927136,606.96909927136,607.29428404822,607.29428404822,-0.2729382310846,-0.0066776699487799,-0.30596586744211,-0.14657794894972,0.23888792719111,0.35012863718349,-0.34011538039239,0.012827269975743,0.081908118411896,0.012081732159273,0.089711132203918,-5.0672157656851,-0.0001424984054613,-0.016010131099767,0.19889879469236,-1.089368748555,-0.042660695339414,0.38436060174591,0.23921979188687,-0.47552926525688,-0.02157505775623,0.060415412872411,0.012465457944452,-0.815649601151,0.25850317730237,-3.7057595108761,0.070752586817985,0.15844006651638,-0.11287434547892,-0.02332697119251,0.048403906760985,0.066464370203686,0.014559437382508,-3.390595784622,-0.044093153115661,-0.036939122096275,0.44485286116219,-0.32565722542892,-0.0077652675081941,-0.0041205307898734,0.044292238689466,-1.8100370714707,-0.048301242851258,-0.021820282031322,-0.36226898923381,0.014703734343011,0.19308354649198,-0.10992272388565,731.27584460612,731.27584460612,731.01255720248,731.01255720248,731.97731367909,731.94296346844,731.47677578801,731.20570357636,731.61126022771,731.77845057458,731.23068867001,730.90640244493,731.64039118591,731.74478567827,731.83399436568,731.66682370903,731.28118725807,731.98615305643,731.98907022226,731.29329761224,731.09152765368,731.75414010178,731.84415963647,731.64039118591,731.10990759191,730.88455188023,731.94376687848,731.85061952019,731.64584013667,731.35113464821,731.46752066313,731.7162889136,731.37875832519,730.99658848409,731.84000052978,731.83830357605,731.79987173761,731.72039475082,731.37890375846,731.59760184125,731.80952342829,731.63461180772,731.23075690911,731.84000052978,731.61735284368,731.61735284368,731.94253762054,731.94253762054,897.94930864721,1593.1585914162,581.99879108186,1758.7690443021,493.4388027153,0
4.45e-05,34850095.312473,3.0617310907236e-06,1.3209593360802e-05,2.8687134384015e-06,1.0031330542748,606.59603655741,606.59603655741,606.32633741061,606.32633741061,607.31817500326,607.28263656462,606.80468291409,606.52422987932,606.94110848832,607.11402269523,606.55167642353,606.21604713417,606.97315659639,607.07926400789,607.17148354874,607.00070038912,606.60177384035,607.32698799471,607.32998949714,606.61576401625,606.40697601893,607.08812991893,607.18121872091,606.97315659639,606.42715133561,606.19389485693,607.28405657406,607.1877160421,606.97862218507,606.67376696247,606.79321085623,607.05052535404,606.70413603551,606.30865336798,607.17808507107,607.17581496749,607.13603790103,607.05564388541,606.70240691738,606.92750991526,607.14665930079,606.96757216505,606.54978198927,607.17808507107,606.94780651059,606.94780651059,607.28201390431,607.28201390431,-0.27692606276227,-0.0069814838651123,-0.31234183001623,-0.14506589839295,0.24765494252193,0.3550481818331,-0.34655514537997,0.013237524744843,0.085332987680737,0.012408433556988,0.091258087262083,-5.1585921913662,-0.00014281440669883,-0.016699817571001,0.20575112417208,-1.1100275810782,-0.044524880646714,0.39917973613827,0.23953205645621,-0.48518920065777,-0.02180852703754,0.063039413493489,0.012965057285427,-0.83421085031646,0.26333031877385,-3.7701398157535,0.073237048137421,0.16093524199645,-0.11490178574322,-0.024272547942091,0.050348465272561,0.068254886558601,0.014796540136017,-3.4501508565648,-0.045262170320879,-0.03855896699566,0.46057699197467,-0.33169798545408,-0.0080915970846157,-0.0042562742768082,0.045781041842399,-1.8464274447621,-0.050392138908584,-0.022811874970339,-0.37559877003172,0.015462511992093,0.2009485173748,-0.11563389619543,731.24812270029,731.24812270029,730.97842355348,730.97842355348,731.97026114613,731.93472270749,731.45676905697,731.1763160222,731.5931946312,731.76610883811,731.2037625664,730.86813327705,731.62524273926,731.73135015077,731.82356969162,731.65278653199,731.25385998323,731.97907413759,731.98207564001,731.26785015913,731.05906216181,731.74021606181,731.83330486379,731.62524273926,731.07923747849,730.84598099981,731.93614271694,731.83980218498,731.63070832795,731.32585310535,731.4452969991,731.70261149692,731.35622217839,730.96073951086,731.83017121394,731.82790111036,731.78812404391,731.70773002828,731.35449306026,731.57959605814,731.79874544367,731.61965830792,731.20186813214,731.83017121394,731.59989265347,731.59989265347,731.93410004719,731.93410004719,906.12836419726,1596.0304894886,584.6873614066,1759.5359840641,495.65726156626,0
4.46e-05,34986857.946565,3.0685631110028e-06,1.3239315796444e-05,2.8786317349595e-06,1.0031573192083,606.56388284496,606.56388284496,606.28766984153,606.28766984153,607.30699839126,607.27022455073,606.78037050976,606.49036633415,606.91875355038,607.0974614406,606.52033756649,606.17316993949,606.95376470301,607.06162881543,607.15687199357,606.98245305579,606.57001306623,607.31577626509,607.3188435117,606.58592480638,606.3699916686,607.06997313502,607.16616320773,606.95376470301,606.39200948595,606.15071269102,607.27230824643,607.17269104307,606.95926083045,606.64406949174,606.76663842686,607.03261408784,606.67725261385,606.26823628895,607.16410949574,607.16125958937,607.12008024147,607.03879240804,606.67360251948,606.90523181267,607.13169369462,606.9483898443,606.51643952226,607.16410949574,606.92604783268,606.92604783268,607.2694129074,607.2694129074,-0.28084251839683,-0.0072969493691554,-0.3187916554449,-0.14324597286913,0.25666722625197,0.36003252959244,-0.35308471305,0.013653754161072,0.088882934542002,0.012733696059304,0.092801921826357,-5.2495774300166,-0.00014281274469625,-0.017415017416049,0.21280874176958,-1.1309397324042,-0.046461839420676,0.41445316707604,0.23973760243416,-0.4950468884996,-0.02203832235829,0.065765370194774,0.013480200329728,-0.85308586163125,0.26817345233015,-3.834145655486,0.075782313027909,0.16348518859166,-0.11695072667858,-0.025252661423773,0.052359697569189,0.070060991494264,0.015032327455273,-3.5093300424083,-0.046460008230422,-0.040241272521948,0.4767782838918,-0.33781047622596,-0.0084292476060704,-0.0043958312386711,0.047313803663077,-1.8833353869686,-0.052563362569734,-0.023849056067812,-0.38934086507382,0.016252452980413,0.20907652189683,-0.12155672639746,731.2198857852,731.2198857852,730.94367278177,730.94367278177,731.9630013315,731.92622749097,731.43637345,731.14636927439,731.57475649062,731.75346438084,731.17634050673,730.82917287973,731.60976764325,731.71763175567,731.81287493381,731.63845599603,731.22601600647,731.97177920533,731.97484645194,731.24192774662,731.02599460884,731.72597607526,731.82216614797,731.60976764325,731.04801242619,730.80671563126,731.92831118667,731.82869398331,731.61526377069,731.30007243198,731.4226413671,731.68861702808,731.33325555409,730.92423922919,731.82011243598,731.81726252961,731.77608318171,731.69479534828,731.32960545972,731.56123475291,731.78769663486,731.60439278454,731.1724424625,731.82011243598,731.58205077292,731.58205077292,731.92541584763,731.92541584763,914.20113961095,1598.8385800783,587.36232530794,1760.2882702865,497.87245773213,0
4.47e-05,35124290.570743,3.0753828206748e-06,1.326903895573e-05,2.888594168391e-06,1.0031816016808,606.53112940781,606.53112940781,606.24829989523,606.24829989523,607.29552354304,607.25746525211,606.75558070716,606.45585701173,606.89593860954,607.0805061384,606.48841566744,606.1295178847,606.93395565138,607.04362282845,607.14189850433,606.96382245088,606.53764977744,607.30425723991,607.30736999043,606.5555233139,606.33231948245,607.0514113687,607.15073221788,606.93395565138,606.35622662186,606.10675211327,607.26026195961,607.15728306995,606.93949725152,606.61378523577,606.73954793562,607.01429472177,606.64985037997,606.22708420199,607.14981440415,607.14637906025,607.10373798534,607.02158111696,606.64423415111,606.88251151889,607.11636548451,606.92880543226,606.4824751978,607.14981440415,606.90381769461,606.90381769461,607.25647367065,607.25647367065,-0.28468463249338,-0.0076243457090164,-0.32531862226631,-0.14110839912961,0.26592851932865,0.36508437469202,-0.35970600253345,0.014075777720837,0.092561657310179,0.013056910006936,0.094342966853703,-5.3401186682624,-0.0001424604707313,-0.018156422666522,0.22007645086661,-1.1521072998004,-0.048473895767343,0.43018966620043,0.23983422049648,-0.50510757265298,-0.022264904640943,0.068596527573023,0.01401119301667,-0.87227745254737,0.27303382865861,-3.8977375949694,0.078388803042107,0.16609198795792,-0.1190216654061,-0.026268198905699,0.054439450830177,0.071881141626331,0.015266870397031,-3.5680966590143,-0.047687727997724,-0.041987924105692,0.49346752000972,-0.34399555533016,-0.0087784361710379,-0.0045392868198828,0.048891563767978,-1.9207665528774,-0.054817416804883,-0.024933703769573,-0.40350402587895,0.01707466707693,0.21747358930649,-0.1276969089631,731.19113427282,731.19113427282,730.90830476024,730.90830476024,731.95552840806,731.91747011712,731.41558557218,731.11586187675,731.55594347456,731.74051100342,731.14842053245,730.78952274972,731.59396051639,731.70362769346,731.80190336934,731.62382731589,731.19765464246,731.96426210492,731.96737485545,731.21552817891,730.99232434746,731.71141623372,731.8107370829,731.59396051639,731.01623148688,730.76675697828,731.92026682462,731.81728793496,731.59950211653,731.27379010079,731.39955280063,731.67429958678,731.30985524499,730.887089067,731.80981926917,731.80638392526,731.76374285036,731.68158598198,731.30423901612,731.54251638391,731.77637034952,731.58881029727,731.14248006281,731.80981926917,731.56382255962,731.56382255962,731.91647853566,731.91647853566,922.1677262047,1601.5811187465,590.02327875578,1761.0256237217,500.08403467764,0
4.48e-05,35262412.131282,3.0821895227537e-06,1.3298762847986e-05,2.8985997039953e-06,1.0032059019649,606.49777593661,606.49777593661,606.20822672149,606.20822672149,607.28374358994,607.24434987862,606.73030919503,606.4206996738,606.87266046854,607.0631495671,606.45590793759,606.08509184161,606.9137230679,607.02524233332,607.12655530855,606.94480280289,606.5046825265,607.29242371633,607.29556003408,606.52455649504,606.29395807178,607.03243977294,607.1349183113,606.9137230679,606.319801019,606.06201368815,607.24791121921,607.14148408835,606.91932612961,606.58291082923,606.71193761768,606.99556032567,606.6219252346,606.18519789656,607.13519385992,607.131168503,607.08700380301,607.00400429149,606.61429905044,606.85934664662,607.10066697065,606.90881300393,606.44788845463,607.13519385992,606.8811105068,606.8811105068,607.24318865986,607.24318865986,-0.28844960641655,-0.0079639498904341,-0.33192623495829,-0.13864356127121,0.27544254417873,0.37020650336327,-0.36642099353482,0.014503411117813,0.096372923482473,0.013377468386882,0.095881628054261,-5.4301646044972,-0.00014172225892579,-0.018924732234784,0.22755907734923,-1.1735324832947,-0.05056341604085,0.4463980303606,0.23981970739946,-0.51537654355101,-0.022488782943744,0.071536189595608,0.01455834772759,-0.89178849084013,0.27791289096391,-3.9608773059881,0.081056916890995,0.16875777113839,-0.12111513877167,-0.02732004335778,0.05658961073884,0.073713782363735,0.015500254062986,-3.6264152341503,-0.048946424486732,-0.043800838171271,0.51065551995676,-0.35025413162093,-0.0091393689932023,-0.0046867265195015,0.050515364112472,-1.9587267645527,-0.057156849778108,-0.026067750824483,-0.41809699647559,0.017930294780403,0.22614580141181,-0.13406024361472,731.1618687897,731.1618687897,730.87231957458,730.87231957458,731.94783644303,731.90844273171,731.39440204812,731.08479252689,731.53675332163,731.72724242019,731.12000079068,730.7491846947,731.57781592099,731.68933518641,731.79064816164,731.60889565598,731.16877537959,731.95651656942,731.95965288717,731.18864934813,730.95805092487,731.69653262603,731.79901116439,731.57781592099,730.98389387209,730.72610654124,731.9120040723,731.80557694144,731.5834189827,731.24700368232,731.37603047077,731.65965317876,731.28601808769,730.84929074965,731.79928671301,731.79526135609,731.7510966561,731.66809714458,731.27839190353,731.52343949971,731.76475982374,731.57290585702,731.11198130772,731.79928671301,731.54520335989,731.54520335989,731.90728151295,731.90728151295,930.02832420524,1604.2563981147,592.66981515974,1761.7477556185,502.29163399236,0
4.49e-05,35401242.899991,3.0889825094996e-06,1.3328487482636e-05,2.9086472799089e-06,1.0032302204447,606.46382228876,606.46382228876,606.16744963436,606.16744963436,607.27165151924,607.23086944936,606.70455163951,606.38489218857,606.848915956,607.04538437925,606.42281164904,606.03989294185,606.89306048345,607.00648359688,607.11083448194,606.92538825132,606.47110999268,607.28026834065,607.28340454459,606.49302134944,606.25490619409,607.01305345572,607.1187139103,606.89306048345,606.28273106611,606.01649822604,607.23524939724,607.12528590622,606.89874207169,606.55144295878,606.6838057999,606.97640385579,606.59347307967,606.14257840901,607.12024181473,607.11562296842,607.06987023244,606.98605611655,606.58379452483,606.83573485517,607.08459030381,606.88840654658,606.41267889572,607.12024181473,606.85792062598,606.85792062598,607.22955018952,607.22955018952,-0.29213481195925,-0.0083160364556743,-0.33861821769334,-0.13584201388214,0.28521300495877,0.37540178982468,-0.37323172408503,0.014936466934337,0.1003205684908,0.013694770201232,0.097418382870819,-5.519665542432,-0.00014056028900813,-0.019720651935118,0.23526146477579,-1.1952175816591,-0.052732807303018,0.46308708144896,0.23969186134787,-0.5258591314321,-0.022710513664355,0.074587717719877,0.015121983941051,-0.91162189577504,0.28281226871229,-4.023527638582,0.083787030818202,0.17148471700427,-0.12323172345539,-0.028409072111281,0.058812101356875,0.075557356518901,0.015732576920254,-3.6842515676604,-0.050237224884086,-0.045681962448586,0.52835312970798,-0.35658716364306,-0.0095122395901729,-0.0048382361984726,0.05218624764031,-1.9972220028678,-0.059584253692583,-0.027253185071187,-0.43312850474467,0.01882050781599,0.23509929308012,-0.14065263718261,731.1320900845,731.1320900845,730.83571743009,730.83571743009,731.93991931497,731.89913724509,731.37281943524,731.0531599843,731.51718375173,731.71365217498,731.09107944477,730.70816073758,731.56132827919,731.67475139261,731.77910227768,731.59365604705,731.13937778842,731.94853613638,731.95167234032,731.16128914517,730.92317398982,731.68132125146,731.78698170603,731.56132827919,730.95099886185,730.68476602178,731.90351719297,731.79355370195,731.56700986742,731.21971075451,731.35207359563,731.64467165152,731.2617408754,730.81084620474,731.78850961047,731.78389076415,731.73813802818,731.65432391228,731.25206232056,731.5040026509,731.75285809955,731.55667434232,731.08094669145,731.78850961047,731.52618842171,731.52618842171,731.89781798525,731.89781798525,937.78328781567,1606.8627530287,595.30152640904,1762.454369714,504.49489610279,0
4.5e-05,35540804.486111,3.0957610628259e-06,1.3358212869247e-05,2.9187358087266e-06,1.0032545576147,606.42926847549,606.42926847549,606.12596809851,606.12596809851,607.25924017106,607.21701478961,606.67830367741,606.34843251831,606.8247019173,607.02720309709,606.38912412506,605.99392256056,606.87196132931,606.98734286029,607.09472794558,606.90557284338,606.43693097002,607.26778360487,607.27089422253,606.46091491073,606.21516273961,606.99324747303,607.10211129521,606.87196132931,606.2450152534,605.9702067671,607.22226972919,607.10868016975,606.87773960573,606.51937835236,606.65515088986,606.95681815048,606.56448981086,606.09922700675,607.10495210561,607.09973743109,607.05232967534,606.96773067965,606.55271794024,606.81167384186,607.06812748288,606.86757995619,606.37684627529,607.10495210561,606.83424234796,606.83424234796,607.21555041886,607.21555041886,-0.2957377951931,-0.0086808773102107,-0.34539850778804,-0.1326944927193,0.29524358803922,0.38067319728034,-0.38014028668923,0.015374755267072,0.10440849434131,0.014008223816802,0.098953777355013,-5.6085734917804,-0.00013893413160376,-0.020544894511806,0.24318846991857,-1.2171649863325,-0.054984515776986,0.48026566694668,0.23944848199588,-0.53656069746084,-0.022930699661832,0.077754528856982,0.015702428931915,-0.93178063922899,0.28773377111201,-4.0856526901364,0.086579498951847,0.17427505266574,-0.1253720355303,-0.029536155586255,0.061108884952591,0.077410313074482,0.015963950106045,-3.7415728000427,-0.051561287503645,-0.047633276184545,0.5465712121166,-0.36299565757991,-0.0098972270038935,-0.0049939021053101,0.053905257008281,-2.0362583962528,-0.062102263629979,-0.028492049938467,-0.44860725407251,0.019746509510076,0.24434025339651,-0.14748010525253,731.10179913205,731.10179913205,730.79849875506,730.79849875506,731.93177082761,731.88954544617,731.35083433396,731.02096317487,731.49723257386,731.69973375365,731.06165478162,730.66645321712,731.54449198587,731.65987351685,731.76725860214,731.57810349993,731.10946162657,731.94031426143,731.94342487909,731.13344556729,730.88769339617,731.66577812959,731.77464195177,731.54449198587,730.91754590996,730.64273742366,731.89480038574,731.78121082631,731.55027026229,731.19190900892,731.32768154642,731.62934880704,731.23702046742,730.77175766331,731.77748276217,731.77226808765,731.7248603319,731.64026133621,731.2252485968,731.48420449842,731.74065813944,731.54011061275,731.04937693185,731.77748276217,731.50677300452,731.50677300452,731.88808107542,731.88808107542,945.43314908537,1609.3985654458,597.91800376959,1763.1451637113,506.6934608861,0
4.51e-05,35681119.842057,3.1025244555513e-06,1.3387939017485e-05,2.9288641802056e-06,1.0032789140795,606.3941146484,606.3941146484,606.08378171527,606.08378171527,607.24650223526,607.20277652788,606.65156090928,606.31131870663,606.80001520523,607.00859810814,606.35484273029,605.94718229939,606.85041893319,606.96781633282,607.07822746317,606.88535053077,606.40214435478,607.25496184325,607.2580195644,606.42823423703,606.17472671745,606.97301682149,607.08510260009,606.85041893319,606.20665216071,605.92314056466,607.20896531118,607.09165835926,606.85631317612,606.48671376803,606.62597136459,606.93679592584,606.53497131001,606.05514517189,607.08931845218,607.08350678522,607.03437439315,606.94902196795,606.52106671036,606.78716133315,607.05127035242,606.84632703392,606.34039048539,607.08931845218,606.81006990027,606.81006990027,607.20118134781,607.20118134781,-0.29925627725358,-0.0090587416034901,-0.3522712479856,-0.12919192551549,0.30553796207828,0.38602377698996,-0.38714882414748,0.015818084322132,0.10864066730919,0.014317250141577,0.10048842279695,-5.6968422304249,-0.00013680062610322,-0.021398179890686,0.25134495797293,-1.2393771740091,-0.057321025023874,0.49794265966549,0.23908736903248,-0.54748662484303,-0.02314998915417,0.081040092569575,0.016300018407496,-0.95226774488523,0.29267937976392,-4.1472178548528,0.089434653588408,0.17713105279457,-0.12753672974278,-0.030702156112403,0.063481961208251,0.079271115465457,0.016194496705893,-3.7983474492239,-0.052919800244012,-0.049656790734923,0.56532063712853,-0.36948066467284,-0.010294493774392,-0.005153810966648,0.055673433176073,-2.0758422068129,-0.064713556164243,-0.029786445133892,-0.46454191512457,0.020709535416486,0.25387492631548,-0.15454877372787,731.07099706055,731.07099706055,730.76066412742,730.76066412742,731.92338464741,731.87965894003,731.32844332143,730.98820111878,731.47689761738,731.68548052029,731.03172514244,730.62406471154,731.52730134534,731.64469874497,731.75510987532,731.56223294292,731.07902676693,731.9318442554,731.93490197654,731.10511664918,730.8516091296,731.64989923364,731.76198501224,731.52730134534,730.88353457286,730.6000229768,731.88584772333,731.76854077141,731.53319558827,731.16359618018,731.30285377674,731.61367833799,731.21185372216,730.73202758404,731.76620086433,731.76038919737,731.7112568053,731.6259043801,731.19794912251,731.4640437453,731.72815276457,731.52320944607,731.01727289754,731.76620086433,731.48695231242,731.48695231242,731.87806375996,731.87806375996,952.97865107008,1611.8622690879,600.51883889154,1763.8198309701,508.88696849399,0
4.52e-05,35822213.262728,3.10927195195e-06,1.3417665937135e-05,2.9390312629273e-06,1.0033032905519,606.35836108583,606.35836108583,606.04089020857,606.04089020857,607.23343024842,607.188145093,606.6243188927,606.27354886555,606.7748526704,606.98956166089,606.31996486088,605.89967396923,606.82842651536,606.94790018556,607.06132463839,606.86471516672,606.36674913294,607.24179522897,607.24477086012,606.39497640143,606.13359724169,606.95235643105,607.06767980829,606.82842651536,606.16764044563,605.87530106832,607.19532909724,607.07421178512,606.83445713918,606.45344598282,606.59626575904,606.91632977148,606.50491343761,606.01033458451,607.07333445413,607.06692584057,607.01599650321,606.9299238655,606.48883828555,606.76219507569,607.03401060042,606.82464148282,606.30331154226,607.07333445413,606.78539743474,606.78539743474,607.18643481302,607.18643481302,-0.30268815709396,-0.0094498955871244,-0.35924077804377,-0.12532544222649,0.31609977825843,0.39145666645384,-0.39425952464549,0.016266261071108,0.11302111672978,0.014621285696605,0.1020229921775,-5.7844273961504,-0.00013411376137011,-0.022281235397374,0.25973579833005,-1.2618567006278,-0.059744853902692,0.5161269581063,0.23860632002442,-0.55864230953391,-0.023369074375949,0.084447929127381,0.016915097178003,-0.97308628807259,0.29765124079509,-4.20818988856,0.092352805459021,0.18005503856263,-0.12972649837632,-0.031907926744293,0.065933367162932,0.081138249665553,0.016424351009295,-3.8545454706347,-0.054313979004244,-0.051754550241859,0.58461227256647,-0.37604327892808,-0.010704183757859,-0.0053180500425005,0.057491814250144,-2.1159798188331,-0.067420847880851,-0.031138527328801,-0.48094111764128,0.021710853870987,0.26370961193849,-0.16186488013959,731.03968507477,731.03968507477,730.7222141975,730.7222141975,731.91475423735,731.86946908193,731.30564288164,730.95487285449,731.45617665933,731.67088564982,731.00128884981,730.58099795817,731.5097505043,731.62922417449,731.74264862733,731.54603915565,731.04807312188,731.92311921791,731.92609484905,731.07630039036,730.81492123062,731.63368041998,731.74900379723,731.5097505043,730.84896443456,730.55662505725,731.87665308618,731.75553577405,731.51578112812,731.13476997175,731.27758974798,731.59765376042,731.18623742655,730.69165857344,731.75465844306,731.7482498295,731.69732049214,731.61124785444,731.17016227448,731.44351906462,731.71533458936,731.50596547176,730.98463553119,731.75465844306,731.46672142367,731.46672142367,731.86775880196,731.86775880196,960.42077432317,1614.2523542842,603.10362495879,1764.4780624431,511.07505964474,0
4.53e-05,35964110.37809,3.1160028090358e-06,1.3447393638102e-05,2.9492359071835e-06,1.0033276878508,606.3220081788,606.3220081788,605.99729341046,605.99729341046,607.22001659079,607.17311071128,606.59657313552,606.23512116237,606.74921115146,606.97008586039,606.28448793457,605.85139957249,606.80597718486,606.92759054503,607.04401091235,606.84366050297,606.33074436715,607.22827577068,607.23113819052,606.3611384824,606.091773517,606.93126115746,607.04983474821,606.80597718486,606.12797883142,605.82668990665,607.18135389657,607.05633158374,606.81216575882,606.41957178127,606.56603265431,606.89541214629,606.47431202529,605.96479710546,607.05699358872,607.04998931832,606.9971879749,606.91043015057,606.45603014161,606.73677282712,607.01633975611,606.80251690458,606.26560957233,607.05699358872,606.76021902005,606.76021902005,607.17130248386,607.17130248386,-0.30603151028159,-0.0098546025635443,-0.36631162533414,-0.12108638318728,0.32693267025612,0.39697508800336,-0.40147461723663,0.016719091782095,0.11755393290422,0.0149197854721,0.10355821646542,-5.8712865255455,-0.00013082455005304,-0.023194796064189,0.26836586010425,-1.2846061943847,-0.06225855451915,0.53482748641344,0.23800312875339,-0.57003315145001,-0.023588690089881,0.087981607035669,0.017548019756066,-0.9942393941229,0.30265165638372,-4.268536941518,0.095334243897618,0.18304937666091,-0.13194207025598,-0.033154310219997,0.068465176426724,0.083010231762399,0.016653657754049,-3.9101382761326,-0.055745066072111,-0.053928632344321,0.6044569747211,-0.38268463476193,-0.011126419974999,-0.0054867072326039,0.059361434203947,-2.1566777248429,-0.070226893844655,-0.032550510925394,-0.49781344228142,0.022751766450285,0.27385066750238,-0.16943477491711,731.00786452922,731.00786452922,730.68314976088,730.68314976088,731.90587294121,731.8589670617,731.28242948594,730.92097751279,731.43506750188,731.65594221081,730.97034428499,730.53725592291,731.49183353528,731.61344689545,731.72986726277,731.52951685339,731.01660071757,731.9141321211,731.91699454094,731.04699483282,730.77762986742,731.61711750788,731.73569109863,731.49183353528,730.81383518184,730.51254625707,731.86721024699,731.74218793416,731.49802210924,731.10542813169,731.25188900473,731.58126849671,731.16016837571,730.65065345588,731.74284993914,731.73584566874,731.68304432532,731.59628650099,731.14188649203,731.42262917754,731.70219610653,731.488373255,730.95146592275,731.74284993914,731.44607537047,731.44607537047,731.85715883428,731.85715883428,967.76075813375,1616.5673717314,605.67195774506,1765.1195483601,513.25737708783,0
4.54e-05,36106838.138064,3.1227162772286e-06,1.3477122130407e-05,2.9594769466019e-06,1.0033521068986,606.28505641686,606.28505641686,605.95299124683,605.95299124683,607.20625348336,607.1576634037,606.56831908918,606.19603380647,606.72308746533,606.95016266405,606.24840938086,605.80236128518,606.78306393584,606.90688348688,607.02627756112,606.82218018709,606.29412918381,607.21439530921,607.21711142491,606.32671755431,606.04925482439,606.90972577471,607.03155908894,606.78306393584,606.087666095,605.77730886977,607.16703237092,607.03800871359,606.78943320224,606.38508794407,606.5352706657,606.87403537431,606.44316286837,605.91853475906,607.04028920847,607.03269184707,606.97794062592,606.89053449311,606.42263976851,606.71089234692,606.99824918791,606.77994679644,606.22728479817,607.04028920847,606.7345286343,606.7345286343,607.15577585839,607.15577585839,-0.30928458991984,-0.010273122866772,-0.37348849499226,-0.11646630525864,0.33804025371143,0.40258234640624,-0.40879636594353,0.017176382822591,0.12224326422706,0.015212225626658,0.10509488082132,-5.9573791122814,-0.00012688090156712,-0.024139605158715,0.27724000810213,-1.3076283470082,-0.064864709863056,0.5540531932323,0.23727558261603,-0.58166454465719,-0.023809611785446,0.091644739578381,0.018199150889635,-1.0157302353415,0.30768307596087,-4.328228595463,0.098379236908316,0.18611647774502,-0.13418420904349,-0.034442137821736,0.071079498117637,0.084885615086599,0.016882571365264,-3.965098772675,-0.057214328417046,-0.056181149317269,0.62486557974036,-0.38940590393901,-0.011561302229753,-0.0056598712466149,0.06128332173488,-2.1979425093798,-0.073134485873314,-0.034024668919255,-0.51516741296337,0.02383360865283,0.28430450764482,-0.17726492305148,730.97553686724,730.97553686724,730.64347169721,730.64347169721,731.89673393374,731.84814385409,731.25879953957,730.88651425686,731.41356791572,731.64064311444,730.93888983125,730.49284173556,731.47354438623,731.59736393726,731.71675801151,731.51266063748,730.9846096342,731.90487575959,731.9075918753,731.0171980047,730.73973527478,731.6002062251,731.72203953932,731.47354438623,730.77814654539,730.46778932016,731.8575128213,731.72848916398,731.47991365263,731.07556839446,731.22575111609,731.5645158247,731.13364331876,730.60901520944,731.73076965886,731.72317229745,731.66842107631,731.58101494349,731.1131202189,731.40137279731,731.6887296383,731.47042724683,730.91776524855,731.73076965886,731.42500908469,731.42500908469,731.84625630878,731.84625630878,975.00011888944,1618.8059380791,608.22343673356,1765.7439803811,515.43356602039,0
4.55e-05,36250424.790632,3.1294116013454e-06,1.3506851424192e-05,2.9697532008115e-06,1.003376548718,606.24750637373,606.24750637373,605.90798372294,605.90798372294,607.19213298499,607.14179298329,606.5395521423,606.15628503608,606.69647839723,606.92978387738,606.21172663124,605.75256143885,606.75967964406,606.88577502949,607.00811569342,606.80026775989,606.25690275996,607.20014551424,607.20268021872,606.29171067801,606.00604050687,606.88774496753,607.01284433604,606.75967964406,606.04670105497,605.72715989175,607.15235703208,607.01923395136,606.76625353592,606.34999123662,606.50397843075,606.85219164075,606.4114617186,605.87154971551,607.02321453896,607.01502795883,606.95824611862,606.87023045247,606.38866465907,606.68455138709,606.97973010154,606.75692454835,606.18833752419,607.02321453896,606.70832015759,606.70832015759,607.13984625951,607.13984625951,-0.31244582612021,-0.010705713856458,-0.3807762596114,-0.11145699142115,0.34942612559299,0.4082818268045,-0.41622706365554,0.017637940846651,0.12709331429173,0.015498105986147,0.10663382073213,-6.0426666643283,-0.00012222749332177,-0.025116414793058,0.28636309899046,-1.3309259072249,-0.067565931128811,0.57381305090442,0.236421460845,-0.59354186753931,-0.024032654322738,0.0954409815173,0.018868866097637,-1.037562029111,0.31274808702576,-4.3872359112846,0.1014880310841,0.18925879485586,-0.13645371130934,-0.035772228630185,0.073778475678943,0.086762996909611,0.017111255204508,-4.0194013919874,-0.058723055972878,-0.058514249258369,0.64584889530332,-0.39620829303303,-0.012008904437547,-0.0058376318120935,0.063258499193585,-2.2397808363236,-0.076146450582794,-0.035563333621094,-0.53301148935601,0.024957750587473,0.29507760517329,-0.18536190500376,730.94270361868,730.94270361868,730.60318096789,730.60318096789,731.88733022994,731.83699022824,731.23474938725,730.85148228103,731.39167564218,731.62498112233,730.90692387618,730.4477586838,731.45487688901,731.58097227444,731.70331293837,731.49546500484,730.95210000491,731.89534275919,731.89787746367,730.98690792296,730.70123775182,731.58294221248,731.70804158099,731.45487688901,730.74189829992,730.4223571367,731.84755427703,731.71443119631,731.46145078087,731.04518848157,731.1991756757,731.5473888857,731.10665896354,730.56674696046,731.71841178391,731.71022520378,731.65344336357,731.56542769742,731.08386190402,731.37974863204,731.67492734649,731.4521217933,730.88353476914,731.71841178391,731.40351740254,731.40351740254,731.83504350446,731.83504350446,982.14066454244,1620.9667377121,610.75766636447,1766.3510530595,517.60327491644,0
4.56e-05,36394899.851621,3.1360880218168e-06,1.3536581529739e-05,2.9800634775322e-06,1.0034010144278,606.20935869286,606.20935869286,605.86227090899,605.86227090899,607.17764698967,607.12548905251,606.51026761429,606.115873105,606.66938069073,606.90894114998,606.17443710946,605.70200250232,606.73581706354,606.86426112768,606.98951624839,606.77791665298,606.21906431004,607.18551788115,607.18783401132,606.2561148915,605.96212995493,606.86531332374,606.99368182747,606.73581706354,606.00508255965,605.67624503289,607.13732023952,606.99999788816,606.74262072165,606.3142783975,606.4721545971,606.82987298805,606.37920427691,605.82384427317,607.00576267676,606.9969920852,606.93809595645,606.84951147523,606.35410229755,606.65774768287,606.96077353823,606.73344344017,606.14876812234,607.00576267676,606.68158736469,606.68158736469,607.123504831,607.123504831,-0.31551382242833,-0.011152629973249,-0.38817994772479,-0.10605045302434,0.36109386286376,0.41407699110911,-0.42376902552132,0.018103573539368,0.13210833883414,0.015776952324741,0.10817591794432,-6.1271127067957,-0.00011680564417237,-0.02612598667431,0.29573997789511,-1.3545016701677,-0.070364854888723,0.59411605316909,0.23543853120069,-0.60567047271753,-0.024258669849262,0.09937402574184,0.019557552089184,-1.0597380328651,0.3178494052521,-4.4455314294472,0.10466085138611,0.19247882113728,-0.13875140431842,-0.037145388555393,0.076564285565971,0.088641024481294,0.017339880797031,-4.0730220862642,-0.06027255975511,-0.060930117531531,0.66741769314162,-0.40309303969081,-0.012469271882407,-0.0060200798992181,0.065287981637283,-2.2821994296899,-0.079265647378432,-0.037168897408094,-0.55135405990431,0.026125597655886,0.30617649073418,-0.19373241774117,730.90936641406,730.90936641406,730.56227863019,730.56227863019,731.87765471087,731.82549677371,731.21027533549,730.8158808262,731.36938841193,731.60894887118,730.87444483066,730.40201022352,731.43582478474,731.56426884888,731.68952396959,731.47792437418,730.91907203124,731.88552560235,731.88784173252,730.9561226127,730.66213767613,731.56532104494,731.69368954867,731.43582478474,730.70509028085,730.37625275409,731.83732796072,731.70000560936,731.44262844285,731.0142861187,731.1721623183,731.52988070925,731.07921199811,730.52385199437,731.70577039796,731.6969998064,731.63810367765,731.54951919643,731.05411001875,731.35775540407,731.66078125943,731.43345116137,730.84877584354,731.70577039796,731.38159508589,731.38159508589,731.8235125522,731.8235125522,989.18450566131,1623.0485276234,613.2742571952,1766.9404660437,519.76615644658,0
4.57e-05,36540294.066388,3.1427447753558e-06,1.3566312457417e-05,2.9904065750717e-06,1.003425505239,606.17061407304,606.17061407304,605.81585292591,605.81585292591,607.1627872238,607.10874100087,606.48046074925,606.07479626953,606.64179103792,606.88762597156,606.13653822216,605.65068706357,606.71146882339,606.84233766651,606.9704699936,606.75512018663,606.18061307288,607.17050372791,607.17256202384,606.2199272009,605.91752259242,606.84242532683,606.97406272946,606.71146882339,605.96280947541,605.62456646224,607.12191419805,606.98029092593,606.71852861287,606.27794612726,606.43979781044,606.80707131217,606.34638618655,605.77542084094,606.98792658757,606.97857855354,606.91748148058,606.8283708932,606.31895014846,606.63047894351,606.94137037319,606.70949663923,606.10857701778,606.98792658757,606.6543239178,606.6543239178,607.10674253386,607.10674253386,-0.31848735636033,-0.011614122809079,-0.39570473159409,-0.10023893675519,0.37304702098566,0.41997137617638,-0.4314245833259,0.018573090021768,0.13729264184961,0.016048318480643,0.10972209635018,-6.2106828400645,-0.00011055317113471,-0.027169092997449,0.30537547504044,-1.3783584710843,-0.073264140174035,0.61497121275642,0.23432454875676,-0.6180556785086,-0.024488545901096,0.10344759912843,0.020265607161438,-1.0822615408612,0.32298986420394,-4.5030892122144,0.10789790082735,0.19577908799382,-0.14107814409913,-0.03856240963327,0.079439135455731,0.090518400705777,0.017568627074883,-4.1259383631878,-0.061864169994553,-0.063430978564605,0.68958270183483,-0.41006141001543,-0.012942418592316,-0.0062073080114529,0.067372775838532,-2.3252050610309,-0.08249496625692,-0.038843813907118,-0.57020343527052,0.0273385911051,0.31760775253327,-0.20238327551379,730.8755269823,730.8755269823,730.52076583517,730.52076583517,731.86770013306,731.81365391013,731.18537365851,730.7797091788,731.34670394719,731.59253888082,730.84145113143,730.35559997283,731.41638173266,731.54725057578,731.67538290286,731.46003309589,730.88552598214,731.87541663717,731.8774749331,730.92484011017,730.62243550169,731.5473382361,731.67897563873,731.41638173266,730.66772238468,730.3294793715,731.82682710731,731.68520383519,731.42344152214,730.98285903653,731.1447107197,731.51198422143,731.05129909581,730.4803337502,731.69283949683,731.68349146281,731.62239438984,731.53328380247,731.02386305773,731.33539185277,731.64628328246,731.41440954849,730.81348992704,731.69283949683,731.35923682706,731.35923682706,731.81165544313,731.81165544313,996.13406064664,1625.0501403142,615.77282711897,1767.5119260377,521.9218683283,0
4.58e-05,36686639.363442,3.1493810961218e-06,1.3596044217767e-05,3.0007812838129e-06,1.0034500224492,606.13127325391,606.13127325391,605.76872993117,605.76872993117,607.14754524369,607.09153800259,606.45012671002,606.03305277537,606.61370606948,606.86582966812,606.09802734952,605.59861781152,606.68662742487,606.82000045508,606.95096752312,606.73187156771,606.14154829856,607.15509419204,607.15685325727,606.18314457151,605.87221786228,606.81907534853,606.95397803274,606.68662742487,605.91988067506,605.57212643991,607.10613095576,606.9601032739,606.69397095115,606.24099107713,606.40690670247,606.78377835904,606.31300302619,605.72628192048,606.96969910452,606.95978158337,606.89639386662,606.80680192169,606.28320564531,606.60274284309,606.92151131412,606.68507719796,606.06776467462,606.96969910452,606.62652335948,606.62652335948,607.08955014257,607.08955014257,-0.32136537454597,-0.012090441207331,-0.40335591430789,-0.09401492616916,0.38528913184469,0.4259685873521,-0.43919607773717,0.019046301271411,0.14265057204533,0.016311788225969,0.11127331775855,-6.293344726007,-0.00010340427064479,-0.028246517521541,0.31527440271855,-1.4024991735352,-0.076266465301888,0.63638755804453,0.23307725012331,-0.63070275819055,-0.024723203386665,0.10766545876401,0.020993441523554,-1.1051358771394,0.32817240457723,-4.5598848344645,0.11119935997635,0.19916216146078,-0.14343481251433,-0.040024069348964,0.082405262594761,0.092393888996231,0.017797679614911,-4.17812926815,-0.063499234211458,-0.066019097858158,0.71235459987923,-0.41711469428003,-0.013428324382205,-0.0063994104972133,0.069513879523076,-2.3688045284423,-0.085837325533668,-0.040590598812346,-0.58956784176282,0.028598208716859,0.32937803552699,-0.21132141089043,730.84118712936,730.84118712936,730.47864380662,730.47864380662,731.85745911915,731.80145187804,731.16004058548,730.74296665082,731.32361994494,731.57574354357,730.80794122498,730.30853168698,731.39654130033,731.52991433053,731.66088139857,731.44178544316,730.85146217402,731.8650080675,731.86676713272,730.89305844697,730.58213173773,731.52898922398,731.66389190819,731.39654130033,730.62979455051,730.28204031536,731.81604483121,731.67001714935,731.4038848266,730.95090495258,731.11682057792,731.4936922345,731.02291690164,730.43619579593,731.67961297998,731.66969545882,731.60630774207,731.51671579714,730.99311952076,731.31265671854,731.63142518958,731.39499107342,730.77767855008,731.67961297998,731.33643723493,731.33643723493,731.79946401803,731.79946401803,1002.9920631193,1626.9704864691,618.25300246663,1768.0651483939,524.07007413317,0
4.59e-05,36833968.799107,3.1559962167334e-06,1.3625776821464e-05,3.011186389284e-06,1.0034745674375,606.09133700172,606.09133700172,605.72090210501,605.72090210501,607.13191243318,607.07386901451,606.41926057262,605.99064084483,606.58512234501,606.84354339842,606.05890183631,605.5457975181,606.66128523863,606.79724522053,606.9309992558,606.70816388798,606.10186923555,607.13928022786,607.14069649058,606.14576391924,605.82621521267,606.79525764149,606.93341854871,606.66128523863,605.8762950266,605.51892729985,607.08996240199,606.93942494534,606.66894136294,606.20340983802,606.37347987902,606.75998572121,606.27905030353,605.67643008876,606.95107292666,606.94059528282,606.87482412153,606.78479765793,606.24686617959,606.57453701144,606.90118690003,606.66017805186,606.0263315818,606.95107292666,606.5981791057,606.5981791057,607.07191824163,607.07191824163,-0.32414699028945,-0.012581831386479,-0.41113891616406,-0.087371145585545,0.3978237012964,0.43207229678382,-0.44708585195005,0.019523020449065,0.14818651841993,0.016566976999357,0.11283057759249,-6.3750681111215,-9.5289361658778e-05,-0.029359056609809,0.32544155277144,-1.4269266596164,-0.079374524244986,0.65837412893377,0.23169435299658,-0.64361693118767,-0.024963594587091,0.11203138754494,0.021741477542658,-1.1283643896495,0.33340006300182,-4.6158954015906,0.11456538634955,0.2026306398926,-0.14582231485946,-0.041531130119213,0.085464931567483,0.094266317819741,0.018027229886953,-4.2295753921877,-0.065179115253527,-0.068696784121769,0.73574401023279,-0.4242542029987,-0.013926931536817,-0.0065964838541897,0.071712280563584,-2.4130046392141,-0.089295669201549,-0.042411831228137,-0.60945541599792,0.029905965837225,0.34149403997341,-0.22055387487706,730.80634866234,730.80634866234,730.43591376563,730.43591376563,731.8469240938,731.78888067513,731.13427223324,730.70565250545,731.30013400562,731.55855505903,730.77391349692,730.26080917872,731.37629689925,731.51225688114,731.64601091641,731.4231755486,730.81688089617,731.85429188847,731.85570815119,730.86077557986,730.54122687329,731.51026930211,731.64843020932,731.37629689925,730.59130668722,730.23393896047,731.8049740626,731.65443660596,731.38395302355,730.91842149864,731.08849153963,731.47499738182,730.99406196415,730.39144174938,731.66608458728,731.65560694344,731.58983578214,731.49980931854,730.9618778402,731.28954867205,731.61619856065,731.37518971247,730.74134324242,731.66608458728,731.31319076632,731.31319076632,731.78692990224,731.78692990224,1009.7615557227,1628.8085574679,620.71441927382,1768.599859123,526.21044414117,0
4.6e-05,36982316.493481,3.1625893691777e-06,1.3655510279276e-05,3.0216206738036e-06,1.0034991416581,606.05080609518,606.05080609518,605.67236963681,605.67236963681,607.11588000139,607.05572277415,606.38785732084,605.94755866429,606.55603634345,606.82075815052,606.01915898318,605.49222902045,606.63543450226,606.7740676022,606.9105554338,606.68399012256,606.06157511795,607.12305260368,607.1240802791,606.10778210228,605.77951408332,606.77096633222,606.912374906,606.63543450226,605.83205138231,605.46497143274,607.07340026559,606.9182457544,606.64343335661,606.16519892976,606.33951590824,606.73568483467,606.24452344908,605.62586798071,606.93204061762,606.92101364533,606.85276308073,606.76235107979,606.20992908998,606.54585902522,606.88038750018,606.63479201764,605.98427823906,606.93204061762,606.56928443916,606.56928443916,607.05383722219,607.05383722219,-0.32683147961288,-0.013088537050604,-0.41905926091112,-0.080300561264221,0.41065420622281,0.43828623686257,-0.45509624455274,0.020003063205098,0.153904906425,0.016813533472844,0.11439490062453,-6.4558248181786,-8.6134957520243e-05,-0.030507520752294,0.33588169437076,-1.4516438192249,-0.082591022654565,0.6809399720985,0.23017355066458,-0.65680335380484,-0.025210701166884,0.11654919014738,0.022510149967376,-1.1519504429017,0.33867596079169,-4.6710995433465,0.11799611361125,0.20618715006125,-0.14824157690958,-0.043084338865648,0.088620432486151,0.096134584711741,0.018257474521265,-4.2802588594713,-0.06690518938791,-0.07146639191783,0.75976149525614,-0.43148126265877,-0.014438141249987,-0.0067986272044165,0.073968956372345,-2.4578121907454,-0.092872964102444,-0.044310154678094,-0.62987419990704,0.031263416195354,0.35396251983507,-0.23008783752103,730.77101340313,730.77101340313,730.39257694476,730.39257694476,731.83608730934,731.7759300821,731.10806462879,730.66776597224,731.27624365139,731.54096545846,730.73936629112,730.2124363284,731.35564181021,731.49427491014,731.63076274174,731.40419743051,730.7817824259,731.84325991163,731.84428758705,730.82798941023,730.49972139127,731.49117364017,731.63258221395,731.35564181021,730.55225869026,730.18517874069,731.79360757354,731.63845306235,731.36364066456,730.8854062377,731.05972321619,731.45589214262,730.96473075702,730.34607528866,731.65224792557,731.64122095328,731.57297038868,731.48255838774,730.93013639793,731.26606633317,731.60059480813,731.35499932559,730.70448554701,731.65224792557,731.28949174711,731.28949174711,731.77404453014,731.77404453014,1016.4458942544,1630.5634273523,623.15672421772,1769.1157965235,528.34265613801,0
4.61e-05,37131717.557573,3.1691597859108e-06,1.3685244602147e-05,3.0320829186591e-06,1.0035237466341,606.00968131148,606.00968131148,605.62313271195,605.62313271195,607.09943898067,607.03708779793,606.35591184123,605.90380437191,606.52644445373,606.79746473865,605.97879603837,605.43791520345,606.60906731803,606.7504631459,606.88962612122,606.65934312866,606.020665153,607.1064018994,607.10699295306,606.06919591319,605.73211389215,606.7461954141,606.89083754712,606.60906731803,605.78714856808,605.4102612692,607.05643611329,606.8965553132,606.61744031975,606.12635479054,606.3050133091,606.71086697605,606.20941781022,605.57459827207,606.91259460456,606.90103054644,606.83020140541,606.73945504469,606.17239165172,606.5167063992,606.85910331332,606.6089117917,605.94160514325,606.91259460456,606.53983250278,606.53983250278,607.03529727891,607.03529727891,-0.32941827739475,-0.013610799612427,-0.42712256016419,-0.072796382599774,0.42378409076815,0.4446141940909,-0.46322958188709,0.020486247944169,0.15981019278529,0.017051140943122,0.11596733639668,-6.5355887454532,-7.5863525715346e-05,-0.031692736304878,0.34659957205517,-1.4766535361505,-0.085918674148395,0.70409413449029,0.22851250754653,-0.67026710976438,-0.025465531997139,0.12122268804353,0.023299906012274,-1.175897409272,0.34400329149802,-4.7254774132982,0.12149165061424,0.20983434284999,-0.15069354174259,-0.044684426621505,0.091874078247997,0.09799765970908,0.018488614555275,-4.3301633187935,-0.068678844145186,-0.074330325066462,0.78441755186983,-0.43879721012276,-0.014961810302296,-0.007005942771642,0.076284873460936,-2.5032339478814,-0.096572197315139,-0.046288278809811,-0.65083213575343,0.032672152760713,0.36679027981874,-0.23993058812607,730.73518318929,730.73518318929,730.34863458975,730.34863458975,731.82494085847,731.76258967573,731.08141371904,730.62930624972,731.25194633153,731.52296661645,730.70429791618,730.16341708125,731.33456919584,731.4759650237,731.61512799903,731.38484500646,730.74616703081,731.8319037772,731.83249483086,730.794697791,730.45761576995,731.4716972919,731.61633942492,731.33456919584,730.51265044588,730.135763147,731.78193799109,731.622057191,731.34294219755,730.85185666834,731.0305151869,731.43636885386,730.93491968803,730.30010014987,731.63809648237,731.62653242424,731.55570328321,731.46495692249,730.89789352952,731.242208277,731.58460519113,731.3344136695,730.66710702105,731.63809648237,731.26533438058,731.26533438058,731.76079915672,731.76079915672,1023.0487364323,1632.2342544861,625.57957587518,1769.6127128597,530.46639612839,0
4.62e-05,37282208.012232,3.1757067006579e-06,1.3714979801157e-05,3.0425719057972e-06,1.0035483839503,605.96796341263,605.96796341263,605.57319149893,605.57319149893,607.08258022475,607.01795237965,606.32341891846,605.85937604566,606.49634296562,606.7736538003,605.93781018976,605.38285898257,606.58217565103,606.72642729841,606.86820120306,606.63421564458,605.97913850882,607.08931850408,607.08942261633,606.0300020713,605.6840140223,606.72093874071,606.86879672537,606.58217565103,605.74158537328,605.35479926337,607.03906134827,606.87434302916,606.59095551675,606.08687376673,606.26997054001,606.68552325997,606.17372864578,605.52262366261,606.89272717726,606.88063974084,606.80712958005,606.71610228878,606.13425106627,606.48707657766,606.83732436708,606.58252994882,605.89831277474,606.89272717726,606.50981629346,606.50981629346,607.01628840701,607.01628840701,-0.33190697226123,-0.014148858362822,-0.43533449803614,-0.064852061972113,0.43721676234483,0.45106000395527,-0.47148817239053,0.020972395945849,0.16590686031254,0.017279518628931,0.1175489547741,-6.6143358412708,-6.4393318114309e-05,-0.032915547100224,0.35759990398563,-1.5019586774045,-0.089360195932517,0.7278456566278,0.22670885580276,-0.68401320286542,-0.025729121226326,0.12605571444081,0.024111205424822,-1.2002086609367,0.34938530865105,-4.7790106717345,0.12505208030683,0.21357488925996,-0.15317916721663,-0.046332108369988,0.095228201862593,0.099854588555727,0.018720854715105,-4.3792739180013,-0.070501476298034,-0.07729103959883,0.80972260803611,-0.4462033879034,-0.015497747267608,-0.0072185363437028,0.078660986772457,-2.5492766246082,-0.10039637300858,-0.048348980592222,-0.67233706266287,0.034133808711712,0.3799841723804,-0.25008953523064,730.69885986633,730.69885986633,730.30408795262,730.30408795262,731.81347667845,731.74884883335,731.05431537216,730.59027249936,731.22723941932,731.504550254,730.66870664346,730.11375543626,731.31307210473,731.45732375211,731.59909765676,731.36511209828,730.71003496252,731.82021495777,731.82031907003,730.76089852499,730.414910476,731.4518351944,731.59969317907,731.31307210473,730.47248182698,730.08569571707,731.76995780197,731.60523948286,731.32185197044,730.81777022042,731.0008669937,731.41641971367,730.90462509948,730.25352011631,731.62362363095,731.61153619454,731.53802603374,731.44699874247,730.86514751996,731.21797303135,731.56822082078,731.31342640252,730.62920922844,731.62362363095,731.24071274716,731.24071274716,731.74718486071,731.74718486071,1029.5740329786,1633.8202827976,627.98264580968,1770.0903763035,532.5813593202,0
4.63e-05,37433824.697512,3.1822293496042e-06,1.3744715887543e-05,3.0530864203582e-06,1.0035730552454,605.92565313206,605.92565313206,605.52254613708,605.52254613708,607.06529440711,606.99830458925,606.29037323094,605.81427169181,606.46572806091,606.74931579363,605.89619855734,605.32706328713,606.55475132749,606.70195540221,606.84627038432,606.60860028903,605.93699430248,607.07179261389,607.0713571454,605.99019721555,605.6352138096,606.69519001938,606.8462425021,606.55475132749,605.69536054102,605.29858787702,607.02126720901,606.8515981026,606.56397208671,606.04675210301,606.23438598785,606.65964463674,606.13745112084,605.46994685976,606.87243048749,606.85983485959,606.78353791018,606.69228542639,606.09550445127,606.45696692616,606.81504051766,606.55563894123,605.85440158433,606.87243048749,606.4792286562,606.4792286562,606.99680039953,606.99680039953,-0.33429730227638,-0.014702950694988,-0.44370081542674,-0.056461294383767,0.4509555867779,0.45762754304501,-0.47987429916113,0.021461331459247,0.17219941270871,0.017498422843524,0.1191408414632,-6.6920440915065,-5.163821696816e-05,-0.034176816262074,0.36888738055635,-1.527562077885,-0.092918304590493,0.75220356408656,0.22476018953931,-0.69804654858632,-0.026002526380155,0.13105210939945,0.024944520436188,-1.2248875592634,0.35482531326557,-4.8316824755276,0.12867745845185,0.21741147520626,-0.15569942250141,-0.048028082892079,0.098685153649932,0.10170449538224,0.018954402704698,-4.4275772882159,-0.072374489775378,-0.080351047042967,0.83568701953465,-0.45370113783521,-0.016045708856159,-0.0074365177981339,0.081098239248669,-2.5959468594832,-0.10434850947986,-0.050495105550224,-0.69439671309859,0.035650058349511,0.39355109343288,-0.26057220649124,730.66204529861,730.66204529861,730.25893830364,730.25893830364,731.80168657366,731.7346967558,731.0267653975,730.55066385836,731.20212022746,731.48570796018,730.63259072389,730.06345545369,731.29114349404,731.43834756877,731.58266255087,731.34499245559,730.67338646903,731.80818478045,731.80774931196,730.7265893821,730.37160597616,731.43158218594,731.58263466865,731.29114349404,730.43175270757,730.03498004358,731.75765937557,731.58799026915,731.30036425327,730.78314426956,730.9707781544,731.3960368033,730.8738432874,730.20633902631,731.60882265405,731.59622702615,731.51993007674,731.42867759295,730.83189661783,731.19335909272,731.55143268421,731.29203110779,730.59079375089,731.60882265405,731.21562082276,731.21562082276,731.73319256609,731.73319256609,1036.0260193512,1635.3208425455,630.36561933296,1770.5485718819,534.68725049105,0
4.64e-05,37586605.173628,3.188726972112e-06,1.3774452872667e-05,3.0636252520213e-06,1.0035977622045,605.88275116157,605.88275116157,605.47119672471,605.47119672471,607.04757201953,606.97813227167,606.25676934699,605.76848923378,606.43459580483,606.72444099511,605.85395818617,605.27053104404,606.5267860335,606.67704269042,606.8238231894,606.5824895607,605.89423158842,607.05381423025,607.05278418863,605.94977789783,605.58571253045,606.66894280508,606.82316474412,606.5267860335,605.64847275889,605.241629564,607.00304476831,606.82830952453,606.53648304174,606.00598593289,606.19825795725,606.63322189042,606.10058030207,605.41657056253,606.85169654868,606.83860940758,606.75941652046,606.66799694979,606.0561488309,606.42637472349,606.79224144974,606.52823109788,605.80987198033,606.85169654868,606.4480622784,606.4480622784,606.97682284492,606.97682284492,-0.33658914890414,-0.015273312308891,-0.45222729319671,-0.047618016211581,0.46500388326449,0.4643207216267,-0.48839021315668,0.02195288173607,0.17869236853975,0.017707648096139,0.12074409340781,-6.7686934770462,-3.7507589881353e-05,-0.035477428378025,0.3804666635464,-1.553466524829,-0.096595711276229,0.7771768587416,0.22266405977458,-0.71237196603744,-0.026286826419376,0.13621571418022,0.025800335675986,-1.2499374443262,0.36032664070063,-4.8834774490376,0.13236781225428,0.22134679620036,-0.1582552849215,-0.049773032763377,0.1022472980026,0.10354658519524,0.019189468498773,-4.4750615061912,-0.074299293600571,-0.083512918343045,0.86232106787102,-0.46129179436003,-0.016605395863791,-0.0076600017089839,0.083597561599101,-2.6432511914836,-0.1084316356899,-0.052729569242917,-0.71701871046633,0.037222618196223,0.40749797786168,-0.27138624826411,730.62474127636,730.62474127636,730.21318683951,730.21318683951,731.78956213432,731.72012238647,730.99875946179,730.51047934858,731.17658591962,731.46643110991,730.59594830096,730.01252115883,731.2687761483,731.41903280521,731.5658133042,731.32447967549,730.63622170322,731.79580434505,731.79477430342,730.69176801262,730.32770264524,731.41093291987,731.56515485891,731.2687761483,730.39046287368,729.9836196788,731.7450348831,731.57029963933,731.27847315653,730.74797604768,730.94024807204,731.37521200521,730.84257041687,730.15856067732,731.59368666347,731.58059952238,731.50140663525,731.40998706459,730.79813894569,731.16836483829,731.53423156454,731.27022121268,730.55186209513,731.59368666347,731.19005239319,731.19005239319,731.71881295972,731.71881295972,1042.4091997705,1636.7353507854,632.72819653333,1771.5691228161,536.78378487144,0
4.65e-05,37740587.613878,3.1951988119973e-06,1.3804190768077e-05,3.0741871969952e-06,1.0036225065508,605.83925813873,605.83925813873,605.41914330784,605.41914330784,607.02940337096,606.95742304621,606.22260172132,605.72202650155,606.40294213794,606.69901949764,605.8110860399,605.21326516206,606.49827131414,606.65168428203,606.80084896178,606.55587583815,605.85084934729,607.03537315817,607.03369116567,605.90874057675,605.53550939026,606.64219049455,606.79955312159,606.49827131414,605.60092065032,605.18392675541,606.98438493258,606.80446607487,606.50848126553,605.96457126969,606.1615846603,606.60624563714,606.06311115347,605.3624974461,606.83051723573,606.81695676125,606.73475535292,606.64322922917,606.01618112654,606.39529715396,606.76891667677,606.50029862416,605.76472431617,606.83051723573,606.41630968461,606.41630968461,606.95634512485,606.95634512485,-0.33878253241616,-0.015860177449143,-0.46091973470033,-0.038316404098253,0.47936491855933,0.47114347399717,-0.49703812721033,0.022446877028867,0.18539025541945,0.017907028128474,0.12235981410886,-6.8442659548683,-2.1906132197815e-05,-0.036818291726905,0.39234238550218,-1.5796747421088,-0.10039511667545,0.80277450848487,0.22041796720195,-0.72699417137168,-0.026583119802867,0.14155036597518,0.026679147998044,-1.2753616237452,0.36589264710929,-4.9343816698507,0.13612313879181,0.22538355121704,-0.16084773699068,-0.051567624436619,0.10591701011093,0.10538014610045,0.019426263641955,-4.5217160737921,-0.076277299851212,-0.086779288027449,0.88963495877048,-0.46897667753139,-0.017176448814123,-0.0078891079530407,0.086159872098878,-2.6911960358458,-0.11264878775373,-0.055055359048837,-0.74021056728956,0.038853248095009,0.4218317939988,-0.28253942521681,730.58694957564,730.58694957564,730.16683474475,730.16683474475,731.77709480787,731.70511448311,730.97029315823,730.46971793846,731.15063357485,731.44671093455,730.55877747681,729.96095659897,731.24596275105,731.39937571894,731.54854039869,731.30356727506,730.5985407842,731.78306459507,731.78138260258,730.65643201366,730.28320082716,731.38988193146,731.5472445585,731.24596275105,730.34861208723,729.93161819232,731.73207636949,731.55215751178,731.25617270244,730.7122627066,730.9092760972,731.35393707405,730.81080259038,730.11018888301,731.57820867264,731.56464819816,731.48244678982,731.39092066608,730.76387256344,731.14298859087,731.51660811368,731.24799006107,730.51241575308,731.57820867264,731.16400112152,731.16400112152,731.70403656176,731.70403656176,1048.7283329611,1638.0633113605,635.07009307655,1774.4661423698,538.87068867588,0
4.66e-05,37895810.689634,3.2016441180741e-06,1.3833929585437e-05,3.084771059725e-06,1.0036472900363,605.79517463464,605.79517463464,605.36638586945,605.36638586945,607.01077858664,606.93616430594,606.18786469198,605.67488122144,606.37076286828,606.67304120889,605.7675789947,605.1552685166,606.46919857283,606.62587517743,606.77733686397,606.52875138011,605.80684647513,607.01645900492,607.01406526734,605.86708161196,605.4846035124,606.61492632091,606.77539710614,606.46919857283,605.55270276642,605.12548184519,606.96527844143,606.78005632083,606.47995951238,605.92250399794,606.1243642066,606.57870632392,606.02503853262,605.30773014677,606.80888428524,606.79487016652,606.70954416561,606.61797451302,605.97559814786,606.3637313,606.7450555414,606.4718336019,605.71895887839,606.80888428524,606.38396323161,606.38396323161,606.93535641234,606.93535641234,-0.34087760500995,-0.016463779080619,-0.4697839503716,-0.028550871937057,0.4940419005297,0.47809975038829,-0.50582020922261,0.02294315033957,0.19229760367227,0.018096436909023,0.12398910934753,-6.9187453952016,-4.7337099845209e-06,-0.038200340579896,0.40451914923994,-1.6061893710125,-0.10431920560492,0.82900543569833,0.21801935715519,-0.74191777045885,-0.02689252331426,0.14705989208386,0.027581466225617,-1.301163359806,0.37152669710004,-4.9843826243273,0.13994340326958,0.22952443669466,-0.16347776294698,-0.053412508420446,0.10969667254885,0.10720455133015,0.019665000614116,-4.5675318672678,-0.078309921773079,-0.090152858282639,0.91763882111825,-0.47675708487633,-0.017758443600512,-0.0081239623407812,0.088786076406599,-2.7397876552441,-0.11700300506369,-0.057475535411726,-0.76397968389232,0.040543752248115,0.43655953721615,-0.29403961935565,730.54867193246,730.54867193246,730.11988316727,730.11988316727,731.76427588446,731.68966160377,730.9413619898,730.42837851927,731.1242601661,731.42653850672,730.52107629253,729.90876581443,731.22269587066,731.37937247526,731.5308341618,731.28224867793,730.56034377296,731.76995630275,731.76756256517,730.62057890978,730.23810081023,731.36842361873,731.52889440396,731.22269587066,730.30620006425,729.87897914302,731.71877573925,731.53355361866,731.23345681021,730.67600129577,730.87786150443,731.33220362175,730.77853583045,730.0612274446,731.56238158307,731.54836746435,731.46304146344,731.37147181085,730.72909544569,731.11722859783,731.49855283922,731.22533089972,730.47245617621,731.56238158307,731.13746052944,731.13746052944,731.68885371017,731.68885371017,1054.9884107379,1639.3043145364,637.39104095153,1777.3273429685,540.94769958264,0
4.67e-05,38052313.446545,3.2080621452399e-06,1.3863669336609e-05,3.0953756544213e-06,1.0036721144337,605.75050114221,605.75050114221,605.31292431951,605.31292431951,606.99168760742,606.91434321766,606.15255247785,605.62705100661,606.33805366404,606.64649585013,605.72343383392,605.09654393525,606.43955907122,606.59961025419,606.75327587771,606.50110832598,605.76222177313,606.99706117904,606.99389345562,605.82479725898,605.43299392782,606.58714334854,606.75068596942,606.43955907122,605.50381757853,605.06629717658,606.94571586748,606.75506861576,606.45091040656,605.87977986526,606.0865945939,606.55059422777,605.98635718742,605.25227124764,606.78678929596,606.77234273708,606.68377253154,606.59222492879,605.93439658442,606.33167413518,606.72064721636,606.44282798974,605.67257587509,606.78678929596,606.35101510388,606.35101510388,606.91384567029,606.91384567029,-0.34287464641665,-0.017084349156435,-0.47882573923985,-0.01831607028961,0.50903797146199,0.48519350570168,-0.51473857745682,0.02344153730248,0.19941893968993,0.018275789554841,0.12563308240284,-6.9921175672061,1.4114828630132e-05,-0.039624537790384,0.41700152768397,-1.6330129532528,-0.10837064194271,0.8558785050653,0.21546561141594,-0.75714725409732,-0.027216170280317,0.1527481040425,0.028507810811073,-1.3273458575779,0.37723214952819,-5.0334691977771,0.1438285372803,0.23377213931435,-0.16614634605134,-0.055308319545319,0.11358867148219,0.1090192611131,0.019905892143142,-4.6125011189458,-0.080398571593561,-0.093636403614464,0.94634270685417,-0.4846342833468,-0.018350887342706,-0.0083646973282053,0.091477067353219,-2.7890321348867,-0.12149732668236,-0.05999323352317,-0.78833334805438,0.042295980226084,0.45168822284747,-0.30589482919878,730.50991006591,730.50991006591,730.07233324322,730.07233324322,731.75109653112,731.67375214136,730.91196140155,730.38645993031,731.09746258774,731.40590477383,730.48284275763,729.85595285896,731.19896799493,731.35901917789,731.51268480141,731.26051724968,730.52163069683,731.75647010274,731.75330237932,730.58420618268,730.19240285153,731.34655227224,731.51009489312,731.19896799493,730.26322650223,729.82570610028,731.70512479118,731.51447753946,731.21031933026,730.63918878897,730.8460035176,731.31000315147,730.74576611112,730.01168017135,731.54619821966,731.53175166078,731.44318145524,731.35163385249,730.69380550812,731.09108305888,731.48005614006,731.20223691344,730.43198479879,731.54619821966,731.11042402758,731.11042402758,731.67325459399,731.67325459399,1061.194642192,1640.4580363091,639.69078909314,1780.1524894364,543.01456730649,0
4.68e-05,38210135.176105,3.2144521554055e-06,1.3893410033593e-05,3.1059998066788e-06,1.0036969815264,605.70523806486,605.70523806486,605.25875848549,605.25875848549,606.97212018949,606.89194672193,606.11665917649,605.57853334786,606.3048100466,606.61937295539,605.67864724316,605.03709418371,606.40934392941,606.57288426321,606.72865480459,606.47293869681,605.71697393768,606.97716888952,606.97316246411,605.7818836646,605.3806795651,606.55883446845,606.72540878202,606.40934392941,605.45426347127,605.00637502894,606.92568761648,606.72949109822,606.4213264421,605.83639447476,606.04827369896,606.52189945525,605.94706175335,605.19612326468,606.7642237295,606.74936745285,606.65742983787,606.56597248384,605.89257299755,606.2991225175,606.69568070561,606.41327362392,605.62557542486,606.7642237295,606.31745730939,606.31745730939,606.89180165022,606.89180165022,-0.34477405678608,-0.017722118813028,-0.48805087120872,-0.0076068816453701,0.52435620083985,0.4924286886608,-0.5237952944527,0.023941875976088,0.20675877884182,0.018445043264315,0.12729282957783,-7.0643700597357,3.4749823771776e-05,-0.041091877453528,0.4297940638531,-1.6601479095718,-0.11255206271531,0.88340251030373,0.21275404093411,-0.77268699173855,-0.02755520905374,0.15861879135262,0.029458713447848,-1.3539122508666,0.38301234401766,-5.0816316155901,0.14777843692677,0.23812932870917,-0.16885446535926,-0.057255677265093,0.11759539269933,0.110823824493,0.020149150580467,-4.656617357934,-0.082544658560013,-0.097232775649415,0.97575659108455,-0.4926094999594,-0.018953213571896,-0.0086114527205363,0.094233724877411,-2.8389353515021,-0.12613478713233,-0.062611665023797,-0.81327873498859,0.044111828190774,0.46722487841366,-0.31811316842129,730.4706655726,730.4706655726,730.02418599322,730.02418599322,731.73754769723,731.65737422967,730.88208668423,730.3439608556,731.07023755433,731.38480046313,730.4440747509,729.80252169145,731.17477143715,731.33831177094,731.49408231232,731.23836620454,730.48240144542,731.74259639726,731.73858997185,730.54731117233,730.14610707284,731.32426197618,731.49083628975,731.17477143715,730.21969097901,729.77180253667,731.69111512421,731.49491860596,731.18675394983,730.60182198249,730.81370120669,731.28732696298,730.71248926109,729.96155077241,731.52965123723,731.51479496058,731.4228573456,731.33139999158,730.65800050529,731.06455002523,731.46110821334,731.17870113166,730.3910029326,731.52965123723,731.08288481713,731.08288481713,731.65722915795,731.65722915795,1067.3524301143,1641.5242373298,641.9691039657,1782.9413345646,545.07105392626,0
4.69e-05,38369315.278763,3.2208134183154e-06,1.3923151688556e-05,3.1166423547904e-06,1.0037218930998,605.65938570586,605.65938570586,605.20388810361,605.20388810361,606.95206590438,606.86896153372,606.0801787626,605.52932560531,606.27102738406,606.59166187113,605.63321580609,604.97692195267,606.3785441266,606.54569182517,606.70346226687,606.44423439659,605.67110155112,606.95677114544,606.95185879873,605.73833686287,605.32765924131,606.52999239402,606.6995544128,606.3785441266,605.40403873637,604.94571760553,606.90518392774,606.70331169153,606.39119998297,605.79234327793,606.00939926915,606.4926119425,605.90714675131,605.13928863362,606.74117891143,606.72593715884,606.63050528551,606.53920906682,605.85012381289,606.26607318314,606.67014484581,606.3831622194,605.57795754626,606.74117891143,606.28328167597,606.28328167597,606.86921289153,606.86921289153,-0.34657635099285,-0.018377318591139,-0.49746506987435,0.0035815805462902,0.53999957740888,0.49980922971936,-0.53299236220947,0.024444006506449,0.21432161893146,0.018604198194593,0.1289694357362,-7.1354922453889,5.7286985260388e-05,-0.042603387798369,0.44290127101608,-1.6875965192515,-0.11686607210685,0.91158615960811,0.20988187739021,-0.78854122692821,-0.027910801937424,0.16467571582427,0.030434716608028,-1.380865588847,0.38887058753768,-5.1288614209448,0.15179296073733,0.24259864954754,-0.17160309281758,-0.059255186055157,0.1217192178634,0.11261788107238,0.020394987281879,-4.6998753751754,-0.084749587000073,-0.10094490837632,1.0058903728928,-0.5006839123174,-0.019564776826726,-0.0088643764325873,0.097056915943874,-2.8895029444483,-0.13091841238864,-0.06533411980534,-0.83882290819908,0.045993240569253,0.48317653504884,-0.33070286441783,730.43094006997,730.43094006997,729.97544246772,729.97544246772,731.72362026849,731.64051589783,730.85173312672,730.30087996943,731.04258174817,731.36321623524,730.4047701702,729.74847631679,731.15009849071,731.31724618929,731.47501663099,731.2157887607,730.44265591523,731.72832550955,731.72341316285,730.50989122698,730.09921360543,731.30154675813,731.47110877691,731.15009849071,730.17559310049,729.71727196965,731.67673829186,731.47486605565,731.16275434709,730.56389764205,730.78095363326,731.26416630662,730.67870111543,729.91084299774,731.51273327555,731.49749152296,731.40205964963,731.31076343094,730.621678177,731.03762754725,731.44169920992,731.15471658351,730.34951191037,731.51273327555,731.05483604009,731.05483604009,731.64076725564,731.64076725564,1073.4673481326,1642.5027615441,644.22577000872,1785.6936189558,547.11693424469,0
4.7e-05,38529893.123999,3.2271452123083e-06,1.3952894313856e-05,3.1273021511362e-06,1.0037468509313,605.61294425807,605.61294425807,605.14831281088,605.14831281088,606.9315141392,606.84537414316,606.04310508689,605.47942500045,606.23670088529,606.56335175629,605.58713600083,604.91602984523,606.34715050221,606.51802742738,606.67768670878,606.4149872139,605.62460307284,606.93585675588,606.92996873885,605.69415277168,605.27393165343,606.50060965726,606.67311152866,606.34715050221,605.35314156713,604.88432702195,606.88419487489,606.6765181036,606.36052326373,605.74762156816,605.96996891445,606.4627214557,605.86660658599,605.08176969747,606.71764603267,606.70204456428,606.60298788911,606.51192644932,605.80704531327,606.23252274062,606.64402830819,606.35248537139,605.52972214779,606.71764603267,606.24847984794,606.24847984794,606.84606772105,606.84606772105,-0.3482821527591,-0.019050178557332,-0.50707399501285,0.015253975207736,0.55597100105254,0.50733902830668,-0.54233171775177,0.024947770792741,0.22211193250824,0.01875329829985,0.13066396992457,-7.2054752237239,8.1847583108111e-05,-0.044160134023569,0.45632763293645,-1.7153608984595,-0.12131523506878,0.94043806033234,0.20684626452558,-0.80471407315679,-0.028284124084422,0.17092260491737,0.031436372957827,-1.4082088219237,0.39481014100837,-5.175151432154,0.15587192760921,0.24718271327879,-0.17439319045948,-0.061307435842697,0.12596252013258,0.11440116271086,0.020643612017223,-4.7422711792128,-0.087014754402711,-0.10477582301978,1.0367538765171,-0.50885863860309,-0.02018484806737,-0.009123625249319,0.099947494460132,-2.9407402853867,-0.13585121509157,-0.068163967227812,-0.86497282088773,0.047942210741371,0.49955021800458,-0.34367225662817,730.39073504996,730.39073504996,729.92610360277,729.92610360277,731.70930493109,731.62316493505,730.82089587879,730.25721579235,731.01449167718,731.34114254818,730.36492679272,729.69382063713,731.1249412941,731.29581821927,731.45547750068,731.19277800579,730.40239386474,731.71364754778,731.70775953074,730.47194356357,730.05172244533,731.27840044915,731.45090232056,731.1249412941,730.13093235903,729.66211781385,731.66198566678,731.45430889549,731.13831405563,730.52541236005,730.74775970634,731.24051224759,730.64439737789,729.85956048936,731.49543682457,731.47983535617,731.380778681,731.28971724121,730.58483610517,731.01031353251,731.42181910008,731.13027616328,730.30751293968,731.49543682457,731.02627063984,731.02627063984,731.62385851295,731.62385851295,1079.5451163811,1643.3935345392,646.46059000563,1788.4090711049,549.15199604976,0
4.71e-05,38691907.903469,3.2334468251311e-06,1.3982637921957e-05,3.1379780636116e-06,1.0037718567808,605.56591379434,605.56591379434,605.09203213771,605.09203213771,606.91045409735,606.82117081685,606.00543187554,605.42882860891,606.20182559442,606.53443158284,605.54040419701,604.85442036508,606.31515375742,606.48988542087,606.65131639802,606.38518882396,605.57747683102,606.91441433024,606.90747833873,605.64932718989,605.21949537044,606.47067860546,606.64606859479,606.31515375742,605.30157005355,604.82220529522,606.86271036687,606.6490978272,606.32928839055,605.70222447467,605.92998009998,606.43221759194,605.82543554483,605.02356869459,606.69361615115,606.67768224201,606.57486647728,606.48411628788,605.76333363221,606.19846766535,606.61731960074,606.32123455733,605.48086901842,606.69361615115,606.2130432833,606.2130432833,606.82235425304,606.82235425304,-0.34989218821691,-0.019740928528459,-0.51688322557073,0.027414736818497,0.57227327460712,0.51502193906422,-0.55181522847486,0.025453012117373,0.23013415952863,0.01889243208263,0.1323774811217,-7.2743117563537,0.00010855863561023,-0.045763221499205,0.47007760435409,-1.7434429764166,-0.1259020709344,0.96996670341414,0.20364424870475,-0.82120950968001,-0.028676362627381,0.17736314552062,0.032464244712059,-1.4359447867066,0.40083420623772,-5.2204956971227,0.16001511475067,0.25188408937895,-0.17722570751218,-0.063413002432442,0.13032765995473,0.11617349508855,0.020895232405527,-4.7838019444969,-0.089341549594619,-0.10872863389612,1.0683568528754,-0.51713472678427,-0.020812609187071,-0.0093893656403724,0.10290630132246,-2.9926524451225,-0.14093619025444,-0.071104658205825,-0.89173531770973,0.049960782570369,0.51635293681686,-0.35702979442373,730.35005186427,730.35005186427,729.87617020764,729.87617020764,731.69459216728,731.60530888677,730.78956994547,730.21296667884,730.98596366435,731.31856965277,730.32454226694,729.63855843501,731.09929182735,731.2740234908,731.43545446795,731.16932689389,730.36161490095,731.69855240016,731.69161640866,730.43346525982,730.00363344037,731.25481667539,731.43020666472,731.09929182735,730.08570812348,729.60634336515,731.6468484368,731.43323589713,731.11342646048,730.48636254459,730.71411816991,731.21635566187,730.60957361476,729.80770676451,731.47775422108,731.46182031194,731.35900454721,731.2682543578,730.54747170214,730.98260573528,731.40145767067,731.10537262725,730.26500708835,731.47775422108,730.99718135322,730.99718135322,731.60649232296,731.60649232296,1085.591575876,1644.1965615912,648.67338532583,1791.0874076975,551.17604030291,0
4.72e-05,38855398.482563,3.2397175547998e-06,1.4012382525553e-05,3.1486689763124e-06,1.003796912381,605.51829425847,605.51829425847,605.03504550137,605.03504550137,606.88887479948,606.79633759945,605.96715273015,605.37753335385,606.16639638595,606.50489013682,605.49301665346,604.79209590545,606.28254445718,606.46126001802,606.62433942774,606.35483079108,605.52972101483,606.89243227883,606.88437342939,605.60385579519,605.16434882615,606.44019139841,606.61841387531,606.28254445718,605.24932217819,604.75935433377,606.8407201494,606.62103814065,606.2974873427,605.65614695713,605.88943013915,606.4010897807,605.78362779759,604.96468774762,606.66908019388,606.65284262832,606.54612969335,606.45577012642,605.71898474783,606.16390429464,606.59000707083,606.28940113923,605.43139781871,606.66908019388,606.1769632513,606.1769632513,606.79806038956,606.79806038956,-0.35140727969775,-0.02044979819136,-0.52689824310048,0.040068078666971,0.58890909478644,0.52286175844935,-0.56144468921313,0.025959574730697,0.23839269960422,0.019021733310188,0.13411099414849,-7.3419962026036,0.00013755311363841,-0.047413799018804,0.4841556111676,-1.7718444738739,-0.13062904668315,1.0001804459807,0.20027277015789,-0.83803137929067,-0.029088716022742,0.1840009773979,0.033518902881666,-1.464076193016,0.40694591322859,-5.2648894472751,0.16422225543031,0.25670529660256,-0.1801015781193,-0.065572447955598,0.13481698061743,0.11793479944857,0.021150053384791,-4.8244659611338,-0.091731351000575,-0.11280655427075,1.1007089810856,-0.52551314425358,-0.0214471474514,-0.0096617745839341,0.10593416426966,-3.0452441649059,-0.1461763104995,-0.074159727108045,-0.91911713706969,0.052051051957368,0.5335916743084,-0.37078403464363,730.30889178348,730.30889178348,729.82564302638,729.82564302638,731.67947232449,731.58693512446,730.75775025516,730.16813087886,730.95699391096,731.29548766183,730.28361417847,729.58269343046,731.07314198219,731.25185754303,731.41493695275,731.14542831609,730.32031853984,731.68302980384,731.6749709544,730.3944533202,729.95494635116,731.23078892341,731.40901140032,731.07314198219,730.0399197032,729.54995185878,731.63131767441,731.41163566566,731.08808486771,730.44674448214,730.68002766416,731.19168730571,730.5742253226,729.75528527263,731.45967771888,731.44344015333,731.33672721836,731.24636765143,730.50958227284,730.95450181965,731.38060459584,731.07999866424,730.22199534372,731.45967771888,730.96756077631,730.96756077631,731.58865791457,731.58865791457,1091.6126606229,1644.9119255104,650.863996141,1793.7283342055,553.18888125902,0
4.73e-05,39026929.25867,3.2459567103311e-06,1.4042128137482e-05,3.1593737910286e-06,1.0038220194279,605.47008545677,605.47008545677,604.97735220012,604.97735220012,606.86676508482,606.77086031573,605.92826112822,605.32553600001,606.1304079603,606.47471601982,605.4449695166,604.72905873886,606.24931303268,606.43214529037,606.59674371883,606.32390457145,605.48133366728,606.86989881398,606.86063962085,605.55773414245,605.10849031268,606.40914000604,606.59013543446,606.24931303268,605.19639581277,604.69577592815,606.81821380661,606.59232610884,606.26511197449,605.60938380088,605.84831618731,606.36932728569,605.74117739647,604.90512885312,606.64402895927,606.62751802295,606.51676599637,606.42687939898,605.6739944774,606.12882882315,606.56207890811,606.25697636648,605.38130807251,606.64402895927,606.14023083057,606.14023083057,606.77317382138,606.77317382138,-0.35282833986575,-0.021177017258962,-0.53712441474785,0.053217995471243,0.60588104328557,0.53086220862047,-0.57122181854735,0.026467303524712,0.24689190393636,0.019141381540914,0.1358655056366,-7.4085244613419,0.00016897017227631,-0.049113062002599,0.49856605038476,-1.8005668783792,-0.13549857036333,1.031087494008,0.19672865195074,-0.85518338514023,-0.029522393274307,0.19083968654833,0.034600926429284,-1.4926056080195,0.41314830744057,-5.3083290557828,0.16849303683479,0.26164879321867,-0.18302171872891,-0.067786321278617,0.13943280351985,0.11968509388737,0.021408276704133,-4.8642625885715,-0.094185524933603,-0.11701290185886,1.1338198698788,-0.53399476652156,-0.022087450546383,-0.0099410404026521,0.10903189757717,-3.0985198223057,-0.15157452132471,-0.077332793035061,-0.94712491370707,0.054215167720505,0.55127337528963,-0.38494363893757,730.26725596314,730.26725596314,729.77452270648,729.77452270648,731.66393559118,731.5680308221,730.72543163458,730.12270650638,730.92757846667,731.27188652618,730.24214002297,729.52622924522,731.04648353904,731.22931579674,731.39391422519,731.12107507781,730.27850417365,731.66706932034,731.65781012721,730.35490464882,729.90566081904,731.20631051241,731.38730594082,731.04648353904,729.99356631914,729.49294643452,731.61538431298,731.38949661521,731.06228248085,730.40655430725,730.64548669368,731.16649779205,730.53834790284,729.70229935949,731.44119946563,731.42468852932,731.31393650274,731.22404990534,730.47116498376,730.92599932952,731.35924941447,731.05414687284,730.17847857888,731.44119946563,730.93740133694,730.93740133694,731.57034432775,731.57034432775,1097.6143715292,1645.5397842737,653.03228144498,1796.3315457328,555.19034653245,0
4.74e-05,39280745.790036,3.2521636123333e-06,1.4071874770709e-05,3.1700914278954e-06,1.0038471795716,605.4212870502,605.4212870502,604.91895140815,604.91895140815,606.84411361288,606.74472457297,605.88875042415,605.27283314839,606.09385484001,606.44389765101,605.39625881943,604.66531100757,606.2154497843,606.402535167,606.56851702257,606.29240151631,605.43231267857,606.84680195138,606.83626230475,605.51095766278,605.05191797466,606.3775162067,606.56122113826,606.2154497843,605.14278871545,604.63147174258,606.79518076315,606.5629485848,606.23215401757,605.56192961262,605.80663523607,606.33691920727,605.69807827687,604.84489387183,606.61845311985,606.6017005896,606.48676366262,606.39743543275,605.62835847234,606.09323729882,606.5335231479,606.22395137897,605.33059915923,606.61845311985,606.10283690765,606.10283690765,606.7476820292,606.7476820292,-0.35415636629889,-0.021922815436014,-0.54756697863168,0.066868264676581,0.62319157736428,0.53902692355548,-0.58114825604529,0.026976043576599,0.25563606751588,0.019251602547225,0.13764198037447,-7.4738939140988,0.00020295535095138,-0.050862255729857,0.51331329068781,-1.8296114216299,-0.14051298337843,1.0626958838576,0.19300859107571,-0.87266908878435,-0.029978613821758,0.19788279865732,0.03571090134014,-1.5215354429372,0.41944433845093,-5.3508119986204,0.17282709781342,0.26671696816983,-0.18598702580905,-0.070055158388825,0.14417742379651,0.12142449479113,0.021670100461066,-4.9031922105906,-0.096705423945766,-0.12135110462403,1.1676990599344,-0.5425803661926,-0.02273240039645,-0.010227363554828,0.1122003020882,-3.1524834015111,-0.15713373562013,-0.08062756149484,-0.97576518197139,0.056455333051789,0.56940493454649,-0.39951737049812,730.22514544354,730.22514544354,729.72280980149,729.72280980149,731.64797200621,731.54858296631,730.69260881749,730.07669154173,730.89771323335,731.24775604434,730.20011721276,729.4691694009,731.01930817763,731.20639356034,731.3723754159,731.09625990964,730.23617107191,731.65066034472,731.64012069809,730.31481605612,729.855776368,731.18137460003,731.3650795316,731.01930817763,729.94664710878,729.43533013591,731.59903915648,731.36680697813,731.0360124109,730.36578800595,730.61049362941,731.1407776006,730.5019366702,729.64875226517,731.42231151319,731.40555898294,731.29062205595,731.20129382608,730.43221686567,730.89709569215,731.33738154124,731.02780977231,730.13445755257,731.42231151319,730.90669530098,730.90669530098,731.55154042253,731.55154042253,1103.6027435263,1646.0803684972,655.17811907015,1798.8967279076,557.18027706302,0
4.75e-05,39536511.476497,3.2583375937172e-06,1.410162243849e-05,3.1808208264634e-06,1.0038723944064,605.37189854711,605.37189854711,604.85984217119,604.85984217119,606.8209088655,606.71791576381,605.84861385077,605.21942123154,606.0567313664,606.41242326968,605.34688048119,604.6008547148,606.18094488499,606.37242343312,606.53964692372,606.26031287557,605.38265578,606.82312951195,606.81122665748,605.46352166312,604.99462980409,606.34531158575,606.53165865666,606.18094488499,605.08849852875,604.56644330713,606.77161028655,606.53289221155,606.19860508377,605.51377881673,605.76438410807,606.30385448533,605.65432425868,604.78398451972,606.59234322526,606.5753823566,606.45611078738,606.3674294516,605.58207221376,606.05712561915,606.50432767492,606.19031721076,605.27927030668,606.59234322526,606.06477217596,606.06477217596,606.72157228541,606.72157228541,-0.35539243482061,-0.022687422481438,-0.55823102871671,0.081022451308005,0.64084302060171,0.54735943288364,-0.59122556023977,0.027485639784407,0.2646294207388,0.019352668474039,0.13944134776192,-7.538103345494,0.00023966081652892,-0.052662678734546,0.52840167177984,-1.858979055783,-0.1456745535272,1.095013463815,0.18910914800973,-0.89049190896964,-0.030458607277499,0.20513377227146,0.036849419578548,-1.5508679382721,0.42583684859282,-5.3923367957155,0.1772240267335,0.27191213128147,-0.18899837386124,-0.072379482642785,0.14905310544617,0.1231532177849,0.021935718678135,-4.9412561758299,-0.099292385546984,-0.12582470663429,1.2023560242881,-0.55127060214758,-0.023380767754433,-0.010520957506108,0.11544016476292,-3.2071384612804,-0.16285682869475,-0.084047825826867,-1.0050443781278,0.058773806580026,0.58799318449696,-0.41451409049497,730.18256110784,730.18256110784,729.67050473192,729.67050473192,731.63157142623,731.52857832454,730.6592764115,730.03008379227,730.86739392713,731.22308583041,730.15754304192,729.41151727553,730.99160744572,731.18308599385,731.35030948445,731.0709754363,730.19331834073,731.63379207268,731.62188921821,730.27418422384,729.80529236482,731.15597414648,731.34232121739,730.99160744572,729.89916108948,729.37710586786,731.58227284728,731.34355477228,731.00926764449,730.32444137746,730.5750466688,731.11451704606,730.4649868194,729.59464708045,731.40300578599,731.38604491733,731.26677334811,731.17809201233,730.39273477449,730.86778817988,731.31499023564,731.00097977149,730.0899328674,731.40300578599,730.87543473669,730.87543473669,731.53223484614,731.53223484614,1109.5838198258,1646.5339787157,657.30140557052,1801.4235584327,559.15852706368,0
4.76e-05,39794267.004968,3.2644780005452e-06,1.4131371154134e-05,3.1915609462975e-06,1.0038976654626,605.32191929662,605.32191929662,604.80002340283,604.80002340283,606.79713914927,606.69041906948,605.80784452134,605.16529650954,606.01903169686,606.38028093821,605.29683030775,604.53569171679,606.14578838414,606.34180372915,606.51012084392,606.2276298017,605.33236053846,606.798869124,606.78551764361,605.41542132646,604.93662363593,606.31251753492,606.50143546616,606.14578838414,605.03352277832,604.50069201088,606.74749148996,606.50214342449,606.16445666824,605.46492565227,605.7215594525,606.27012190273,605.6099090482,604.72240235978,606.56568970557,606.54855521801,606.42479528725,606.33685257981,605.53513100858,606.02048952808,606.47448022735,606.15606479402,605.22732058449,606.56568970557,606.02602713537,606.02602713537,606.6948316563,606.6948316563,-0.35653769323579,-0.023471068156424,-0.56912150086342,0.095683908392543,0.65883755292832,0.55586314629569,-0.60145520642557,0.027995936506321,0.27387612125779,0.019444897764832,0.14126449847315,-7.6011528774984,0.00027924560189099,-0.054515686140363,0.5438355043186,-1.8886704313034,-0.15098546709048,1.128047874019,0.18502673681689,-0.90865512020496,-0.03096361345809,0.21259599221394,0.038017077885193,-1.5806051506125,0.43232856237629,-5.4329029693556,0.18168335914699,0.27723650388062,-0.19205661334379,-0.074759805030757,0.15406207663595,0.12487157852472,0.022205320900947,-4.9784567440976,-0.10194773082014,-0.13043737387186,1.2378001702426,-0.56006600873494,-0.024031206062551,-0.010822049561529,0.11875225837622,-3.2624881059711,-0.16874663262394,-0.087597468587342,-1.034968844244,0.061172903546883,0.60704488161185,-0.42994275385987,730.13950375877,730.13950375877,729.61760786498,729.61760786498,731.61472361142,731.50800353163,730.6254289835,729.98288097169,730.83661615901,731.19786540037,730.1144147699,729.35327617894,730.96337284629,731.15938819131,731.32770530607,731.04521426385,730.14994500061,731.61645358615,731.60310210576,730.23300578861,729.75420809809,731.13010199707,731.31901992831,730.96337284629,729.85110724047,729.31827647303,731.56507595211,731.31972788664,730.98204113039,730.28251011443,730.53914391465,731.08770636488,730.42749351035,729.53998682193,731.38327416772,731.36613968016,731.2423797494,731.15443704196,730.35271547074,730.83807399024,731.29206468951,730.97364925618,730.04490504665,731.38327416772,730.84361159753,730.84361159753,731.51241611845,731.51241611845,1115.5636185947,1646.9009825812,659.402056032,1803.9117084106,561.12496386548,0
4.77e-05,40054054.509175,3.2705841924213e-06,1.4161120931141e-05,3.2023107677938e-06,1.0039229941973,605.27134848263,605.27134848263,604.73949388171,604.73949388171,606.77279259833,606.66221946353,605.76643543209,605.11045506667,605.9807498027,606.34745854567,605.24610399249,604.46982371562,606.10997021188,606.31066955017,606.47992604545,606.19434335403,605.28142435154,606.77400822588,606.7591200198,605.36665171272,604.87789714439,606.27912525201,606.47053885301,606.10997021188,604.97785887225,604.43421909576,606.72281333521,606.47068845419,606.1297001531,605.41536417045,605.67815774109,606.2357100891,605.56482624062,604.66014879462,606.53848287494,606.52121093507,606.3928049027,606.30569584621,605.48752998617,605.98332461328,606.44396840139,606.12118496342,605.17474889829,606.53848287494,605.98659209214,605.98659209214,606.66744700471,606.66744700471,-0.35759335770646,-0.024273982204188,-0.58024315966401,0.11085578015739,0.67717720160496,0.56454133723772,-0.6118385853817,0.028506777370478,0.2833802453326,0.019528654748604,0.14311228153658,-7.6630439178701,0.00032187585887935,-0.056422693002665,0.55961906892149,-1.918685875654,-0.15644782126948,1.1618065278491,0.1807576148942,-0.92716185216049,-0.031494882283823,0.22027276268623,0.039214476531305,-1.6107489393881,0.43892207692926,-5.4725110005004,0.18620457585582,0.28269220930707,-0.19516256902455,-0.07719662417779,0.15920652467011,0.12657999295897,0.022479091876402,-5.0147970519979,-0.10467276314457,-0.13519289999154,1.2740408394114,-0.56896698556586,-0.024682245843042,-0.011130881692968,0.12213734097473,-3.3185349573147,-0.17480593076762,-0.091280462725739,-1.0655448307761,0.063654996595183,0.62656669355414,-0.44581240482348,730.09597403319,730.09597403319,729.56411943227,729.56411943227,731.5974181489,731.4868450141,730.59106098265,729.93508061724,730.80537535326,731.17208409624,730.07072954306,729.29444926619,730.93459576244,731.13529510073,731.30455159601,731.01896890459,730.10604990211,731.59863377645,731.58374557037,730.19127726328,729.70252269496,731.10375080258,731.29516440357,730.93459576244,729.80248442281,729.25884464633,731.54743888578,731.29531400476,730.95432570367,730.23998972102,730.50278329166,731.06033563967,730.38945179118,729.48477434518,731.3631084255,731.34583648563,731.21743045327,731.13032139677,730.31215553674,730.80795016384,731.26859395196,730.94581051399,729.99937444886,731.3631084255,730.81121764271,730.81121764271,731.49207255527,731.49207255527,1121.5481028882,1647.1818120126,661.48000381356,1806.3608441655,563.07946774282,0
4.78e-05,40315917.542013,3.2766555429053e-06,1.4190871783177e-05,3.2130692925452e-06,1.0039483819865,605.22018511839,605.22018511839,604.67825224923,604.67825224923,606.74785717748,606.6333017159,605.72437946519,605.05489280864,605.94187946752,606.31394381177,605.19469711791,604.40325225274,606.07348018382,606.27901424565,606.44904963544,606.16044450337,605.22984444313,606.74853406896,606.73201833919,605.31720776005,604.81844783985,606.24512574123,606.43895591681,606.07348018382,604.92150410112,604.36702565118,606.6975646362,606.4385133296,606.09432681142,605.36508823275,605.63417526479,606.2006075253,605.51906932299,604.59722505962,606.51071293555,606.49334113783,606.36012720117,606.27395018858,605.43926409549,605.94562630378,606.41277965604,606.08566846088,605.12155398419,606.51071293555,605.94645715936,605.94645715936,606.63940499315,606.63940499315,-0.35856070536712,-0.025096394097792,-0.59160058698676,0.12654100281046,0.69586383126068,0.57339712801051,-0.62237700201713,0.029018004897192,0.29314577968989,0.019604348851452,0.14498550170506,-7.7237790785506,0.00036772512432013,-0.058385177737418,0.57575661493767,-1.9490253721364,-0.16206361572063,1.1962965913268,0.17629787396098,-0.94601508902595,-0.032053674335891,0.2281673007131,0.040442217889876,-1.6413009539522,0.44561985343207,-5.5111622777159,0.19078710072601,0.28828126415286,-0.19831703824398,-0.079690426294496,0.16448859140653,0.12827897704958,0.022757211269187,-5.0502810467234,-0.10746876714462,-0.14009521232012,1.3110873075561,-0.5779737874886,-0.025332287959493,-0.011447711353825,0.12559615523777,-3.3752811265005,-0.18103745163676,-0.095100872908371,-1.0967784992953,0.066222517187266,0.6465651849162,-0.46213217196258,730.05197242549,730.05197242549,729.51003955633,729.51003955633,731.57964448458,731.465089023,730.55616677229,729.88668011573,730.77366677462,731.14573111887,730.02648442501,729.23503955984,730.90526749091,731.11080155275,731.28083694254,730.99223181046,730.06163175022,731.58032137606,731.56380564629,730.14899506715,729.65023514695,731.07691304833,731.27074322391,730.90526749091,729.75329140822,729.19881295828,731.5293519433,731.2703006367,730.92611411851,730.19687553984,730.46596257189,731.0323948324,730.35085663008,729.42901236672,731.34250024265,731.32512844493,731.19191450827,731.10573749568,730.27105140259,730.77741361088,731.24456696313,730.91745576798,729.95334129128,731.34250024265,730.77824446646,730.77824446646,731.47119230025,731.47119230025,1127.5431475713,1647.3769601916,663.53520021116,1808.77062913,565.02193164577,0
4.79e-05,40579901.043555,3.2826914406541e-06,1.4220623724061e-05,3.2238355441324e-06,1.0039738301172,605.16842804172,605.16842804172,604.61629700808,604.61629700808,606.72232068572,606.60365039743,605.68166939224,604.99860546044,605.90241428623,606.27972429144,605.14260515775,604.33597870329,606.03630800619,606.24683101973,606.41747857037,606.12592413695,605.17761785958,606.72243372107,606.70419695609,605.26708428682,604.7582730665,606.21050981399,606.4066735747,606.03630800619,604.86445563867,604.29911260939,606.67173406263,606.40560388169,606.05832781156,605.31409150956,605.58960813095,606.16480254819,605.47263167779,604.53363221699,606.48236998186,606.46493732728,606.32674958039,606.24160645843,605.39032810281,605.90738986827,606.38090131835,606.04950594067,605.06773440408,606.48236998186,605.90561225792,605.90561225792,606.61069208741,606.61069208741,-0.35944107010588,-0.025938532888511,-0.60319817089287,0.1427423058173,0.71489913445489,0.58243347402332,-0.63307167465137,0.029529460463521,0.30317661309977,0.019672433367625,0.14688491704221,-7.7833621216003,0.00041697458513833,-0.060404685451966,0.59225235883886,-1.9796885419409,-0.16783474463795,1.2315249631426,0.17164343151097,-0.96521766918747,-0.032641261009725,0.2362827296122,0.041700904902487,-1.672262621706,0.45242420917342,-5.5488590558158,0.19543029872506,0.29400556933759,-0.20152078958056,-0.082241684892084,0.1699103683982,0.12996914579213,0.023039853410816,-5.0849134471466,-0.11033700773051,-0.14514837763465,1.3489487838921,-0.58708651580686,-0.025979597625061,-0.011772812280842,0.12912942770464,-3.4327281903922,-0.18744386316699,-0.099062856698508,-1.1286759251233,0.068877956457212,0.66704680304812,-0.47891126157789,730.00749926935,730.00749926935,729.45536823571,729.45536823571,731.56139191336,731.44272162506,730.52074061987,729.83767668807,730.74148551386,731.11879551907,729.98167638538,729.17504993092,730.87537923382,731.08590224736,731.256549798,730.96499536458,730.01668908721,731.5615049487,731.54326818372,730.10615551445,729.59734429413,731.04958104162,731.24574480233,730.87537923382,729.7035268663,729.13818383702,731.51080529026,731.24467510932,730.89739903919,730.15316273719,730.42867935858,731.00387377582,730.31170290542,729.37270344462,731.32144120949,731.30400855491,731.16582080802,731.08067768606,730.22939933044,730.7464610959,731.21997254598,730.8885771683,729.90680563171,731.32144120949,730.74468348555,730.74468348555,731.44976331505,731.44976331505,1133.5545103983,1647.486978607,665.56761403873,1811.1407259757,566.95226092948,0
4.8e-05,40846051.30267,3.2886912895646e-06,1.4250376767758e-05,3.2346085683398e-06,1.0039993397803,605.11607591074,605.11607591074,604.55362652133,604.55362652133,606.6961707601,606.57324988481,605.63829787811,604.9415885649,605.86234766448,606.24478737976,605.08982347972,604.26800427116,605.99844328142,606.21411293162,606.3851996609,606.09077306367,605.12474146648,606.69569407025,606.67564003123,605.21627599401,604.69737000058,606.17526809029,606.37367856595,605.99844328142,604.80671054305,604.23048074159,606.64531014403,606.37194574754,606.02169422196,605.26236747949,605.54445226109,606.12828335598,605.42550658695,604.46937115036,606.45344400506,606.43599087758,606.29265927222,606.20865542592,605.34071658986,605.8686104136,606.34832058896,606.0126879748,605.01328854142,606.45344400506,605.86404711784,605.86404711784,606.5812945606,606.5812945606,-0.36023583695659,-0.026800626916244,-0.61504009583622,0.15946221374907,0.73428462233832,0.59165314894016,-0.64392373458568,0.030040984225992,0.31347652770491,0.019733403760503,0.14881123693016,-7.8417978837191,0.00046981337364654,-0.062482831090516,0.60911048191958,-2.01067462719,-0.17376298827701,1.2674982546428,0.1667900221839,-0.98477228526682,-0.033258924964128,0.24462207215251,0.042991139436306,-1.703635136965,0.45933731075393,-5.5856044025746,0.20013347404793,0.29986690202362,-0.20477456158457,-0.084850860305154,0.17547389197525,0.13165121148855,0.023327187127734,-5.1186996880663,-0.11327872924467,-0.15035660747002,1.3876344091666,-0.59630511005733,-0.026622298122147,-0.012106475245664,0.13273786778982,-3.490877169099,-0.19402776645089,-0.1031706652657,-1.1612430992388,0.071623865912642,0.68801786372248,-0.49615895178007,729.96255475905,729.96255475905,729.40010536964,729.40010536964,731.54264960841,731.41972873312,730.48477672642,729.78806741321,730.70882651279,731.09126622807,729.93630232803,729.11448311946,730.84492212972,731.06059177993,731.2316785092,730.93725191198,729.97122031479,731.54217291856,731.52211887954,730.06275484232,729.54384884889,731.02174693859,731.22015741425,730.84492212972,729.65318939136,729.07695958989,731.49178899233,731.21842459584,730.86817307027,730.1088463278,730.3909311094,730.97476220429,730.27198543526,729.31584999867,731.29992285337,731.28246972589,731.13913812052,731.05513427423,730.18719543816,730.71508926191,731.19479943727,730.8591668231,729.85976738972,731.29992285337,730.71052596614,730.71052596614,731.4277734089,731.4277734089,1139.5877982413,1647.5124741292,667.57723120439,1813.4707989759,568.87037302086,0
4.81e-05,41114415.913322,3.2946545089873e-06,1.4280130928405e-05,3.2453874334275e-06,1.004024912064,605.06312720036,605.06312720036,604.49023901231,604.49023901231,606.66939487993,606.54208436597,605.59425748529,604.88383748178,605.8216728188,606.20912031749,605.03634734873,604.19932998477,605.95987551399,606.1808528966,606.35219957708,606.05498201957,605.0712119459,606.66830182902,606.64633153732,605.16477746825,604.63573564931,606.13939100053,606.33995745708,605.95987551399,604.74826575874,604.16113065479,606.61828127408,606.33752437482,605.98441701616,605.20990942912,605.49870338937,606.09103801391,605.37768723634,604.40444256028,606.42392489791,606.40649303878,606.25784334672,606.17508778518,605.29042395263,605.82928288394,606.31502454798,605.97520505878,604.95821459755,606.42392489791,605.82175128014,605.82175128014,606.55119849763,606.55119849763,-0.36094643734897,-0.027682903407371,-0.62713033549646,0.1767030447446,0.75402161521027,0.60105873147696,-0.65493422623274,0.030552415031651,0.32404919032993,0.019787795427789,0.15076512059428,-7.8990922210593,0.00052643886188634,-0.064621302480553,0.62633512725098,-2.0419824775692,-0.17985000414471,1.30422276928,0.16173319127863,-1.0046814845333,-0.033907960986833,0.25318824371649,0.044313520493124,-1.7354194512704,0.46636116908535,-5.6214021636681,0.20489586824241,0.30586690857959,-0.20807906181011,-0.087518399015498,0.181181138377,0.13332598108038,0.023619375623792,-5.1516458765681,-0.11629515499164,-0.15572426326598,1.427153252444,-0.60562934138832,-0.027258364357065,-0.012449008772666,0.1364221665804,-3.5497285083555,-0.20079168911373,-0.10742864399135,-1.1944859294014,0.074462858081383,0.70948453621559,-0.51388458533258,729.91713890652,729.91713890652,729.34425071847,729.34425071847,731.52340658609,731.39609607214,730.44826919146,729.73784918794,730.67568452496,731.06313202366,729.8903590549,729.05334169093,730.81388722015,731.03486460277,731.20621128325,730.90899372574,729.92522365206,731.52231353519,731.50034324348,730.01878917441,729.48974735547,730.99340270669,731.19396916324,730.81388722015,729.60227746491,729.01514236096,731.47229298024,731.19153608099,730.83842872232,730.06392113529,730.35271509553,730.94504972008,730.23169894251,729.25845426644,731.27793660407,731.26050474494,731.11185505289,731.02909949135,730.14443565879,730.6832945901,731.16903625415,730.82921676494,729.81222630371,731.27793660407,730.67576298631,730.67576298631,731.40521020379,731.40521020379,1145.6484371029,1647.4541059006,669.56405415961,1815.7605163053,570.77619704735,0
4.82e-05,41385043.72519,3.3005805345698e-06,1.4309886220247e-05,3.2561712307217e-06,1.0040505479481,605.00958019916,605.00958019916,604.42613256488,604.42613256488,606.6419803713,606.51013784576,605.5495406785,604.82534738744,605.78038277716,606.17271019689,604.9821719306,604.12995669356,605.92059411671,606.14704368718,606.31846485387,606.01854167359,605.01702579419,606.64024353893,606.61625526505,605.11258318511,604.57336685039,606.10286878793,606.30549664741,605.92059411671,604.68911811889,604.09106278937,606.59063571528,606.30232502672,605.94648707813,605.15671045338,605.45235706142,606.05305446043,605.32916672068,604.33884696019,606.39380245964,606.3764349396,606.2222887167,606.14089415972,605.23944440052,605.78940206016,606.28100016114,605.93704761754,604.90251058867,606.39380245964,605.77871409915,605.77871409915,606.52038980019,606.52038980019,-0.36157434446374,-0.028585588087245,-0.63947264541269,0.19446691261096,0.77411123359912,0.61065259236703,-0.66610410554718,0.031063590631976,0.33489814449144,0.019836180930904,0.15274717581391,-7.9552519393214,0.00058705696825481,-0.066821863588163,0.64393039661709,-2.0736105359001,-0.18609731849249,1.34170448281,0.15646828909512,-1.0249476668536,-0.034589676493627,0.26198404638125,0.045668642333472,-1.7676162621924,0.47349763475283,-5.6562569072101,0.20971665857185,0.31200709785923,-0.21143496531557,-0.090244732724892,0.18703401922749,0.13499435242367,0.023916576399963,-5.1837587441104,-0.11938748663805,-0.16125586197688,1.4675143079229,-0.61505880599239,-0.027885616478513,-0.012800739879373,0.14018299562277,-3.6092820590949,-0.20773807908344,-0.11184123330922,-1.2284102414833,0.077397607062236,0.73145282867951,-0.53209756109503,729.8712515746,729.8712515746,729.28780394032,729.28780394032,731.50365174674,731.3718092212,730.41121205394,729.68701876288,730.6420541526,731.03438157233,729.84384330604,728.991628069,730.78226549215,731.00871506262,731.18013622931,730.88021304902,729.87869716963,731.50191491437,731.47792664049,729.97425456055,729.43503822583,730.96454016336,731.16716802285,730.78226549215,729.55078949433,728.95273416481,731.45230709072,731.16399640215,730.80815845357,730.01838182881,730.31402843686,730.91472583587,730.19083809612,729.20051833563,731.25547383508,731.23810631504,731.08396009214,731.00256553516,730.10111577596,730.6510734356,731.14267153657,730.79871899298,729.76418196411,731.25547383508,730.64038547459,730.64038547459,731.38206117563,731.38206117563,1151.7416425772,1647.3125825908,671.52810136639,1818.0095527524,572.6696734121,0
4.83e-05,41657984.788385,3.306468818724e-06,1.4339642657688e-05,3.266959074402e-06,1.0040762482982,604.95543300697,604.95543300697,604.36130512454,604.36130512454,606.61391441201,606.47739415215,605.50413982975,604.76611327519,605.73847038014,606.13554396806,604.92729229628,604.05988506519,605.88058841726,606.11267793466,606.28398189686,605.98144263348,604.96217932034,606.61150557549,606.58539482954,605.0596875131,604.51026027214,606.06569151135,606.27028237509,605.88058841726,604.62926434832,604.02027741724,606.56236160386,606.26633278719,605.90789520796,605.10276345641,605.40540863392,606.01432051368,605.27993804889,604.27258467325,606.36306640125,606.34580759071,606.18598214246,606.10606510813,605.18777195609,605.74896255982,606.2462342862,605.89820601171,604.84617434328,606.36306640125,605.73492474517,605.73492474517,606.48885419214,606.48885419214,-0.36212106856762,-0.029508904603377,-0.65207055685822,0.21275572346486,0.79455438954096,0.62043688153134,-0.67743424237776,0.031574347841814,0.34602680158114,0.019879166647087,0.15475795795463,-8.010284740056,0.00065188247970065,-0.069086357220002,0.66190034640203,-2.1055568322661,-0.19250631724943,1.3799490234998,0.15099046517399,-1.0455730871479,-0.035305392146648,0.27101216207368,0.047057092485896,-1.8002260064555,0.48074839439121,-5.6901738939415,0.2145949564925,0.31828883518089,-0.21484291469451,-0.093030277256206,0.19303437664678,0.13665730955776,0.024218941231991,-5.2150456021475,-0.12255690386162,-0.1669560804878,1.5087264903853,-0.62459292154176,-0.028501713585934,-0.013162014699763,0.14402100530533,-3.6695370695064,-0.21486929750983,-0.11641296878693,-1.2630217801568,0.080430848705843,0.75392857325769,-0.55080732548141,729.82489245225,729.82489245225,729.23076456982,729.23076456982,731.48337385729,731.34685359743,730.37359927504,729.63557272047,730.60792982542,731.00500341334,729.79675174156,728.92934451047,730.75004786254,730.98213737994,731.15344134214,730.85090207876,729.83163876562,731.48096502078,731.45485427483,729.92914695838,729.37971971742,730.93515095663,731.13974182038,730.75004786254,729.4987237936,728.88973686252,731.43182104914,731.13579223247,730.77735465325,729.9722229017,730.2748680792,730.88377995896,730.14939749417,729.14204411853,731.23252584653,731.21526703599,731.05544158775,730.97552455341,730.05723140137,730.6184220051,731.11569373148,730.76766545699,729.71563378856,731.23252584653,730.60438419045,730.60438419045,731.35831363742,731.35831363742,1157.8723910727,1647.1734574412,673.46940669162,1820.2175922972,574.55075340855,0
4.84e-05,41933290.291697,3.3123188306998e-06,1.4369400255243e-05,3.2777501017571e-06,1.0041020138619,604.90068353296,604.90068353296,604.29575449986,604.29575449986,606.58518403672,606.44383694272,605.45804722368,604.70612995603,605.69592828253,606.09760844565,604.87170342637,603.98911558335,605.83984766499,606.07774813101,606.2487369884,605.94367545194,604.90666864477,606.58207415356,606.5537336771,605.00608471777,604.44641241416,606.02784904866,606.23430072347,605.83984766499,604.56870106684,603.94877464072,606.5334469549,606.2295325667,605.86863212772,605.04806115302,605.35785327457,605.97482387839,605.2299941497,604.20565582967,606.33170635086,606.31460188801,606.14891023696,606.07059112987,605.13540045519,605.70795883738,606.21071367971,605.85867054394,604.78920350012,606.33170635086,605.69037220764,605.69037220764,606.45657722529,606.45657722529,-0.36258815240709,-0.030453073920704,-0.66492737323963,0.23157117574439,0.81535177761565,0.63041351889173,-0.68892541900615,0.032084522898071,0.35743843276333,0.019917388861522,0.1567979696826,-8.0641991566872,0.0007211393838987,-0.071416707793653,0.68024898022877,-2.1378189756075,-0.19907823687209,1.4189616517364,0.14529466641485,-1.066559852849,-0.036056442738376,0.28027514649979,0.048479449629112,-1.8332488508824,0.48811496909782,-5.7231590278046,0.21952980607135,0.32471333816754,-0.21830351878111,-0.095875430422279,0.1991839788134,0.13831591673181,0.024526616249975,-5.2455142974022,-0.12580456422762,-0.17282976027308,1.550798621007,-0.63423092359091,-0.029104146967255,-0.013533199080953,0.14793682278975,-3.7304921720314,-0.22218761187511,-0.12114848134815,-1.298326200054,0.083565381024506,0.77691741068706,-0.57002336251222,729.77806106659,729.77806106659,729.17313203349,729.17313203349,731.46256157035,731.32121447635,730.33542475731,729.58350748966,730.57330581616,730.97498597929,729.74908096,728.86649311698,730.71722519862,730.95512566464,731.12611452203,730.82105298557,729.7840461784,731.45945168719,731.43111121073,729.8834622514,729.32378994779,730.9052265823,731.1116782571,730.71722519862,729.44607860047,728.82615217435,731.41082448853,731.10691010033,730.74600966135,729.92543868665,730.2352308082,730.85220141202,730.10737168333,729.0830333633,731.20908388449,731.19197942164,731.02628777059,730.9479686635,730.01277798882,730.58533637101,731.08809121334,730.73604807757,729.66658103375,731.20908388449,730.56774974127,730.56774974127,731.33395475892,731.33395475892,1164.0453905556,1648.5244698245,675.38801878904,1822.3843309142,576.41939874875,0
4.85e-05,42211012.495727,3.3181300568171e-06,1.4399159027542e-05,3.288543473362e-06,1.0041278452645,604.84532949425,604.84532949425,604.22947836457,604.22947836457,606.55577614248,606.40944971164,605.41125506313,604.64539206011,605.65274895553,606.05889031596,604.81540021616,603.91764854626,605.79836103797,606.04224663103,606.21271629387,605.90523063288,604.85048969866,606.55193533297,606.52125509242,604.95176896643,604.38181960858,605.98933110055,606.19753762795,605.79836103797,604.50742479309,603.87655439204,606.50387966786,606.19190910828,605.82868848753,604.99259607053,605.30968596269,605.93455215305,605.17932787765,604.13806036477,606.29971185929,606.28280861633,606.11105947125,606.03446267129,605.08232354764,605.66638518497,606.17442500385,605.81843146552,604.73159550678,606.29971185929,605.64504529871,605.64504529871,606.42354428565,606.42354428565,-0.36297716761266,-0.031418313621248,-0.67804616705021,0.25091475784424,0.83650386728616,0.64058418486564,-0.70057833104575,0.032593951797293,0.36913616073282,0.019951509333492,0.15886766090621,-8.1170044972652,0.00079506121451347,-0.073814923837245,0.69898024729045,-2.1703941513913,-0.20581415521226,1.4587472415842,0.13937563492729,-1.0879099238326,-0.036844177881354,0.28977542299203,0.049936281468427,-1.8666846858854,0.4955987135497,-5.755218817126,0.22452018289016,0.33128167311486,-0.22181735233714,-0.098780571483525,0.20548451546407,0.13997131135707,0.024839742051256,-5.2751731702584,-0.12913160313746,-0.178881911465,1.5937394319955,-0.6439718643,-0.029690233767154,-0.013914679132813,0.1519310505392,-3.7921453785667,-0.22969518885559,-0.12605249706439,-1.3343290772303,0.086804064084673,0.80042477585444,-0.58975518328115,729.7307568587,729.7307568587,729.11490572901,729.11490572901,731.44120350692,731.29487707609,730.29668242757,729.53081942456,730.53817631998,730.9443176804,729.7008275806,728.80307591071,730.68378840241,730.92767399547,731.09814365831,730.79065799733,729.73591706311,731.43736269742,731.40668245687,729.83719633087,729.26724697302,730.874758465,731.0829649924,730.68378840241,729.39285215753,728.76198175648,731.3893070323,731.07733647272,730.71411585198,729.87802343498,730.19511332713,730.81997951749,730.0647552421,729.02348772921,731.18513922373,731.16823598078,730.9964868357,730.91989003573,729.96775091209,730.55181254941,731.0598523683,730.70385882997,729.61702287123,731.18513922373,730.53047266316,730.53047266316,731.3089716501,731.3089716501,1170.265057323,1649.7801560382,677.2840004461,1824.5094793796,578.27558110331,0
4.86e-05,42491204.659791,3.3239020016876e-06,1.4428918989357e-05,3.2993383729278e-06,1.0041540592305,604.78936841511,604.78936841511,604.16247426007,604.16247426007,606.52567749448,606.37421579683,605.36375547506,604.58389403856,605.60892468931,606.01937614427,604.75837748083,603.84548406577,605.75611765019,606.00616565479,606.17590586822,605.8660986377,604.79363822377,606.52107502461,606.4879422061,604.89673433306,604.31647802183,605.95012719476,606.15997888321,605.75611765019,604.44543194877,603.80361643336,606.47364753216,606.15344699392,605.78805487187,604.93636055124,605.26090149024,605.89349283742,605.12793201933,604.06979801759,606.26707240579,606.25041845327,606.07241618013,605.9976701316,605.0285346983,605.62423573337,606.13735483357,605.77747898303,604.67334761864,606.26707240579,605.59893265714,605.59893265714,606.38974060003,606.38974060003,-0.36328971046374,-0.032404837040839,-0.69142977833327,0.27078774503055,0.85801089476634,0.65095031296936,-0.71239358771354,0.033102470829456,0.38112295171773,0.019982210356125,0.16096742916544,-8.1687107885035,0.00087389139645214,-0.076283100193241,0.71809803368014,-2.2032791217195,-0.21271498238124,1.4993102613515,0.13322790824991,-1.1096251111818,-0.037669962825559,0.29951527660551,0.051428142490732,-1.9005331194907,0.50320081645234,-5.7863603362761,0.22956499283262,0.33799475273561,-0.2253849556149,-0.1017460580917,0.21193759359112,0.14162469579282,0.025158453880756,-5.3040310133124,-0.13253913388791,-0.1851177163217,1.6375575491873,-0.65381461248829,-0.030257111192088,-0.014306861680239,0.15600426389156,-3.8544940782796,-0.23739408682588,-0.13112983653853,-1.3710358959107,0.090149819341379,0.82445588254864,-0.61001231426191,729.6829790487,729.6829790487,729.05608489366,729.05608489366,731.41928812807,731.26782643042,730.25736610865,729.47750467215,730.5025353229,730.91298677786,729.65198811441,728.73909469936,730.64972828378,730.89977628838,731.06951650181,730.75970927129,729.68724885736,731.4146856582,731.38155283969,729.79034496665,729.21008865541,730.84373782834,731.0535895168,730.64972828378,729.33904258236,728.69722706695,731.36725816574,731.04705762751,730.68166550546,729.82997118483,730.15451212383,730.78710347101,730.02154265292,728.96340865118,731.16068303938,731.14402908686,730.96602681371,730.89128076519,729.92214533189,730.51784636696,731.03096546716,730.67108961662,729.56695825222,731.16068303938,730.49254329073,730.49254329073,731.28335123362,731.28335123362,1176.5354914023,1650.9396555063,679.15742790636,1826.5927660801,580.11928162157,0
4.87e-05,42773920.963043,3.3296341874106e-06,1.445868015553e-05,3.3101340071459e-06,1.0041978251499,604.73279762658,604.73279762658,604.09473959844,604.09473959844,606.49487473217,606.33811838761,605.31554051661,604.52163016589,605.56444759617,605.97905238268,604.70062996107,603.77262206708,605.71310655901,605.9694972904,606.13829166269,605.82626989178,604.73610977262,606.48947899674,606.45377800254,604.84097480355,604.25038365689,605.9102266908,606.12161015072,605.71310655901,604.38271886319,603.72996035749,606.44273823311,606.11413065138,605.746721806,604.87934675525,605.21149446343,605.85163334024,605.07579929981,604.00086833017,606.23377740388,606.21742197315,606.0329665681,605.96020386906,604.97402718854,605.5815044535,606.09948966382,605.7358032651,604.61445689837,606.23377740388,605.55202275262,605.55202275262,606.35515124303,606.35515124303,-0.36352739793071,-0.033412852355808,-0.70508081449548,0.29119119501612,0.87987285578581,0.66151308540091,-0.7243717118072,0.033609917119727,0.39340160774179,0.020010189378281,0.16309762040945,-8.2193287262206,0.0009578836329997,-0.078823420268848,0.73760615408003,-2.2364702285091,-0.21978145047276,1.5406547554786,0.1268458225324,-1.1317070750702,-0.038535179252446,0.30949684851759,0.052955571704184,-1.9347934719869,0.51092230214138,-5.8165911923334,0.23466307114329,0.3448533355821,-0.22900683390644,-0.10477222424496,0.21854473336583,0.14327732803885,0.02548288187653,-5.3320970338166,-0.13602824803816,-0.19154253297456,1.682261479391,-0.66375785543919,-0.030801728692406,-0.014710174690914,0.16015700828976,-3.917535038659,-0.24528624804761,-0.13638541464392,-1.4084520446068,0.093605630083132,0.84901570869051,-0.63080428442169,729.63472665786,729.63472665786,728.99666862972,728.99666862972,731.39680376345,731.24004741889,730.2174695479,729.42355919717,730.46637662745,730.88098141396,729.60255899235,728.67455109836,730.61503559029,730.87142632168,731.04022069397,730.72819892306,729.63803880391,731.39140802802,731.35570703382,729.74290383483,729.15231268817,730.81215572208,731.02353918201,730.61503559029,729.28464789447,728.63188938877,731.3446672644,731.01605968266,730.64865083729,729.78127578653,730.11342349471,730.75356237152,729.9777283311,728.90279736146,731.13570643516,731.11935100443,730.93489559939,730.86213290035,729.87595621982,730.48343348478,731.0014186951,730.63773229638,729.51638592966,731.13570643516,730.4539517839,730.4539517839,731.25708027431,731.25708027431,1182.8604553286,1652.0022007126,681.00839019367,1828.6339398803,581.95049045279,0
4.88e-05,43059216.420795,3.3353261543177e-06,1.4488442541006e-05,3.3209296057863e-06,1.0042418466587,604.67561426666,604.67561426666,604.02627166578,604.02627166578,606.46335437558,606.3011405326,605.26660218136,604.4585945429,605.51930961403,605.937905378,604.64215232885,603.69906228897,605.66931677257,605.93223349693,606.09985953172,605.78573479084,604.67789970929,606.45713288168,606.41874532813,604.7844842812,604.18353235605,605.86961878507,606.08241696666,605.66931677257,604.3192817781,603.65558558895,606.41113935801,606.07394436125,605.70467976254,604.82154666381,605.1614593047,605.8089609872,605.02292238929,603.93127064731,606.19981620725,606.18380965132,605.99269671561,605.92205420713,604.9187941182,605.53818515815,606.06081591691,605.69339444922,604.55492021597,606.19981620725,605.50430389044,605.50430389044,606.31976114443,606.31976114443,-0.36369186408296,-0.034442561587757,-0.71900165078608,0.31212594480678,0.90208949685163,0.67227342905235,-0.73651314025245,0.034116129324177,0.40597475877509,0.020036153276083,0.16525853015229,-8.2688696154907,0.0010473022626371,-0.0814381578087,0.75750834524883,-2.2699634002666,-0.22701410438262,1.5827843239359,0.12022351650327,-1.1541573230036,-0.03944122575105,0.31972213025871,0.054519090361771,-1.9694647720456,0.51876403326406,-5.8459194823433,0.2398131811769,0.35185802629198,-0.23268345753116,-0.10785937777213,0.22530736407177,0.14493051149936,0.025813151371149,-5.3593808120013,-0.13960001564079,-0.19816189816116,1.7278596015175,-0.67380010218109,-0.031320841990619,-0.015125067598834,0.16438979694748,-3.981264411179,-0.25337349111207,-0.1418242395848,-1.44658281286,0.097174540657077,0.87410898081462,-0.65214061146391,729.58599854562,729.58599854562,728.93665594473,728.93665594473,731.37373865454,731.21152481155,730.17698646032,729.36897882186,730.42969389298,730.84828965695,729.55253660781,728.60944656793,730.57970105153,730.84261777588,731.01024381067,730.6961190698,729.58828398825,731.36751716064,731.32912960708,729.69486856015,729.09391663501,730.78000306403,730.99280124561,730.57970105153,729.22966605706,728.56596986791,731.32152363696,730.9843286402,730.6150640415,729.73193094277,730.07184358366,730.71934526615,729.93330666825,728.84165492626,731.1102004862,731.09419393027,730.90308099456,730.83243848608,729.82917839715,730.44856943711,730.97120019586,730.60377872818,729.46530449492,731.1102004862,730.4146881694,730.4146881694,731.23014542339,731.23014542339,1189.2433575231,1652.9671181444,682.83698841447,1830.6327728921,583.76920625897,0
4.89e-05,43347146.795426,3.3409774609762e-06,1.451820616081e-05,3.3317244213461e-06,1.0042861296067,604.617815281,604.617815281,603.95706762602,603.95706762602,606.43110283191,606.26326514797,605.21693240573,604.39478109997,605.47350251047,605.89592138013,604.58293919345,603.62480428469,605.62473725746,605.89436610767,606.06059523997,605.74448370746,604.61900321048,606.42402218284,606.38282689981,604.72725659246,604.11591980413,605.82829251639,606.0423847501,605.62473725746,604.25511685286,603.5804913858,606.37883840237,606.03287226439,605.6619191681,604.76295208312,605.11079025528,605.76546302909,604.96929390986,603.86100411694,606.16517811581,606.14957186843,605.95159258537,605.88321144058,604.86282840792,605.49427150411,606.02131995006,605.65024264858,604.49473424913,606.16517811581,605.45576421654,605.45576421654,606.28355509691,606.28355509691,-0.36378475668345,-0.035494159458198,-0.73319443235345,0.33359260371886,0.92466031203233,0.68323201395285,-0.74881822382976,0.034620948244785,0.41884485566833,0.020060812349704,0.16745040497474,-8.3173453266196,0.0011424226506798,-0.084129678445105,0.77780825621707,-2.3037541608423,-0.23441329197584,1.6257021102264,0.11335493737811,-1.1769772063563,-0.040389518623921,0.33019295879385,0.056119199746295,-2.0045457526806,0.52672671453165,-5.8743537652752,0.24501401471026,0.35900927741566,-0.23641526151401,-0.11100779737901,0.23222682046855,0.14658558383374,0.02614938324921,-5.3858922675427,-0.14325548571253,-0.2049815295254,1.7743601502827,-0.68393968819829,-0.031811006797683,-0.015552011548393,0.16870310770023,-4.045677738369,-0.26165750275676,-0.147451411608,-1.4854333824902,0.10085965562115,0.89974016131353,-0.67403078745599,729.53679341226,729.53679341226,728.87604575728,728.87604575728,731.35008096318,731.18224327924,730.13591053699,729.31375923123,730.39248064173,730.81489951139,729.50191732471,728.54378241595,730.54371538872,730.81334423893,730.97957337123,730.66346183872,729.53798134174,731.3430003141,731.30180503107,729.64623472372,729.0348979354,730.74727064766,730.96136288137,730.54371538872,729.17409498412,728.49946951706,731.29781653363,730.95185039565,730.58089729936,729.68193021438,730.02976838654,730.68444116035,729.88827204112,728.7799822482,731.08415624707,731.06854999969,730.87057071664,730.80218957185,729.78180653918,730.41324963537,730.94029808132,730.56922077984,729.41371238039,731.08415624707,730.3747423478,730.3747423478,731.20253322817,731.20253322817,1195.6872366427,1653.8338289124,684.64333506265,1832.5890632333,585.57543572554,0
4.9e-05,43637768.502773,3.3465876847788e-06,1.4547971030049e-05,3.3425177288529e-06,1.0043306798296,604.55939742393,604.55939742393,603.88712452508,603.88712452508,606.39810640236,606.22447502599,605.16652307555,604.33018360089,605.4270178871,605.85308655049,604.52298510758,603.54984742325,605.57935694628,605.85588683357,606.02048446955,605.70250699741,604.5594152671,606.39013228195,606.3460053139,604.66928549286,604.04754153209,605.78623677189,606.00149881154,605.57935694628,604.19022016977,603.50467684171,606.34582277642,605.99089836965,605.61843040999,604.70355464849,605.05948137807,605.72112665013,604.91490644239,603.79006769107,606.12985238176,606.11469891502,605.90964002905,605.84366584174,604.80612280184,605.44975699458,605.98098806292,605.60633795878,604.43389548418,606.12985238176,605.40639172282,605.40639172282,606.24651776405,606.24651776405,-0.36380773401979,-0.036567832203454,-0.74766107677942,0.35559154810024,0.94758453186755,0.69438925380681,-0.76128722732636,0.0351242176305,0.43201416290983,0.020084874180911,0.16967344432447,-8.3647682484783,0.0012435315780683,-0.08690044089402,0.79850943916587,-2.3378376425568,-0.24197915466913,1.6694107770759,0.10623384975997,-1.2001679171998,-0.041381492272632,0.34091101147556,0.057756378898197,-2.040034849243,0.53481089729879,-5.9019030288281,0.25026419003818,0.36630739254648,-0.240202645578,-0.11421772953728,0.23930433915229,0.14824390525295,0.026491694355063,-5.4116416263334,-0.14699568675853,-0.21200732725388,1.8217712013767,-0.69417478192469,-0.032268572788795,-0.015991499540633,0.17309738004491,-4.1107699667434,-0.27013982996119,-0.15327212137106,-1.5250088196285,0.1046641387018,0.92591343161996,-0.69648426253435,729.4871098012,729.4871098012,728.81483690235,728.81483690235,731.32581877963,731.15218740327,730.09423545282,729.25789597816,730.35473026437,730.78079892776,729.45069748485,728.47755980052,730.50706932355,730.78359921084,730.94819684682,730.63021937468,729.48712764437,731.31784465922,731.27371769117,729.59699787013,728.97525390936,730.71394914916,730.92921118881,730.50706932355,729.11793254704,728.43238921898,731.27353515369,730.91861074692,730.54614278726,729.63126702576,729.98719375534,730.64883902741,729.84261881966,728.71778006834,731.05756475903,731.04241129229,730.83735240632,730.77137821901,729.73383517911,730.37746937185,730.90870044019,730.53405033605,729.36160786146,731.05756475903,730.33410410009,730.33410410009,731.17423014132,731.17423014132,1202.1947501744,1654.6018490197,686.4275533355,1834.5026377283,587.36919308555,0
4.91e-05,43931138.514222,3.3521564217807e-06,1.4577737163886e-05,3.353308825516e-06,1.0043755031328,604.50035726012,604.50035726012,603.81643929529,603.81643929529,606.36435128921,606.18475284382,605.11536603264,604.26479564704,605.37984718438,605.80938697074,604.46228457371,603.47419089132,605.53316474533,605.81678726692,605.97951282727,605.65979500602,604.49913068623,606.35544844668,606.30826305522,604.61056467309,603.9783929211,605.7434402933,605.95974436161,605.53316474533,604.12458773967,603.42814088863,606.31207981169,605.94800656188,605.57420384305,604.64334582899,605.00752656108,605.67593897642,604.85975253343,603.71846012713,606.09382821567,606.07918099611,605.866824794,605.8034076665,604.74866987065,605.40463498195,605.9398065052,605.56167046465,604.37240021738,606.09382821567,605.35617425284,605.35617425284,606.20863368876,606.20863368876,-0.36376246137248,-0.037663756189856,-0.76240327801772,0.37812291373644,0.97086112387271,0.70574530874575,-0.773920329192,0.035625784891769,0.44548475196189,0.020109037434268,0.17192780271201,-8.4111512365778,0.0013509276283377,-0.089752997932762,0.81961533872251,-2.372208601075,-0.24971161749891,1.7139124995949,0.098853846472412,-1.2237304837588,-0.042418599673132,0.3518778012497,0.059431082536457,-2.0759301974719,0.54301698534385,-5.9285766554275,0.25556225355277,0.37375253085192,-0.24404597413875,-0.1174893851487,0.24654105543959,0.14990684626927,0.02684019796021,-5.4366393826054,-0.15082162732856,-0.21924537549112,1.8701006537094,-0.70450339242724,-0.032689677510173,-0.016444046472836,0.1775730117286,-4.1765354610764,-0.2788218714057,-0.15929164833661,-1.5653140646541,0.10859121161423,0.95263268095305,-0.71951042821724,729.43694608257,729.43694608257,728.75302811774,728.75302811774,731.30094011166,731.12134166627,730.05195485509,729.20138446949,730.31643600683,730.74597579319,729.39887339616,728.41077971377,730.46975356778,730.75337608937,730.91610164972,730.59638382847,729.43571950868,731.29203726913,731.24485187767,729.54715349554,728.91498174355,730.68002911575,730.89633318406,730.46975356778,729.06117656212,728.36472971108,731.24866863414,730.88459538433,730.5107926655,729.57993465144,729.94411538353,730.61252779887,729.79634135588,728.65504894958,731.03041703812,731.01576981856,730.80341361645,730.73999648895,729.6852586931,730.3412238044,730.87639532765,730.4982592871,729.30898903983,731.03041703812,730.29276307529,730.29276307529,731.14522251121,731.14522251121,1208.7681661098,1655.2707892557,688.18977645329,1836.3733544273,589.15049965475,0
4.92e-05,44227314.255275,3.3576832867531e-06,1.4607504577538e-05,3.364097030535e-06,1.0044206052749,604.44069116652,604.44069116652,603.74500876016,603.74500876016,606.32982360307,606.14408117259,605.06345308156,604.19861068202,605.3319816868,605.76480865171,604.40083205041,603.39783369556,605.4861495422,605.77705888519,605.93766585204,605.61633807443,604.43814409347,606.31995583841,606.2695825065,604.55108776525,603.90846920698,605.69989168357,605.9171065201,605.4861495422,604.05821550761,603.35088229991,606.27759676775,605.9041806102,605.52922979636,604.58231693245,604.95491952117,605.62988708448,604.80382470224,603.64617998991,606.0570947926,606.04300823595,605.8231325302,605.76242716039,604.69046201512,605.35889867076,605.89776148431,605.51623024686,604.31024455662,606.0570947926,605.3050995078,605.3050995078,606.16988730193,606.16988730193,-0.36365060866922,-0.038782096496505,-0.77742251058816,0.40118658771433,0.99448878096606,0.71730008922307,-0.7867176207941,0.036125501834315,0.45925849491719,0.020133985735346,0.17421359211144,-8.4565075809589,0.0014649215964685,-0.092689997057544,0.8411292807342,-2.4068614311959,-0.25761037954911,1.7592089407144,0.091208360724637,-1.2476657650715,-0.0435023126257,0.36309467256686,0.06114373895539,-2.1122296314174,0.55134524117856,-5.954384399745,0.26090667767478,0.38134471254894,-0.24794557622782,-0.12082293594576,0.25393800030514,0.15157577517192,0.027195004270368,-5.4608962758218,-0.15473429664654,-0.22670194298564,1.9193562102824,-0.71492337790238,-0.033070240399857,-0.016910189122142,0.18213035520139,-4.242968018912,-0.28770486919864,-0.16551535858789,-1.6063539204381,0.11264415282221,0.97990148986223,-0.7431185994041,729.38630046351,729.38630046351,728.69061805715,728.69061805715,731.27543290007,731.08969046958,730.00906237855,729.14421997902,730.2775909838,730.7104179487,729.3464413474,728.34344299255,730.4317588392,730.72266818218,730.88327514903,730.56194737143,729.38375339046,731.26556513541,731.21519180349,729.49669706224,728.85407850397,730.64550098057,730.86271581709,730.4317588392,729.00382480461,728.2964915969,731.22320606474,730.84978990719,730.47483909336,729.52792622944,729.90052881817,730.57549638148,729.74943399923,728.59178928691,731.00270408959,730.98861753295,730.7687418272,730.70803645739,729.63607131211,730.30450796775,730.84337078131,730.46183954386,729.25585385361,731.00270408959,730.2507088048,730.2507088048,731.11549659893,731.11549659893,1215.4093588534,1655.8403547156,689.93014696536,1838.2011049921,590.91938338989,0
4.93e-05,44526353.500892,3.3631679135825e-06,1.4637273286264e-05,3.3748816847002e-06,1.0044659919512,604.38039533477,604.38039533477,603.67282963943,603.67282963943,606.29450937039,606.10244248679,605.01077599628,604.1316219967,605.28341252845,605.71933754239,604.33862195881,603.32077466538,605.43830021343,605.73669305511,605.89492902233,605.57212654577,604.37644993563,606.28363952043,606.22994595803,604.4908483492,603.83776548503,605.6555794139,605.87357032523,605.43830021343,603.99109935876,603.27289969369,606.24236083914,605.85940417656,605.48349858008,604.52045911084,604.90165380825,605.58295800993,604.74711544771,603.57322565395,606.01964125825,606.00617068293,605.77854879745,605.72071456455,604.63149146978,605.31254112106,605.85483917307,605.47000738848,604.2474244236,606.01964125825,605.2531550528,605.2531550528,606.13026293141,606.13026293141,-0.36347384690066,-0.039923005411464,-0.79272003434539,0.42478219963855,1.0184659205353,0.72905326215259,-0.79967910614281,0.036623225411897,0.47333705850424,0.020160381773845,0.17653088458845,-8.5008509528823,0.0015858368838512,-0.095714180805751,0.86305446068058,-2.44179018851,-0.26567490398602,1.8053012421602,0.083290681189888,-1.2719744456055,-0.044634121823399,0.37456279737576,0.0628947481097,-2.1489306847484,0.55979579302127,-5.979336353881,0.26629586206004,0.38908382552103,-0.25190174570236,-0.12421851082917,0.2614960976734,0.15325204568659,0.027556220964612,-5.4844232519311,-0.15873466514593,-0.23438348326594,1.9695453587168,-0.72543245614516,-0.033405956712636,-0.017390486000496,0.18676971394015,-4.3100608938754,-0.29678990017877,-0.17194870252083,-1.648133040541,0.11682629627177,1.0077231182789,-0.76731799501297,729.33517094974,729.33517094974,728.62760525439,728.62760525439,731.24928498536,731.05721810176,729.96555161125,729.08639761167,730.23818814342,730.67411315736,729.29339757378,728.27555028035,730.3930758284,730.69146867008,730.84970463729,730.52690216073,729.3312255506,731.23841513539,731.184721573,729.44562396417,728.79254109999,730.61035502887,730.82834594019,730.3930758284,728.94587497373,728.22767530866,731.19713645411,730.81417979152,730.43827419505,729.4752347258,729.85642942322,730.5377336249,729.70189106267,728.52800126892,730.97441687322,730.96094629789,730.73332441242,730.67549017952,729.58626708475,730.26731673603,730.80961478804,730.42478300345,729.20220003856,730.97441687322,730.20793066777,730.20793066777,731.08503854637,731.08503854637,1222.1198077774,1656.3103441246,691.64881613166,1839.9858170348,592.67587833846,0
4.94e-05,44828314.268375,3.3686099551411e-06,1.4667043305359e-05,3.38566214988e-06,1.0045116687776,604.31946577409,604.31946577409,603.59989855433,603.59989855433,606.25839454114,606.0598191739,604.95732652704,604.06382273456,605.23413069896,605.67295953922,604.27564868908,603.24301245624,605.38960563202,605.69568103691,605.85128776369,605.52715077111,604.31404248391,606.24648446619,606.18933561766,604.42983995902,603.7662767152,605.61049183098,605.82912074308,605.38960563202,603.92323512435,603.19419153688,606.20635916236,605.81366082455,605.43700049222,604.45776336607,604.84772280985,605.53513875622,604.68961725537,603.49959530636,605.98145673508,605.96865831447,605.73305907255,605.67826012154,604.57175030715,605.26555525202,605.81102571734,605.42299198143,604.18393555634,605.98145673508,605.20032832341,605.20032832341,606.08974481124,606.08974481124,-0.36323384575373,-0.041086620755454,-0.80829689993498,0.44890911186425,1.0427906773464,0.74100425893946,-0.81280470083882,0.037118818400559,0.48772189837135,0.020188861700609,0.17887971513785,-8.5441953724017,0.0017140099206079,-0.098828386678189,0.88539393090061,-2.4769886091913,-0.27390440844904,1.8521900060313,0.075093968830982,-1.2966570284194,-0.045815536813791,0.3862831714276,0.064684479775715,-2.186030590125,0.56836864237115,-6.0034429257418,0.27172813305362,0.39696963313159,-0.25591474139546,-0.12767619195165,0.26921616194054,0.15493698470489,0.027923953779511,-5.5072314398244,-0.16282368514551,-0.24229663405582,2.0206753490794,-0.73602821521554,-0.033692291944885,-0.017885517093596,0.19149133841392,-4.3778068144454,-0.30607786720725,-0.17859721216802,-1.6906559146242,0.12114102979946,1.0361004907364,-0.79211771790417,729.2835554081,729.2835554081,728.56398818833,728.56398818833,731.22248417514,731.0239088079,729.92141616104,729.02791236857,730.19822033296,730.63704917322,729.23973832308,728.20710209024,730.35369526602,730.65977067091,730.8153773977,730.49124040511,729.27813211791,731.21057410019,731.15342525166,729.39392959302,728.7303663492,730.57458146498,730.79321037708,730.35369526602,728.88732475835,728.15828117089,731.17044879636,730.77775045855,730.40109012622,729.42185300008,729.81181244385,730.49922839022,729.65370688937,728.46368494036,730.94554636908,730.93274794847,730.69714870655,730.64234975555,729.53583994115,730.22964488603,730.77511535134,730.38708161543,729.14802519034,730.94554636908,730.16441795741,730.16441795741,731.05383444524,731.05383444524,1228.9005998008,1656.6806487843,693.34594328787,1841.7274561347,594.42002439421,0
4.95e-05,45133254.708597,3.3740090832674e-06,1.4696814650136e-05,3.3964378085111e-06,1.0045576412739,604.25789831447,604.25789831447,603.52621203314,603.52621203314,606.22146499668,606.01619354419,604.90309640707,603.99520589756,605.18412704974,605.62566049541,604.21190660694,603.16454555327,605.34005467493,605.65401398872,605.8067274564,605.48140111545,604.25091583729,606.20847556802,606.14773362091,604.36805608952,603.69399772763,605.56461716469,605.78374267729,605.34005467493,603.85461858776,603.11475614937,606.16957882302,605.76693402849,605.38972582539,604.39422055615,604.79311975605,605.48641630341,604.63132260431,603.42528695012,605.94253032842,605.93046104214,605.68664875675,605.63505408111,604.51123044216,605.21793384574,605.76630724371,605.37517413277,604.1197735121,605.94253032842,605.14660663254,605.14660663254,606.04831709126,606.04831709126,-0.36293227108638,-0.042273064104503,-0.82415395469036,0.47356640901577,1.0674609021049,0.75315228359937,-0.82609423089627,0.037612149956075,0.50241425416109,0.02022002994684,0.18126008474763,-8.5865551714709,0.0018497905566524,-0.10203554667415,0.90815058752649,-2.5124501313403,-0.28229785526251,1.8998752860963,0.066611274258433,-1.3217138279551,-0.04704808584436,0.39825661125534,0.066513271950735,-2.2235262795142,0.57706367223353,-6.0267148144219,0.27720174465273,0.40500178225929,-0.25998478717131,-0.13119601080077,0.27709889601066,0.15663188050211,0.028298307120637,-5.5293321250099,-0.16700229124822,-0.25044821599162,2.0727531712398,-0.74670812457596,-0.033924476412922,-0.018395883481479,0.19629542205184,-4.4461980048962,-0.31556949019211,-0.18546649801793,-1.7339268535578,0.12559179338086,1.065036185427,-0.81752673389906,729.23145153844,729.23145153844,728.49976525712,728.49976525712,731.19501822065,730.98974676816,729.87664963104,728.96875912153,730.15768027371,730.59921371938,729.18545983091,728.13809877725,730.3136078989,730.62756721269,730.78028068037,730.45495433942,729.22446906126,731.18202879199,731.12128684488,729.34160931349,728.6675509516,730.53817038866,730.75729590126,730.3136078989,728.82817181173,728.08830937334,731.14313204699,730.74048725246,730.36327904936,729.36777378012,729.76667298002,730.45996952738,729.60487582828,728.39884017409,730.91608355239,730.90401426611,730.66020198072,730.60860730508,729.48478366613,730.19148706971,730.73986046768,730.34872735675,729.09332673607,730.91608355239,730.12015985651,730.12015985651,731.02187031523,731.02187031523,1235.7524354709,1656.9512511505,695.02169517897,1843.4260276669,596.15186675251,0
4.96e-05,45441232.995632,3.3793649889968e-06,1.4726587335917e-05,3.4072080636023e-06,1.0046039148479,604.19568861024,604.19568861024,603.45176651691,603.45176651691,606.18370655786,605.9715478409,604.8480773594,603.92576435216,605.13339230063,605.57742623044,604.14739006016,603.0853722754,605.28963623055,605.61168297119,605.76123344306,605.43486796342,604.18706392636,606.16959764589,606.10512204147,604.30549020288,603.6209232285,605.51794353601,605.73742097895,605.28963623055,603.78524549065,603.03459170864,606.13200686311,605.71920718276,605.34166487352,604.32982140164,604.73783772482,605.43677761705,604.57222397407,603.3502984078,605.90285113257,605.89156871675,605.63930318331,605.5910867058,604.44992363694,605.16966955136,605.7206698672,605.32654397092,604.05493367064,605.90285113257,605.09197717755,605.09197717755,606.00596384685,606.00596384685,-0.3625707821704,-0.043482438963637,-0.84029184788969,0.49875288649518,1.0924741585046,0.76549632407191,-0.83954743156218,0.0381030962094,0.51741514466055,0.020254454578659,0.18367196343062,-8.6279449554222,0.0019935424393468,-0.10533868646765,0.93132715803459,-2.5481679203684,-0.29085394208548,1.9483565757993,0.057835559066559,-1.3471449620008,-0.048333315228791,0.41048375131251,0.068381429359936,-2.2614143874826,0.58588065512366,-6.04916298571,0.28271487922928,0.41317981261563,-0.26411207221671,-0.1347779442379,0.28514488939808,0.15833797180655,0.028679384682882,-5.5507367213566,-0.17127140078943,-0.25884523072039,2.1257855323884,-0.75746954762391,-0.0340975002736,-0.018922206834245,0.20118209757113,-4.5152262125702,-0.32526529727439,-0.19256224561221,-1.7779499738693,0.13018207729168,1.0945324216417,-0.84355384908691,729.17885688121,729.17885688121,728.43493478789,728.43493478789,731.16687482884,730.95471611188,729.83124563038,728.90893262314,730.1165605716,730.56059450141,729.13055833114,728.06854054638,730.27280450153,730.59485124217,730.74440171404,730.41803623439,729.17023219734,731.15276591687,731.08829031245,729.28865847386,728.60409149947,730.50111180698,730.72058924993,730.27280450153,728.76841376163,728.01775997962,731.11517513408,730.70237545374,730.32483314449,729.31298967261,729.7210059958,730.41994588802,729.55539224504,728.33346667877,730.88601940354,730.87473698772,730.62247145428,730.57425497677,729.43309190791,730.15283782233,730.70383813817,730.3097122419,729.03810194161,730.88601940354,730.07514544852,730.07514544852,730.98913211782,730.98913211782,1242.6756368925,1657.1222233759,696.67624544011,1845.0815784855,597.87145558497,0
4.97e-05,45752307.216551,3.3846773823392e-06,1.4756361378027e-05,3.4179723377813e-06,1.0046504947803,604.1328321441,604.1328321441,603.3765583654,603.3765583654,606.14510499322,605.92586425055,604.79226110369,603.85549083591,605.08191704679,605.52824253967,604.08209338512,603.00549077976,605.238339206,605.56867895218,605.71479103638,605.38754172491,604.12248051751,606.12983545653,606.06148290185,604.24213573531,603.54704780616,605.47045896523,605.69014045666,605.238339206,603.71511153921,602.95369625474,606.09363028831,605.67046361132,605.29280793857,604.26455649249,604.6818696476,605.38620965706,604.51231385148,603.27462732565,605.86240823683,605.85197113356,605.59100762515,605.54634827649,604.38782150593,605.12075488944,605.67409969888,605.27709165165,603.98941123787,605.86240823683,605.03642704765,605.03642704765,605.96266908902,605.96266908902,-0.36215102967512,-0.044714828867212,-0.85671103730696,0.52446703857325,1.1178277165682,0.77803516269229,-0.85316394526853,0.038591540619729,0.53272536370101,0.020292663212069,0.18611529348102,-8.6683795751561,0.0021456435230647,-0.10874092421159,0.95492618331284,-2.5841348902561,-0.29957109279819,1.9976327906112,0.048759716484092,-1.3729503427128,-0.049672788924405,0.422965041742,0.070289222040387,-2.2996912517349,0.59481926187155,-6.0707986534999,0.28826564722319,0.42150316591063,-0.26829675104832,-0.13842191043521,0.29335461680981,0.16005643756651,0.029067290098539,-5.5714567513693,-0.17563191417865,-0.26749485835431,2.1797788287482,-0.76830975335883,-0.034206108778553,-0.0194651287992,0.20615143053088,-4.5848827277324,-0.33516561613075,-0.19989021182093,-1.8227291796991,0.134915420177,1.1245910453335,-0.87020768676468,729.12576884791,729.12576884791,728.36949506922,728.36949506922,731.13804169704,730.91880095437,729.78519780751,728.84842753973,730.07485375061,730.52117924349,729.07503008893,727.99842748358,730.23127590982,730.561615656,730.7077277402,730.38047842873,729.11541722133,731.12277216035,731.05441960567,729.23507243913,728.53998450998,730.46339566904,730.68307716048,730.23127590982,728.70804824303,727.94663295856,731.08656699213,730.66340031514,730.28574464239,729.25749319631,729.67480635142,730.37914636088,729.50525055529,728.26756402947,730.85534494064,730.84490783738,730.58394432896,730.53928498031,729.38075820975,730.11369159325,730.66703640269,730.27002835547,728.98234794169,730.85534494064,730.02936375147,730.02936375147,730.95560579284,730.95560579284,1249.6701609049,1657.1937254024,698.30977400593,1846.6941982817,599.57884566133,0
4.98e-05,46066535.260958,3.3899459925514e-06,1.4786136791781e-05,3.4287300729824e-06,1.0046973862089,604.0693242314,604.0693242314,603.30058386323,603.30058386323,606.10564602743,605.87912491359,604.73563936294,603.78437796418,605.02969176595,605.47809520415,604.01601091322,602.92489906654,605.18615253446,605.52499281172,605.66738552694,605.33941284059,604.05715921734,606.08917370274,606.01679818434,604.17798610373,603.47236593767,605.42215138051,605.64188588681,605.18615253446,603.64421241038,602.87206769553,606.05443607553,605.62068657759,605.24314533716,604.19841629529,604.6252083153,605.33469938673,604.45158473746,603.19827117815,605.82119073161,605.81165803759,605.54174730275,605.5008290978,604.32491552131,605.07118225654,605.62658285359,605.22680736402,603.92320124984,605.82119073161,604.97994323159,604.97994323159,605.91841677476,605.91841677476,-0.36167465307235,-0.045970295273791,-0.87341179471532,0.55070704592462,1.1435185538786,0.79076738864244,-0.86694332067757,0.03907737431291,0.54834547652029,0.020335139607979,0.18858999263849,-8.7078740905415,0.0023064862709844,-0.1122454688222,0.97895001018883,-2.6203437292251,-0.30844744829585,2.0477022634856,0.039376594648323,-1.3991296680409,-0.051068087540513,0.43570074651562,0.072236884276336,-2.3383529167427,0.60387906999513,-6.0916332569309,0.29385208900442,0.42997119558734,-0.27253894405503,-0.14212776491383,0.30172843709319,0.16178838794164,0.029462127579735,-5.5915038193947,-0.18008471504275,-0.27640445398417,2.234739125725,-0.77922592914594,-0.034244797855606,-0.020025310221249,0.21120341873905,-4.6551584104631,-0.34527056487075,-0.20745622061233,-1.8682681452789,0.13979540709227,1.1552135198831,-0.89749666322337,729.07218466418,729.07218466418,728.30344429601,728.30344429601,731.10850646021,730.88198534636,729.73849979572,728.78723839696,730.03255219873,730.48095563693,729.018871346,727.92775949932,730.18901296724,730.5278532445,730.67024595972,730.34227327337,729.06001965012,731.09203413552,731.01965861712,729.18084653651,728.47522637045,730.42501181329,730.64474631959,730.18901296724,728.64707284316,727.87492812831,731.05729650831,730.62354701037,730.24600576994,729.20127672807,729.62806874808,730.33755981951,729.45444517024,728.20113161093,730.82405116439,730.81451847037,730.54460773553,730.50368953058,729.32777595409,730.07404268932,730.62944328637,730.2296677968,728.92606168262,730.82405116439,729.98280366437,729.98280366437,730.92127720754,730.92127720754,1256.7356119745,1657.1660030193,699.92246660134,1848.2640207619,601.27409602622,0
4.99e-05,46383974.711828,3.3951705676435e-06,1.4815913592471e-05,3.4394807299726e-06,1.0047445941143,604.00516002482,604.00516002482,603.22383922619,603.22383922619,606.0653153499,605.83131193519,604.67820387036,603.71241823733,604.97670682596,605.42697000042,603.94913697749,602.84359498421,605.13306518241,605.48061534703,605.61900219111,605.29047178722,603.99109347754,606.04759704293,605.97104984217,604.11303471258,603.3968719955,605.37300862671,605.59264202406,605.13306518241,603.57254375822,602.78970381231,606.01441118044,605.56985929449,605.19266740719,604.13139116071,604.56784638463,605.2822337817,604.39002915376,603.12122727287,605.77918771442,605.77061912899,605.49150739211,605.45451950333,604.2611970187,605.02094393004,605.57810545761,605.17568133617,603.85629857708,605.77918771442,604.92251262561,604.92251262561,605.8731908176,605.8731908176,-0.36114327889245,-0.047248875461297,-0.89039421204567,0.57747076252009,1.1695433516592,0.80369140959806,-0.88088501017361,0.039560496228293,0.56427581697767,0.020382320928568,0.19109595735388,-8.7464437472326,0.002476478184019,-0.1158556181158,1.0034007706202,-2.6567869219539,-0.31748085767403,2.0985627319768,0.029679019518856,-1.4256824114826,-0.052520807366551,0.44869094231992,0.074224613572099,-2.3773951359853,0.6130595724569,-6.1116784450244,0.29947217537057,0.43858317626965,-0.27683873753256,-0.14589529660322,0.31026659269389,0.16353485635629,0.029864002574311,-5.6108895953108,-0.18463067023701,-0.28558154402441,2.2906721263422,-0.79021519250943,-0.03420780985126,-0.020603430291313,0.21633798446992,-4.7260437123066,-0.35558004330298,-0.21526615879622,-1.9145702952061,0.14482566750355,1.1864009137906,-0.9254289629247,729.01810140136,729.01810140136,728.23678060273,728.23678060273,731.07825672644,730.84425331172,729.69114524689,728.72535961387,729.98964820249,730.43991137696,728.96207835403,727.85653636075,730.14600655895,730.49355672357,730.63194356765,730.30341316376,729.00403485408,731.06053841946,730.98399121871,729.12597608911,728.40981337204,730.38595000324,730.6055834006,730.14600655895,728.58548513476,727.80264518885,731.02735255698,730.58280067103,730.20560878372,729.14433253724,729.58078776116,730.29517515824,729.40297053029,728.13416864941,730.79212909096,730.78356050553,730.50444876865,730.46746087987,729.27413839524,730.03388530658,730.59104683415,730.1886227127,728.86923995362,730.79212909096,729.93545400215,729.93545400215,730.88613219413,730.88613219413,1263.871259448,1657.0393856293,701.51451422914,1849.7912244803,602.9572696879,0
5e-05,46704682.737312,3.400350874753e-06,1.4845691795355e-05,3.4502237876692e-06,1.0047921233061,603.94033451938,603.94033451938,603.14632060773,603.14632060773,606.02409862357,605.78240739641,604.61994637605,603.63960404818,604.92295249258,605.37485271063,603.88146591898,602.76157623502,605.07906615678,605.43553727776,605.56962629895,605.24070908295,603.92427659998,606.00509010089,605.92421981095,604.04727496058,603.3205602546,605.32301847439,605.54239361203,605.07906615678,603.50010122024,602.70660226567,605.97354254521,605.5179649348,605.1413645144,604.06347133134,604.50977638461,605.22879983906,604.32763964964,603.04349275574,605.73638829593,605.72884406848,605.44027303292,605.40740986093,604.1966572032,604.97003207321,605.52865365634,605.12370384098,603.78869792921,605.73638829593,604.86412204163,604.86412204163,605.82697509847,605.82697509847,-0.36055851843474,-0.048550580277696,-0.90765820645979,0.604755702145,1.1958984946253,0.81680546555668,-0.89498836814668,0.040040813099917,0.58051648497556,0.020434595708144,0.19363306587737,-8.7841039439938,0.0026560421145182,-0.11957475628414,1.0282803690697,-2.6934567724687,-0.3266688696698,2.1502113312567,0.019659821166102,-1.4526078121881,-0.054032559011455,0.4619355177032,0.076252569835171,-2.4168133752906,0.6223601857942,-6.1309460563758,0.30512380916328,0.44733831348347,-0.28119618409995,-0.14972422414752,0.31896920924176,0.16529679290714,0.030273022397685,-5.6296257909251,-0.18927062963033,-0.29503382130256,2.3475831466119,-0.80127460292301,-0.034089129905358,-0.021200185510331,0.22155497111695,-4.7975286991977,-0.36609372405443,-0.22332597106893,-1.9616387854215,0.15000987318954,1.2181538904409,-0.9540125120088,728.96351600397,728.96351600397,728.16950209232,728.16950209232,731.04728010816,730.805588881,729.64312786064,728.66278553277,729.94613397717,730.39803419522,728.90464740357,727.78475771961,730.10224764137,730.45871876235,730.59280778354,730.26389056754,728.94745808457,731.02827158548,730.94740129554,729.07045644517,728.34374173919,730.34619995898,730.56557509662,730.10224764137,728.52328270483,727.72978375026,730.9967240298,730.54114641939,730.16454599899,729.08665281593,729.5329578692,730.25198132365,729.35082113423,728.06667424033,730.75956978052,730.75202555307,730.46345451751,730.43059134552,729.21983868779,729.9932135578,730.55183514093,730.14688532556,728.81187941379,730.75956978052,729.88730352622,729.88730352622,730.85015658306,730.85015658306,1271.0760540373,1656.8142839254,703.08611273,1851.276033468,604.6284333402,0
5.01e-05,47028715.985811,3.4054866998388e-06,1.4875471415652e-05,3.4609587426744e-06,1.0048399784095,603.8748425577,603.8748425577,603.06802410564,603.06802410564,605.98198149382,605.73239336555,604.56085865384,603.56592768977,604.86841893765,605.32172913262,603.81299209331,602.67884038085,605.02414451217,605.38974925132,605.51924312236,605.19011529242,603.85670174215,605.96163747577,605.87629002036,603.98070024765,603.24342489972,605.27216862926,605.49112539415,605.02414451217,603.42688042384,602.62276060167,605.93181710624,605.46498664173,605.08922705897,603.99464694991,604.45099072357,605.17438458652,604.26440880857,602.96506461663,605.69278160593,605.6863224829,605.3880293369,605.35949057778,604.13128715573,604.91843874046,605.4782136221,605.07086520167,603.72039385994,605.69278160593,604.80475821579,604.80475821579,605.77975347679,605.77975347679,-0.35992196587952,-0.049875391872958,-0.92520352649646,0.63255902498996,1.2225800689079,0.83010764104246,-0.90925264855354,0.040518239353446,0.59706734458941,0.020492302526568,0.19620118145873,-8.8208702079699,0.0028456166909357,-0.12340635097771,1.0535904637996,-2.7303454265278,-0.33600872475511,2.20264458454,0.0093118586352577,-1.4799048643172,-0.055604966033401,0.47543417282152,0.078320874670968,-2.456602816869,0.6317802587258,-6.1494481033129,0.31080482631472,0.45623575276197,-0.28561130287081,-0.15361419220741,0.32783629559354,0.16707505913129,0.030689296876501,-5.6477241422893,-0.19400542580047,-0.30476913950063,2.4054770847511,-0.81240117325603,-0.033882482918031,-0.021816288502833,0.2268541367941,-4.8696030741679,-0.37681104415196,-0.23164165472649,-2.0094764821328,0.15535173606128,1.2504726972809,-0.98325495185453,728.90842527386,728.90842527386,728.1016068218,728.1016068218,731.01556420998,730.7659760817,729.59444137,728.59951040592,729.90200165381,730.35531184878,728.84657480946,727.71242309701,730.05772722832,730.42333196747,730.55282583852,730.22369800858,728.89028445831,730.99522019193,730.90987273652,729.0142829638,728.27700761588,730.30575134542,730.52470811031,730.05772722832,728.46046313999,727.65634331782,730.9653998224,730.49856935789,730.12280977513,729.02822966607,729.48457343972,730.20796730268,729.29799152472,727.99864733279,730.72636432209,730.71990519906,730.42161205306,730.39307329394,729.16486987189,729.95202145662,730.51179633826,730.10444791783,728.7539765761,730.72636432209,729.83834093195,729.83834093195,730.81333619295,730.81333619295,1278.34864958,1656.4911874138,704.63746234786,1852.718717523,606.28765711162,0
5.02e-05,47356130.482949,3.4105778476523e-06,1.4905252468525e-05,3.471685108656e-06,1.004888163853,603.80867883568,603.80867883568,602.98894576887,602.98894576887,605.93894959763,605.68125190973,604.50093250806,603.49138136342,604.81309624742,605.26758509033,603.74370987712,602.59538484944,604.96828935794,605.34324184843,605.46783794327,605.13868103188,603.78836192296,605.91722375234,605.82724240611,603.91330398178,603.16546003302,605.22044674171,605.43882212476,604.96828935794,603.35287699281,602.53817625827,605.88922180215,605.41090753982,605.03624548204,603.92490806773,604.39148169623,605.11897509171,604.20032925483,602.88593969531,605.64835679942,605.64304397084,605.33476139634,605.31075210547,604.06507783966,604.86615588285,605.42677156197,605.01715579735,603.65138077242,605.64835679942,604.74440781723,604.74440781723,605.73150980184,605.73150980184,-0.35923519687867,-0.05122326125384,-0.94302975622225,0.66087752336608,1.2495838623566,0.8435958778856,-0.92367700308291,0.040992696772352,0.61392802220773,0.020555729348922,0.19880015515243,-8.8567581767525,0.0030456564124211,-0.12735395004312,1.0793324616801,-2.7674448914318,-0.34549734736276,2.2558583975058,-0.0013719536890003,-1.507572306785,-0.057239663095975,0.48918641912968,0.080429610896433,-2.4967583615349,0.64131907946711,-6.1671967613537,0.31651299761588,0.4652745882053,-0.2900840799472,-0.15756476805522,0.33686774389497,0.16887042397758,0.031112938933556,-5.6651963966741,-0.19883587328456,-0.3147955069959,2.4643584020581,-0.82359188010994,-0.033581330944998,-0.022452466740163,0.23223515512664,-4.942256195838,-0.38773119634307,-0.24021925410836,-2.0580859418173,0.16085500593642,1.283357156825,-1.0131636118342,728.85282587337,728.85282587337,728.03309280655,728.03309280655,730.98309663532,730.72539894741,729.54507954575,728.5355284011,729.8572432851,730.31173212802,728.78785691481,727.63953188713,730.01243639562,730.38738888612,730.51198498095,730.18282806956,728.83250896064,730.96137079002,730.8713894438,728.95745101947,728.2096070707,730.2645937794,730.48296916245,730.01243639562,728.39702403049,727.58232329596,730.93336883983,730.4550545775,730.08039251972,728.96905510541,729.43562873392,730.16312212939,729.24447629251,727.93008673299,730.69250383711,730.68719100853,730.37890843402,730.35489914315,729.10922487734,729.91030292054,730.47091859965,730.06130283503,728.69552781011,730.69250383711,729.78855485492,729.78855485492,730.77565683953,730.77565683953,1285.6874210261,1656.0706618859,706.16876734359,1854.1195923077,607.93501433774,0
5.03e-05,47686981.532874,3.4156241417005e-06,1.4935034969073e-05,3.4824024159274e-06,1.0049366838569,603.74183790837,603.74183790837,602.90908160448,602.90908160448,605.89498857285,605.62896510683,604.44015978032,603.4159571871,604.7569744312,605.2124064442,603.67361367461,602.51120694082,604.9114898654,605.29600558881,605.41539606191,605.08639697414,603.71925002872,605.87183351134,605.7770589221,603.84507958603,603.08665968184,605.16784041672,605.38546858039,604.9114898654,603.27808655382,602.45284657206,605.84574358175,605.35571074601,604.98241027222,603.85424465344,604.33124149124,605.06255847145,604.13539366016,602.80611468765,605.6031030626,605.59899810835,605.28045429276,605.26118494495,603.9980201077,604.81317535379,605.3743137256,604.96256606839,603.58165292472,605.6031030626,604.68305745712,604.68305745712,605.68222792433,605.68222792433,-0.3584997664924,-0.052594105820323,-0.96113632052994,0.68970760835431,1.2769053633837,0.8572679865203,-0.93826047865824,0.041464114103924,0.63109790672461,0.02062511352936,0.20142982869906,-8.8917835677998,0.0032566322404681,-0.13142117769052,1.105507490687,-2.8047470557659,-0.35513133882111,2.3098480499835,-0.012398620160858,-1.5356086122822,-0.058938294145182,0.50319158107562,0.08257882205633,-2.5372746345478,0.65097588345434,-6.1842043493397,0.32224603016463,0.47445387028012,-0.2946144686699,-0.16157543831143,0.34606333076683,0.17068356141344,0.031544065176128,-5.6820542913178,-0.20376276779011,-0.32512107973617,2.5242310843572,-0.83484367371021,-0.033178871030596,-0.023109461048922,0.23769760416681,-5.0154770991423,-0.39885312110406,-0.24906485454081,-2.1074693887169,0.16652346837813,1.316806656204,-1.0437454808319,728.79671433124,728.79671433124,727.96395802735,727.96395802735,730.94986499572,730.6838415297,729.49503620319,728.47083360997,729.81185085407,730.26728286707,728.72849009748,727.56608336369,729.96636628827,730.35088201168,730.47027248479,730.14127339701,728.77412645159,730.92670993421,730.83193534497,728.8999560089,728.14153610472,730.22271683959,730.44034500326,729.96636628827,728.33296297669,727.50772299493,730.90062000462,730.41058716888,730.03728669509,728.90912107631,729.38611791411,730.11743489432,729.19027008303,727.86099111052,730.65797948547,730.65387453123,730.33533071563,730.31606136782,729.05289653058,729.86805177666,730.42919014847,730.01744249126,728.63652934759,730.65797948547,729.73793387999,729.73793387999,730.7371043472,730.7371043472,1293.090487094,1655.5533467702,707.680235644,1855.4790190944,609.57058136724,0
5.04e-05,48021323.621943,3.4206254237856e-06,1.496481893232e-05,3.4931102106268e-06,1.0049855424228,603.67431419615,603.67431419615,602.82842758484,602.82842758484,605.85008406771,605.57551505765,604.37853235632,603.33964720408,604.70004343029,605.15617910191,603.60269792405,602.42630383406,604.85373527499,605.24803093693,605.36190280543,605.0332538536,603.64935881958,605.82545134022,605.72572155295,603.7760205055,603.00701780688,605.11433722397,605.3310495713,604.85373527499,603.20250474305,602.36676878516,605.80136941223,605.29937938112,604.92771197218,603.78264660215,604.27026219881,605.00512190133,604.06959475041,602.72558615221,605.55700961895,605.55417445479,605.22509310591,605.21077965156,603.93010470919,604.75948891494,605.32082641333,604.90708652196,603.51120443581,605.55700961895,604.62069369804,604.62069369804,605.63189170828,605.63189170828,-0.3577172080158,-0.05398780676204,-0.97952248992431,0.71904529637722,1.3045397639242,0.87112165966169,-0.95300201538395,0.041932426323048,0.64857614880359,0.020700642376007,0.20409003722591,-8.9259621629298,0.0034790317341099,-0.13561173037428,1.1321163908632,-2.842243706016,-0.36490696962932,2.3646081956352,-0.023775035486733,-1.5640119769077,-0.060702510505399,0.517448796719,0.084768512215335,-2.5781459869698,0.66074986052959,-6.2004833193601,0.32800156980143,0.48377261369246,-0.29920239006183,-0.16564560606802,0.3554227180632,0.17251504891784,0.031982796454406,-5.6983095428503,-0.20878688514436,-0.33575415357732,2.58509861892,-0.84615348671455,-0.032668033183166,-0.02378802403419,0.24324096528006,-5.0892545096959,-0.41017549778445,-0.25818457594817,-2.1576286936389,0.17236094238734,1.3508201408272,-1.0750071792028,728.7400870817,728.7400870817,727.89420047039,727.89420047039,730.91585695326,730.6412879432,729.44430524187,728.40542008964,729.76581631584,730.22195198746,728.6684708096,727.49207671961,729.91950816054,730.31380382248,730.42767569098,730.09902673915,728.71513170513,730.89122422578,730.7914944385,728.84179339105,728.07279069243,730.18011010953,730.39682245685,729.91950816054,728.26827762861,727.43254167071,730.86714229779,730.36515226668,729.99348485773,728.8484194877,729.33603508436,730.07089478688,729.13536763597,727.79135903776,730.6227825045,730.61994734034,730.29086599147,730.27655253711,728.99587759475,729.82526180049,730.38659929888,729.97285940751,728.57697732137,730.6227825045,729.68646658359,729.68646658359,730.69766459383,730.69766459383,1300.5557272746,1654.9399524598,709.17207851383,1856.797404269,611.19443738927,0
5.05e-05,48359210.328841,3.42558155442e-06,1.4994604373203e-05,3.5038080544213e-06,1.0050347433239,603.60610199122,603.60610199122,602.74697965485,602.74697965485,605.80422175041,605.52088389832,604.31604217275,603.26244339186,604.64229312706,605.09888902915,603.53095710434,602.34067259433,604.79501490349,605.19930830806,605.30734353646,604.97924247115,603.57868093609,605.77806184395,605.67321232667,603.70612021451,602.92652831045,605.05992470818,605.27554995317,604.79501490349,603.12612721283,602.27994005241,605.75608628743,605.24189658152,604.87214118519,603.7101037448,604.20853581874,604.94665262525,604.0029253122,602.64435051705,605.51006573534,605.50856255871,605.16866292294,605.15952683997,603.86132229756,604.70508824235,605.26629598425,604.85070773737,603.4400292917,605.51006573534,604.55730306359,604.55730306359,605.58048504312,605.58048504312,-0.3568890313797,-0.055404206545622,-0.99818738382381,0.74888619463919,1.3324819558653,0.88515448155764,-0.96790044446772,0.042397574011485,0.6663616614861,0.020782454272174,0.2067806115445,-8.9593097902763,0.0037133593092621,-0.13992937189099,1.1591596984003,-2.8799265425148,-0.37482017627241,2.4201328493869,-0.035507958779621,-1.5927803096645,-0.062533968355555,0.53195701979833,0.08699864562145,-2.6193665003066,0.67064016095727,-6.2160462482155,0.33377720209717,0.49322980312869,-0.30384773326326,-0.16977458816826,0.3649454542981,0.1743653674806,0.032429258345838,-5.7139738330067,-0.21390897984091,-0.3467031551576,2.6469639661395,-0.85751824204537,-0.032041481477896,-0.024488918271305,0.2488646181697,-5.1635768596744,-0.42169673908939,-0.26758456562022,-2.2085653524489,0.17837127780581,1.3853961024473,-1.1069549289247,728.68294042129,728.68294042129,727.82381808491,727.82381808491,730.88106018047,730.59772232839,729.39288060281,728.33928182192,729.71913155712,730.17572745921,728.6077955344,727.41751102439,729.87185333356,730.27614673813,730.38418196652,730.05608090121,728.65551936616,730.85490027401,730.75005075674,728.78295864457,728.00336674051,730.13676313824,730.35238838323,729.87185333356,728.20296564289,727.35677848247,730.83292471749,730.31873501158,729.94897961525,728.78694217486,729.28537424881,730.02349105532,729.07976374226,727.72118894712,730.58690416541,730.58540098877,730.24550135301,730.23636527003,728.93816072763,729.78192667241,730.34313441431,729.92754616744,728.51686772177,730.58690416541,729.63414149365,729.63414149365,730.65732347319,730.65732347319,1308.0808073327,1654.2312576292,710.64451029157,1858.0751986088,612.80666429011,0
5.06e-05,48700694.237611,3.4304924123256e-06,1.5024391306563e-05,3.5144955237891e-06,1.0050842900961,603.5371954643,603.5371954643,602.66473373941,602.66473373941,605.757387319,605.46505381308,604.25268122413,603.18433767131,604.58371335437,605.04052226073,603.45838574163,602.25431018011,604.73531815139,605.14982807441,605.25170366209,604.92435369918,603.5072089062,605.72964965613,605.61951332778,603.63537222368,602.84518504504,605.00459039967,605.21895463912,604.73531815139,603.04894963835,602.19235744878,605.70988123621,605.18324551109,604.81568858171,603.63660585782,604.14605426857,604.88713796526,603.93537819959,602.56240408681,605.46226072822,605.46215196397,605.11114884776,605.10741718918,603.79166343815,604.64996493275,605.21070886452,604.79342037162,603.36812135188,605.46226072822,604.49287204837,604.49287204837,605.52799185606,605.52799185606,-0.35601672205907,-0.056843106017867,-1.0171299755362,0.77922548921752,1.3607265387381,0.89936394004377,-0.98295448588604,0.042859502336628,0.68445312152444,0.020870640249701,0.2095013805452,-8.9918423030419,0.0039601365106782,-0.14437792859664,1.186637630032,-2.9177871930027,-0.3848665521687,2.4764153961307,-0.047603985145221,-1.6219112220341,-0.064434326672042,0.54671502232036,0.089269146767118,-2.6609299896386,0.68064590196045,-6.2309058209702,0.33957045596526,0.50282439936188,-0.30855035587441,-0.17396161291428,0.37463097650287,0.17623490254729,0.032883581652294,-5.7290587961514,-0.21912978357349,-0.35797663318275,2.7098295309512,-0.86893485978711,-0.03129161152062,-0.025212914471405,0.25456783614599,-5.2384323002028,-0.43341498105971,-0.27727099130861,-2.2602804642104,0.18455835323402,1.4205325771422,-1.1395945244157,728.62527051085,728.62527051085,727.75280878596,727.75280878596,730.84546236555,730.55312885963,729.34075627068,728.27241271786,729.67178840092,730.12859730728,728.54646078818,727.34238522666,729.82339319794,730.23790312096,730.33977870864,730.01242874573,728.59528395275,730.81772470268,730.70758837433,728.72344727023,727.93326009159,730.09266544622,730.30702968567,729.82339319794,728.13702468489,727.28043249533,730.79795628276,730.27132055763,729.90376362826,728.72468090437,729.23412931512,729.97521301181,729.02345324614,727.65047913336,730.55033577477,730.55022701051,730.19922389431,730.19549223573,728.8797384847,729.7380399793,730.29878391107,729.88149541817,728.45619639843,730.55033577477,729.58094709492,729.58094709492,730.61606690261,730.61606690261,1315.6631943301,1653.4281065397,712.09774811457,1859.3128962556,614.40734653568,0
5.07e-05,49045826.856961,3.4353578943825e-06,1.5054179747131e-05,3.5251722094296e-06,1.0051341860309,603.46758867154,603.46758867154,602.58168575098,602.58168575098,605.70956651131,605.40800704723,604.1884415698,603.10532191617,604.52429390509,604.98106491173,603.38497841601,602.16721345076,604.67463451022,605.09958057138,605.19496864291,604.86857848657,603.4349351524,605.68019945025,605.56460671046,603.56377008722,602.7629818221,604.94832182522,605.16124861185,604.67463451022,602.9709677245,602.10401797698,605.66274133101,605.12340937351,604.75834490604,603.5621426731,604.08280939199,604.82656533141,603.86694634089,602.47974305007,605.41358396977,605.41493221583,605.05253601072,605.05444144748,603.7211186163,604.59411051007,605.15405155582,604.7352151648,603.29547435604,605.41358396977,604.42738712814,604.42738712814,605.47439612463,605.47439612463,-0.35510173976828,-0.058304261729897,-1.0363490949767,0.8100579323539,1.3892678163984,0.91374743546259,-0.99816274703224,0.043318160118917,0.70284897061925,0.020965245936592,0.21225217307833,-9.0235755647473,0.0042199021866575,-0.14896128364271,1.2145500680993,-2.9558172242566,-0.39504134663397,2.5334485788939,-0.060069519060459,-1.6514020189544,-0.066405244422872,0.56172139702684,0.091579900154631,-2.7028300066844,0.69076617265591,-6.2450748238222,0.34537880478606,0.51255534348034,-0.31331008462161,-0.17820581797848,0.38447861200845,0.17812394597925,0.033345902806629,-5.7435760077124,-0.22445000332963,-0.3695832477879,2.7736971346916,-0.88040026290734,-0.030410553513316,-0.025960789383381,0.26034978183878,-5.3138087116666,-0.4453280788165,-0.2872500331671,-2.312774709065,0.1909260732046,1.4562271340605,-1.1729313027785,728.56707340571,728.56707340571,727.68117048515,727.68117048515,730.80905124548,730.5074917814,729.28792630397,728.20480665034,729.62377863926,730.0805496459,728.48446315018,727.26669818493,729.77411924439,730.19906530555,730.29445337708,729.96806322074,728.53441988657,730.77968418442,730.66409144463,728.66325482139,727.86246655628,730.04780655939,730.26073334602,729.77411924439,728.07045245867,727.20350271115,730.76222606518,730.22289410768,729.85782964021,728.66162740727,729.18229412616,729.92605006558,728.96643107506,727.57922778424,730.51306870394,730.51441695,730.15202074489,730.15392618165,728.82060335047,729.69359524424,730.25353628999,729.83469989897,728.39495909021,730.51306870394,729.52687186231,729.52687186231,730.5738808588,730.5738808588,1323.300178623,1652.5314063512,713.53201172372,1860.5110335064,615.99657106765,0
5.08e-05,49394658.544592,3.440177915517e-06,1.508396970952e-05,3.5358377157716e-06,1.0051844341684,603.39727556174,603.39727556174,602.49783159727,602.49783159727,605.66074511514,605.34972592041,604.12331534089,603.02538796266,604.46402454193,604.92050318901,603.31072976819,602.07937917418,604.61295357012,605.04855610403,605.13712400231,604.81190786369,603.36185199924,605.62969595117,605.50847471217,603.49130741021,602.67991242101,604.89110651902,605.10241693605,604.61295357012,602.89217721273,602.01491857521,605.61465369649,605.06237142481,604.70010098298,603.48670388818,604.01879296748,604.76492223191,603.79762274545,602.39636348689,605.36402489424,605.36689286729,604.99280957853,605.00059043755,603.64967824572,604.53751643213,605.09631064396,604.67608294571,603.22208193105,605.36402489424,604.36083477035,604.36083477035,605.41968188956,605.41968188956,-0.35414551786485,-0.059787383041882,-1.0558434324157,0.84137783033917,1.4180998002384,0.92830228956456,-1.0135237207862,0.043773498713817,0.72154741780445,0.021066273828639,0.21503281974223,-9.0545254394097,0.0044932126448686,-0.15368337104939,1.2428965459652,-2.9940081517498,-0.4053394587431,2.591224499304,-0.072910747083863,-1.6812496893377,-0.068448378010749,0.57697456104781,0.093930750294545,-2.7450598426638,0.70100003898525,-6.2585661376534,0.35119966907915,0.52242156051799,-0.31812671578191,-0.18250624868889,0.39448758077826,0.18003269884294,0.033816364246437,-5.7575369783359,-0.22987031936424,-0.38153175964248,2.838567987736,-0.89191138194537,-0.02939017249371,-0.026733323615927,0.26620950293996,-5.389693711996,-0.45743359848709,-0.29752787550173,-2.3660483266859,0.19747836555219,1.4924768699167,-1.2069701135532,728.50834505795,728.50834505795,727.60890109348,727.60890109348,730.77181461135,730.46079541662,729.23438483709,728.13645745887,729.57509403813,730.03157268522,728.4217992644,727.19044867039,729.72402306633,730.15962560024,730.24819349852,729.9229773599,728.47292149544,730.74076544737,730.61954420838,728.60237690642,727.79098191721,730.00217601523,730.21348643225,729.72402306633,728.00324670894,727.12598807142,730.7257231927,730.17344092101,729.81117047919,728.59777338439,729.12986246369,729.87599172811,728.90869224166,727.5074329831,730.47509439045,730.4779623635,730.10387907473,730.11165993375,728.76074774193,729.64858592834,730.20738014017,729.78715244192,728.33315142726,730.47509439045,729.47190426656,729.47190426656,730.53075138577,730.53075138577,1330.988890573,1651.5421245075,714.94752327471,1861.6701873612,617.57442723492,0
5.09e-05,49747238.436722,3.4449524084614e-06,1.5113761208213e-05,3.5464916604262e-06,1.0052350372918,603.32624998372,603.32624998372,602.41316718904,602.41316718904,605.61090897856,605.29019284023,604.05729474738,602.94452761941,604.40289500739,604.85882340277,603.23563450631,601.99080403476,604.55026502746,604.99674495371,605.07815533609,604.75433294759,603.28795168102,605.57812394683,605.45109966748,603.41797785599,602.59597059817,604.83293203391,605.04244477105,604.55026502746,602.812573888,601.92505612515,605.56560551832,605.00011498622,604.64094772461,603.41027917674,603.95399671711,604.70219628336,603.72740051056,602.31226137662,605.31357300436,605.31802348547,604.93195476445,604.94585506156,603.57733267713,604.48017409751,605.03747280778,604.61601463751,603.14793759814,605.31357300436,604.29320144493,604.29320144493,605.36383326781,605.36383326781,-0.35314946195999,-0.061292129139676,-1.0756115423621,0.87317903433088,1.4472162158511,0.94302575397191,-1.0290357842416,0.044225470725062,0.74054644229006,0.021173685804133,0.21784315450662,-9.0847077635721,0.0047806417598875,-0.15854816914277,1.2716762337909,-3.0323514479597,-0.41575543534409,2.6497346246862,-0.086133610898336,-1.7114508979197,-0.070565378717774,0.59247275982277,0.096321501824296,-2.7876125312341,0.71134654828595,-6.2713927173547,0.35703041998707,0.5324219622825,-0.32300001574549,-0.18686185672409,0.40465699801559,0.1819612749306,0.034295114751503,-5.7709531365537,-0.23539138301694,-0.39383101789139,2.9044426626186,-0.90346515887086,-0.028222071569127,-0.027531299259777,0.27214592814058,-5.466074663819,-0.46972881189672,-0.30811069781829,-2.420101095133,0.20421917842241,1.5292784066986,-1.2417152891501,728.44908133949,728.44908133949,727.53599854481,727.53599854481,730.73374033433,730.413024196,729.18012610315,728.06735897518,729.52572636316,729.98165475855,728.35846586208,727.11363539053,729.67309638323,730.11957630948,730.20098669186,729.87716430337,728.41078303679,730.7009553026,730.57393102325,728.54080921176,727.71880195394,729.95576338968,730.16527612682,729.67309638323,727.93540524377,727.04788748092,730.68843687409,730.12294634199,729.76377908038,728.53311053251,729.07682807288,729.82502763914,728.85023186633,727.43509273239,730.43640436013,730.44085484124,730.05478612022,730.06868641733,728.7001640329,729.60300545328,730.16030416355,729.73884599328,728.27076895391,730.43640436013,729.4160328007,729.4160328007,730.48666462358,730.48666462358,1338.7263161549,1650.4612860925,716.34450714203,1862.7909738737,619.14100672668,0
5.1e-05,50103614.383519,3.4496813237824e-06,1.5143554257549e-05,3.5571336735644e-06,1.0052859979227,603.2545056939,603.2545056939,602.32768844809,602.32768844809,605.56004402033,605.22939031601,603.99037208526,602.8627326776,604.34089503391,604.79601197847,603.15968741286,601.90148464149,604.48655869261,604.94413738478,605.01804832222,604.69584494716,603.21322634984,605.52546830006,605.39246402205,603.34377515366,602.51115009642,604.77378595274,604.98131738366,604.48655869261,602.73215358583,601.83442746012,605.51558405208,604.93662345726,604.58087613706,603.33285819932,603.88841231553,604.63837522126,603.65627282846,602.2274326059,605.2622178777,605.26831365815,604.86995683874,604.89022630637,603.50407220716,604.42207485263,604.97752482811,604.55500126344,603.07303478041,605.2622178777,604.22447363537,604.22447363537,605.30683446582,605.30683446582,-0.35211494986932,-0.062818106088482,-1.095651846203,0.9054549274673,1.4766105012738,0.95791501772106,-1.0446971976445,0.044674028834151,0.7598437966516,0.021287405786036,0.22068301588582,-9.1141383561526,0.0050827810606803,-0.1635596936695,1.3008879244953,-3.0708385478925,-0.42628346929398,2.7089697796878,-0.099743779843573,-1.7420019775184,-0.072757889692828,0.6082140714706,0.098751919401927,-2.8304808504241,0.72180473261006,-6.2835676038823,0.3628683808475,0.54255544897844,-0.32792972169136,-0.19127149905422,0.41498587682746,0.18390970478795,0.034782309695885,-5.7838358328659,-0.24101381417173,-0.40648994756674,2.9713210675007,-0.91505854956352,-0.026897595487267,-0.028355497400943,0.27815786304446,-5.5429386780143,-0.48221069151755,-0.3190046656516,-2.4749323098974,0.211152477315,1.5666278827403,-1.2771706143411,728.38927801265,728.38927801265,727.46246076684,727.46246076684,730.69481633908,730.36416263476,729.12514440401,727.99750499635,729.47566735266,729.93078429722,728.29445973161,727.03625696024,729.62133101136,730.07890970352,730.15282064097,729.83061726591,728.34799866859,730.66024061881,730.5272363408,728.47854747241,727.64592241517,729.90855827149,730.11608970241,729.62133101136,727.86692590458,726.96919977887,730.65035637083,730.07139577601,729.71564845581,728.46763051807,729.02318463428,729.77314754001,728.79104514721,727.36220492465,730.39699019645,730.4030859769,730.00472915749,730.02499862512,728.63884452591,729.55684717138,730.11229714686,729.68977358219,728.20780709916,730.39699019645,729.35924595412,729.35924595412,730.44160678457,730.44160678457,1346.5093125613,1649.289971364,717.72318984571,1863.8740463309,620.69640354228,0
5.11e-05,50463832.890513,3.4543646295381e-06,1.5173348871712e-05,3.5677633975025e-06,1.0053373183177,603.18203636409,603.18203636409,602.24139131522,602.24139131522,605.50813624058,605.16730097293,603.92253974369,602.77999492121,604.27801435417,604.73205546877,603.08288335156,601.81141753615,604.42182449793,604.89072365155,604.95678873092,604.63643516844,603.13766808377,605.47171396062,605.33255034701,603.26869310553,602.42544465448,604.71365589998,604.91902016125,604.42182449793,602.65091219938,601.74302937327,605.4645766323,604.87188032917,604.51987732742,603.25443061425,603.82203139911,604.57344691058,603.58423299339,602.14187297675,605.20994917335,605.21775300047,604.80680113941,604.83369524885,603.42988708753,604.36320999893,604.91645359714,604.49303395273,602.99736681042,605.20994917335,604.15463785003,604.15463785003,605.248669793,605.248669793,-0.35104333061056,-0.064364863754903,-1.1159626356681,0.9381984189386,1.5062758131885,0.972967213541,-1.0605061035636,0.045119124462806,0.77943701050974,0.021407322522367,0.22355224804031,-9.1428329874936,0.0054002397537705,-0.16872199052552,1.3305300200436,-3.1094608538388,-0.43691739822733,2.7689201531297,-0.11374662514337,-1.7728989223978,-0.0750275431311,0.62419641148364,0.10122172784393,-2.8736573249576,0.73237361203633,-6.2951038977528,0.3687108305923,0.55282090996675,-0.33291554215629,-0.19573393728028,0.4254731311692,0.18587794022053,0.035278111271693,-5.7961963232765,-0.24673819865926,-0.41951753618456,3.0392024199218,-0.92668852573234,-0.025407834968478,-0.029206695487038,0.28424398632584,-5.6202726170802,-0.49487590565872,-0.33021592069292,-2.5305407632183,0.21828224182374,1.6045209510045,-1.3133392969936,728.32893076172,728.32893076172,727.38828571285,727.38828571285,730.65503063821,730.31419537056,729.06943414133,727.92688931884,729.4249087518,729.87894986641,728.22977774919,726.95831193378,729.56871889556,730.03761804919,730.10368312855,729.78332956607,728.2845624814,730.61860835825,730.47944474464,728.41558750316,727.57233905211,729.86055029761,730.06591455888,729.56871889556,727.79780659701,726.8899237709,730.61147102993,730.0187747268,729.66677172505,728.40132501189,728.96892579674,729.72034130821,728.73112739102,727.28876737438,730.35684357098,730.3646473981,729.95369553704,729.98058964648,728.57678148516,729.51010439656,730.06334799477,729.63992835036,728.14426120805,730.35684357098,729.30153224766,729.30153224766,730.39556419063,730.39556419063,1354.3346221468,1648.0293132551,719.08379989803,1864.9200932628,622.24071395917,0
5.12e-05,50827939.065612,3.4590023111302e-06,1.5203145064722e-05,3.5783804860687e-06,1.0053890004658,603.10883558937,603.10883558937,602.1542717584,602.1542717584,605.45517173152,605.10390756635,603.8537902123,602.69630613754,604.21424271155,604.66694056588,603.0052172744,601.72059920175,604.3560525058,604.83649400537,604.894362435,604.57609502008,603.06126889531,605.41684597739,605.27134135344,603.19272559482,602.33884801654,604.65252955335,604.85553862496,604.3560525058,602.5688456866,601.650858626,605.41257068159,604.80586919851,604.45794251068,603.17498608885,603.75484557521,604.50739935666,603.51127440878,602.05557821488,605.1567566385,605.16633116174,604.74247308322,604.77625306125,603.35476753445,604.30357080028,604.85424612787,604.43010394659,602.9209269381,605.1567566385,604.08368063379,604.08368063379,605.18932367539,605.18932367539,-0.34993592420801,-0.065931892685355,-1.1365420757563,0.97140193450362,1.5362050318661,0.98817942433208,-1.0764605268447,0.045560706475485,0.79932339468325,0.021533292409608,0.22645070155507,-9.1708073815532,0.0057336447077513,-0.17403912806172,1.3606005193328,-3.1482097389717,-0.44765070473347,2.8295753017928,-0.12814719299559,-1.804137382963,-0.077375957248543,0.64041753796994,0.10373061217475,-2.9171342289792,0.74305219714945,-6.3060147644956,0.37455500701524,0.56321722391643,-0.3379571578477,-0.20024783733795,0.43611757890675,0.18786585917312,0.035782688643552,-5.8080457689632,-0.25256508550221,-0.43292281954412,3.1080852238601,-0.93835207602715,-0.023743632573708,-0.030085664609022,0.29040284622526,-5.698063097824,-0.50772081448107,-0.34175057045357,-2.5869247255004,0.22561246185116,1.6429527757847,-1.3502239383448,728.26803516645,728.26803516645,727.31347133548,727.31347133548,730.6143713086,730.26310714343,729.01298978938,727.85550571462,729.37344228863,729.82614014297,728.16441685148,726.87979877884,729.51525208288,729.99569358245,730.05356201208,729.73529459717,728.22046847239,730.57604555447,730.43054093052,728.3519251719,727.49804759362,729.81172913043,730.01473820204,729.51525208288,727.72804526368,726.81005820308,730.57177025868,729.96506877559,729.61714208776,728.33418566593,728.91404515229,729.66659893374,728.67047398586,727.21477779196,730.31595621558,730.32553073882,729.9016726603,729.93545263833,728.51396711153,729.46277037736,730.01344570495,729.58930352367,728.08012651518,730.31595621558,729.24288021087,729.24288021087,730.34852325247,730.34852325247,1362.198883948,1646.6804949981,720.42656773209,1865.929836321,623.77403652291,0
5.13e-05,51195976.572093,3.4635943716128e-06,1.5232942850419e-05,3.5889846043038e-06,1.0054410460865,603.03489689623,603.03489689623,602.06632578093,602.06632578093,605.4011366883,605.03919299641,603.78411608844,602.61165812781,604.14956987067,604.60065411388,602.92668422872,601.62902607103,604.28923291691,604.78143870177,604.83075542039,604.51481601888,602.98402074008,605.36084951065,605.20881990718,603.11586659322,602.25135394204,604.59039465571,604.79085844317,604.28923291691,602.48595007751,601.55791195642,605.35955371994,604.73857378112,604.39506301676,603.0945143107,603.68684643163,604.44022071618,603.43739059451,601.96854397816,605.10263011522,605.11403783232,604.67695817694,604.71789101672,603.27870373826,604.24314849051,604.79088956385,604.36620260434,602.8437083388,605.10263011522,604.01158857988,604.01158857988,605.12878066945,605.12878066945,-0.34879402141745,-0.067518620951273,-1.1573882087295,1.0050574109432,1.566390764118,1.003548688525,-1.0925583739715,0.045998719852482,0.81950004610689,0.02166514228119,0.22937823407636,-9.1980772006868,0.0060836403951853,-0.179515188936,1.3910970020225,-3.1870765471178,-0.45847651741881,2.8909241520956,-0.14295017840867,-1.8357126603819,-0.079804733543105,0.65687505767058,0.10627821766723,-2.9609035866713,0.7538394913853,-6.316313421022,0.38039810934341,0.5737432579274,-0.34305422211603,-0.20481176934633,0.44691794520592,0.1898732706404,0.036296218060718,-5.8193952292363,-0.25849498403031,-0.44671486668219,3.1779672376463,-0.9500462058139,-0.021895589133703,-0.030993166594268,0.29663285634496,-5.7762964882549,-0.52074146674026,-0.35361467740025,-2.6440819218551,0.2331471340903,1.6819180294402,-1.3878265035203,728.20658676386,728.20658676386,727.23801564855,727.23801564855,730.57282655592,730.21088286403,728.95580595607,727.78334799543,729.3212597383,729.77234398151,728.09837409635,726.80071593865,729.46092278454,729.95312856939,730.00244528802,729.6865058865,728.1557106077,730.53253937827,730.38050977481,728.28755646085,727.42304380966,729.76208452334,729.96254831079,729.46092278454,727.65763994513,726.72960182405,730.53124358757,729.91026364875,729.56675288438,728.26620417833,728.85853629926,729.6119105838,728.60908046214,727.14023384578,730.27431998284,730.28572769995,729.84864804457,729.88958088435,728.45039360588,729.41483835814,729.96257943147,729.53789247196,728.01539820643,730.27431998284,729.18327844751,729.18327844751,730.30047053707,730.30047053707,1370.098644793,1645.244747813,721.75172561142,1866.9040280573,625.29647203141,0
5.14e-05,51567987.587118,3.4681408305217e-06,1.5262742242456e-05,3.5995754277293e-06,1.0054934566291,602.96021375076,602.96021375076,601.97754942966,601.97754942966,605.34601741999,604.9731403228,603.71351008464,602.52604271797,604.0839856281,604.53318312135,602.84727936441,601.53669453501,604.2213560787,604.72554800783,604.76595379707,604.45258979544,602.90591552571,605.30370984458,605.14496904374,603.03811016868,602.16295621551,604.52723902699,604.7249654451,604.2213560787,602.40222148141,601.46418608793,605.30551337404,604.66997792624,604.33123029759,603.01300499929,603.61802554608,604.37189930833,603.36257519429,601.88076586513,605.04755954733,605.06086275078,604.61024202898,604.65860049496,603.20168587333,604.18193428108,604.7263711892,604.30132140971,602.76570412157,605.04755954733,603.93834834202,603.93834834202,605.06702547607,605.06702547607,-0.34761888350109,-0.069124410985471,-1.1784989573257,1.0391562908426,1.5968253496125,1.0190720053086,-1.1087974344304,0.04643310439533,0.83996385231196,0.021802672180554,0.23233471063935,-9.2246580394609,0.0064508887369519,-0.18515426149692,1.4220166229997,-3.2260525962648,-0.46938761359002,2.9529550071127,-0.15815989996626,-1.8676197042228,-0.082315453763804,0.67356643128116,0.10886414994104,-3.0049571761356,0.76473449254654,-6.3260131327112,0.3862373018175,0.58439786621033,-0.34820636203705,-0.20942420822688,0.45787286566677,0.19189991989951,0.036818882896474,-5.830255657511,-0.26452836091768,-0.4609027638872,3.2488454648479,-0.96176793752158,-0.019854072063621,-0.031929950968392,0.30293229364649,-5.8549589120442,-0.53393359747568,-0.36581424730793,-2.7020095217146,0.24089025765911,1.7214108914125,-1.426148294069,728.14458099478,728.14458099478,727.16191667368,727.16191667368,730.53038466401,730.15750756682,728.89787732866,727.71040996199,729.26835287212,729.71755036537,728.03164660843,726.72106177903,729.40572332272,729.90991525185,729.95032104109,729.63695703946,728.09028276973,730.4880770886,730.32933628776,728.22247741271,727.34732345953,729.71160627101,729.90933268912,729.40572332272,727.58658872543,726.64855333195,730.48988061806,729.85434517026,729.51559754161,728.19737224331,728.8023927901,729.55626655235,728.54694243831,727.06513310915,730.23192679135,730.2452299948,729.794609273,729.84296773898,728.38605311735,729.3663015251,729.91073843322,729.48568865373,727.95007136559,730.23192679135,729.12271558604,729.12271558604,730.25139272009,730.25139272009,1378.0303679786,1643.7233486876,723.05950759484,1867.8434495525,626.80812355345,0
5.15e-05,51944012.766503,3.4726417248051e-06,1.5292543254288e-05,3.6101526420971e-06,1.0055462332731,602.88477956699,602.88477956699,601.88793880333,601.88793880333,605.28980036067,604.90573277979,603.64196503596,602.43945176957,604.01747982305,604.4645147741,602.76699794101,601.44360095173,604.15241249389,604.66881220969,604.69994381003,604.38940810004,602.82694512086,605.24541239975,605.07977198344,602.9594504931,602.07364865648,604.46305057623,604.65784563455,604.15241249389,602.31765609422,601.36967773779,605.25043738671,604.6000656308,604.26643593429,602.93044791762,603.54837449582,604.30242362616,603.28682198305,601.79223942363,604.99153498736,605.006795711,604.54231036108,604.59837298793,603.12370410812,604.11991936887,604.66067843873,604.23545197727,602.68690733751,604.99153498736,603.86394664666,603.86394664666,605.00404295465,605.00404295465,-0.34641174239908,-0.070748556339088,-1.1998721283917,1.0736895189538,1.627500866086,1.0347463385586,-1.1251753811809,0.046863793576691,0.86071149694267,0.021945658010576,0.23532000381473,-9.2505654198648,0.0068360690184164,-0.19096043111901,1.4533560924595,-3.2651291763349,-0.48037642210048,3.0156555523062,-0.17378027488472,-1.8998531096929,-0.084909676914608,0.69048898005459,0.1114879750391,-3.0492865302211,0.77573619398527,-6.3351272081425,0.39206971690943,0.59517988777531,-0.35341317907846,-0.21408353382044,0.46898088981184,0.19394549355312,0.037350873645674,-5.8406379001999,-0.27066563709716,-0.47549559838627,3.3207161136318,-0.97351430923078,-0.017609223999089,-0.032896751970494,0.30929929350992,-5.9340362438564,-0.54729262584275,-0.37835521747085,-2.7607041106802,0.24884582955194,1.7614250472495,-1.4651899198337,728.08201324398,728.08201324398,727.08517248031,727.08517248031,730.48703403765,730.10296645677,728.83919871294,727.63668544656,729.21471350004,729.66174845108,727.96423161799,726.64083462871,729.34964617088,729.86604588668,729.89717748702,729.58664177702,728.02417879785,730.44264607674,730.27700566043,728.15668417008,727.27088233346,729.66028425321,729.85507931154,729.34964617088,727.51488977121,726.56691141477,730.44767106369,729.79729930779,729.46366961128,728.1276815946,728.74560817281,729.49965730315,728.48405566004,726.98947310062,730.18876866434,730.20402938798,729.73954403806,729.79560666491,728.3209377851,729.31715304586,729.85791211572,729.43268565425,727.8841410145,730.18876866434,729.06118032365,729.06118032365,730.20127663164,730.20127663164,1385.9904425276,1642.1176182327,724.3501494827,1868.7489080522,628.30909640656,0
5.16e-05,52324091.214402,3.4770971080564e-06,1.5322345899128e-05,3.6207159428159e-06,1.0055993769286,602.80858771534,602.80858771534,601.79749006078,601.79749006078,605.23247208056,604.83695379139,603.56947390748,602.35187719076,603.95004234827,604.39463644804,602.68583533502,601.3497416549,604.08239282924,604.61122162012,604.63271185073,604.32526280849,602.74710136455,605.1859427458,605.01321214671,602.87988185007,601.98342512944,604.39781731369,604.5894852038,604.08239282924,602.23225020578,601.27438362578,605.19431362649,604.52882105409,604.20067164434,602.84683288405,603.47788486732,604.23178234805,603.2101248745,601.70296015954,604.93454660355,604.95182656952,604.47314902045,604.53720010572,603.04474861547,604.05709494416,604.59379890843,604.168586059,602.6073109884,604.93454660355,603.78837030565,603.78837030565,604.93981813731,604.93981813731,-0.34517380070022,-0.072390278502416,-1.2215054164218,1.1086475401417,1.6584091353225,1.0505686208202,-1.141689772035,0.047290713388147,0.88173946556462,0.022093854082613,0.23833399362989,-9.2758147805128,0.0072398776310221,-0.19693777087277,1.4851116743671,-3.3042975495041,-0.49143502816383,3.0790128627472,-0.18981479472079,-1.9324071167214,-0.087588936212292,0.70763989262949,0.11414921949217,-3.0938829401171,0.78684358526133,-6.3436689906971,0.39789245873284,0.60608814376919,-0.35867424985788,-0.21878803237867,0.4802404846346,0.19600962467603,0.037892387852973,-5.8505526913773,-0.2769071846887,-0.49050244082274,3.3935745957126,-0.98528237367785,-0.015150973125031,-0.033894285318012,0.31573184873318,-6.0135141101831,-0.56081365435674,-0.39124344388217,-2.820161686001,0.25701783976173,1.8019536884958,-1.5049512721975,728.01887885714,728.01887885714,727.00778120257,727.00778120257,730.44276322235,730.04724493319,728.77976504928,727.56216833256,729.16033349007,729.60492758984,727.89612647682,726.5600327967,729.29268397104,729.82151276191,729.84300299253,729.53555395029,727.95739250635,730.3962338876,730.2235032885,728.09017299186,727.19371627124,729.60810845549,729.79977634559,729.29268397104,727.44254134758,726.48467476757,730.40460476829,729.73911219589,729.41096278614,728.05712402585,728.68817600911,729.44207348985,728.4204160163,726.91325130134,730.14483774534,730.16211771132,729.68344016224,729.74749124751,728.25503975726,729.26738608596,729.80409005023,729.3788772008,727.8176021302,730.14483774534,728.99866144744,728.99866144744,730.15010927911,730.15010927911,1393.9751890533,1640.4289186075,725.62388876606,1869.6212344811,629.79949819111,0
5.17e-05,52708260.458373,3.4815070504312e-06,1.5352150189999e-05,3.631265034675e-06,1.0056528882384,602.73163153113,602.73163153113,601.70619942928,601.70619942928,605.17401929725,604.76678698669,603.49602980178,602.2633109473,603.88166316085,604.32353572216,602.60378704711,601.25511296271,604.01128792436,604.55276658619,604.56424446853,604.26014592827,602.66637607545,605.1252866141,604.94527316946,602.79939864269,601.89227955386,604.33152736301,604.51987054753,604.01128792436,602.14600020715,601.17830048284,605.13713009719,604.45622853236,604.13392928884,602.76214978426,603.40654826597,604.15996434927,603.13247792866,601.61292354548,604.87658468702,604.89594525295,604.40274399197,604.47507358251,602.96480958303,603.99345219861,604.52572036601,604.10071555098,602.52690803536,604.87658468702,603.71160622879,603.71160622879,604.87433624317,604.87433624317,-0.34390623196871,-0.074048723739615,-1.2433964081752,1.1440202986681,1.6895417297011,1.066535758055,-1.1583380518113,0.047713781279005,0.90304405084121,0.022246995512821,0.24137656743985,-9.3004214749903,0.0076630278234558,-0.20309033214611,1.5172791674361,-3.3435489489539,-0.50255517924637,3.1430134116665,-0.20626650078489,-1.9652756106578,-0.090354736285656,0.72501623102674,0.11684737042785,-3.1387374578532,0.79805565288353,-6.3516518565267,0.40370260657145,0.61712143465165,-0.36398912712721,-0.22353589723556,0.49165003778323,0.19809189771659,0.038443630017163,-5.86001065304,-0.28325332396722,-0.50593232751442,3.467415487358,-0.99706919675605,-0.012469044782214,-0.034923244989364,0.32222780501649,-6.0933778877233,-0.57449146881571,-0.40448468834086,-2.8803776300251,0.26541026580205,1.8429895137586,-1.5454314989867,727.95517314196,727.95517314196,726.92974104011,726.92974104011,730.39756090808,729.99032859752,728.71957141261,727.48685255812,729.10520477168,729.54707733298,727.82732865794,726.47865457353,729.23482953519,729.77630819702,729.78778607936,729.4836875391,727.88991768628,730.34882822493,730.16881478028,728.02294025352,727.11582116468,729.55506897384,729.74341215835,729.23482953519,727.36954181798,726.40184209367,730.36067170801,729.67977014318,729.35747089966,727.98569139509,728.63008987679,729.3835059601,728.35601953949,726.83646515631,730.10012629784,730.11948686377,729.6262856028,729.69861519334,728.18835119386,729.21699380944,729.74926197683,729.32425716181,727.75044964619,730.10012629784,728.93514783962,728.93514783962,730.097877854,730.097877854,1401.9808646451,1638.6586515247,726.88096460315,1870.4612809658,631.27943877594,0
5.18e-05,53096556.430783,3.4858716386156e-06,1.5381956139663e-05,3.6417996313053e-06,1.0057067675804,602.65390432321,602.65390432321,601.61406321279,601.61406321279,605.11442888697,604.69521621533,603.42162596638,602.17374507369,603.81233229315,604.25120039158,602.52084870941,601.15971118651,603.93908880073,604.49343749717,604.49452838251,604.19404960467,602.58476106154,605.06342991053,604.87593891864,602.7179954013,601.8002059142,604.2641689734,604.44898827692,603.93908880073,602.05890259793,601.08142505972,605.07887494752,604.38227259375,604.06620087979,602.67638858328,603.33435632587,604.0869587137,603.05387535947,601.52212502963,604.81763965894,604.83914176546,604.33108141074,604.41198528266,602.88387722392,603.92898233345,604.45643076172,604.03183250021,602.44569140768,604.81763965894,603.63364143688,603.63364143688,604.80758269271,604.80758269271,-0.34261018102992,-0.075722959998546,-1.2655425863254,1.1797972392923,1.7208899789445,1.0826446322303,-1.1751175544227,0.048132905299395,0.92462135896139,0.022404800470046,0.24444761940046,-9.3244007637284,0.0081062493675649,-0.20942213488592,1.5498539000251,-3.3828745772376,-0.51372829209108,3.2076430797259,-0.22313796166252,-1.9984521234724,-0.093208550061416,0.74261493817437,0.1195818756819,-3.1838408997405,0.80937138001218,-6.3590892062215,0.40949721844342,0.62827853636234,-0.36935734058889,-0.22832523040125,0.50320786112249,0.20019185327908,0.039004811401585,-5.8690222924775,-0.28970432023231,-0.52179424178252,3.5422325198461,-1.0088718556714,-0.0095529739596483,-0.035984299930187,0.32878485941138,-6.1736127021711,-0.58832053917654,-0.4180846047511,-2.9413467008554,0.27402706706023,1.8845247305367,-1.5866289798106,727.89089135749,727.89089135749,726.85105024707,726.85105024707,730.35141592125,729.93220324961,728.65861300066,727.41073210797,729.04931932743,729.48818742586,727.75783574369,726.39669822079,729.17607583501,729.73042453145,729.73151541679,729.43103663895,727.82174809582,730.30041694481,730.11292595292,727.95498243558,727.03719294848,729.50115600768,729.6859753112,729.17607583501,727.29588963221,726.318412094,730.3158619818,729.61925962803,729.30318791407,727.91337561756,728.57134336015,729.32394574798,728.29086239375,726.75911206392,730.05462669322,730.07612879974,729.56806844502,729.64897231694,728.1208642582,729.16596936773,729.693417796,729.26881953449,727.68267844196,730.05462669322,728.87062847116,728.87062847116,730.04456972699,730.04456972699,1410.0036712166,1637.9922578628,728.12161778219,1871.2699183173,632.74903029677,0
5.19e-05,53489013.45444,3.4901910040671e-06,1.5411763760632e-05,3.6523194836827e-06,1.0057610150706,602.5753993826,602.5753993826,601.52107780011,601.52107780011,605.05368789583,604.62222556305,603.34625580122,602.08317168433,603.74203986364,604.17761848074,602.43701609269,601.06353263963,603.86578667074,604.43322479238,604.42355049342,604.12696612706,602.50224812974,605.00035872821,604.80519350783,602.63566679115,601.70719826992,604.19573053181,604.37682523374,603.86578667074,601.97095399347,600.98375413556,605.01953648079,604.3069379733,603.99747858737,602.58953933758,603.26130071961,604.01275474559,602.97431154241,601.43056004453,604.7577020778,604.78140619642,604.25814757469,604.34792720682,602.80194178748,603.86367656767,604.38591823937,603.96192911155,602.36365401175,604.7577020778,603.55446307465,603.55446307465,604.73954312211,604.73954312211,-0.34128676439361,-0.077411973874104,-1.2879413339432,1.2159673096149,1.7524449777271,1.0988921029415,-1.1920255059751,0.048547983389265,0.94646731545975,0.022566972273736,0.2475470499788,-9.3477678106326,0.0085702881522641,-0.215937157763,1.5828307198768,-3.4222656056243,-0.52494546073098,3.2728871659609,-0.24043125271117,-2.0319298370387,-0.096151815791483,0.76043284455986,0.12235214394223,-3.2291838508539,0.82078974637162,-6.3659944612497,0.41527333485334,0.6395581960292,-0.37477839788901,-0.23315404405335,0.51491219396031,0.2023089927495,0.039576149828181,-5.8775980017047,-0.29626038079175,-0.53809709496078,3.6180185589148,-1.0206874373238,-0.0063921189987848,-0.037078090769774,0.33540055775346,-6.2542034290385,-0.60229502107701,-0.43204872513139,-3.0030630172483,0.2828721785853,1.9265510581651,-1.6285413035991,727.82602872392,727.82602872392,726.77170714143,726.77170714143,730.30431723715,729.87285490437,728.59688514255,727.33380102565,728.99266920497,729.42824782206,727.68764543402,726.31416198095,729.11641601206,729.68385413371,729.67417983474,729.37759546838,727.75287747106,730.25098806953,730.05582284916,727.88629613247,726.95782761124,729.44635987313,729.62745457507,729.11641601206,727.22158333479,726.23438347688,730.27016582211,729.55756731462,729.2481079287,727.8401686789,728.51193006094,729.26338408692,728.22494088374,726.68118938585,730.00833141913,730.03203553774,729.50877691601,729.59855654814,728.0525711288,729.114305909,729.6365475807,729.21255845287,727.61428335307,730.00833141913,728.80509241597,728.80509241597,729.99017246343,729.99017246343,1418.0397576344,1638.2333078457,729.3460906899,1872.0480335407,634.20838715551,0
5.2e-05,53885664.231772,3.494465236626e-06,1.5441573065156e-05,3.662824292628e-06,1.0058156305675,602.4961099912,602.4961099912,601.42723967307,601.42723967307,604.99178355117,604.54779936738,603.26991286613,601.99158298462,603.67077608786,604.10277825649,602.35228511363,600.96657364602,603.79137294687,604.37211896921,604.35129789577,604.05888793528,602.41882909577,604.9360593603,604.73302131289,602.55240762011,601.61325076547,604.12620057512,604.30336850446,603.79137294687,601.88215113208,600.88528452645,604.95910316461,604.23020962803,603.92775474724,602.50159220728,603.18737316802,603.93734198141,602.89378102214,601.33822401584,604.6967626467,604.72272872804,604.18392895749,604.2828914982,602.71899357019,603.79752614638,604.31417114741,603.89099775474,602.28078874013,604.6967626467,603.474058424,603.474058424,604.67020339767,604.67020339767,-0.33993707091185,-0.07911466768575,-1.3105899392331,1.2525189642117,1.7841975932701,1.1152750163225,-1.2090590279988,0.048958902507289,0.96857767219455,0.022733201278774,0.25067476530931,-9.3705376797525,0.0090559058175611,-0.2226393280986,1.616203985758,-3.4617131734868,-0.5361974656751,3.3387303989843,-0.25814792924309,-2.0657015872646,-0.099185934318689,0.77846667620181,0.12515754489733,-3.2747566702177,0.83230972782026,-6.3723810586371,0.421027982512,0.65095912932167,-0.38025178547963,-0.23802026268113,0.52676120668832,0.20444278256818,0.040157869433729,-5.8857480581869,-0.30292165202474,-0.5548497067024,3.6947655882394,-1.0325130367298,-0.0029756763289906,-0.038205226524549,0.34207229250804,-6.3351346951056,-0.61640875831482,-0.44638244500669,-3.0655200467816,0.29194950446383,1.9690597313441,-1.6711652469702,727.76058041961,727.76058041961,726.69171010148,726.69171010148,730.25625397957,729.81226979579,728.53438329454,727.25605341303,728.93524651627,729.3672486849,727.61675554204,726.23104407443,729.05584337528,729.63658939761,729.61576832418,729.32335836369,727.68329952418,730.20052978871,729.99749174129,727.81687804852,726.87772119387,729.39067100353,729.56783893286,729.05584337528,727.14662156048,726.14975495486,730.22357359301,729.49468005644,729.19222517565,727.76606263568,728.45184359643,729.20181240982,728.15825145055,726.60269444425,729.96123307511,729.98719915645,729.4483993859,729.5473619266,727.98346399859,729.06199657479,729.57864157582,729.15546818315,727.54525916854,729.96123307511,728.73852885241,728.73852885241,729.93467382608,729.93467382608,1426.0852205069,1638.4212964676,730.55462726924,1872.796527344,635.65762599191,0
5.21e-05,54286539.844948,3.4986944712981e-06,1.5471384065203e-05,3.6733137964068e-06,1.0058706136756,602.41602943054,602.41602943054,601.33254541453,601.33254541453,604.92870327278,604.4719222333,603.19259088814,601.89897128208,603.59853128917,604.02666824129,602.26665184189,600.86883054894,603.7158392509,604.31011059115,604.27775789012,603.98980762607,602.33449579402,604.87051831272,604.65940698756,602.46821284623,601.51835764017,604.05556780226,604.22860543431,603.7158392509,601.79249088211,600.78601309388,604.89756364053,604.15207275213,603.85702186777,602.41253746829,603.11256544992,603.86071020161,602.81227852005,601.24511237113,604.63481222069,604.66309964315,604.10841222151,604.21687044882,602.63502292666,603.73052234912,604.24117805016,603.81903097151,602.19708848063,604.63481222069,603.39241491727,603.39241491727,604.59954963012,604.59954963012,-0.33856216211536,-0.080829856775998,-1.3334855995401,1.2894401701201,1.8161384734134,1.1317901980312,-1.2262151413861,0.049365538591693,0.99094801227274,0.02290316668597,0.25383067620999,-9.3927253294585,0.0095638793353523,-0.22953251177382,1.6499675591302,-3.5012083876503,-0.54747478455659,3.4051569495526,-0.27628901581752,-2.0997598696704,-0.10231226572953,0.79671306043423,0.12799740945984,-3.3205494967104,0.8439302951832,-6.3782624452659,0.42675817812224,0.66248001348413,-0.38577696967705,-0.24292172451097,0.53875300317504,0.20659265849261,0.040750200328864,-5.8934826226066,-0.3096882164341,-0.57206078497558,3.772464692169,-1.0443457552665,0.0007073033467151,-0.039366281353689,0.34879730069134,-6.4163908803606,-0.63065528641307,-0.46109100849566,-3.1287105922904,0.30126291072735,2.0120415049756,-1.7144967555803,727.69454160154,727.69454160154,726.61105758553,726.61105758553,730.20721544378,729.7504344043,728.47110305914,727.17748345308,728.87704346017,729.30518041229,727.54516401289,726.14734271994,728.9943514219,729.58862276215,729.55627006112,729.26831979707,727.61300796502,730.14903048372,729.93791915856,727.74672501723,726.79686981117,729.33407997326,729.50711760531,728.9943514219,727.07100305311,726.06452526488,730.17607581153,729.43058492313,729.13553403877,727.69104963929,728.39107762092,729.13922237261,728.09079069105,726.52362454213,729.91332439169,729.94161181415,729.38692439251,729.49538261982,727.91353509766,729.00903452012,729.51969022116,729.09754314251,727.47560065163,729.91332439169,728.67092708827,728.67092708827,729.87806180112,729.87806180112,1434.1361223138,1638.5562345308,731.74747297997,1873.5163116998,637.09686566239,0
5.22e-05,54691669.750838,3.5028788588041e-06,1.5501196772453e-05,3.6837877407753e-06,1.0059259637511,602.3351509905,602.3351509905,601.23699171629,601.23699171629,604.86443468418,604.39457904898,603.11428376881,601.80532899747,603.52529590957,603.94927722637,602.18011250714,600.77029971952,603.6391774231,604.24719029595,604.20291799547,603.91971795953,602.24924008758,604.80372231684,604.58433547923,602.38307758519,601.42251323808,603.98382108626,604.15252364142,603.6391774231,601.70197024893,600.68593675313,604.83490673379,604.07251279217,603.78527263727,602.32236552458,603.03686941188,603.78284944255,602.72979894182,601.15122054862,604.57184181408,604.60250933295,604.03158423094,604.14985650587,602.55002028079,603.66265649831,604.1669277392,603.7460214827,602.11254612551,604.57184181408,603.30952015058,603.30952015058,604.52756818891,604.52756818891,-0.33716307297679,-0.082556266998589,-1.3566254268554,1.3267184139055,1.8482580555558,1.1484344632635,-1.2434907705455,0.049767755964091,1.0135737569861,0.023076538107,0.25701469739784,-9.4143456096343,0.010095000530949,-0.23662050300898,1.684114797279,-3.5407423231716,-0.55876760359845,3.472150444887,-0.29485498045599,-2.1340968459943,-0.10553212679988,0.81516853373535,0.13087103002072,-3.366552256399,0.85565041365034,-6.3836520726191,0.43246093230715,0.67411948475894,-0.39135339753499,-0.24785618408018,0.55088562412263,0.20875802940097,0.041353378279683,-5.9008117399733,-0.31656009000241,-0.58973890552365,3.8511060422694,-1.0561826995653,0.0046678980545162,-0.040561791355762,0.35557266211851,-6.497956122636,-0.64502783697371,-0.47617949285968,-3.1926267829351,0.3108162177685,2.0554866602056,-1.7585309262204,727.62790743192,727.62790743192,726.5297481577,726.5297481577,730.15719112559,729.68733549039,728.40704021023,727.09808543888,728.81805235099,729.24203366779,727.47286894856,726.06305616093,728.93193386452,729.53994673736,729.49567443689,729.21247440094,727.541996529,730.09647875826,729.87709192065,727.67583402661,726.7152696795,729.27657752767,729.44528008284,728.93193386452,726.99472669034,725.97869319455,730.12766317521,729.36526923358,729.07802907869,727.615121966,728.3296258533,729.07560588397,728.02255538324,726.44397699004,729.86459825549,729.89526577437,729.32434067236,729.44261294729,727.84277672221,728.95541293972,729.45968418061,729.03877792411,727.40530256692,729.86459825549,728.60227659199,728.60227659199,729.82032463032,729.82032463032,1442.188472713,1638.6381584632,732.92487472916,1874.2083074347,638.52622719504,0
5.23e-05,55101081.787807,3.5070185655127e-06,1.5531011198283e-05,3.6942458787895e-06,1.0059816799071,602.2534679781,602.2534679781,601.14057538688,601.14057538688,604.79896562378,604.31575500145,603.03498559146,601.71064867579,603.45106052045,603.87059428476,602.09266350605,600.67097756525,603.56137953155,604.18334880376,604.12676596172,603.84861186567,602.16305387832,604.73565834214,604.50779204445,602.29699711771,601.32571201775,603.91094948622,604.07511103076,603.56137953155,601.61058638172,600.5850524815,604.77112146287,603.99151546234,603.71249993114,602.23106692033,602.96027697786,603.70375000822,602.64633738489,601.05654400581,604.50784260782,604.5409483049,603.95343206505,604.08184227806,602.46397613697,603.59391996773,604.09140924477,603.67196219543,602.02715458068,604.50784260782,603.22536189728,603.22536189728,604.45424571646,604.45424571646,-0.33574081260619,-0.084292532571886,-1.3800064512579,1.3643407101499,1.8805465735095,1.1652046149449,-1.2608827482163,0.050165407415762,1.0364501717694,0.023252977023902,0.26022674624524,-9.4354132587811,0.010650075506874,-0.24390701416421,1.7186385463926,-3.5803060247505,-0.57006583076586,3.5396939785537,-0.31384572127144,-2.1687043521724,-0.10884678762506,0.83382954864217,0.13377766063084,-3.4127546707253,0.86746904086252,-6.3885633918525,0.4381332531912,0.68587613246934,-0.3969804978916,-0.25282131422129,0.5631570496097,0.21093828096231,0.041967644287498,-5.9077453401764,-0.32353721937359,-0.60789249095973,3.9306788824451,-1.0680209804097,0.0089172961981155,-0.041792251477236,0.36239529794598,-6.579814323621,-0.65951934348549,-0.49165279272409,-3.257260062966,0.32061319227064,2.0993850083366,-1.8032619917535,727.56067305679,727.56067305679,726.44778046556,726.44778046556,730.10617070247,729.62296008014,728.34219067015,727.01785375448,728.75826559914,729.17779936345,727.39986858474,725.97818264394,728.86858461024,729.49055388245,729.43397104041,729.15581694436,727.47025895701,730.04286342083,729.81499712314,727.6042021964,726.63291709644,729.21815456491,729.38231610945,728.86858461024,726.91779146041,725.89225756019,730.07832654156,729.29872054103,729.01970500983,727.53827199902,728.26748205655,729.01095508691,727.95354246358,726.3637490845,729.81504768651,729.84815338359,729.26063714374,729.38904735675,727.77118121566,728.90112504642,729.39861432346,728.97916727412,727.33435965937,729.81504768651,728.53256697597,728.53256697597,729.76145079515,729.76145079515,1450.2382490016,1638.667129711,734.08708082098,1874.8734418935,639.94583373477,0
5.24e-05,55518154.80038,3.5111137731159e-06,1.5560827353754e-05,3.70468797049e-06,1.0060377610197,602.17097372623,602.17097372623,601.04329335914,601.04329335914,604.73228415604,604.23543559233,602.95469062819,601.61492299726,603.37581583315,603.79060878433,602.00430140898,600.57086053839,603.48243788125,604.11857692533,604.04928978223,603.77648245089,602.07592911703,604.66631360872,604.42976226456,602.20996689669,601.22794856184,603.83694225922,603.99635580805,603.48243788125,601.51833658022,600.48335732641,604.70619704913,603.90906675975,603.63869681893,602.1386323521,602.88278015883,603.62340248198,602.56188914577,600.96107822814,604.44280595681,604.4784071905,603.87394303146,604.01282054194,602.37688109131,603.524304191,604.01461184723,603.5968462103,601.94090677507,604.44280595681,603.13992812146,603.13992812146,604.37956914228,604.37956914228,-0.33429636488974,-0.086037194083405,-1.4036256264906,1.4022936114781,1.9129940709098,1.1820974471783,-1.2783878204861,0.050558334187229,1.0595723721924,0.023432138109787,0.26346674179797,-9.4559428991789,0.011229924107584,-0.25139566580235,1.7535311360006,-3.6198905084256,-0.58135910850082,3.6077701352896,-0.33326054965477,-2.2035739072461,-0.11225746892879,0.85269248059093,0.1367165176113,-3.459146265992,0.87938512595976,-6.3930098472274,0.4437721510521,0.69774849466266,-0.40265768230972,-0.25781470856982,0.57556520161456,0.21313277904534,0.042593244185655,-5.9142932373004,-0.33061947943715,-0.62652979007075,4.0111715175362,-1.0798577119394,0.013466778445664,-0.043058112580341,0.36926196937763,-6.6619491561032,-0.67412244696207,-0.50751560427305,-3.3226011840675,0.33065753922777,2.1437259040481,-1.8486833080691,727.49283363024,727.49283363024,726.36515326315,726.36515326315,730.05414406005,729.55729549634,728.27655053221,726.93678290127,728.69767573716,729.11246868834,727.326161313,725.8927204424,728.80429778526,729.44043682935,729.37114968625,729.0983423549,727.39778902105,729.98817351273,729.75162216857,727.5318268007,726.54980846585,729.15880216323,729.31821571206,728.80429778526,726.84019648423,725.80521723042,730.02805695315,729.23092666377,728.96055672294,727.46049225611,728.20464006285,728.945262386,727.88374904979,726.28293813215,729.76466586082,729.80026709452,729.19580293547,729.33468044596,727.69874099532,728.84616409501,729.33647175124,728.91870611432,727.26276667908,729.76466586082,728.46178802547,728.46178802547,729.70142904629,729.70142904629,1458.2813922492,1638.6432339894,735.23434087139,1875.5126466519,641.35581046796,0
5.25e-05,56009028.57423,3.5151646785571e-06,1.5590645249599e-05,3.7151137827099e-06,1.0060942057346,602.08766160238,602.08766160238,600.94514269768,600.94514269768,604.66437858243,604.1536066534,602.8733933469,601.51814478819,603.29955270951,603.70931040065,601.91502296667,600.46994514419,603.40234502336,604.05286557023,603.97047770644,603.70332300449,601.98785781363,604.59567559975,604.35023206108,602.12198255431,601.1292175866,603.76178887201,603.9162464935,603.40234502336,601.42521830113,600.38084841341,604.6401229263,603.82515297957,603.56385657129,602.04505268101,602.8043710623,603.54179773823,602.4764497273,600.86481873745,604.37672339713,604.41487675323,603.79310467948,603.94278424826,602.28872584303,603.45380067005,603.93652508854,603.52066682851,601.85379566988,604.37672339713,603.05320699139,603.05320699139,604.30352569688,604.30352569688,-0.33283068925077,-0.087788697023444,-1.4274798340853,1.4405632194683,1.9455904067912,1.1991097498527,-1.2960026522974,0.050946366203288,1.082935329579,0.023613670400858,0.2667346034878,-9.4759490349618,0.011835379316813,-0.25908997671547,1.7887843735706,-3.6594867655988,-0.59263682907089,3.6763609978401,-0.35309817356593,-2.2386967233451,-0.11576533898316,0.87175363425824,0.13968677971411,-3.5057163843636,0.89139760766881,-6.3970048717798,0.44937464167077,0.70973505401668,-0.40838434606894,-0.26283388404998,0.58810794612071,0.21534087290805,0.043230428174156,-5.9204651307066,-0.33780667096001,-0.64565885648662,4.092571301608,-1.091690011559,0.0183276972233,-0.044359778663233,0.37616927656174,-6.7443440748118,-0.68882950361701,-0.52377240889469,-3.3886401971529,0.3409528928263,2.1884982481978,-1.8947873432762,727.42438432385,727.42438432385,726.28186541915,726.28186541915,730.0011013039,729.49032937487,728.21011606837,726.85486750965,728.63627543098,729.04603312211,727.25174568814,725.80666786566,728.73906774483,729.3895882917,729.30720042791,729.04004572596,727.3245805351,729.93239832122,729.68695478255,727.45870527577,726.46594030807,729.09851159348,729.25296921497,728.73906774483,726.7619410226,725.71757113488,729.97684564777,729.16187570104,728.90057929276,727.38177540248,728.14109378376,728.8785204597,727.81317244877,726.20154145892,729.7134461186,729.7515994747,729.12982740095,729.27950696973,727.6254485645,728.79052339152,729.27324781001,728.85738954998,727.19051839135,729.7134461186,728.38992971286,728.38992971286,729.64024841835,729.64024841835,1466.3138140974,1638.5665805349,736.36690571048,1876.1268552984,642.75628453401,0
5.26e-05,56504764.338598,3.5191714938486e-06,1.5620464896212e-05,3.7255230889328e-06,1.0061510124734,602.00352501733,602.00352501733,600.84612060608,600.84612060608,604.59523745235,604.07025436211,602.79108841796,601.4203070317,603.22226217225,603.62668912967,601.82482511656,600.36822794908,603.32109376422,603.98620575503,603.89031825244,603.62912700515,601.89883204736,604.52373207373,604.26918771108,602.03303990881,601.02951395125,603.68547901264,603.83477193542,603.32109376422,601.3312291644,600.27752295391,604.57288874987,603.73976073018,603.48797266682,601.95031894472,602.72504190171,603.45892695383,602.39001484565,600.76776110047,604.30958665331,604.3503478963,603.71090481351,603.87172652821,602.19950120575,603.38240098367,603.85713878373,603.44341755895,601.76581426794,604.30958665331,602.96518689306,602.96518689306,604.22610292565,604.22610292565,-0.33134472145294,-0.089545390906758,-1.4515658871871,1.4791351976407,1.9783252674824,1.2162382934352,-1.3137238333717,0.051329322819186,1.1065338769167,0.023797218392775,0.27003024978016,-9.4954460494907,0.012467286607645,-0.26699335428176,1.8243895399902,-3.6990857672641,-0.60388814985773,3.7454481688542,-0.3733566988721,-2.2740637169049,-0.11937151030912,0.89100925043101,0.14268758874848,-3.5524541955432,0.90350541222993,-6.4005618811355,0.45493775064373,0.72183422923828,-0.41415986918997,-0.26787628312239,0.60078309508325,0.21756189819454,0.043879450315765,-5.9262706061252,-0.3450985182369,-0.66528752758476,4.1748646277433,-1.1035149999222,0.023511456585572,-0.045697604308626,0.38311365781444,-6.8269823280903,-0.70363259316697,-0.54042745690837,-3.4553664452401,0.35150280758712,2.2336905002106,-1.9415656699864,727.35532032814,727.35532032814,726.19791591689,726.19791591689,729.94703276316,729.42204967292,728.14288372877,726.77210234251,728.57405748305,728.97848444047,727.17662042737,725.72002325988,728.67288907503,729.33800106583,729.24211356324,728.98092231596,727.25062735817,729.87552738453,729.62098302188,727.38483521962,726.38130926205,729.03727432345,729.18656724622,728.67288907503,726.68302447521,725.62931826471,729.92468406067,729.09155604098,728.83976797763,727.30211425553,728.07683721252,728.81072226463,727.74181015646,726.11955641127,729.66138196411,729.7021432071,729.06270012432,729.22352183902,727.55129651655,728.73419629448,729.20893409454,728.79521286976,727.11760957875,729.66138196411,728.31698220387,728.31698220387,729.57789823646,729.57789823646,1474.3314071549,1638.4373012955,737.48502726508,1876.7170013498,644.1473849284,0
5.27e-05,57005391.311908,3.5231344458293e-06,1.5650286303641e-05,3.7359156688955e-06,1.0062081794395,601.91855743385,601.91855743385,600.74622443389,600.74622443389,604.52484957395,603.98536525699,602.70777072091,601.32140287844,603.1439354152,603.54273530034,601.73370498907,600.26570558858,603.23867717431,603.91858861154,603.80880021956,603.55388812726,601.8088439771,604.45047107666,604.18661586234,601.9431349712,600.92883266714,603.60800260186,603.75192132363,603.23867717431,601.23636695929,600.17337825281,604.50448440639,603.6528769483,603.4110387987,601.8544223695,602.64478500585,603.37478161947,602.3025804372,600.6699009371,604.24138764538,604.28481167053,603.6273315064,603.7996406997,602.10919811892,603.31009679601,603.77644303231,603.36509212522,601.67695562308,604.24138764538,602.87585644367,602.87585644367,604.14728870251,604.14728870251,-0.32983937414477,-0.091305528628073,-1.4758805345975,1.5179947850883,2.0111881766349,1.233479846428,-1.3315478843763,0.051707013427697,1.1303627136648,0.023982423040933,0.27335359668158,-9.514448197642,0.013126503336569,-0.27510908521745,1.8603373850811,-3.7386784695609,-0.61510201028365,3.8150127881016,-0.3940336181167,-2.3096655204857,-0.12307703664609,0.91045551145531,0.14571805012038,-3.5993487107874,0.91570745120203,-6.4036942652748,0.46045851744333,0.73404437427648,-0.41998361746336,-0.27293927596816,0.61358840776764,0.21979517985187,0.044540567975684,-5.9317191327842,-0.35249466696084,-0.68542340359974,4.2580369173566,-1.1153298012566,0.029029490760348,-0.047071892414657,0.39009138881449,-6.9098469726403,-0.7185235282899,-0.55748475124206,-3.5227685553173,0.36231074906356,2.2792906879666,-1.9890089611031,727.28563684008,727.28563684008,726.11330384011,726.11330384011,729.89192898018,729.35244466322,728.07485012714,726.68848228466,728.51101482143,728.90981470657,727.1007843953,725.6327849948,728.60575658054,729.28566801776,729.17587962579,728.92096753349,727.17592338333,729.81755048289,729.55369526857,727.31021437743,726.29591207337,728.97508200808,729.11900072985,728.60575658054,726.60344636552,725.54045765904,729.87156381262,729.01995635453,728.77811820493,727.22150177572,728.01186441207,728.74186102569,727.66965984343,726.03698034332,729.6084670516,729.65189107676,728.99441091263,729.16672010593,727.47627752515,728.67717620224,729.14352243854,728.73217153144,727.04403502931,729.6084670516,728.2429358499,728.2429358499,729.51436810874,729.51436810874,1482.3300309033,1638.255550092,738.58895845925,1877.2840161931,645.52924237067,0
5.28e-05,57510937.37369,3.5270537758172e-06,1.5680109481569e-05,3.7462913086183e-06,1.0062657046285,601.83275237525,601.83275237525,600.6454516834,600.6454516834,604.45320402471,603.89892625296,602.62343535077,601.22142565701,603.06456381345,603.45743958693,601.6416599135,600.1623747752,603.15508859705,603.85000539496,603.72591270103,603.47760024725,601.7178858516,604.37588095405,604.10250354842,601.85226395161,600.82716890679,603.5293498044,603.66768420269,603.15508859705,601.14062965013,600.06841171596,604.43490002271,603.56448891396,603.33304888124,601.75735438207,602.56359282796,603.28935355085,602.2141426652,600.57123392865,604.17211849598,604.21825928214,603.54237311285,603.72652027343,602.01780765924,603.23687986502,603.69442822967,603.28568447254,601.58721284947,604.17211849598,602.78520450508,602.78520450508,604.06707124334,604.06707124334,-0.32831553779606,-0.093067266460399,-1.5004204658962,1.5571268110142,2.0441685042284,1.2508312112748,-1.3494712631146,0.052079237377723,1.1544164115719,0.024168922557035,0.2767045567811,-9.5329696065493,0.013813898080347,-0.28344032658042,1.8966181295102,-3.7782558209049,-0.62626714790807,3.8850355489232,-0.41512574068645,-2.3454924951758,-0.12688291075666,0.93008854767303,0.14877723342893,-3.6463887971206,0.92800262014253,-6.406415384784,0.4659339989016,0.74636377928448,-0.42585494324747,-0.27802016536174,0.62652159249454,0.22204003440555,0.045214041391611,-5.936820066432,-0.35999468257847,-0.70607382662747,4.3420726269024,-1.1271315446807,0.034893242891346,-0.048482892212946,0.39709858299715,-6.9929208902639,-0.73349386388712,-0.57494803091592,-3.5908344479717,0.37338008376739,2.3252864182113,-2.0371069828763,727.21532908934,727.21532908934,726.02802839749,726.02802839749,729.8357807388,729.28150296705,728.00601206486,726.6040023711,728.44714052755,728.84001630102,727.0242366276,725.54495148929,728.53766531115,729.23258210906,729.10848941512,728.86017696134,727.10046256569,729.75845766815,729.48508026251,727.23484066571,726.20974562088,728.91192651849,729.05026091679,728.53766531115,726.52320636422,725.45098843005,729.81747673681,728.94706562805,728.71562559533,727.13993109616,727.94616954206,728.67193026494,727.59671937929,725.95381064274,729.55469521007,729.60083599623,728.92494982694,729.10909698752,727.40038437333,728.61945657912,729.07700494376,728.66826118663,726.96978956356,729.55469521007,728.16778121918,728.16778121918,729.44964795743,729.44964795743,1490.3055076285,1638.0215017029,739.67895303555,1877.828827115,646.90198916434,0
5.29e-05,58021429.043564,3.5309297397229e-06,1.5709934439306e-05,3.7566498000906e-06,1.0063235858284,601.74610343396,601.74610343396,600.54380001614,600.54380001614,604.38029016187,603.81092465609,602.53807762419,601.12036888428,602.9841389332,603.37079302097,601.54868742372,600.05823230605,603.07032165738,603.78044749206,603.64164509616,603.40025744972,601.62595001968,604.29995036257,604.01683820318,601.76042326546,600.72451801261,603.44951103995,603.5820504847,603.07032165738,601.04401538179,599.96262085726,604.36412597489,603.47458426508,603.25399705615,601.65910662128,602.48145795491,603.20263489945,602.12469792612,600.4717558259,604.1017715372,604.15068210039,603.45601828248,603.65235895888,601.92532105185,603.16274205093,603.61108507816,603.20518877448,601.49657913092,604.1017715372,602.69322019704,602.69322019704,603.98543911905,603.98543911905,-0.32677408130696,-0.094828664975966,-1.5251823122131,1.5965157113916,2.0772554803726,1.268289119676,-1.3674903714979,0.05244578654458,1.178689418765,0.024356353345777,0.28008303723106,-9.5510242697748,0.014530350012323,-0.29199009722165,1.9332214520796,-3.8178087693484,-0.63737211706846,3.9554967219856,-0.43662931887582,-2.3815347445844,-0.13079005961802,0.94990444247847,0.15186417330496,-3.6935631927809,0.94038979484405,-6.4087385626739,0.4713612744135,0.75879064888355,-0.43177318664264,-0.28311618560779,0.6395803068066,0.22429577274055,0.04590013298092,-5.9415826478729,-0.36759804801448,-0.72724585997141,4.4269552127911,-1.1389173649478,0.041114142592685,-0.049930797603718,0.40413118964694,-7.0761868056122,-0.74853490890217,-0.59282075486586,-3.6595513052991,0.38471406962752,2.3716648904992,-2.0858486009237,727.14439236411,727.14439236411,725.94208894628,725.94208894628,729.77857909202,729.20921358624,727.93636655434,726.51865781443,728.38242786334,728.76908195111,726.94697635386,725.4565212362,728.46861058752,729.1787364222,729.0399340263,728.79854637986,727.02423894982,729.69823929271,729.41512713332,727.1587121956,726.12280694276,728.84779997009,728.98033941485,728.46861058752,726.44230431194,725.3609097874,729.76241490504,728.87287319522,728.65228598629,727.05739555142,727.87974688505,728.6009238296,727.52298685626,725.87004475605,729.50006046734,729.54897103053,728.85430721262,729.05064788903,727.32360998199,728.56103098107,729.00937400831,728.60347770462,726.89486806106,729.50006046734,728.09150912719,728.09150912719,729.3837280492,729.3837280492,1498.2536945503,1637.7353509723,740.7552654151,1878.3523554808,648.26575904625,0
5.3e-05,58536891.430314,3.5347626075097e-06,1.5739761185781e-05,3.7669909411756e-06,1.0063818206437,601.65860428002,601.65860428002,600.44126725915,600.44126725915,604.30609763277,603.72134817889,602.45169308542,601.0182262757,602.90265254154,603.28278700328,601.45478526355,599.95327507037,602.98437027024,603.70990642918,603.55598712304,603.32185403348,601.53302894057,604.22266828171,603.92960767566,601.66760953934,600.62087550562,603.36847699404,603.49501046214,602.98437027024,600.94652248495,599.85600330575,604.29215289715,603.38315101242,603.17387769866,601.55967094994,602.39837311606,603.11461816336,602.03424285581,600.37146245709,604.03033931738,604.08207166529,603.3682559733,603.57715067027,601.8317296819,603.0876753246,603.52640459839,603.12359943963,601.40504773027,604.03033931738,602.59989291069,602.59989291069,603.90238126875,603.90238126875,-0.32521585272738,-0.096587690449628,-1.5501626513208,1.6361455458121,2.1104382036383,1.2858503625588,-1.3856015622997,0.052806444844965,1.2031760635983,0.024544350671917,0.28348893864179,-9.568626042958,0.015276748235917,-0.30076126990889,1.9701364933458,-3.8573282727736,-0.64840530690761,4.0263761716962,-0.45853990000874,-2.4177821288015,-0.13479934289113,0.96989923632448,0.15497787013994,-3.7408605248098,0.95286782984843,-6.4106770777381,0.47673744893759,0.77132311944773,-0.43773767636419,-0.28822450829911,0.65276215796132,0.22656170211767,0.04659910683607,-5.9460160022018,-0.37530416240118,-0.74894626808744,4.5126671439753,-1.1506844047338,0.047703583813748,-0.051415745939852,0.41118499459734,-7.1596273089276,-0.76363773800367,-0.61110608590218,-3.7289055879084,0.39631584568973,2.4184129089106,-2.1352217790624,727.07282196169,727.07282196169,725.85548494083,725.85548494083,729.72031531444,729.13556586056,727.86591076709,726.43244395738,728.31687022321,728.69700468495,726.86900294522,725.36749275204,728.39858795191,729.12412411086,728.97020480471,728.73607171516,726.94724662225,729.63688596338,729.34382535733,727.08182722101,726.03509318729,728.78269467571,728.90922814382,728.39858795191,726.36074016662,725.27022098743,729.70637057882,728.7973686941,728.58809538033,726.97388863161,727.81259079773,728.52883584503,727.44846053748,725.78568013876,729.44455699905,729.49628934696,728.78247365497,728.99136835194,727.24594736357,728.50189300627,728.94062228006,728.5378171213,726.81926541194,729.44455699905,728.01411059237,728.01411059237,729.31659895042,729.31659895042,1506.1703970906,1637.397311869,741.81815049757,1878.8555149185,649.62068700441,0
5.31e-05,59057348.206928,3.5385526631946e-06,1.576958972953e-05,3.7773145355456e-06,1.006440406487,601.57024866948,601.57024866948,600.33785141096,600.33785141096,604.23061638482,603.6301849546,602.3642775119,600.91499175519,602.82009661602,603.19341331538,601.3599513919,599.8475000568,602.89722864873,603.63837388036,603.4689288306,603.24238451744,601.43911519414,604.14402402509,603.84080024415,601.57381961664,600.51623709375,603.2862386286,603.40655482013,602.89722864873,600.84814948096,599.74855681234,604.21897169048,603.29017755389,603.09268542338,601.45903946616,602.3143311921,603.02529619754,601.94277433537,600.2703497357,603.95781460771,604.01241969511,603.27907546468,603.50088953218,601.73702510577,603.01167177594,603.44037814005,603.04091111797,601.31261199865,603.95781460771,602.50521232163,602.50521232163,603.8178870122,603.8178870122,-0.32364168001081,-0.098342217056862,-1.5753580087845,1.6760000149985,2.1437056532512,1.3035116937076,-1.4038011461083,0.053160990424591,1.2278705602214,0.024732549409321,0.28692215336126,-9.5857886418354,0.016053991174648,-0.30975656371629,2.007351866724,-3.896805307901,-0.65935496049257,4.0976533779357,-0.48085243051668,-2.4542242788506,-0.13891154874771,0.99006893311145,0.15811729099365,-3.7882693263352,0.96543555514171,-6.4122441586466,0.48205965752504,0.78395924162125,-0.44374773067362,-0.29334224453765,0.66606470353588,0.22883712843454,0.047311228089085,-5.9501291398205,-0.38311233928583,-0.77118149653587,4.5991899210472,-1.1624298161318,0.054672901958228,-0.052937817118381,0.41825562302807,-7.2432248769255,-0.77879320447605,-0.62980687480846,-3.7988830420787,0.40818842176902,2.4655168961021,-2.1852135869136,727.00061323482,727.00061323482,725.76821597629,725.76821597629,729.66098095016,729.06054951993,727.79464207724,726.34535632052,728.25046118136,728.62377788072,726.79031595723,725.27786462214,728.32759321406,729.0687384457,728.89929339594,728.67274908278,726.86947975947,729.57438859043,729.27116480949,727.00418418198,725.94660165909,728.71660319394,728.83691938547,728.32759321406,726.2785140463,725.17892137768,729.64933625582,728.72054211923,728.52304998871,726.8894040315,727.74469575744,728.45566076288,727.3731389007,725.70071430104,729.38817917305,729.44278426044,728.70944003001,728.93125409752,727.1673896711,728.44203634128,728.87074270539,728.47127568331,726.74297656399,729.38817917305,727.93557688697,727.93557688697,729.24825157754,729.24825157754,1514.0514470975,1637.0076164948,742.86786348137,1879.3392096923,650.96690909709,0
5.32e-05,59582821.575867,3.5423002044968e-06,1.5799420078689e-05,3.7876228179615e-06,1.0064993405931,601.48103045268,601.48103045268,600.23355064719,600.23355064719,604.15383667542,603.5374235516,602.27582691964,600.8106594649,602.73646335395,603.10266413065,601.26418398746,599.74090436049,602.80889131196,603.56584167517,603.3804606106,603.16184364617,601.34420149089,604.06400725149,603.75040463017,601.47905056285,600.41059868002,603.20278719227,603.31667464845,602.80889131196,600.74889508641,599.64027925629,604.14457353119,603.19565268868,603.01041508991,601.35720451471,602.22932522367,602.9346622239,601.85028949659,600.16841366815,603.88419040865,603.94171809382,603.18846637015,603.42356988515,601.64119906218,602.93472362211,603.35299739261,602.95711870707,601.21926538466,603.88419040865,602.40916840289,602.40916840289,603.7319460623,603.7319460623,-0.32205237149242,-0.10009002983573,-1.600764860354,1.7160624803471,2.1770467004461,1.3212698798378,-1.4220853987903,0.053509196776464,1.2527670108108,0.024920584689419,0.2903825640171,-9.6025256328866,0.01686298594197,-0.31897853740992,2.0448556387482,-3.9362308827352,-0.6702091941172,4.1693074573103,-0.50356120313741,-2.4908506124107,-0.14312739113426,1.010409502525,0.16128137056933,-3.8357780558485,0.97809177353865,-6.4134529732915,0.48732506928743,0.79669698427554,-0.44980265845099,-0.298466446799,0.67948545051946,0.23112135817469,0.048036762320794,-5.95393095227,-0.39102180528378,-0.79395765306669,4.6865040324063,-1.1741507633339,0.062033351173377,-0.054497033244473,0.42533853599956,-7.3269618995681,-0.79399195384217,-0.64892564510695,-3.869468675244,0.420334668006,2.5129629080184,-2.2358102084727,726.92776159423,726.92776159423,725.68028178874,725.68028178874,729.60056781697,728.98415469315,727.72255806119,726.25739060646,728.18319449551,728.5493952722,726.71091512901,725.18763550204,728.25562245352,729.01257281672,728.82719175215,728.60857478773,726.79093263244,729.51073839305,729.19713577172,726.92578170441,725.85732982157,728.64951833383,728.76340579001,728.25562245352,726.19562622797,725.08701039784,729.59130467274,728.64238383024,728.45714623147,726.80393565626,727.67605636522,728.38139336546,727.29702063814,725.6151448097,729.3309215502,729.38844923538,728.63519751171,728.87030102671,727.08793020373,728.38145476366,728.79972853416,728.40384984862,726.66599652621,729.3309215502,727.85589954444,727.85589954444,729.17867720386,729.17867720386,1521.8926753028,1636.5665141224,743.90465963715,1879.8043330938,652.30456224432,0
5.33e-05,60113332.237066,3.5460055427852e-06,1.5829252240983e-05,3.7989852204422e-06,1.0065586200273,601.39094358253,601.39094358253,600.12836332604,600.12836332604,604.07574908148,603.44305298753,602.18633756833,600.70522377494,602.65174518156,603.01053202521,601.16748145319,599.63348519004,602.71935309276,603.49230180661,603.29057320957,603.08022639544,601.24828068225,603.98260797571,603.65841001218,601.38329967056,600.30395637044,603.11811423052,603.22536145329,602.71935309276,600.64875821744,599.53116865156,604.06894987909,603.09956563138,602.92706180825,601.25415869816,602.14334841982,602.84270984105,601.75678572722,600.06565036131,603.80945995619,603.86995895845,603.09641865035,603.34518629097,601.54424348347,602.85682321573,603.26425439585,602.87221735806,601.1250014436,603.80945995619,602.31175143789,602.31175143789,603.64454853708,603.64454853708,-0.32044871673868,-0.10182882869238,-1.6263796332033,1.7563159831163,2.2104501200926,1.3391216904674,-1.4404505685219,0.053850834210643,1.2778594090591,0.025108092562467,0.29387004186711,-9.618850434592,0.017704647590168,-0.32842958303164,2.0826353421644,-3.9755960469154,-0.68095601734869,4.24131718493,-0.52665987282512,-2.5276503491858,-0.1474475065641,1.0309168841117,0.16446901230482,-3.8833751148725,0.99083525751305,-6.414316625381,0.49253089144598,0.80953423183926,-0.45590176006044,-0.30359411239741,0.69302185437455,0.23341370019602,0.048775974901219,-5.9574302149479,-0.39903169879537,-0.8172804887178,4.7745889788143,-1.18584442481,0.069796081323281,-0.056093358608468,0.43242903389746,-7.4108207029605,-0.80922443855398,-0.66846457807593,-3.9406467694122,0.4327573042746,2.5607366493121,-2.286996953902,726.85426250001,726.85426250001,725.59168224352,725.59168224352,729.53906799897,728.90637190501,727.64965648581,726.16854269242,728.11506409904,728.4738509427,726.63080037067,725.09680410753,728.18267201025,728.9556207241,728.75389212705,728.54354531292,726.71159959973,729.44592689319,729.12172892966,726.84661858804,725.76727528792,728.58143314801,728.68868037077,728.18267201025,726.11207713492,724.99448756905,729.53226879657,728.56288454887,728.39038072573,726.71747761564,727.6066673373,728.30602875853,727.22010464471,725.52896927879,729.27277887367,729.33327787594,728.55973756783,728.80850520845,727.00756240096,728.32014213321,728.72757331333,728.33553627554,726.58832036109,729.27277887367,727.77507035537,727.77507035537,729.10786745456,729.10786745456,1529.6899206171,1636.074270196,744.92879407859,1880.251765962,653.63378401366,0
5.34e-05,60648899.359176,3.549669002312e-06,1.585908622372e-05,3.8103371095058e-06,1.0066182416931,601.29998212259,601.29998212259,600.02228799331,600.02228799331,603.99634450885,603.34706274295,602.09580596608,600.59867929261,602.56593476285,602.91700998842,601.06984242037,599.52523987422,602.62860914494,603.41774643885,603.19925774044,602.99752797738,601.15134577049,603.89981657903,603.56480603885,601.28656446414,600.1963064817,603.03221159539,603.13260716848,602.62860914494,600.54773799355,599.42122315285,603.99209248563,603.00190602557,602.84262094382,601.14989488784,602.0563941663,602.74943303363,601.66226067583,599.96205602985,603.73361672789,603.79713458622,603.00292262546,603.26573353784,601.44615050663,602.777963053,603.17414155013,602.78620248139,601.0298138466,603.73361672789,602.21295203313,602.21295203313,603.55568497138,603.55568497138,-0.31883148707322,-0.10355623283833,-1.6521987067664,1.7967432651509,2.2439046019585,1.357063900388,-1.458892883215,0.054185671359379,1.3031416438282,0.025294710609916,0.29738444526762,-9.6347763089976,0.018579898765136,-0.33811192048024,2.1206779776055,-4.014891905803,-0.69158335297293,4.3136610157507,-0.55014146134697,-2.564612527172,-0.15187245101191,1.0515869906703,0.1676790894866,-3.931048870125,1.0036647461364,-6.4148481440054,0.49767437319407,0.82246878368556,-0.46204432822507,-0.30872218699272,0.7066713185927,0.2357134675915,0.049529130405337,-5.9606355836381,-0.40714106874686,-0.84115538003996,4.8634232770692,-1.1975079962053,0.077972115174811,-0.057726700254991,0.43952225701586,-7.4947835801751,-0.82448093301075,-0.68842549832443,-4.0124008878841,0.44545888943363,2.6088234889584,-2.3387582748094,726.78011150157,726.78011150157,725.50241737228,725.50241737228,729.47647388783,728.82719212192,727.57593534505,726.07880867159,728.04606414182,728.39713936739,726.54997179935,725.00536925319,728.10873852392,728.89787581782,728.67938711942,728.47765735635,726.63147514947,729.379945958,729.04493541782,726.76669384311,725.67643586067,728.51234097437,728.61273654746,728.10873852392,726.02786737253,724.90135253183,729.4722218646,728.48203540455,728.3227503228,726.63002426682,727.53652354527,728.2295624126,727.14239005481,725.44218540882,729.21374610687,729.2772639652,728.48305200444,728.74586291681,726.92627988561,728.25809243198,728.65427092911,728.26633186036,726.50994322557,729.21374610687,727.6930814121,727.6930814121,729.03581435035,729.03581435035,1537.439040557,1635.5311653288,745.94052150403,1880.6823752639,654.95471238632,0
5.35e-05,61189540.55254,3.5532909208278e-06,1.5888922033779e-05,3.8216782485549e-06,1.0066782023407,601.2081402551,601.2081402551,599.91532338717,599.91532338717,603.91561420131,603.24944277466,602.00422887391,600.49102087161,602.47902500827,602.82209143279,600.97126575232,599.41616586842,602.53665495027,603.34216791479,603.10650569383,602.91374384547,601.05338991869,603.81562381942,603.46958284192,601.18884270412,600.08764554853,602.94507145499,603.03840416639,602.53665495027,600.44583374126,599.31044106133,603.91399340159,602.90266395719,602.7570881223,601.04440623454,601.96845603364,602.65482618128,601.56671225624,599.85762700344,603.65665444872,603.72323748161,602.90796898752,603.18520664526,601.34691248413,602.69813578168,603.08265162624,602.69906975218,600.93369638955,603.65665444872,602.11276113059,602.11276113059,603.46534632814,603.46534632814,-0.31720143617519,-0.10526978655946,-1.6782184129245,1.8373267901273,2.2773987632299,1.3750932942935,-1.4774085579076,0.054513476914312,1.3286075004289,0.025480078536674,0.30092561805878,-9.650316357371,0.019489669091747,-0.3480275926157,2.1589700122434,-4.054109633262,-0.70207905735571,4.3863171081142,-0.57399836134191,-2.6017260190316,-0.15640269681951,1.072415710099,0.17091044649455,-3.9787876723325,1.016578941723,-6.4150604761638,0.50275280993202,0.83549835511011,-0.46822964909969,-0.31384756640426,0.72043119190648,0.23801997920042,0.050296491975732,-5.9635555933365,-0.41534887353474,-0.86558731200563,4.9529844478473,-1.2091386931962,0.086572325694979,-0.059396908964334,0.44661318667377,-7.578832818212,-0.83975154953964,-0.70880986033655,-4.084713861675,0.45844181068133,2.6572084773813,-2.3910777812172,726.70530423415,726.70530423415,725.41248736621,725.41248736621,729.41277818035,728.7466067537,727.50139285296,725.98818485066,727.97618898731,728.31925541184,726.46842973136,724.91332984746,728.03381892931,728.83933189383,728.60366967287,728.41090782451,726.55055389774,729.31278779847,728.96674682097,726.68600668317,725.58480952758,728.44223543404,728.53556814543,728.03381892931,725.94299772031,724.80760504038,729.41115738063,728.39982793624,728.25425210134,726.54157021358,727.46562001268,728.15199016032,727.06387623529,725.35479098249,729.15381842776,729.22040146065,728.40513296657,728.6823706243,726.84407646318,728.19529976073,728.57981560529,728.19623373123,726.43086036859,729.15381842776,727.60992510964,727.60992510964,728.96251030718,728.96251030718,1545.1359170628,1634.9374942884,746.94009594022,1881.0970127922,656.26748551974,0
5.36e-05,61735271.844879,3.5568716486564e-06,1.591875967761e-05,3.8330084126405e-06,1.0067384985752,601.11541228885,601.11541228885,599.80746844265,599.80746844265,603.83354974936,603.15018352874,601.91160330989,600.38224362089,602.39100908311,602.72577020374,600.87175054775,599.306260761,602.44348632512,603.26555876361,603.01230894915,602.82886969924,600.95440646058,603.73002084144,603.37273104876,601.09013239122,599.97797033088,602.85668630265,602.94274526837,602.44348632512,600.34304499723,599.19882083024,603.8346449847,602.80182996758,602.67045923413,600.93768617897,601.87952778507,602.5588840672,601.4701386517,599.7523597338,603.57856709658,603.64826036321,602.81154881251,603.10360086867,601.24652199479,602.61733420898,602.98977777512,602.61081511545,600.83664300213,603.57856709658,602.01117002006,602.01117002006,603.37352400934,603.37352400934,-0.31555930059412,-0.10696696550599,-1.7044350357217,1.8780487648642,2.3109211600422,1.3932066711632,-1.495993802196,0.05483402121994,1.3542506624845,0.025663838757229,0.30449338802341,-9.6654835145954,0.020434894652272,-0.3581784609788,2.1974973855968,-4.0932404850192,-0.71243094076173,4.4592633460548,-0.59822234391044,-2.6389795486993,-0.161038629726,1.0933989068141,0.17416190009858,-4.0265798760658,1.0295765065184,-6.414966478854,0.50776354707023,0.84862057929284,-0.47445700318384,-0.31896710075445,0.73429876638773,0.24033256104829,0.051078320698809,-5.9661986559278,-0.42365397990542,-0.8905808616051,5.0432490308367,-1.2207337541812,0.095607413539106,-0.061103780693139,0.45369664646197,-7.6629507267171,-0.85502625478698,-0.72961873545557,-4.1575678056772,0.47170827272402,2.7058763635555,-2.4439382623864,726.62983639555,726.62983639555,725.32189254936,725.32189254936,729.34797385606,728.66460763544,727.42602741659,725.89666772759,727.90543318981,728.24019431045,726.38617465445,724.8206848677,727.95791043182,728.77998287031,728.52673305585,728.34329380594,726.46883056728,729.24444494814,728.88715515547,726.60455649792,725.49239443758,728.37111040935,728.45716937507,727.95791043182,725.85746910393,724.71324493694,729.3490690914,728.31625407428,728.18488334083,726.45211028567,727.39395189177,728.0733081739,726.98456275841,725.2667838405,729.09299120328,729.16268446991,728.32597291922,728.61802497537,726.76094610149,728.13175831569,728.50420188182,728.12523922216,726.35106710883,729.09299120328,727.52559412677,727.52559412677,728.88794811604,728.88794811604,1552.7764648473,1634.2935650205,747.92777046624,1881.496513946,658.60679508573,0
5.37e-05,62286107.659657,3.5604115486908e-06,1.594859916122e-05,3.8443273881849e-06,1.0067991268647,601.02179266696,601.02179266696,599.69872229577,599.69872229577,603.75014309872,603.04927595304,601.81792655291,600.27234291327,602.30188041562,602.62804058868,600.77129614374,599.19552227937,602.3490994267,603.18791170807,602.91665978535,602.74290148871,600.8543889102,603.64299918569,603.27424179436,600.99043177001,599.86727782073,602.76704896579,602.84562375479,602.3490994267,600.23937151114,599.08636107014,603.75403990682,602.69939506611,602.5827304387,600.82972846202,601.7896033842,602.46160188627,601.37253831862,599.6462508015,603.49934890773,603.57219617045,602.71365357207,603.02091170388,601.14497185437,602.53555130932,602.89551353706,602.52143479091,600.7386477566,603.49934890773,601.90817035105,601.90817035105,603.28020986648,603.28020986648,-0.31390580042833,-0.10864518378174,-1.7308448104754,1.9188911627657,2.3444602990714,1.4114008497076,-1.5146448275083,0.055147077957448,1.3800647145726,0.025845636978704,0.30808756526798,-9.6802905433493,0.021416517541216,-0.36856620214174,2.2362455234201,-4.132275812332,-0.72262678875448,4.532477361324,-0.6228045681448,-2.6763617084985,-0.16578054601473,1.1145324239593,0.17743224077907,-4.0744138601509,1.0426560590962,-6.4145789089231,0.5127039838766,0.86183301086795,-0.480725666122,-0.32407759825364,0.74827127550502,0.24265054773836,0.051874874988834,-5.9685730589129,-0.43205516211223,-0.91614018230879,5.1341926065878,-1.2322904431059,0.10508788410353,-0.062847058464417,0.46076730675143,-7.7471196675755,-0.87029488722143,-0.75085279963179,-4.230944132028,0.4852602869173,2.754811612038,-2.4973217107726,726.55370376999,726.55370376999,725.2306333988,725.2306333988,729.28205420175,728.58118705607,727.34983765594,725.8042540163,727.83379151865,728.15995169171,726.30320724677,724.7274333824,727.88101052973,728.7198228111,728.44857088838,728.27481259174,726.38630001323,729.17491028872,728.80615289738,726.52234287303,725.39918892376,728.29896006881,728.37753485782,727.88101052973,725.77128261417,724.61827217317,729.28595100985,728.23130616914,728.11464154173,726.36163956505,727.32151448723,727.9935129893,726.90444942164,725.17816190453,729.03126001075,729.10410727348,728.2455646751,728.55282280691,726.6768829574,728.06746241234,728.42742464009,728.05334589394,726.27055885963,729.03126001075,727.44008145408,727.44008145408,728.8121209695,728.8121209695,1560.356639366,1633.599697625,748.90379691207,1881.8816965626,661.4626538092,0
5.38e-05,62842060.796672,3.5645882756495e-06,1.5978440490175e-05,3.8556349727402e-06,1.0068621844779,600.9272759745,600.9272759745,599.58908428733,599.58908428733,603.66538655844,602.94671150916,601.72319614624,600.16131439373,602.21163270486,602.52889732564,600.66990211837,599.08394829583,602.25349075886,603.10921967171,602.81955089121,602.65583541848,600.75333097146,603.55455079802,603.17410673281,600.88973933228,599.75556524864,602.67615261437,602.74703337442,602.25349075886,600.13481324821,598.97306055395,603.672171161,602.59535074229,602.49389816823,600.72052713464,601.69867700253,602.36297525265,601.27390998987,599.53929692269,603.41899438183,603.49503807007,602.6142751448,602.93713489118,601.04225512591,602.45278023191,602.79985285058,602.43092527743,600.63970487644,603.41899438183,601.80375414436,601.80375414436,603.18539621055,603.18539621055,-0.31224163973429,-0.11030180192867,-1.7574439223738,1.9598357458512,2.3780046500772,1.4296726756983,-1.5333578544057,0.055452425956538,1.4060431427745,0.026025122778471,0.31170794071637,-9.6947500281595,0.022435485493383,-0.37919230455973,2.2751993329759,-4.1712070763853,-0.73265438199266,4.6059365577945,-0.64773559014533,-2.7138609759086,-0.17062864971196,1.1358120836171,0.1807202342092,-4.1222780475712,1.0558161708214,-6.4139104157625,0.5175715774742,0.87513313087763,-0.48703490975702,-0.32917582761366,0.76234589068638,0.24497328367709,0.052686410010096,-5.9706869621963,-0.44055110098862,-0.94226898947713,5.2257897821136,-1.2438060523254,0.11502402609375,-0.064626434607879,0.46781968435949,-7.8313220853972,-0.88554717416362,-0.77251232250999,-4.3048235407432,0.499099660598,2.8039984220209,-2.5512093474202,726.47690223864,726.47690223864,725.13871055147,725.13871055147,729.21501282258,728.4963377733,727.27282241037,725.71094065787,727.761258969,728.07852358977,726.21952838251,724.63357455997,727.803117023,728.65884593585,728.36917715534,728.20546168262,726.3029572356,729.10417706216,728.72373299694,726.43936559642,725.30519151278,728.22577887851,728.29665963856,727.803117023,725.68443951234,724.52268681808,729.22179742514,728.14497700643,728.04352443237,726.27015339877,727.24830326667,727.91260151679,726.82353625401,725.08892318683,728.96862064597,729.04466433421,728.16390140894,728.48676115531,726.59188139004,728.00240649605,728.34947911472,727.98055154157,726.18933114058,728.96862064597,727.3533804085,727.3533804085,728.73502247468,728.73502247468,1567.8724432753,1632.8562233939,749.86842556445,1882.2533598793,664.32390668117,0
5.39e-05,63403142.415599,3.5687357063703e-06,1.6008283669589e-05,3.8669309749908e-06,1.0069299030836,600.83185694595,600.83185694595,599.47855396647,599.47855396647,603.57927280868,602.8424821841,601.62740990057,600.04915398745,602.12025992828,602.42833561145,600.5675682929,598.97153683322,602.15665717755,603.02947578583,602.72097537532,602.5676679516,600.65122654749,603.4646680382,603.0723180484,600.78805382007,599.64283009005,602.58399076907,602.6469683535,602.15665717755,600.02937039129,598.85891822169,603.58903206806,602.48968897761,602.40395913135,600.61007656743,601.60674302669,602.26300020696,601.17425267784,599.43149495555,603.3374982868,603.41677946248,602.51340582734,602.85226641916,600.93836512997,602.36901430829,602.70279006091,602.33928335728,600.53980874498,603.3374982868,601.69791380349,601.69791380349,603.08907582163,603.08907582163,-0.31056750693178,-0.1119341355493,-1.7842285047075,2.0008640882979,2.4115426574491,1.4480190305401,-1.5521291197176,0.055749850876378,1.4321793353913,0.026201950177302,0.31535428479736,-9.7088743736642,0.023492751510893,-0.39005806600233,2.3143432172622,-4.2100258618763,-0.74250151754382,4.6796181335299,-0.67300537417689,-2.7514657308228,-0.17558304996015,1.1572336868465,0.18402462267146,-4.1701609245681,1.0690553626148,-6.4129735356432,0.52236384659722,0.88851835339212,-0.49338400296467,-0.33425852249986,0.77651971794719,0.24730012415937,0.053513177112794,-5.9725483979474,-0.44914038314081,-0.96897054668763,5.3180142182637,-1.255277905135,0.12542588911196,-0.066441553358986,0.47484814642225,-7.9155405368114,-0.90077275005236,-0.79459715712234,-4.3791860405482,0.51322798618789,2.8534207449249,-2.6055816508982,726.39942778239,726.39942778239,725.04612480291,725.04612480291,729.14684364513,728.41005302054,727.19498073702,725.61672482389,727.68783076472,727.9959064479,726.13513912935,724.53910766966,727.72422801399,728.59704662228,728.28854621177,728.13523878804,726.21879738393,729.03223887465,728.63988888484,726.35562465651,725.21040092649,728.15156160551,728.21453918994,727.72422801399,725.59694122773,724.42648905814,729.1566029045,728.05725981405,727.97152996779,726.17764740387,727.17431386313,727.8305710434,726.74182351428,724.99906579199,728.90506912324,728.98435029892,728.08097666378,728.4198372556,726.50593596641,727.93658514473,728.27036089736,727.90685419372,726.10737958142,728.90506912324,727.26548463994,727.26548463994,728.65664665807,728.65664665807,1575.3199346078,1632.0634838458,750.82190480422,1882.6122834906,667.1905800461,0
5.4e-05,63969362.022499,3.5728533452024e-06,1.603812870412e-05,3.878215214429e-06,1.0069978884926,600.73553047254,600.73553047254,599.36713109381,599.36713109381,603.49179490818,602.73658050117,601.53056589691,599.93585790748,602.02775634895,602.32635110939,600.46429473368,598.8582860703,602.05859589577,602.94867339636,602.62092677566,602.47839581309,600.54806974984,603.3733436883,602.96886846603,600.68537422828,599.52907007114,602.49055730899,602.54542340408,602.05859589577,599.9230433427,598.74393318501,603.50461628299,602.38240225667,602.31291031631,600.49837145997,601.51379606544,602.16167322288,601.07356567688,599.32284190655,603.25485566334,603.33741398779,602.41103834489,602.76630252838,600.83329545457,602.28424705957,602.60431992803,602.2465060999,600.4389539137,603.25485566334,601.5906421255,601.5906421255,602.99124195791,602.99124195791,-0.30888407627326,-0.11353946454055,-1.8111946356735,2.0419576005692,2.445062752563,1.4664368410785,-1.5709548835351,0.056039146974806,1.4584665840913,0.026375778221732,0.3190263445638,-9.7226757956136,0.024589273567676,-0.40116459108546,2.3536610839528,-4.2487238894521,-0.75215602958254,4.7534991050367,-0.69860330460904,-2.7891642724403,-0.18064375857182,1.1787930138866,0.18734412667844,-4.218051058466,1.0823720988062,-6.4117806792285,0.52707837544419,0.90198603367684,-0.49977221258649,-0.33932238511966,0.79078979449587,0.24963043633183,0.054355422916057,-5.9741652676948,-0.45782150019532,-0.99624765256657,5.4108386398728,-1.2667033579085,0.13630326209313,-0.068292013749507,0.48184691395662,-7.9997577176515,-0.91596117470258,-0.81710673072376,-4.4540109552497,0.52764663049276,2.9030623042011,-2.6604183881684,726.32127649133,726.32127649133,724.95287711261,724.95287711261,729.07754092697,728.32232651997,727.1163119157,725.52160392628,727.61350236775,727.91209712818,726.05004075247,724.44403208909,727.64434191456,728.53441941515,728.20667279445,728.06414183188,726.13381576863,728.95908970709,728.55461448482,726.27112024707,725.11481608994,728.07630332778,728.13116942287,727.64434191456,725.50878936149,724.3296792038,729.09036230178,727.96814827546,727.8986563351,726.08411747876,727.09954208423,727.74741924168,726.65931169567,724.90858792534,728.84060168213,728.92316000658,727.99678436368,728.35204854717,726.41904147336,727.86999307836,728.19006594682,727.83225211869,726.02469993249,728.84060168213,727.17638814429,727.17638814429,728.5769879767,728.5769879767,1582.6952347583,1631.2218297567,751.7644809514,1882.9592266582,670.06270430711,0
5.41e-05,64540727.459098,3.576941565863e-06,1.606797559797e-05,3.8894875210974e-06,1.0070661365996,600.63829160937,600.63829160937,599.25481564436,599.25481564436,603.40294630126,602.62899953051,601.43266248898,599.82142266214,601.93411652256,602.22293995616,600.36008175359,598.74419434699,601.95930448821,602.86680607046,602.51939906861,602.38801599314,600.44385490743,603.28057096053,602.8637512611,600.58169980704,599.41428317454,602.39584647901,602.44239373199,601.95930448821,599.81583272562,598.62810473135,603.41891780098,602.27348357798,602.22074899396,600.38540684968,601.41983095652,602.05899121336,600.97184856554,599.21333493659,603.17106182925,603.25693553178,602.30716586144,602.67923971459,600.72703996483,602.1984722036,602.5044376342,602.15259086541,600.33713511053,603.17106182925,601.48193231153,601.48193231153,602.89188836422,602.89188836422,-0.30719200663843,-0.11511504283668,-1.8383383369943,2.0830975543017,2.4785533656947,1.484923091406,-1.5898314363746,0.056320118726338,1.4848980834469,0.026546271550603,0.3227238447361,-9.7361663135667,0.025726014364763,-0.41251278943358,2.3931363578001,-4.2872930301767,-0.76160581022474,4.8275563302477,-0.72451819906207,-2.8269448371904,-0.18581068776414,1.200485822449,0.19067744650431,-4.2659371160237,1.0957647877524,-6.410344122877,0.53171281743813,0.91553347817965,-0.50619880436775,-0.34436409076692,0.8051530844396,0.2519636000299,0.055213389366332,-5.975545337315,-0.46659284811109,-1.0241026290384,5.5042348602786,-1.2780798025931,0.14766565175408,-0.070177372515302,0.48881006502068,-8.0839564936869,-0.93110195181137,-0.84004003673664,-4.5292769434055,0.54235672392869,2.9529066141258,-2.7156986489637,726.24244458641,726.24244458641,724.8589686214,724.8589686214,729.0070992783,728.23315250755,727.03681546602,725.42557563918,727.53826949959,727.8270929332,725.96423473063,724.34834732403,727.56345746524,728.4709590475,728.12355204564,727.99216897018,726.04800788447,728.88472393757,728.46790423814,726.18585278408,725.01843615158,727.99999945605,728.04654670902,727.56345746524,725.41998570266,724.23225770839,729.02307077802,727.87763655502,727.824901971,725.98955982672,727.02398393356,727.6631441904,726.57600154258,724.81748791363,728.77521480629,728.86108850882,727.91131883848,728.28339269163,726.33119294187,727.80262518064,728.10859061123,727.75674384245,725.94128808757,728.77521480629,727.08608528857,727.08608528857,728.49604134126,728.49604134126,1589.994535563,1630.3316202751,752.69639768874,1883.2949271368,672.94031378483,0
5.42e-05,65117244.895416,3.581000750359e-06,1.6097824354878e-05,3.9007477354429e-06,1.0071346431631,600.5401355824,600.5401355824,599.14160781002,599.14160781002,603.31272082448,602.51973289875,601.33369830535,599.70584506193,601.83933530395,602.11809876842,600.2549299132,598.62926016927,601.85878089521,602.78386760298,602.41638667749,602.29652575003,600.33857657526,603.18634350469,602.75696026868,600.47703006365,599.29846764452,602.29985289676,602.33787504397,601.85878089521,599.70773938528,598.511432328,603.33193096304,602.16292646397,602.12747272024,600.27117812032,601.32484277312,601.95495153607,600.86910120832,599.10297136684,603.08611238341,603.17533823145,602.20178198928,602.59107473176,600.61959281234,602.11168366191,602.40313879104,602.05753530769,600.23434724781,603.08611238341,601.37177797688,601.37177797688,602.79100927993,602.79100927993,-0.30549194366866,-0.116658108657,-1.865655569303,2.1242651063111,2.5120029378516,1.503474837327,-1.6087551057541,0.056592582546641,1.5114669309271,0.026713100952806,0.32644648410675,-9.7493577478448,0.026903941038615,-0.42410337365532,2.4327519920705,-4.3257253177666,-0.77083883016015,4.9017665316041,-0.75073832035137,-2.8647956153225,-0.19108364810598,1.2223078462006,0.1940232638135,-4.3138078798932,1.1092317741843,-6.4086760012351,0.53626489888871,0.92915795639569,-0.51266304385227,-0.34938029199612,0.81960647453841,0.25429900839667,0.056087312669051,-5.9766962375164,-0.47545272655134,-1.0525373099697,5.5981737970783,-1.2894046684466,0.15952226147669,-0.072097147280826,0.49573153899501,-8.1681199275861,-0.94618454759161,-0.86339562788417,-4.6049620103339,0.55735914990508,3.0029369991746,-2.7714008810187,726.16292841697,726.16292841697,724.76440064459,724.76440064459,728.93551365905,728.14252573332,726.95649113992,725.3286378965,727.46212813852,727.74089160299,725.87772274777,724.25205300384,727.48157372978,728.40666043756,728.03917951206,727.9193185846,725.96136940983,728.80913633927,728.37975310325,726.09982289822,724.92126047909,727.92264573133,727.96066787854,727.48157372978,725.33053221985,724.13422516257,728.95472379762,727.78571929854,727.75026555481,725.89397095489,726.94763560769,727.57774437064,726.49189404289,724.72576420141,728.70890521798,728.79813106602,727.82457482385,728.21386756633,726.24238564691,727.73447649648,728.02593162561,727.68032814226,725.85714008238,728.70890521798,726.99457081145,726.99457081145,728.4138021145,728.4138021145,1597.2141077835,1629.3932220003,753.61789597756,1883.6201007492,675.82344658804,0
5.43e-05,65698918.827675,3.5850312888248e-06,1.6127674978119e-05,3.9119957082534e-06,1.0072034038053,600.44105779524,600.44105779524,599.02750800187,599.02750800187,603.22111271288,602.40877479824,601.23367225122,599.5891222262,601.74340785352,602.01182464855,600.14884002151,598.51348221392,601.75702342647,602.69985202267,602.31188448066,602.20392261266,600.23222954292,603.09065541508,602.64848989211,600.37136476422,599.18162199198,602.20257155907,602.23186355437,601.75702342647,599.59876438964,598.39391562574,603.24365046139,602.0507249705,602.03307933851,600.15568101011,601.2288268302,601.84955199843,600.765323757,598.99174868447,603.00000320945,603.09261648052,602.09488079818,602.50180459477,600.51094844417,602.02387556646,602.30041944608,601.9613373771,600.13058543016,603.00000320945,601.26017316052,601.26017316052,602.68859944635,602.68859944635,-0.30378451863947,-0.11816589486977,-1.893142229087,2.1654413236918,2.545399932575,1.5220892132582,-1.6277222624467,0.056856368461194,1.5381661277548,0.026875944008611,0.33019393442576,-9.7622617156447,0.028124025108747,-0.43593685737656,2.4724904828151,-4.3640129566542,-0.77984315907859,4.9761063190882,-0.77725139474003,-2.902704767877,-0.19646234680978,1.2442547941859,0.19738024330037,-4.3616522617546,1.1227713360329,-6.4067882998621,0.54073242261672,0.94285670950507,-0.51916419715174,-0.35436762321936,0.83414677023381,0.25663606877433,0.056977422811039,-5.9776254614337,-0.48439933830387,-1.0815530306166,5.6926254963401,-1.3006754226151,0.17188197053089,-0.074050819385442,0.50260514076196,-8.2522312984006,-0.9611984092839,-0.88717161032535,-4.681043526752,0.57265453430135,3.0531366135556,-2.8275029274932,726.08272442659,726.08272442659,724.66917463321,724.66917463321,728.86277934423,728.05044142958,726.87533888256,725.23078885755,727.38507448486,727.6534912799,725.79050665285,724.15514884527,727.39869005782,728.34151865402,727.953551112,727.845589244,725.87389617426,728.73232204642,728.29015652345,726.01303139556,724.82328862333,727.84423819041,727.87353018572,727.39869005782,725.24043102099,724.03558225709,728.88531709274,727.69239160184,727.67474596986,725.79734764146,726.87049346154,727.49121862977,726.40699038834,724.63341531581,728.64166984079,728.73428311186,727.73654742952,728.14347122612,726.15261507551,727.6655421978,727.94208607742,727.60300400845,725.7722520615,728.64166984079,726.90183979187,726.90183979187,728.33026607769,728.33026607769,1604.3503144955,1628.4070081546,754.52921337036,1883.935440399,678.71214444977,0
5.44e-05,66285752.02986,3.589033579021e-06,1.6157527470501e-05,3.923231300132e-06,1.0072724140336,600.34105383573,600.34105383573,598.91251685209,598.91251685209,603.12811660575,602.29611999543,601.13258350987,599.47125158937,601.64632964304,601.90411519,600.0418131364,598.39685933298,601.65403076419,602.61475359816,602.20588781892,602.11020438288,600.12480884271,602.99350123692,602.53833511084,600.26470393503,599.06374499904,602.10399784809,602.12435599117,601.65403076419,599.48890902998,598.27555446232,603.15407134435,601.93687369573,601.93756698148,600.03891161939,601.13177869046,601.74279086204,600.66051665166,598.87966454802,602.91273047921,603.0087649345,601.98645682395,602.41142658188,600.40110161157,601.93504226617,602.19627608872,601.86399532295,600.02584496199,602.91273047921,601.14711233425,601.14711233425,602.58465411346,602.58465411346,-0.30207035046137,-0.11963563965867,-1.9207941448461,2.2066072100517,2.5787328481452,1.5407634678343,-1.6467293276424,0.057111320825872,1.5649885770957,0.027034485552309,0.33396584036106,-9.7748896196485,0.029387242484896,-0.4480135535392,2.5123338876489,-4.4021483388107,-0.78860698606991,5.050552213935,-0.80404461991089,-2.9406604446883,-0.20194638624468,1.2663223466691,0.20074703439868,-4.4094593198461,1.1363816825799,-6.4046928422006,0.54511327167034,0.95662697896058,-0.52570153213243,-0.35932270672752,0.84877069032187,0.25897420266168,0.0578839434372,-5.9783403597947,-0.49343078877446,-1.1111506186036,5.7875591664534,-1.3118895726585,0.18475331350574,-0.076037837002731,0.50942454584572,-8.3362741365319,-0.97613298361039,-0.91136563935262,-4.7574982542953,0.58824323500861,3.10348846139,-2.8839820683419,726.00182918243,726.00182918243,724.57329219879,724.57329219879,728.78889195245,727.95689534213,726.79335885657,725.13202693607,727.30710498973,727.5648905367,725.7025884831,724.05763467968,727.31480611089,728.27552894486,727.86666316561,727.77097972958,725.78558418941,728.65427658361,728.19911045754,725.92547928173,724.72452034574,727.76477319479,727.78513133787,727.31480611089,725.14968437668,723.93632980902,728.81484669105,727.59764904243,727.59834232818,725.69968696609,726.79255403715,727.40356620873,726.32129199835,724.54043989472,728.57350582591,728.6695402812,727.64723217065,728.07220192858,726.06187695827,727.59581761287,727.85705143542,727.52477066964,725.68662030869,728.57350582591,726.80788768094,726.80788768094,728.24542946016,728.24542946016,1611.3994825379,1628.0554075911,755.43058408826,1884.2416158029,681.60645255074,0
5.45e-05,66877745.691945,3.5930080261658e-06,1.6187381834366e-05,3.9344543817414e-06,1.0073416692295,600.2401194823,600.2401194823,598.79663521561,598.79663521561,603.03372755197,602.18176383852,601.03043154378,599.35223090666,601.5480964613,601.79496848172,599.93385056468,598.279390558,601.54980196564,602.52856684371,602.09839250237,602.01536913734,600.01630975757,602.89487597223,602.4264914875,600.15704786345,598.94483572321,602.00412753685,602.01534960116,601.54980196564,599.37817482096,598.15634886561,603.06318902092,601.82136778814,601.84093407276,599.92086641772,601.03369417009,601.63466684641,600.55468062123,598.76671679272,602.82429065582,602.92377851566,601.87650507632,602.3199382368,600.2900473782,601.84517833326,602.09070565566,601.76550769536,599.92012135493,602.82429065582,601.03259041103,601.03259041103,602.479169046,602.479169046,-0.30035004523649,-0.12106459718984,-1.9486070726685,2.247743729783,2.6119902290134,1.5594949582724,-1.6657727776943,0.05735730140464,1.591927084708,0.027188418284677,0.33776181663067,-9.7872526504157,0.030694573338524,-0.46033357187961,2.5522638408452,-4.4401240468959,-0.79711863982095,5.1250806709176,-0.83110468491933,-2.9786507996884,-0.20753526237736,1.2885061535953,0.20412227294747,-4.4572182663671,1.1500609481463,-6.402401286509,0.54940541278473,0.97046600213261,-0.53227431875548,-0.36424215621589,0.86347486282978,0.26131284613378,0.058807090951149,-5.9788481427551,-0.50254508556409,-1.1413303847706,5.8829432021032,-1.3230446657383,0.19814445996539,-0.078057617480434,0.51618330543945,-8.4202322338999,-0.99097773513203,-0.93597491604907,-4.8343023653777,0.6041253317866,3.1539754162158,-2.9408150606222,725.92023938647,725.92023938647,724.47675511978,724.47675511978,728.71384745614,727.86188374269,726.71055144795,725.03235081084,727.22821636547,727.47508838589,725.61397046885,723.95951046217,727.22992186982,728.20868674788,727.77851240654,727.69548904151,725.69642966174,728.5749958764,728.10661139167,725.83716776762,724.62495562738,727.68424744102,727.69546950534,727.22992186982,725.05829472513,723.83646876978,728.74330892509,727.50148769231,727.52105397693,725.60098632189,726.71381407426,727.31478675058,726.2348005254,724.44683669689,728.50441055999,728.60389841983,727.55662498049,728.00005814097,725.97016728237,727.52529823743,727.77082555983,727.44562759953,725.6002412591,728.50441055999,726.7127103152,726.7127103152,728.15928895017,728.15928895017,1618.3584138322,1628.2516902415,756.32223839214,1884.5392727232,684.50641932902,0
5.46e-05,67474899.281685,3.5969550425989e-06,1.6217238071586e-05,3.9456648332865e-06,1.0074111646608,600.13825071014,600.13825071014,598.67986417141,598.67986417141,602.93794101485,602.06570226437,600.92721609538,599.2320582595,601.4487044193,601.68438311215,599.82495386188,598.161075104,601.44433646542,602.4412865247,601.98939481668,601.91941522915,599.90672782857,602.79477508521,602.31295517424,600.04839709861,598.82489350128,601.90295679437,601.90484215468,601.44433646542,599.26656350055,598.03629905652,602.97099926494,601.70420295397,601.74317932818,599.80154225058,600.93456934418,601.52517913221,600.44781668376,598.65290343542,602.73468049649,602.83765241758,601.76502104625,602.22733737057,600.17778112799,601.75427856931,601.98370553574,601.665873347,599.81341033481,602.73468049649,600.91660275298,600.91660275298,602.37214052891,602.37214052891,-0.29862419667979,-0.12245004825611,-1.9765766918857,2.288831834956,2.6451606775024,1.5782811828251,-1.6848491512652,0.057594189396528,1.6189743578058,0.027337443338485,0.34158144758338,-9.7993617741602,0.032047002085583,-0.4728968164215,2.592261574647,-4.4779328686121,-0.80536660864789,5.1996681011397,-0.85841778474966,-3.0166640090549,-0.21322836413807,1.3108018307125,0.20750458291021,-4.5049184836255,1.1638071896132,-6.3999251126156,0.55360689987251,0.98437104278852,-0.53888183049147,-0.36912258390142,0.87825581996291,0.26365145019984,0.059747074266908,-5.979155873537,-0.51174013812268,-1.1720921153306,5.9787452224305,-1.33413829001,0.2120631944767,-0.080109549518692,0.52287485242546,-8.5040896755349,-1.0057221643454,-0.96099618521748,-4.9114314727486,0.62030061622363,3.2045802409967,-2.9979781826566,725.8379518841,725.8379518841,724.37956534537,724.37956534537,728.63764218881,727.76540343833,726.62691726934,724.93175943346,727.14840559325,727.38408428611,725.52465503584,723.86077627796,727.14403763938,728.14098769866,727.68909599064,727.61911640311,725.60642900253,728.49447625917,728.0126563482,725.74809827257,724.52459467524,727.60265796833,727.60454332864,727.14403763938,724.96626467451,723.73600023048,728.6707004389,727.40390412793,727.44288050214,725.50124342453,726.63427051814,727.22488030617,726.14751785772,724.35260460938,728.43438167045,728.53735359153,727.46472222021,727.92703854453,725.87748230195,727.45397974327,727.6834067097,727.36557452096,725.51311150877,728.43438167045,726.61630392694,726.61630392694,728.07184170287,728.07184170287,1625.2236224374,1628.3763128975,757.20440232659,1884.8290325786,687.41209625755,0
5.47e-05,68077210.609847,3.6008750474421e-06,1.6247096183565e-05,3.9568625444253e-06,1.0074808954877,600.03544369711,600.03544369711,598.56220502362,598.56220502362,602.84075287654,601.94793180459,600.82293718757,599.11073206042,601.348149955,601.57235817239,599.71512483165,598.04191237326,601.33763407702,602.35290766287,601.87889152865,601.82234128914,599.7960588621,602.69319450694,602.19772291829,599.93875245179,598.70391795275,601.80048219029,601.79283194942,601.33763407702,599.1540770296,597.91540545169,602.8774982189,601.58537546378,601.64430175675,599.68093634551,600.83440055187,601.41432736374,600.33992614617,598.53822267941,602.64389705503,602.75038210953,601.6520007126,602.13362206306,600.06429857257,601.6623380111,601.87527357412,601.56509143432,599.70570784854,602.64389705503,600.7991451786,600.7991451786,602.26356537206,602.26356537206,-0.29689338658976,-0.12378931062963,-2.0046986007121,2.329852490771,2.6782328654375,1.5971197970949,-1.7039550541144,0.057821883163373,1.6461230048261,0.027481270802143,0.34542428590123,-9.811227731919,0.033445517438035,-0.48570298243948,2.6323079417273,-4.5155677988054,-0.8133395601151,5.2742908945552,-0.88596963615882,-3.0546882869824,-0.2190249727916,1.3332049562063,0.21089257808003,-4.5525495271367,1.1776183825606,-6.3972756161476,0.55771587748164,0.99833940484899,-0.54552334480568,-0.37396060585372,0.89310999360133,0.26598948050211,0.060704094357041,-5.9792704691295,-0.52101375749992,-1.2034350648632,6.0749321102097,-1.3451680734707,0.22651689690506,-0.082192994739789,0.52949250789508,-8.5878308464973,-1.0203558252378,-0.98642573481056,-4.9888606598108,0.63676858191197,3.255285608073,-3.0554472790042,725.75496367062,725.75496367062,724.28172499714,724.28172499714,728.56027285006,727.66745177811,726.54245716108,724.83025203393,727.06766992851,727.29187814591,725.43464480517,723.76143234678,727.05715405054,728.07242763639,727.59841150216,727.54186126266,725.51557883562,728.41271448046,727.9172428918,725.65827242531,724.42343792627,727.52000216381,727.51235192294,727.05715405054,724.87359700312,723.6349254252,728.59701819241,727.30489543729,727.36382173026,725.40045631902,726.55392052538,727.13384733725,726.05944611969,724.25774265292,728.36341702855,728.46990208305,727.37152068612,727.85314203658,725.78381854609,727.38185798461,727.59479354764,727.28461140783,725.42522782206,728.36341702855,726.51866515212,726.51866515212,727.98308534558,727.98308534558,1631.9918932523,1628.4292184747,758.07729736128,1885.1114920415,690.32353761402,0
5.48e-05,68684675.839018,3.6047684662934e-06,1.6276956171237e-05,3.9680474142639e-06,1.0075508567693,599.93169482939,599.93169482939,598.44365930226,598.44365930226,602.74215944188,601.82844959076,600.71759512383,598.98825105745,601.2464298378,601.45889325873,599.60436552498,597.92190195879,601.22969499406,602.2634255413,601.76687989107,601.72414622688,599.68429893672,602.59013063957,602.08079206655,599.8281149964,598.58190898295,601.69670069901,601.67931781363,601.22969499406,599.04071759117,597.79366866584,602.78268239719,601.46488215823,601.54430066127,599.55904631769,600.73318440113,601.30211165086,600.23101060383,598.42267291888,602.55193768404,602.66196334056,601.53744054804,602.0387906643,599.94959575816,601.56935193617,601.76540807586,601.46316141838,599.59701007052,602.55193768404,600.68021396934,600.68021396934,602.15344091432,602.15344091432,-0.2951581850969,-0.12507974914331,-2.0329683115521,2.3707867015055,2.7111955458664,1.616008633787,-1.7230871643114,0.058040301356313,1.6733655350261,0.027619620250009,0.34928985150374,-9.8228610332968,0.034891112447879,-0.49875155272886,2.6723834356756,-4.5530220511275,-0.82102636057137,5.348925442659,-0.9137454947716,-3.0927119016835,-0.224924261665,1.3557110669361,0.2142848638285,-4.6001011397396,1.1914924176481,-6.3944638992311,0.56173058423889,1.0123684505358,-0.55219814396904,-0.37875284835617,0.90803371078164,0.2683264174267,0.061678343844409,-5.9791986975383,-0.53036365617248,-1.2353579496908,6.1714700483703,-1.3561316842889,0.24151252311385,-0.084307288572435,0.53602948716463,-8.6714404597283,-1.0348683426257,-1.0122593962531,-5.0665645123702,0.65352841514954,3.3060741194674,-3.1131978063253,725.67127189473,725.67127189473,724.1832363676,724.1832363676,728.48173650721,727.56802665609,726.45717218916,724.72782812278,726.98600690313,727.19847032407,725.34394259031,723.66147902412,726.96927205939,728.00300260664,727.5064569564,727.46372329221,725.42387600206,728.3297077049,727.82036913189,725.56769206173,724.32148604828,727.43627776434,727.41889487896,726.96927205939,724.7802946565,723.53324573118,728.52225946253,727.20445922356,727.28387772661,725.29862338302,726.47276146647,727.04168871619,725.97058766916,724.16224998421,728.29151474938,728.40154040589,727.27701761338,727.77836772964,725.68917282349,727.3089290015,727.5049851412,727.20273848372,725.33658713586,728.29151474938,726.41979103467,726.41979103467,727.89301797965,727.89301797965,1638.6601235857,1628.4103401648,758.94114003556,1885.3872227113,693.24080025559,0
5.49e-05,69297289.499673,3.6086357166761e-06,1.6306818035071e-05,3.9792193342623e-06,1.0076210434703,599.82700070697,599.82700070697,598.32422876372,598.32422876372,602.64215744172,601.70725335876,600.61119048809,598.86461433813,601.14354117252,601.34398847442,599.49267823896,597.80104364754,601.12051979085,602.17283570903,601.65335764699,601.62482923129,599.57144440954,602.4855803599,601.9621605695,599.71648606775,598.45886678566,601.59160970323,601.56429910849,601.12051979085,598.9264875896,597.67108951396,602.68654868911,601.34272045303,601.44317563871,599.43587017494,600.63091777332,601.18853257025,600.12107193961,598.30625274326,602.45880003677,602.57239214317,601.42133752425,601.9428417954,599.83366907202,601.47531586814,601.65410780886,601.36008306547,599.48731340888,602.45880003677,600.55980587551,600.55980587551,602.0417650268,602.0417650268,-0.29341915088898,-0.12631878529106,-2.0613812464871,2.4116155365362,2.7440375638933,1.6349457250972,-1.7422422372425,0.058249384055568,1.700694358113,0.027752221259252,0.3531776306026,-9.8342719521438,0.036384784591546,-0.51204179358739,2.7124682195995,-4.5902890584413,-0.82841609442902,5.4235481594867,-0.94173017079648,-3.1307231915534,-0.23092529626129,1.3783156541522,0.21768003876314,-4.6475632513645,1.2054270972816,-6.3915008630384,0.56564935598027,1.0264556193593,-0.55890551585488,-0.38349595382493,0.92302318939773,0.27066175561592,0.062670006650642,-5.9789471760589,-0.53978744808877,-1.2678589427723,6.2683245694888,-1.3670268291147,0.2570565858708,-0.086451740449757,0.54247890791112,-8.7549035592975,-1.0492494289817,-1.0384925465048,-5.1445171532127,0.670578985901,3.3569283261852,-3.171204880953,725.58687387162,725.58687387162,724.08410192837,724.08410192837,728.40203060637,727.46712652341,726.37106365274,724.62448750278,726.90341433717,727.10386163907,725.25255140361,723.56091681219,726.8803929555,727.93270887368,727.41323081163,727.38470239593,725.33131757419,728.24545352455,727.72203373415,725.47635923239,724.21873995031,727.35148286788,727.32417227314,726.8803929555,724.68636075425,723.43096267861,728.44642185376,727.10259361768,727.20304880336,725.19574333959,726.39079093797,726.9484057349,725.88094510425,724.06612590791,728.21867320142,728.33226530782,727.1812106889,727.70271496004,725.59354223666,727.23518903279,727.41398097351,727.11995623012,725.24718657353,728.21867320142,726.31967904016,726.31967904016,727.80163819145,727.80163819145,1645.2253402649,1628.3196019159,759.79614163236,1885.6567708536,696.1639433281,0
5.5e-05,69915044.510601,3.6124772509253e-06,1.6336681775066e-05,3.9903782383992e-06,1.0076914504673,599.7213581487,599.7213581487,598.20391539102,598.20391539102,602.5407440358,601.58434145225,600.50372414426,598.73982133292,601.03948140297,601.22764443073,599.38006551544,597.67933742349,601.01010942261,602.08113398547,601.53832303312,601.52438977104,599.45749192223,602.3795410223,601.84182698408,599.6038672625,598.33479184547,601.48520699707,601.44777572977,601.01010942261,598.81138964937,597.54766901316,602.5890943613,601.21888834303,601.34092658018,599.31140632217,600.5275978273,601.07359116597,600.01011232269,598.18896094121,602.3644820687,602.48166483683,601.30368911635,601.84577434924,599.71651524838,601.3802255817,601.54137200611,601.25585644718,599.37661451128,602.3644820687,600.43791812149,600.43791812149,601.9285361155,601.9285361155,-0.29167683142444,-0.12750390598439,-2.0899327321419,2.4523201569344,2.7767478686939,1.6539293144283,-1.7614171101016,0.058449093841092,1.7281017841189,0.027878813917735,0.35708707469633,-9.8454705224211,0.037927535843243,-0.52557275003286,2.7525421527174,-4.6273624782928,-0.83549808070829,5.4981355046686,-0.96990805593048,-3.1687105807969,-0.23702703448384,1.4010141594461,0.22107669649638,-4.6949259852923,1.2194201320826,-6.388397199596,0.56947062921764,1.0405984440153,-0.56564475461922,-0.38818658811348,0.93807453391304,0.27299500364605,0.063679257624659,-5.9785223700536,-0.54928264868876,-1.300935668994,6.3654606053426,-1.3778512518593,0.27315513741834,-0.088625633175397,0.54883379758196,-8.8382055356624,-1.0634888984633,-1.0651201109461,-5.2226922853356,0.6879188393947,3.4078307489054,-3.2294433286507,725.50176706401,725.50176706401,723.98432430632,723.98432430632,728.32115295111,727.36475036756,726.28413305957,724.52023024823,726.81989031828,727.00805334604,725.16047443075,723.4597463388,726.79051833792,727.86154290078,727.31873194843,727.30479868635,725.23790083753,728.15994993761,727.62223589939,725.38427617781,724.11520076078,727.26561591238,727.22818464508,726.79051833792,724.59179856468,723.32807792847,728.36950327661,726.99929725834,727.12133549549,725.09181523748,726.30800674261,726.85400008128,725.790521238,723.96936985652,728.14489098401,728.26207375214,727.08409803166,727.62618326455,725.49692416369,727.16063449701,727.32178092142,727.03626536249,725.15702342659,728.14489098401,726.2183270368,726.2183270368,727.70894503081,727.70894503081,1651.6847083853,1628.1569194245,760.64250783059,1885.9206572168,699.09302802416,0
5.51e-05,70537932.19888,3.6162935127947e-06,1.6366547390761e-05,4.0015240526038e-06,1.0077620725563,599.61476419725,599.61476419725,598.08272139372,598.08272139372,602.43791681501,601.45971282521,600.39519723553,598.61387181816,600.93424831514,601.10986224731,599.26653013934,597.55678347031,600.89846522506,601.98831646448,601.4217747826,601.42282759461,599.34243840655,602.27201046102,601.71979047572,599.49026043788,598.2096849396,601.37749078852,601.32974810869,600.89846522506,598.69542661369,597.42340838433,602.4903170598,601.09338440532,601.23755367071,599.18565356514,600.42322200331,600.95728894942,599.89813420706,598.07079650436,602.26898203883,602.38977803112,601.18449330665,601.74758749099,599.5981313738,601.28407710735,601.42720036726,601.15048194026,599.26491027044,602.26898203883,600.31454841011,600.31454841011,601.813753123,601.813753123,-0.28993176306698,-0.12863267240323,-2.1186179961428,2.4928818401662,2.809315524035,1.6729578880059,-1.7806087058213,0.058639416419418,1.7555800242415,0.02799914927425,0.36101760002477,-9.8564665341728,0.039520372827201,-0.53934324053685,2.7925848172397,-4.6642361960937,-0.84226189567508,5.5726640037669,-0.99826313070545,-3.2066625939717,-0.24322832792019,1.4238019704811,0.22447342729862,-4.7421796612802,1.2334691384219,-6.3851633845095,0.57319294407021,1.0547945714574,-0.57241516127084,-0.39282144745814,0.95318373254239,0.27532568347282,0.0647062622847,-5.9779305916171,-0.55884667530461,-1.3345852017459,6.4628425358624,-1.3886027323517,0.28981374940233,-0.090828221412953,0.55508710096296,-8.9213321358314,-1.0775766864294,-1.0921365678623,-5.3010632328584,0.70554618812364,3.4587638972707,-3.2878877323598,725.41594910673,725.41594910673,723.8839063032,723.8839063032,728.2391017245,727.26089773469,726.19638214501,724.41505672764,726.73543322462,726.91104715679,725.06771504882,723.35796837979,726.69965013454,727.78950137397,727.22295969209,727.22401250409,725.14362331604,728.07319537051,727.52097538521,725.29144534736,724.01086984908,727.17867569801,727.13093301817,726.69965013454,724.49661152317,723.22459329381,728.29150196928,726.8945693148,727.03873858019,724.98683847462,726.22440691279,726.7584738589,725.69931911655,723.87198141384,728.07016694831,728.1909629406,726.98567821613,727.54877240047,725.39931628329,727.08526201683,727.22838527674,726.95166684974,725.06609517992,728.07016694831,726.11573331959,726.11573331959,727.61493803248,727.61493803248,1658.0355269515,1627.9222015581,761.48043837323,1886.1793768851,702.0281172935,0
5.5200000000001e-05,71165942.329562,3.6200849507974e-06,1.639641488123e-05,4.0126567113909e-06,1.0078329044599,599.50721612362,599.50721612362,597.96064920769,597.96064920769,602.33367380313,601.33336704345,600.2856111833,598.48676591847,600.82784003988,600.99064355175,599.1520751367,597.43338217384,600.78558891358,601.8943795181,601.30371212697,601.32014273002,599.22628108952,602.16298699184,601.59605081946,599.3756677105,598.08354713938,601.26845970147,601.21021721198,600.78558891358,598.5786015429,597.2983090535,602.39021481167,600.96620780155,601.13305738864,599.05861111366,600.3177880264,600.83962789856,599.78514032959,597.95175863082,602.17229851056,602.29672862851,601.06374858743,601.64828065814,599.47851489196,601.18686673575,601.31159305956,601.04396022604,599.15219782921,602.17229851056,600.18969492635,600.18969492635,601.69741552956,601.69741552956,-0.28818447105636,-0.129702726887,-2.1474321619317,2.5332820068786,2.8417297193372,1.6920301851971,-1.7998140369985,0.05882036169518,1.7831211902645,0.028112989808795,0.36496858675006,-9.8672695285978,0.041164306862896,-0.55335185149885,2.8325755491612,-4.7009043258885,-0.84869738425763,5.6471102690314,-1.0267789926165,-3.2445678711709,-0.24952792265555,1.4466744157479,0.22786881973608,-4.7893147953618,1.2475716352063,-6.3818096687412,0.57681494743382,1.0690417776685,-0.57921604431806,-0.39739726462174,0.96834665332123,0.27765332977284,0.065751176496985,-5.977177997483,-0.56847684752062,-1.3688040607256,6.5604342414423,-1.3992790841616,0.30703749868265,-0.093058729412623,0.56123168912092,-9.0042694685786,-1.0915028582482,-1.1195359540438,-5.379602978975,0.72345890482241,3.5097102890109,-3.3465124825708,725.32941778977,725.32941778977,723.78285087385,723.78285087385,728.15587546928,727.1555687096,726.10781284945,724.30896758463,726.65004170603,726.8128452179,724.97427680285,723.25558383999,726.60779057973,727.71658118425,727.12591379312,727.14234439618,725.04848275567,727.98518865799,727.41825248561,725.19786937666,723.90574880553,727.09066136763,727.03241887813,726.60779057973,724.40080320905,723.12051071966,728.21241647782,726.7884094677,726.9552590548,724.88081277981,726.13998969256,726.66182956471,725.60734199574,723.77396029697,727.99450017671,728.11893029467,726.88595025358,727.4704823243,725.30071655811,727.0090684019,727.13379472571,726.86616189219,724.97439949536,727.99450017671,726.01189659251,726.01189659251,727.51961719571,727.51961719571,1664.2752514224,1627.6153522778,762.31012673452,1886.4333992375,704.96927555538,0
5.5300000000001e-05,71799063.134736,3.6299940923303e-06,1.6426284245089e-05,4.0237761577355e-06,1.0079039408344,599.39871143147,599.39871143147,597.83770149455,597.83770149455,602.22801345802,601.20530428534,600.17496768593,598.35850410873,600.72025505523,600.86999047846,599.03670377257,597.30913412438,600.67148258184,601.79931979998,601.18413479734,601.21633548436,599.10901749801,602.05246941309,601.47060840014,599.26009145512,597.95637981137,601.1581127771,601.0891845412,600.67148258184,598.4609177127,597.17237265304,602.28878602611,600.83735827929,601.02743850485,598.93027858416,600.21129390962,600.72061045653,599.67113370792,597.83184672842,602.07443035243,602.20251382694,600.94145396311,601.54785356052,599.3576636079,601.08859102186,601.19455071804,600.93629228955,599.03847458539,602.07443035243,600.06335634026,600.06335634026,601.57952335337,601.57952335337,-0.28643546961958,-0.13071180029181,-2.1763702453095,2.5735022456742,2.8739797809897,1.7111452161909,-1.8190302089016,0.058991964266162,1.8107172963984,0.028220109852725,0.36893937856201,-9.8778887965676,0.042860354130331,-0.56759693128131,2.8724934709423,-4.7373612103932,-0.85479468257199,5.7214510216443,-1.0554388788366,-3.2824151817778,-0.25592446119112,1.4696267608063,0.23126146241139,-4.8363220995376,1.2617250417642,-6.3783460728564,0.58033539589007,1.0833379836598,-0.58604672014192,-0.4019108168472,0.98355904212723,0.27997748916649,0.066814146261285,-5.9762705895302,-0.57817038790768,-1.4035882108532,6.6581991666081,-1.4098781523272,0.32483094802059,-0.09531634786248,0.56726036796915,-9.0870040090606,-1.1052576281105,-1.1473118716127,-5.4582842207729,0.74165451595936,3.5606524708455,-3.4052918296841,725.24217107585,725.24217107585,723.68116113894,723.68116113894,728.07147310241,727.04876392972,726.01842733031,724.20196375311,726.56371469962,726.71345012284,724.88016341695,723.15259376876,726.51494222622,727.64277944436,727.02759444173,727.05979512875,724.95247714239,727.89592905748,727.31406804452,725.1035510995,723.79983945575,727.00157242149,726.93264418559,726.51494222622,724.30437735709,723.01583229742,728.13224567049,726.68081792367,726.87089814923,724.77373822855,726.054753554,726.56407010091,725.5145933523,723.67530637281,727.91788999681,728.04597347132,726.78491360749,727.3913132049,725.20112325228,726.93205066624,727.03801036243,726.77975193394,724.88193422977,727.91788999681,725.90681598464,725.90681598464,727.42298299776,727.42298299776,1670.4014883274,1627.2362729972,763.13175981309,1886.6831679296,707.91656843209,0
5.5400000000001e-05,72437281.347561,3.6444316605731e-06,1.6456155480503e-05,4.0348823428478e-06,1.0079751762775,599.28924786107,599.28924786107,597.7138811409,597.7138811409,602.1209346723,601.07552534144,600.06326871717,598.22908721536,600.61149218825,600.74790566679,598.92041954863,597.18404011862,600.55614869995,601.70313424849,601.06304302491,601.11140644293,598.99064546295,601.94045700602,601.34346421163,599.14353430295,597.82818461796,601.04644947473,600.96665213127,600.55614869995,598.34237861218,597.04560102248,602.1860294952,600.70683617238,600.92069808153,598.8006560016,600.10373795673,600.60023952961,599.55611763795,597.71106041764,601.97537673839,602.10713112191,600.81760895147,601.44630617982,599.23557569171,600.98924678864,601.07607444509,600.8274794183,598.92373819609,601.97537673839,599.93553180901,599.93553180901,601.46007715003,601.46007715003,-0.28468526180583,-0.13165771733956,-2.2054271499455,2.6135243382014,2.9060551825328,1.7303022816161,-1.8382544226337,0.059154284144632,1.8383602601185,0.028320295989787,0.37292928222673,-9.8883333731551,0.044609535706982,-0.58207658417509,2.9123175253704,-4.7736014209139,-0.86054423003154,5.7956631103487,-1.084225684432,-3.3201934383406,-0.26241648416278,1.4926542033487,0.23464994550774,-4.8831924798268,1.2759266754029,-6.374782379083,0.58375315859787,1.0976812715568,-0.59290651352275,-0.406358932629,0.99881652064595,0.28229771938576,0.067895307479846,-5.9752142123748,-0.58792442284783,-1.4389330625805,6.7561003789835,-1.4203978112506,0.34319813247545,-0.097600230016955,0.57316588813735,-9.1695226020435,-1.1188313680379,-1.1754574960541,-5.5370794151725,0.7601301961843,3.6115730364193,-3.4641999329604,725.15420710414,725.15420710414,723.57884038396,723.57884038396,727.98589391537,726.94048458451,725.92822796024,724.09404645843,726.47645143132,726.61286490986,724.78537879169,723.04899936169,726.42110794302,727.56809349156,726.92800226798,726.97636568599,724.85560470601,727.80541624909,727.2084234547,725.00849354602,723.69314386103,726.91140871779,726.83161137434,726.42110794302,724.20733785525,722.91056026555,728.05098873826,726.57179541544,726.78565732459,724.66561524467,725.96869719979,726.46519877268,725.42107688101,723.5760196607,727.84033598145,727.97209036498,726.68256819454,727.31126542288,725.10053493477,726.85420603171,726.94103368816,726.69243866136,724.78869743915,727.84033598145,725.80049105208,725.80049105208,727.3250363931,727.3250363931,1676.4120045678,1626.7848653457,763.94551760689,1886.9291009713,710.87006236889,0
5.5500000000001e-05,73080582.238991,3.6589338490555e-06,1.6486028585172e-05,4.0459752260482e-06,1.0080466053357,599.17882339297,599.17882339297,597.58919125731,597.58919125731,602.01243677339,600.94403161322,599.9505165244,598.09851641728,600.5015506164,600.6243922584,598.80322620059,597.05810116138,600.43959011213,601.60582008949,600.94043754054,601.00535646815,598.87116312298,601.82694953448,601.21461985519,599.02599913991,597.69896351769,600.93346967212,600.84262254815,600.43959011213,598.22298794164,596.91799620922,602.08194439413,600.57464240042,600.81283747088,598.66974380068,599.99511876466,600.47851848448,599.44009569114,597.58939953425,601.87513714785,602.01057830839,600.6922135841,601.34363876905,599.11224968152,600.88883113054,600.95616580922,600.71752320064,598.80798658165,601.87513714785,599.80622097825,599.80622097825,601.33907801123,601.33907801123,-0.28293433939753,-0.13253840175842,-2.2345976638949,2.6533302839852,2.9379455559003,1.7495009768516,-1.8574839770796,0.059307407203842,1.8660419041772,0.028413347420366,0.37693756741657,-9.8986120356231,0.046412877643483,-0.59678866461207,2.952026509034,-4.809619754317,-0.86593678638167,5.8697235333584,-1.1131219962713,-3.3578917091808,-0.26900243266104,1.5157518690204,0.23803286247112,-4.9299170322787,1.2901737497865,-6.3711281252712,0.58706722004206,1.1120698940201,-0.59979475781856,-0.41073849894535,1.0141145852391,0.28461358824803,0.068994785773999,-5.9740145533836,-0.597735983707,-1.4748334740015,6.8541006315371,-1.430835961885,0.3621425440096,-0.099909487235567,0.57894095399227,-9.2518124604582,-1.1322146212879,-1.2039655855862,-5.6159608298573,0.77888276392813,3.6624546468744,-3.5232109134823,725.06552421125,725.06552421125,723.47589207559,723.47589207559,727.89913759167,726.83073243151,725.83721734268,723.98521723556,726.38825143468,726.51109307669,724.68992701887,722.94480197967,726.32629093041,727.49252090777,726.82713835882,726.89205728643,724.75786394126,727.71365035276,727.10132067347,724.91269995819,723.58566433597,726.82017049041,726.72932336644,726.32629093041,724.10968875992,722.8046970275,727.96864521241,726.4613432187,726.69953828916,724.55644461897,725.88181958294,726.36521930277,725.32679650942,723.47610035253,727.76183796613,727.89727912667,726.57891440238,727.23033958733,724.9989504998,726.77553194882,726.84286662751,726.60422401892,724.69468739993,727.76183796613,725.69292179653,725.69292179653,727.22577882952,727.22577882952,1682.3047304494,1626.2610343599,764.75157291425,1887.1715908209,713.82982444869,0
5.5600000000001e-05,73728949.659489,3.673499880443e-06,1.6515903556363e-05,4.0570547745939e-06,1.0081182225123,599.06743625133,599.06743625133,597.46363517717,597.46363517717,601.9025195231,600.81082511086,599.83671362653,597.96679324614,600.39042986849,600.49945389396,598.68512769546,596.93131846706,600.3218100339,601.50737483871,600.81631957371,600.89818669826,598.75056892766,601.71194724401,601.08407753683,598.90748910451,597.56871876507,600.81917366527,600.71709888586,600.3218100339,598.10274961031,596.78956046896,601.97653028105,600.44077846733,600.70385831343,598.53754282651,599.88543522551,600.35545114488,599.32307171148,597.46686413178,601.77371136544,601.91285348229,600.56526840601,601.23985185165,598.98768448599,600.78734141648,600.83482684328,600.60642552397,598.69121792926,601.77371136544,599.6754239826,599.6754239826,601.21652756274,601.21652756274,-0.28118318271778,-0.13335188015182,-2.2638764566755,2.6929023244591,2.9696407009229,1.7687412112324,-1.8767162711169,0.059451445542365,1.8937539587625,0.028499076302065,0.38096346665172,-9.9087333006965,0.048271410969291,-0.61173077153547,2.9915991091657,-4.8454112319645,-0.87096344598922,5.9436094558368,-1.1421101116948,-3.3954992310993,-0.27568065118351,1.5389148069254,0.24140881148187,-4.9764870396083,1.3044633735698,-6.3673925989029,0.59027668246084,1.1265022883499,-0.60671079522002,-0.41504646835401,1.0294486067003,0.28692467270802,0.07011269632711,-5.9726771420946,-0.60760200821418,-1.5112837542675,6.9521624303755,-1.4411905296174,0.38166711804673,-0.10224318395695,0.58457823382084,-9.3338611667034,-1.1453981130375,-1.2328284913301,-5.6949005981183,0.7979086778053,3.7132800481868,-3.5822989045165,724.9761209067,724.9761209067,723.37231983254,723.37231983254,727.81120417847,726.71950976623,725.74539828189,723.8754779015,726.29911452385,726.40813854932,724.59381235083,722.84000312242,726.23049468926,727.41605949407,726.72500422907,726.80687135363,724.65925358302,727.62063189937,726.99276219219,724.81617375987,723.47740342044,726.72785832064,726.62578354122,726.23049468926,724.01143426568,722.69824512433,727.88521493642,726.3494631227,726.61254296879,724.44622748187,725.79411988088,726.26413580025,725.23175636685,723.37554878715,727.68239602081,727.82153813765,726.47395306138,727.14853650702,724.89636914136,726.69602607184,726.74351149865,726.51511017934,724.59990258463,727.68239602081,725.58410863796,725.58410863796,727.1252122181,727.1252122181,1688.0777685136,1625.6646920036,765.55009105356,1887.4110046295,716.79592201801,0
5.5700000000001e-05,74382366.082734,3.6881289689263e-06,1.6545780390893e-05,4.0681209635189e-06,1.0081900222751,598.95508490693,598.95508490693,597.33721645522,597.33721645522,601.79118311662,600.67590845003,599.7218628118,597.83391958621,600.27812982521,600.37309470907,598.56612822861,596.80369346083,600.20281204878,601.40779630384,600.6906908506,600.78989854566,598.62886164015,601.59545086025,600.95184006383,598.78800758561,597.43745291011,600.70356216755,600.59008476263,600.20281204878,597.98166773393,596.66029626587,601.86978709643,600.30524645895,600.59376253615,598.40405433453,599.77468652826,600.23104178762,599.20504981221,597.34345448357,601.67109948047,601.81395504167,600.43677447444,601.13494622038,598.86187938615,600.68477529263,600.71206004189,600.49418857245,598.57343069612,601.67109948047,599.54314144536,599.54314144536,601.09242796155,601.09242796155,-0.27943226043665,-0.13409628489282,-2.2932580760415,2.7322229665793,3.001130596408,1.7880232106992,-1.8959488048059,0.059586537834789,1.9214880646913,0.02857730805374,0.38500617541331,-9.9187054223378,0.050186171760081,-0.62690024385839,3.0310139398228,-4.8809710949108,-0.87561565105067,6.0172982312806,-1.1711720721721,-3.433005420862,-0.28244939048105,1.5621379860081,0.24477639710213,-5.0228939649039,1.3187925493793,-6.3635848315057,0.5933807684243,1.1409770832366,-0.61365397680159,-0.41927986584833,1.0448138308767,0.28923055770802,0.071249143772745,-5.9712073500474,-0.61751934214037,-1.5482776696146,7.050248100947,-1.4514594614245,0.40177422136936,-0.10460033250707,0.59007036972862,-9.4156566673959,-1.1583727599699,-1.2620381691464,-5.7738707721571,0.81720403437193,3.7640320914525,-3.6414381032627,724.8859958802,724.8859958802,723.26812742849,723.26812742849,727.7220940899,726.6068194233,725.65277378508,723.76483055949,726.20904079849,726.30400568235,724.49703920189,722.73460443411,726.13372302206,727.33870727712,726.62160182388,726.72080951894,724.55977261342,727.52636183353,726.8827510371,724.71891855889,723.36836388339,726.63447314083,726.52099573591,726.13372302206,723.9125787072,722.59120723915,727.80069806971,726.23615743223,726.52467350943,724.33496530781,725.70559750154,726.1619527609,725.13596078549,723.27436545685,727.60201045375,727.74486601495,726.36768544772,727.06585719366,724.79279035942,726.61568626591,726.64297101517,726.42509954573,724.5043416694,727.60201045375,725.47405241863,725.47405241863,727.02333893483,727.02333893483,1693.7293942389,1624.9957610504,766.3412295659,1887.647684401,719.76842240315,0
5.5800000000001e-05,75040812.653356,3.7028203214957e-06,1.6575659085144e-05,4.0791737754694e-06,1.0082619990641,598.84176807982,598.84176807982,597.20993886592,597.20993886592,601.67842818098,600.53928484778,599.60596713527,597.69989767364,600.16465071917,600.24531932956,598.44623222059,596.67522777963,600.08260010461,601.30708258626,600.56355359147,600.68049369505,598.50604033938,601.47746158675,600.81791084029,598.66755821995,597.30516879735,600.58663630841,600.46158431642,600.08260010461,597.85974663207,596.53020627256,601.761715162,600.1680490397,600.48255235032,598.26927998986,599.66287216002,600.10529513796,599.08603437228,597.21917108458,601.56730188604,601.71388168759,600.30673335685,601.02892293597,598.73483403659,600.58113068478,600.58786835827,600.38081482451,598.45462361215,601.56730188604,599.40937447742,599.40937447742,600.96678189237,600.96678189237,-0.27768202927015,-0.13476985613544,-2.3227369457083,2.7712750056573,3.0324054099677,1.8073475238136,-1.9151791802872,0.05971284953784,1.9492357766974,0.028647881625516,0.38906485245336,-9.9285363892242,0.052158201154305,-0.64229415669474,3.0702495801171,-4.9162947998999,-0.8798852048245,6.0907674201843,-1.2002896927247,-3.4703998861443,-0.28930681100986,1.5854162910771,0.24813423179011,-5.0691294454855,1.3331581733983,-6.3597135931403,0.5963788230157,1.1554931055177,-0.62062366247832,-0.4234357956469,1.0602053801461,0.2915308350358,0.072404222103854,-5.969610390189,-0.62748474127991,-1.5858084510803,7.1483198587477,-1.461640723465,0.42246564088192,-0.10697988773211,0.59540998800976,-9.4971872691519,-1.1711296798616,-1.2915861922845,-5.8528433800378,0.83676456704961,3.8146937513088,-3.7006028216793,724.79514801463,724.79514801463,723.16331880073,723.16331880073,727.63180811578,726.49266478259,725.55934707008,723.65327760844,726.11803065397,726.19869926437,724.39961215539,722.62860771443,726.03598003942,727.26046252106,726.51693352628,726.63387362986,724.45942027419,727.43084152155,726.7712907751,724.62093815475,723.25854873215,726.54001624321,726.41496425123,726.03598003942,723.81312656688,722.48358620737,727.7150950968,726.12142897451,726.43593228512,724.22265992467,725.61625209483,726.05867507276,725.03941430708,723.17255101939,727.52068182085,727.66726162239,726.26011329166,726.98230287078,724.68821397139,726.53451061958,726.54124829308,726.33419475931,724.40800354695,727.52068182085,725.36275441223,725.36275441223,726.92016182718,726.92016182718,1699.2580619137,1624.2541792516,767.12513795245,1887.8819473113,722.7473926134,0
5.5900000000001e-05,75704269.237836,3.7175731391995e-06,1.6605539635065e-05,4.0902132005412e-06,1.0083341473001,598.72748474171,598.72748474171,597.0818064017,597.0818064017,601.56425577302,600.40095811757,599.48902991615,597.56473009521,600.04999313451,600.11613286606,598.32544431392,596.54592327282,599.96117850933,601.20523208236,600.43491050727,600.5699741013,598.38210442176,601.35798110213,600.68229386189,598.54614488947,597.17186956457,600.46839763146,600.33160219959,599.96117850933,597.73699082552,596.39929336983,601.65231517929,600.02918944839,600.37023024916,598.133221866,599.549991907,599.97821636441,598.96603003262,597.09401465299,601.46231927798,601.61263242456,600.17514712808,600.92178332557,598.60654846612,600.47640580029,600.46225520036,600.26630705003,598.33479568231,601.46231927798,599.27412467542,599.27412467542,600.83959256329,600.83959256329,-0.2759329336894,-0.13537094247255,-2.3523073637021,2.8100415474889,3.0634555068744,1.8267150238447,-1.9344051020109,0.059830572879684,1.9769885672263,0.028710649722328,0.39313862027328,-9.9382339227647,0.05418854530696,-0.65790931894616,3.109284612626,-4.9513780152321,-0.88376427915632,6.1639948062803,-1.2294445940628,-3.5076724356062,-0.29625098692369,1.6087445190763,0.25148093725645,-5.1151852860343,1.3475570353812,-6.3557873874461,0.59927031567229,1.1700493842904,-0.62761922075787,-0.42751144772222,1.0756182557705,0.29382510213023,0.073578014622311,-5.9678913166803,-0.63749487386144,-1.6238688044104,7.2463398802315,-1.4717322990042,0.44374257634675,-0.10938074179879,0.60058970960495,-9.5784416335503,-1.1836601962708,-1.3214637650007,-5.9317904826607,0.8565856464496,3.8652481423349,-3.7597675370371,724.70357638495,724.70357638495,723.05789804494,723.05789804494,727.54034741627,726.37704976081,725.46512155939,723.54082173845,726.02608477776,726.09222450931,724.30153595716,722.52201491606,725.93727015257,727.18132372561,726.41100215051,726.54606574454,724.358196065,727.33407274537,726.65838550513,724.52223653271,723.14796120782,726.4444892747,726.30769384284,725.93727015257,723.71308246876,722.37538501307,727.62840682253,726.00528109163,726.3463218924,724.10931350924,725.52608355024,725.95430800766,724.94212167586,723.07010629623,727.43841092122,727.5887240678,726.15123877132,726.89787496882,724.58264010936,726.45249744353,726.4383468436,726.24239869328,724.31088732555,727.43841092122,725.25021631867,725.25021631867,726.81568420654,726.81568420654,1704.6624080535,1623.439903716,767.90195742544,1888.114086083,725.73289904543,0
5.6000000000001e-05,76372714.478659,3.7323866184983e-06,1.6635422036179e-05,4.1012392360982e-06,1.0084064613918,598.61223411791,598.61223411791,596.95282327088,596.95282327088,601.44866737685,600.26093266325,599.37105473488,597.42841978666,599.93415800613,599.98554090791,598.20376936962,596.41578200267,599.83855192636,601.10224348464,600.30476479547,600.45834198709,598.2570536023,601.23701155666,600.54499370967,598.42377171848,597.0375586412,600.34884809212,600.20014357295,599.83855192636,597.61340503336,596.26756064618,601.54158822774,599.8886714931,600.25679900527,597.99588244287,599.43604585503,599.84981107296,598.84504169214,596.96798613138,601.35615265339,601.51020656081,600.04201836674,600.81352898094,598.4770230778,600.37059912981,600.33522442631,600.15066830724,598.21394618855,601.35615265339,599.13739411908,599.13739411908,600.71086370082,600.71086370082,-0.27418540568938,-0.13589800174158,-2.3819634997003,2.8485060297523,3.0942714610108,1.846126905029,-1.9536243766777,0.059939927141633,2.0047378314873,0.028765479018114,0.39722656570624,-9.9478054762472,0.056278255352606,-0.67374227242437,3.1480976615609,-4.9862166147485,-0.8872454327562,6.23695841823,-1.258618239024,-3.5448130884043,-0.30327990953009,1.6321173765164,0.25481514611476,-5.161053450832,1.3619858188034,-6.3518144475977,0.60205484228983,1.1846451515642,-0.6346400285259,-0.43150410369194,1.0910473414501,0.29611296087532,0.074770593905044,-5.9660550255051,-0.64754632296489,-1.6624509223087,7.3442703728919,-1.4817321859439,0.46560562823792,-0.11180171932183,0.605602160444,-9.6594087691012,-1.1959558524049,-1.3516617374189,-6.010684229559,0.87666228173264,3.9156785397454,-3.8189069420054,724.61128025784,724.61128025784,722.95186941081,722.95186941081,727.44771351678,726.25997880318,725.37010087481,723.42746592659,725.93320414606,725.98458704784,724.20281550955,722.41482814259,725.83759806629,727.10128962456,726.3038109354,726.45738812701,724.25609974223,727.23605769658,726.5440398496,724.42281785841,723.03660478113,726.34789423205,726.19918971288,725.83759806629,723.61245117329,722.26660678611,727.54063436767,725.88771763303,726.2558451452,723.99492858279,725.43509199496,725.84885721288,724.84408783207,722.96703227131,727.35519879332,727.50925270074,726.04106450667,726.81257512087,724.47606921773,726.36964526974,726.33427056624,726.14971444717,724.21299232848,727.35519879332,725.13644025901,725.13644025901,726.70990984075,726.70990984075,1709.9412548139,1622.5529155534,768.67182067688,1888.3443693644,728.72500719178,0
5.6100000000001e-05,77046125.850862,3.747259952552e-06,1.6665306283589e-05,4.1122518867118e-06,1.0084789357445,598.49601568904,598.49601568904,596.82299389556,596.82299389556,601.33166490075,600.11921347236,599.25204543011,597.29097003045,599.81714661842,599.85354951647,598.08121246366,596.28480624452,599.71472536966,600.99811578227,600.17312013528,600.34559984032,598.13088791534,601.11455556828,600.4060155431,598.30044307063,596.9022397462,600.2279900547,600.06721409909,599.71472536966,597.48899417007,596.13501139713,601.42953576242,599.74649954526,600.14226166782,597.85726460427,599.32103438982,599.72008530065,598.72307450353,596.84108668775,601.24880330908,601.4066037081,599.90735015084,600.70416175646,598.34625864833,600.26370944852,600.2067803394,600.03390193931,598.09207469127,601.24880330908,598.99918536779,598.99918536779,600.58059954422,600.58059954422,-0.27243986448156,-0.13634959931046,-2.4116993960079,2.8866522420482,3.1248440625312,1.8655846797389,-1.9728349121341,0.060041158297106,2.032474892828,0.028812250290561,0.40132774095452,-9.9572582338288,0.058428387370998,-0.68978929311549,3.1866674341306,-5.0208066721269,-0.8903216113604,6.3096365435022,-1.2877919666935,-3.5818120822646,-0.31039149241661,1.6555294769208,0.25813550306245,-5.20672605603,1.3764411026257,-6.3478027326437,0.60473212639709,1.1992798419404,-0.64168547040149,-0.43541114290486,1.1064874079215,0.29839401638184,0.0759820218395,-5.9641062546154,-0.65763558979953,-1.7015464995091,7.4420736525105,-1.4916383951128,0.48805479663178,-0.11424157316204,0.61043998241826,-9.7400780232158,-1.2080084096474,-1.3821706214356,-6.089496919917,0.89698912397046,3.9659683938716,-3.8779959933661,724.51825910495,724.51825910495,722.84523731148,722.84523731148,727.35390831666,726.14145688828,725.27428884602,723.31321344637,725.83939003434,725.87579293238,724.10345587958,722.30704966044,725.73696878557,727.02035919818,726.19536355119,726.36784325623,724.15313133126,727.13679898419,726.42825895902,724.32268648654,722.92448316211,726.25023347062,726.089457515,725.73696878557,723.51123758599,722.15725481305,727.45177917834,725.76874296118,726.16450508374,723.87950802019,725.34327780573,725.74232871657,724.74531791944,722.86333010367,727.27104672499,727.42884712402,725.92959356676,726.72640517238,724.36850206424,726.28595286443,726.22902375531,726.05614535522,724.11431810718,727.27104672499,725.02142878371,725.02142878371,726.60284296013,726.60284296013,1715.0936111189,1621.5932246061,769.43485163483,1888.5730421767,731.72378136304,0
5.6200000000001e-05,77724479.721903,3.7621923325949e-06,1.6695192371985e-05,4.1232511636869e-06,1.0085515647679,598.37882919228,598.37882919228,596.69232290923,596.69232290923,601.2132506737,599.97580610847,599.13200609541,597.15238445311,599.69896060364,599.72016521775,597.95777888322,596.15299848676,599.5897041982,600.8928482615,600.03998068201,600.23175041128,598.00360771468,600.99061621804,600.26536509229,598.17616354571,596.76591688573,600.10582628898,599.93281993505,599.5897041982,597.36376334242,596.00164912427,601.31615961136,599.60267853282,600.02662155959,597.71737163478,599.20495819671,599.58904550872,598.60013386883,596.71331771618,601.14027283954,601.30182378127,599.77114605265,600.59368376689,598.2142563269,600.15573581709,600.07692768221,599.91601157068,597.96918103033,601.14027283954,598.85950145651,598.85950145651,600.44880483915,600.44880483915,-0.27069671623832,-0.13672440686462,-2.4415089657911,2.9244643458803,3.1551643274677,1.8850901689873,-1.9920347163942,0.060134538955738,2.060191008286,0.028850858539364,0.40544116453325,-9.9665991087625,0.060640002319497,-0.70604639454206,3.2249727530724,-5.0551444541877,-0.89298616038985,6.3820077478453,-1.3169470315861,-3.6186598816063,-0.31758357565605,1.6789753383563,0.26144066644043,-5.2521953578153,1.3909193623367,-6.3437599229287,0.6073020205038,1.2139530886218,-0.64875493824403,-0.43923004745871,1.1219331182665,0.30066787542501,0.077212349683139,-5.9620495839498,-0.66775909690946,-1.7411467500476,7.5397122034871,-1.5014489485026,0.51108947424814,-0.11669898108168,0.6150958422119,-9.8204390705658,-1.2198098569032,-1.4129806072712,-6.1682010539552,0.91756047026252,4.0161013494461,-3.9370099602876,724.4245125946,724.4245125946,722.73800631154,722.73800631154,727.25893407602,726.02148951078,725.17768949773,723.19806785542,725.74464400596,725.76584862007,724.00346228553,722.19868188908,725.63538760052,726.93853166382,726.08566408433,726.2774338136,724.049291117,727.03629962036,726.31104849461,724.22184694803,722.81160028805,726.1515096913,725.97850333736,725.63538760052,723.40944674473,722.04733252659,727.36184301367,725.64836193513,726.07230496191,723.76305503709,725.25064159903,725.63472891104,724.64581727114,722.7590011185,727.18595624186,727.34750718359,725.81682945496,726.6393671692,724.25993972922,726.2014192194,726.12261108452,725.961694973,724.01486443265,727.18595624186,724.90518485882,724.90518485882,726.49448824146,726.49448824146,1720.1186759765,1620.5608743117,770.19116528377,1888.8003264101,734.72928442408,0
5.6300000000001e-05,78407751.413735,3.7771829493099e-06,1.672508029565e-05,4.1342370852993e-06,1.0086243428839,598.26067462245,598.26067462245,596.56081515424,596.56081515424,601.09342744142,599.83071670275,599.01094107593,597.01266702206,599.57960193986,599.58539499458,597.83347412289,596.02036143054,599.46349411029,600.78644050564,599.90535106096,600.11679670967,597.87521367331,600.86519704502,600.12304864946,598.05093797635,596.62859435047,599.98235996642,599.79696772442,599.46349411029,597.23771784633,595.86747753421,601.20146197249,599.45721393268,599.90988227379,597.57620721602,599.08781826025,599.45669857519,598.47622543487,596.58468083723,601.03056313491,601.1958669975,599.63341013282,600.48209738498,598.08101763351,600.04667758226,599.9456716304,599.7970011032,597.84526532583,601.03056313491,598.7183458909,598.7183458909,600.31548483076,600.31548483076,-0.26895635388186,-0.1370211998296,-2.4713859933417,2.9619268925238,3.1852235071448,1.9046454907695,-2.0112218955253,0.060220368181564,2.0878773749764,0.028881213104041,0.40956582252173,-9.9758347438604,0.062914165992369,-0.72250933347398,3.2629926083395,-5.0892264170747,-0.89523283013373,6.4540508932606,-1.3460646437423,-3.6553471839235,-0.32485393051167,1.7024493817289,0.26472930956505,-5.2974537520632,1.4054169722077,-6.3396934187035,0.60976450733197,1.2286647174891,-0.65584783035041,-0.44295840726536,1.1373790341872,0.3029341459457,0.07846161813627,-5.9598894361178,-0.67791319194271,-1.7812424272834,7.6371487726197,-1.5111618783706,0.53470844494129,-0.11917254342532,0.61956244502285,-9.9004819110181,-1.2313524138066,-1.4440815814512,-6.2467693984547,0.93837026976935,4.0660612626283,-3.9959244720219,724.33004058753,724.33004058753,722.63018111933,722.63018111933,727.1627934065,725.90008266784,725.08030704102,723.08203298715,725.64896790495,725.65476095967,723.90284008798,722.08972739562,725.53286007537,726.85580647073,725.97471702605,726.18616267475,723.94457963839,726.9345630101,726.19241461455,724.12030394144,722.69796031556,726.0517259315,725.8663336895,725.53286007537,723.30708381142,721.93684349929,727.27082793757,725.52657989777,725.97924823888,723.64557318111,725.15718422534,725.52606454027,724.54559139996,722.65404680232,727.0999291,727.26523296259,725.70277609791,726.55146335007,724.1503835986,726.11604354735,726.01503759549,725.86636706829,723.91463129092,727.0999291,724.78771185599,724.78771185599,726.38485079585,726.38485079585,1725.015838844,1619.4559465945,770.94086746642,1889.0264213576,737.74157750502,0
5.6400000000001e-05,79095915.26701,3.7922309941492e-06,1.6754970048469e-05,4.1452096763456e-06,1.0086972645343,598.14155223257,598.14155223257,596.4284756792,596.4284756792,600.97219836187,599.68395194477,598.88885496476,596.87182204206,599.45907294855,599.44924627803,597.7083038807,595.88689798918,599.33610113721,600.67889239466,599.7692363604,600.00074200122,597.74570678257,600.73830204068,599.97907305962,597.9247714245,596.49027671251,599.85759465575,599.65966458871,599.33610113721,597.11086316363,595.73250053717,601.08544541027,599.31011176231,599.79204767069,597.43377542239,598.96961586327,599.32305178681,598.35135508842,596.45517789804,600.91967637845,601.08873387517,599.4941469338,600.36940523885,597.9465444566,599.93653437707,599.8130177857,599.67687471185,597.72032797822,600.91967637845,598.57572264175,598.57572264175,600.18064525609,600.18064525609,-0.26721915693601,-0.1372388540941,-2.5013241357133,2.9990248404005,3.2150130942733,1.9242530453605,-2.0303946512105,0.060298970932823,2.1155251381642,0.028903237658423,0.41370067011183,-9.9849715112616,0.065251949025639,-0.73917361824105,3.3007061827671,-5.1230491964836,-0.89705578068449,6.5257451508451,-1.3751260092983,-3.6918649255718,-0.33220026509249,1.725945930861,0.26800012195575,-5.3424937564788,1.4199302083249,-6.335610337095,0.61211969975619,1.2434147387733,-0.6629635503991,-0.44659392398006,1.1528196240191,0.30519243501353,0.079729857504037,-5.957630077195,-0.68809415179091,-1.8218238462065,7.734346417794,-1.5207752257656,0.55890988342122,-0.12166078209512,0.6238325413091,-9.9801968500865,-1.242628534019,-1.4754631448013,-6.3251750319925,0.95941213086332,4.1158322155052,-4.0547155624236,724.23484314146,724.23484314146,722.5217665881,722.5217665881,727.06548927076,725.77724285367,724.98214587365,722.96511295096,725.55236385744,725.54253718692,723.80159478959,721.98018889807,725.42939204611,726.77218330356,725.86252726929,726.09403291011,723.83899769147,726.83159294958,726.07236396852,724.01806233339,722.58356762141,725.95088556464,725.7529554976,725.42939204611,723.20415407252,721.82579144607,727.17873631917,725.4034026712,725.88533857959,723.52706633128,725.06290677217,725.41634269571,724.44464599732,722.54846880694,727.01296728735,727.18202478406,725.5874378427,726.46269614774,724.03983536549,726.02982528597,725.9063086946,725.77016562075,723.81361888712,727.01296728735,724.66901355065,724.66901355065,726.27393616499,726.27393616499,1729.7846797295,1618.2785667384,771.68405472573,1889.251504304,740.76071976664,0
5.6500000000001e-05,79788944.707474,3.807335660717e-06,1.6784861623936e-05,4.1561689680152e-06,1.0087703241891,598.02146253422,598.02146253422,596.29530973606,596.29530973606,600.84956700054,599.53551907257,598.76575259924,596.72985415118,599.33737629173,599.31172693844,597.58227405401,595.75261128748,599.20753163686,600.57020410457,599.63164212414,599.88358980434,597.61508835095,600.60993564286,599.83344571063,597.7976691778,596.35096882206,599.73153431829,599.52091811827,599.20753163686,596.98320495865,595.59672224554,600.96811285196,599.16137857065,599.67312187412,597.29008071626,598.85035258571,599.18811283078,598.22552895124,596.32481097223,600.80761504401,600.98042523255,599.35336147259,600.25561020915,597.81083905024,599.82530612076,599.67897216853,599.55563684037,597.59436966824,600.80761504401,598.43163613881,598.43163613881,600.04429233594,600.04429233594,-0.26548549143831,-0.13737634238373,-2.5313169236825,3.0357435709851,3.2445248315767,1.943915501261,-2.0495512778305,0.060370697614706,2.1431253975112,0.028916870220773,0.41784463322176,-9.9940155123626,0.0676544269331,-0.75603452000992,3.3380928897654,-5.1566096023132,-0.89844958600757,6.5970700183575,-1.404112369064,-3.728204286622,-0.33962022948373,1.7494592106781,0.27125181064902,-5.3873080066405,1.4344552517404,-6.331517510274,0.61436784124173,1.2582033379012,-0.67010150654242,-0.45013441531602,1.1682492702355,0.30744234806093,0.081017087874569,-5.9552756172679,-0.698298187115,-1.8628809090068,7.8312685844532,-1.530287040123,0.58369135707459,-0.1241621410339,0.6278989356883,-10.059574492388,-1.2536309083832,-1.5071146324846,-6.4033914079051,0.9806793300168,4.1653985329232,-4.1133597140751,724.13892052067,724.13892052067,722.41276772251,722.41276772251,726.967024987,725.65297705903,724.8832105857,722.84731213764,725.45483427818,725.42918492489,723.69973204046,721.87006927394,725.32498962332,726.68766209103,725.7491001106,726.0010477908,723.7325463374,726.72739362931,725.95090369709,723.91512716425,722.46842680851,725.84899230474,725.63837610473,725.32498962332,723.10066294511,721.714180232,727.08557083842,725.27883655711,725.79057986058,723.40753870272,724.96781057217,725.30557081724,724.3429869377,722.44226895869,726.92507303046,727.09788321901,725.47081945905,726.37306819561,723.9282970367,725.94276410722,725.79643015499,725.67309482683,723.71182765469,726.92507303046,724.54909412526,724.54909412526,726.1617503224,726.1617503224,1734.4249693801,1617.0289081859,772.42081416628,1889.4757311385,743.78676815519,0
5.6600000000001e-05,80486812.313837,3.8224961461242e-06,1.6814755015157e-05,4.1671149977915e-06,1.0088435163533,597.90040629754,597.90040629754,596.16132277719,596.16132277719,600.72553732518,599.3854258621,598.64163905714,596.5867683164,599.21451496884,599.17284527594,597.45539073539,595.61750466066,599.0777922868,600.46037610639,599.49257434346,599.7653438865,597.48336000233,600.48010272917,599.68617452262,597.66963674587,596.21067580373,599.60418330275,599.38073636268,599.0777922868,596.85474907486,595.46014697209,600.84946758355,599.01102142837,599.55310926781,597.14512794271,598.7300303031,599.05188978583,598.09875337495,596.1935823594,600.69438189313,600.87094218613,599.21105923289,600.14071542618,597.67390403085,599.71299301831,599.54354121003,599.43329219663,597.46739135631,600.69438189313,598.28609126392,598.28609126392,599.90643276628,599.90643276628,-0.26375570997902,-0.1374327294903,-2.5613577633422,3.0720689047495,3.273750720024,1.9636357684572,-2.0686901588518,0.060435923690578,2.1706692157227,0.028922063110952,0.42199661033249,-10.002972579612,0.07012268004522,-0.77308708645084,3.3751324287003,-5.1899046140166,-0.8994092353997,6.6680053374489,-1.4330050501727,-3.7643566951285,-0.34711142082799,1.7729833477256,0.27448310152675,-5.4318892468913,1.4489881923692,-6.3274214845758,0.6165093059162,1.2730308612729,-0.6772611100223,-0.45357781738496,1.1836622788344,0.30968348754699,0.082323319343014,-5.9528300121856,-0.70852144707972,-1.9044031321647,7.9278791907447,-1.5396953797945,0.60904982993277,-0.12667498818882,0.63175450369795,-10.138605732426,-1.2643524654348,-1.5390251335887,-6.4813924014599,1.0021648218105,4.2147447989131,-4.1718339041058,724.04227319176,724.04227319176,722.3031896714,722.3031896714,726.86740421939,725.52729275631,724.78350595136,722.72863521061,725.35638186306,725.31471217016,723.5972576296,721.75937155488,725.21965918102,726.6022430006,725.63444123768,725.90721078071,723.62522689654,726.62196962338,725.82804141683,723.81150364008,722.35254269794,725.74605019697,725.5226032569,725.21965918102,722.99661596908,721.6020138663,726.99133447777,725.15288832258,725.69497616202,723.28699483692,724.87189719732,725.19375668005,724.24062026917,722.33544925362,726.83624878734,727.01280908034,725.3529261271,726.28258232039,723.81577092506,725.85485991252,725.68540810425,725.57515909084,723.60925825052,726.83624878734,724.42795815813,724.42795815813,726.0482996605,726.0482996605,1738.936667645,1615.7071972097,773.15122332959,1889.699237019,746.81977717075,0
5.6700000000001e-05,81189489.886846,3.837711652215e-06,1.6844650214866e-05,4.178047809129e-06,1.0089168355751,597.7783845509,597.7783845509,596.02652045225,596.02652045225,600.6001137002,599.23368061582,598.51651965266,596.44256982874,599.09049231322,599.03261001041,597.32766020828,595.48158165313,598.94689007704,600.34940916487,599.35203944831,599.64600826024,597.35052367383,600.34880861005,599.53726793665,597.54067985638,596.06940305264,599.4755463397,599.23912782048,598.94689007704,596.72550153125,595.32277922808,600.7295132454,598.8590479173,599.43201449149,596.99892232364,598.6086511847,598.91439111292,597.97103493571,596.06149458449,600.579979972,600.76028614863,599.06724615647,600.02472426658,597.53574237317,599.59959555969,599.40673174358,599.30984574768,597.33939428163,600.579979972,598.13909334354,598.13909334354,599.767073709,599.767073709,-0.26203015173313,-0.13740716786986,-2.5914399401633,3.107987113032,3.3026830226239,1.9834169828021,-2.0878097627694,0.060495048562696,2.1981476281395,0.028918782922991,0.42615547462977,-10.011848276698,0.07265779378936,-0.79032615829685,3.4118047933538,-5.2229313710993,-0.89993013575094,6.7385313031339,-1.4617855000637,-3.800313829391,-0.35467138991396,1.7965123724341,0.27769274035491,-5.4762303214503,1.4635250338651,-6.3233285199563,0.61854459700924,1.2878978043865,-0.68444177381852,-0.45692218823209,1.1990528896805,0.31191545193127,0.083648552304608,-5.9502970638167,-0.71876002475922,-1.9463796762266,8.0241426665917,-1.5489983113465,0.63498166809222,-0.12919761917106,0.63539219068754,-10.217281739846,-1.2747863743308,-1.5711835119454,-6.5591523650315,1.0238612503067,4.2638558682513,-4.2301156397409,723.94490181763,723.94490181763,722.19303771898,722.19303771898,726.76663096693,725.40019788255,724.68303691939,722.60908709547,725.25700957995,725.19912727714,723.49417747501,721.64809891985,725.11340734377,726.5159264316,725.51855671504,725.81252552697,723.51704094056,726.51532587678,725.70378520338,723.70719712311,722.23592031937,725.64206360643,725.40564508721,725.11340734377,722.89201879798,721.48929649481,726.89603051213,725.02556518403,725.59853175822,723.16543959037,724.77516845143,725.08090837965,724.13755220244,722.22801185122,726.74649723873,726.92680341536,725.2337634232,726.19124153331,723.7022596399,725.76611282641,725.5732490103,725.4763630144,723.50591154835,726.74649723873,724.30561061027,724.30561061027,725.93359097573,725.93359097573,1743.3199211358,1614.313717372,773.87535011505,1889.9221370532,749.85979865639,0
5.6800000000001e-05,81896948.519749,3.8529813869604e-06,1.6874547215429e-05,4.1889674513885e-06,1.0089902764524,597.65539858022,597.65539858022,595.89090860494,595.89090860494,600.47330088079,599.08029215096,598.39039993229,596.29726429815,598.96531198821,598.89103027107,597.19908894261,595.344846017,598.8148323026,600.23730433687,599.21004429819,599.52558717932,597.21658161322,600.21605902142,599.38673490304,597.4108044511,595.92715623017,599.3456285356,599.09610142861,598.8148323026,596.5954685188,595.18462372115,600.6082538276,598.70546611951,599.309842437,596.85146945159,598.48621769135,598.77562564556,597.84238042875,595.92855039675,600.4644126082,600.64845882687,598.92192863419,599.90764035015,597.39635740607,599.48511451875,599.26855099588,599.18530271471,597.21037996083,600.4644126082,597.99064814075,597.99064814075,599.62622278236,599.62622278236,-0.26030914271532,-0.13729889214176,-2.6215566204325,3.143484930529,3.3313142728756,2.0032624771472,-2.1069086385755,0.060548495204805,2.2255516505019,0.028907010307894,0.43032007605747,-10.02064790086,0.075260858745748,-0.80774638872753,3.4480903341644,-5.2556871680148,-0.90000811060355,6.8086284827039,-1.4904353372482,-3.8360676202958,-0.36229764591647,1.8200402188509,0.28087949415049,-5.5203241662026,1.4780616980658,-6.31924459025,0.62047434640346,1.3028047953077,-0.69164291108909,-0.46016570848292,1.2144152864435,0.31413783445746,0.084992777767,-5.9476804220871,-0.72900996249593,-1.988799377688,8.1200240449657,-1.5581939107104,0.66148264761116,-0.13172826271051,0.63880503081868,-10.295593949337,-1.284926044294,-1.6035784272598,-6.6366461695113,1.0457609614484,4.3127168839689,-4.2881830016334,723.84680726381,723.84680726381,722.08231728854,722.08231728854,726.66470956439,725.27170083456,724.58180861589,722.48867298175,725.15672067181,725.08243895467,723.39049762621,721.5362547006,725.0062409862,726.42871302047,725.40145298179,725.71699586292,723.40799029682,726.40746770502,725.57814358664,723.6022131347,722.11856491377,725.5370372192,725.28751011221,725.0062409862,722.7868772024,721.37603240475,726.7996625112,724.89687480311,725.5012511206,723.04287813519,724.67762637495,724.96703432916,724.03378911235,722.11995908035,726.6558212918,726.83986751047,725.11333731779,726.09904903375,723.58776608967,725.67652320235,725.45995967948,725.37671139831,723.40178864443,726.6558212918,724.18205682435,724.18205682435,725.81763146596,725.81763146596,1747.5750614072,1612.8488137617,774.59325270347,1890.1445270236,752.90688159398,0
5.6900000000001e-05,82609158.668695,3.8683045655714e-06,1.690444600885e-05,4.1998739795545e-06,1.0090638336402,597.53144992806,597.53144992806,595.75449326959,595.75449326959,600.34510400664,598.925269787,598.26328567065,596.15085764794,598.83897798304,598.74811558561,597.06968359032,595.20730171045,598.68162655568,600.12406296948,599.06659617234,599.40408513442,597.08153637592,600.0818601169,599.23458486892,597.28001668177,595.78394125948,599.21443536658,598.95166655131,598.68162655568,596.46465639673,595.04568535305,600.48569366506,598.55028460553,599.18659824413,596.70277528298,598.36273257302,598.63560257974,597.71279686279,595.79475276859,600.34768340723,600.53546221921,598.77511349626,599.78946753628,597.25575280759,599.36955095183,599.12900657758,599.05966856772,597.08035018633,600.34768340723,597.84076184666,597.84076184666,599.48388805086,599.48388805086,-0.25859299604271,-0.13710721418646,-2.6517008569643,3.1785495685986,3.3596372795358,2.0231757579985,-2.1259854108949,0.060596708819113,2.2528722891584,0.028886739873071,0.43448924389091,-10.029376484322,0.077932971051124,-0.82534226530985,3.4839697698891,-5.2881694478004,-0.89963940081074,6.878277827975,-1.5189363924254,-3.8716102531746,-0.36998766313522,1.8435607278854,0.28404215216117,-5.5641638013356,1.4925940312778,-6.3151753828332,0.62229931254635,1.3177525791094,-0.69886393360821,-0.463306683892,1.2297436079443,0.31635022216068,0.086355977754488,-5.9449835860588,-0.73926725803225,-2.0316507831985,8.2154890030105,-1.567280264276,0.68854796379988,-0.1342650877749,0.64198614730352,-10.373534049809,-1.2947651274085,-1.6361983575756,-6.7138492571272,1.0678560172648,4.3613132890624,-4.3460146797702,723.74799060704,723.74799060704,721.97103394857,721.97103394857,726.56164468562,725.14181046598,724.47982634963,722.36739832692,725.05551866202,724.96465626459,723.2862242693,721.42384238943,724.89816723466,726.34060364847,725.28313685132,725.6206258134,723.2980770549,726.29840079588,725.45112554791,723.49655736076,722.00048193846,725.43097604556,725.1682072303,724.89816723466,722.68119707571,721.26222603203,726.70223434404,724.76682528451,725.40313892311,722.91931596196,724.579273252,724.85214325872,723.92933754177,722.01129344758,726.56422408621,726.7520028982,724.99165417524,726.00600821526,723.47229348657,725.58609163082,725.34554725656,725.27620924671,723.29689086531,726.56422408621,724.05730252565,724.05730252565,725.70042872984,725.70042872984,1751.7025995678,1611.3128968955,775.30497952925,1890.3664841306,755.96107192092,0
5.7000000000001e-05,83326090.224119,3.8836804117437e-06,1.6934346586784e-05,4.2107674541008e-06,1.0091375018572,597.40654039236,597.40654039236,595.61728066766,595.61728066766,600.21552859537,598.76862333269,598.13518286612,596.00335610886,598.71149460832,598.60387586898,596.93945098076,595.06895289573,598.54728071764,600.00968669781,598.9217027596,599.28150684879,596.94539082153,599.94621845971,599.08082776546,597.1483229059,595.63976432073,599.08197267176,598.80583296866,598.54728071764,596.33307168876,594.90596921708,600.3618374323,598.39351242222,599.06228729639,596.55284613101,598.23819886605,598.49433146354,597.58229145428,595.66010489401,600.22979624889,600.42129861289,598.62680800209,599.6702099203,597.11393259972,599.25290619604,598.98810647351,598.93294902006,596.94930702422,600.22979624889,597.6894410713,597.6894410713,599.34007801483,599.34007801483,-0.25688201235424,-0.13683151652836,-2.6818655925185,3.2131687222185,3.3876451304355,2.0431604766981,-2.1450387743162,0.060640155965463,2.2801005506828,0.028857979990424,0.43866178918085,-10.038038797936,0.080675232737611,-0.8431081339493,3.5194242277479,-5.3203757956981,-0.89882065799937,6.9474606868404,-1.5472707527248,-3.9069341670478,-0.37773888645155,1.8670676499055,0.28717952709378,-5.6077423236242,1.5071178100142,-6.3111263015244,0.62402037801204,1.3327419998621,-0.70610424988933,-0.46634354524262,1.2450319596754,0.31855219485813,0.087738125736039,-5.942209906101,-0.74952787052876,-2.0749221843996,8.310503926126,-1.5762554701993,0.71617224418951,-0.13680621233412,0.64492876371758,-10.451093972701,-1.3042975135095,-1.6690316210274,-6.7907376776523,1.0901382105565,4.409630839531,-4.4035900073901,723.64845312611,723.64845312611,721.85919340141,721.85919340141,726.45744132912,725.01053606644,724.37709559987,722.24526884261,724.95340734207,724.84578860272,723.18136371451,721.31086562948,724.78919345139,726.25159943156,725.16361549335,725.52341958254,723.18730355528,726.18813119346,725.32274049921,723.39023563965,721.88167705448,725.32388540551,725.0477457024,724.78919345139,722.57498442251,721.14788195083,726.60375016605,724.63542515596,725.30420003014,722.79475886475,724.4801115998,724.73624419729,723.82420418803,721.90201762776,726.47170898264,726.66321134664,724.86872073584,725.91212265405,723.35584533347,725.49481892979,725.23001920726,725.17486175381,723.19121975797,726.47170898264,723.93135380505,723.93135380505,725.58199074858,725.58199074858,1755.7032235713,1610.549237936,776.26237545221,1890.5880677796,759.02241236096,0
5.7100000000001e-05,84047712.581495,3.8991081587771e-06,1.6964248940542e-05,4.2216479407533e-06,1.0092112758921,597.28067202486,597.28067202486,595.4792772041,595.4792772041,600.08458053571,598.61036307267,598.00609773641,595.85476621299,598.5828664913,598.45832141181,596.80839811605,594.92980393708,598.41180295071,599.89417744251,598.77537214772,599.1578572738,596.80814811011,599.8091410143,598.92547399461,597.01572968245,595.49463184619,598.94824664639,598.65861086468,598.41180295071,596.20072107926,594.76548059552,600.23669013806,598.23515908011,598.93691521666,596.40168865816,598.11261989012,598.35182218639,597.45087162155,595.52461018691,600.11075528343,600.30597058101,598.47701982969,599.54987182971,596.97090114272,599.13518186722,598.84585903253,598.8051500227,596.81725281195,600.11075528343,597.53669283411,597.53669283411,599.19480159956,599.19480159956,-0.25517648034304,-0.13647124724023,-2.7120436650265,3.247330579483,3.4153311959725,2.0632204008805,-2.1640674876428,0.06067932331214,2.3072274521963,0.028820752555577,0.44283650740457,-10.046639353612,0.083488752340476,-0.86103822521816,3.5544352785801,-5.3523039332588,-0.89754894394784,7.0161588138944,-1.5754208056949,-3.9420320544408,-0.38554873738679,1.8905546485124,0.29029045597438,-5.6510528992346,1.5216287475286,-6.307102467354,0.62563854661736,1.3477739827036,-0.71336326335802,-0.46927484878396,1.2602744257705,0.32074332419348,0.089139187123293,-5.9393625857833,-0.75978772710137,-2.1186016547369,8.4050359752127,-1.5851176403942,0.74434956066956,-0.13934971378556,0.64762621196263,-10.528265880762,-1.3135173329577,-1.70206639858,-6.8672881349126,1.1125990806126,4.4576556143453,-4.4608889942076,723.54819628932,723.54819628932,721.74680146855,721.74680146855,726.35210480017,724.87788733713,724.27362200086,722.12229047744,724.85039075576,724.72584567627,723.0759223805,721.19732820153,724.67932721516,726.16170170697,725.04289641217,725.42538153826,723.07567237457,726.07666527875,725.19299825907,723.2832539469,721.76215611064,725.21577091084,724.92613512913,724.67932721516,722.46824534371,721.03300485997,726.50421440252,724.50268334457,725.20443948112,722.66921292262,724.38014415458,724.61934645085,723.718395886,721.79213445137,726.37827954788,726.57349484546,724.74454409415,725.81739609417,723.23842540717,725.40270613167,725.11338329698,725.07267428716,723.0847770764,726.37827954788,723.80421709856,723.80421709856,725.46232586402,725.46232586402,1759.5777916318,1612.3674783116,779.55815069982,1890.8093203731,762.09094226703,0
5.7200000000001e-05,84773994.711612,3.9145870505631e-06,1.6994153061104e-05,4.2325155102651e-06,1.0092851506098,597.15384712929,597.15384712929,595.34048946357,595.34048946357,599.9522660804,598.45049975357,597.87603671403,595.70509478722,598.45309857082,598.31146286853,596.67653216628,594.78985939836,598.27520168944,599.77753740711,598.62761281229,599.03314158417,596.66981169793,599.67063513759,598.7685344154,596.88224376743,595.34855051496,598.81326383465,598.51001081522,598.27520168944,596.06761140932,594.62422495673,600.11025711966,598.07523454028,598.81048786273,596.24930986834,597.98599924498,598.20808496806,597.31854497878,595.38827227908,599.99056492761,600.18948097934,598.32575706448,599.42845782023,596.82666312896,599.0163798577,598.70227295697,598.67627775845,596.68419015553,599.99056492761,597.38252455388,597.38252455388,599.04806814417,599.04806814417,-0.25347667732069,-0.13602591394427,-2.742227814206,3.2810238274249,3.4426891340471,2.083359386876,-2.1830703674879,0.060714716241206,2.3342440318999,0.028775092673616,0.44701218143812,-10.055182406927,0.08637464554116,-0.87912668254101,3.5889849559168,-5.3839517122426,-0.8958217243331,7.0843543863943,-1.6033692788199,-3.9768968594707,-0.39341462025084,1.9140153050819,0.29337380137014,-5.6940887576946,1.5361225014086,-6.3031087211549,0.62715494012038,1.3628495156374,-0.72064037021069,-0.47209927561593,1.2754650812828,0.3229231727509,0.090559119841712,-5.9364446831889,-0.77004272961824,-2.1626770874781,8.4990531225985,-1.5938649024849,0.77307344570689,-0.14189364084861,0.65007193665326,-10.605042157567,-1.32241895417,-1.7352907569865,-6.9434780163287,1.1352299303882,4.5053740298975,-4.5178923541079,723.44722176545,723.44722176545,721.63386409974,721.63386409974,726.24564071656,724.74387438973,724.16941135019,721.99846942338,724.74647320698,724.6048375047,722.96990680245,721.08323403453,724.56857632561,726.07091204327,724.92098744845,725.32651622033,722.9631863341,725.96400977376,725.06190905156,723.17561840359,721.64192515113,725.10663847081,724.80338545138,724.56857632561,722.36098604548,720.91759959289,726.40363175582,724.36860917644,725.10386249889,722.5426845045,724.27937388114,724.50145960422,723.61191961495,721.68164691524,726.28393956377,726.4828556155,724.61913170065,725.7218324564,723.12003776512,725.30975449386,724.99564759313,724.96965239461,722.97756479169,726.28393956377,723.67589919004,723.67589919004,725.34144278033,725.34144278033,1763.3273261807,1614.1467242635,782.83759194591,1891.0302681184,765.16669748972,0
5.7300000000001e-05,85504905.230454,3.9301163426448e-06,1.702405893912e-05,4.2433702382983e-06,1.0093591209571,597.02606825921,597.02606825921,595.2009242066,595.2009242066,599.81859183883,598.28904456971,597.74500644169,595.55434894651,598.32219609201,598.16331124515,596.54386046474,594.64912404052,598.13748563201,599.65976907495,598.47843360533,598.90736517321,596.53038533299,599.53070857006,598.61002032994,596.74787210945,595.20152724763,598.67703112214,598.36004377541,598.13748563201,595.93374967274,594.48220795217,599.98254403712,597.91374920079,598.68301132268,596.09571709864,597.85834080685,598.06313034737,597.18531932998,595.25109501796,599.86922986049,600.0718329429,598.17302818787,599.3059726717,596.68122357648,598.89650233367,598.55735729183,598.54633863588,596.5501219265,599.86922986049,597.2269440384,597.2269440384,598.89988739009,598.89988739009,-0.25178286999126,-0.1354950781666,-2.7724106864397,3.3142376601193,3.4697128913766,2.1035813476073,-2.2020462819781,0.060746857513521,2.3611413593131,0.028721048506637,0.4511875842982,-10.06367196304,0.089334036032587,-0.89736759173409,3.6230557813744,-5.4153171083181,-0.8936368628672,7.1520300133914,-1.6310992864508,-4.0115217766747,-0.40133392764993,1.9374431225946,0.29642845261601,-5.7368431849169,1.5505946803942,-6.2991496270192,0.62857079396602,1.3779696303403,-0.72793495759586,-0.4748156305597,1.2905980042255,0.32509129325623,0.091997874928324,-5.9334591146602,-0.7802887615881,-2.207136234267,8.5925241982131,-1.6024954021844,0.8023369088637,-0.14443602674968,0.65225950101867,-10.681415395141,-1.3309969820114,-1.768692672206,-7.0192854247257,1.1580218436156,4.5527728506624,-4.5745815392158,723.34553142083,723.34553142083,721.52038736822,721.52038736822,726.13805500044,724.60850773133,724.0644696033,721.87381210812,724.64165925363,724.48277440677,722.86332362635,720.96858720214,724.45694879363,725.97923223657,724.79789676695,725.22682833482,722.8498484946,725.85017173168,724.92948349156,723.06733527107,721.52099040925,724.99649428376,724.67950693703,724.45694879363,722.25321283436,720.80167111378,726.30200719874,724.2332123624,725.0024744843,722.41518026026,724.17780396847,724.38259350898,723.50478249159,721.57055817957,726.18869302211,726.39129610452,724.49249134949,725.62543583332,723.0006867381,725.21596549529,724.87682045345,724.86580179749,722.86958508812,726.18869302211,723.54640720001,723.54640720001,725.21935055171,725.21935055171,1766.9530081642,1615.8859066781,786.10072624082,1891.2509218683,768.24971025183,0
5.7400000000001e-05,86240412.467348,3.9456953029966e-06,1.7053966564931e-05,4.2542122050644e-06,1.009433181968,596.89733821563,596.89733821563,595.06058836555,595.06058836555,599.68356476944,598.12600914855,597.61301376755,595.40253608687,598.19016460074,598.01387788684,596.41039050293,594.50760281879,597.99866373127,599.54087520598,598.32784374354,598.78053364785,596.38987305013,599.38936942642,598.44994346907,596.6126218451,595.05356920062,598.5395557282,598.20872106695,597.99866373127,595.79914301202,594.33943541321,599.85355686711,597.75071388285,598.55449191022,595.9409180109,597.72964872461,597.9169691707,597.05120266269,595.11308246418,599.74675501916,599.95302988225,598.01884206537,599.18242138387,596.53458782215,598.77555173236,598.41112141367,598.41533928323,596.41505125859,599.74675501916,597.06995947365,597.06995947365,598.75026946937,598.75026946937,-0.25009531515184,-0.13487834970132,-2.8025848425993,3.3469617791114,3.4963967024486,2.1238902267165,-2.2209941436763,0.06077628546793,2.3879105474532,0.028658680718769,0.45536148223048,-10.072111779162,0.092368056419264,-0.91575501149109,3.6566308094559,-5.4463982172826,-0.89099261468718,7.2191687391473,-1.658594360614,-4.0459002463022,-0.40930404684102,1.9608315335481,0.29945332599236,-5.7793095189114,1.5650408525151,-6.2952294758401,0.62988745190805,1.3931353842629,-0.73524640128387,-0.47742284160481,1.3056672887588,0.32724722777759,0.093455397209075,-5.9304086558132,-0.79052169545897,-2.2519667437832,8.6854189728153,-1.6110073063109,0.8321324548683,-0.1469749034516,0.6541825972957,-10.757378386923,-1.3392462561747,-1.8022600520552,-7.094689227108,1.1809657028393,4.5998391918107,-4.6309387545502,723.2431273225,723.2431273225,721.40637747242,721.40637747242,726.02935387631,724.47179825542,723.95880287442,721.74832519375,724.53595370762,724.35966699371,722.7561796098,720.85339192566,724.34445283814,725.88666431285,724.67363285041,725.12632275472,722.73566215701,725.73515853329,724.79573257595,722.95841095197,721.39935830749,724.88534483507,724.55451017382,724.34445283814,722.14493211889,720.68522452008,726.19934597398,724.09650298972,724.90028101709,722.28670711777,724.07543783148,724.26275827757,723.39699176956,721.45887157105,726.09254412603,726.29881898913,724.36463117224,725.52821049074,722.88037692902,725.12134083923,724.75691052055,724.7611283901,722.76084036546,726.09254412603,723.41574858053,723.41574858053,725.09605857624,725.09605857624,1770.456168312,1617.583952371,789.34758567821,1891.4712779763,771.3400090443,0
5.7500000000001e-05,86980484.532125,3.9613232130287e-06,1.7083875928564e-05,4.265041495321e-06,1.0095073287689,596.7676600443,596.7676600443,594.91948904056,594.91948904056,599.54719217202,597.96140553567,597.48006574046,595.24966387812,598.05700993788,597.86317446523,596.27612992563,594.36530087972,597.85874518558,599.42085883322,598.17585279602,598.65265282351,596.2482791658,599.24662618623,598.28831597767,596.4765002943,594.90468376042,598.40084519792,598.05605436503,597.85874518558,595.66379871415,594.1959133478,599.72330189671,597.5861398165,598.4249361599,595.78492058281,597.59992741573,597.76961258018,596.91620314172,594.97423888882,599.62314559427,599.83307547965,597.86320793423,599.05780917199,596.38676151437,598.65353075886,598.26357501907,598.283286542,596.27898154391,599.62314559427,596.91157941262,596.91157941262,598.59922489264,598.59922489264,-0.24841426062337,-0.13417538154902,-2.8327427643859,3.3791864003894,3.5227350956178,2.1442899652885,-2.2399129029622,0.060803552653955,2.4145427614215,0.028588062332445,0.45953263779662,-10.080505370897,0.095477849470624,-0.93428300494866,3.6896936102279,-5.4771932473256,-0.88788761842912,7.285754065864,-1.6858384995081,-4.080025953033,-0.41732236469116,1.9841739026289,0.30244736667235,-5.8214811426025,1.5794565531772,-6.2913522894982,0.63110636180035,1.4083478413676,-0.74257406371837,-0.47991995609339,1.320667056015,0.32939050701516,0.094931626035405,-5.9272959455036,-0.80073739969362,-2.2971562011789,8.7777081249569,-1.6193988051883,0.86245210402962,-0.14950831692336,0.65583504168591,-10.832924112909,-1.3471618493156,-1.8359807600937,-7.1696690425991,1.2040522086778,4.6465605392054,-4.6869469924925,723.1400117374,723.1400117374,721.29184073366,721.29184073366,725.91954386512,724.33375722876,723.85241743356,721.62201557122,724.42936163098,724.23552615832,722.64848161872,720.73765257281,724.23109687867,725.79321052632,724.54820448911,725.02500451661,722.62063085889,725.61897787932,724.66066767077,722.8488519874,721.27703545352,724.77319689101,724.42840605812,724.23109687867,722.03615040724,720.56826504089,726.0956535898,723.9584915096,724.79728785299,722.1572722759,723.97227910883,724.14196427328,723.28855483482,721.34659058191,725.99549728736,726.20542717274,724.23555962733,725.43016086508,722.75911320746,725.02588245196,724.63592671216,724.6556382351,722.65133323701,725.99549728736,723.28393110572,723.28393110572,724.97157658573,724.97157658573,1773.8382803905,1619.239785892,792.57820708178,1891.6913191153,774.43761853606,0
5.7600000000001e-05,87725089.380238,3.9769993680924e-06,1.7113787019751e-05,4.2758581979646e-06,1.0095815565831,596.63703703279,596.63703703279,594.77763349534,594.77763349534,599.40948167963,597.79524617971,597.34616960509,595.09574025644,597.92273823319,597.7112129656,596.14108652584,594.22222355802,597.71773942969,599.29972325906,598.02247067216,598.52372871896,596.1056082726,599.10248768421,598.12515039986,596.33951495562,594.75487853763,598.26090739398,597.90205568522,597.71773942969,595.52772420646,594.05164793691,599.59178571695,597.42003862624,598.29435082221,595.62773309898,597.46918156198,597.62107200193,596.78032910279,594.83456877046,599.49840702536,599.71197368491,597.70613539117,598.93214146239,596.23775060575,598.53044238278,598.11472811315,598.15018746064,596.14191642911,599.49840702536,596.75181276399,596.75181276399,598.44676453693,598.44676453693,-0.24673994609656,-0.13338586441513,-2.8628768626721,3.4109022526998,3.5487228857825,2.1647844764724,-2.258801540478,0.060829223622986,2.4410292315045,0.028509278176198,0.46369981289212,-10.08885601673,0.098664569389432,-0.95294567100379,3.7222283266147,-5.5077005167398,-0.88432088629606,7.3517699445748,-1.7128161937074,-4.1138928195163,-0.42538627423775,2.0074635364739,0.30540954836024,-5.8633514816093,1.593837293267,-6.2875218257688,0.63222906812996,1.4236080545557,-0.74991729161768,-0.48230614003284,1.3355914674132,0.33152064972974,0.096426496071363,-5.9241234879577,-0.81093174618227,-2.3426921664314,8.8693633486038,-1.6276681161875,0.89328741306468,-0.1520343428106,0.65721078736227,-10.908045735414,-1.3547390630126,-1.8698426381097,-7.244205301212,1.2272718983182,4.6929247419279,-4.7425900414397,723.03618712071,723.03618712071,721.17678358325,721.17678358325,725.80863176754,724.19439626762,723.745319693,721.49489034436,724.32188832111,724.11036305351,722.54023661375,720.62137364594,724.11688951761,725.69887334697,724.42162076008,724.92287880687,722.50475836052,725.50163777212,724.52430048777,722.73866504354,721.15402862555,724.66005748189,724.30120577313,724.11688951761,721.92687429437,720.45079802482,725.99093580486,723.81918871416,724.69350091013,722.02688318689,723.8683316499,724.02022208985,723.17947919071,721.23371885837,725.89755711327,726.11112377283,724.10528547909,725.33129155031,722.63690069367,724.9295924707,724.51387820106,724.54933754855,722.54106651702,725.89755711327,723.1509628519,723.1509628519,724.84591462485,724.84591462485,1777.1009521591,1620.8523315089,795.79263172173,1891.9110152178,777.54255950477,0
5.7700000000001e-05,88474194.875943,3.9927230783471e-06,1.7143699827935e-05,4.2866624059565e-06,1.009655860735,596.50547270725,596.50547270725,594.63502915286,594.63502915286,599.27044125053,597.62754391692,597.21133279694,594.94077341674,597.78735589922,597.55800567384,596.00526823964,594.07837637323,597.57565612526,599.17747205127,597.86770760889,598.39376755088,595.96186523347,598.95696310043,597.96045966391,596.20167350144,594.60416136086,598.11975048833,597.74673737006,597.57565612526,595.39092705233,593.90664553095,599.45901521627,597.25242231623,598.16274285865,595.4693641416,597.33741610488,597.47135913387,596.64358904603,594.69407679203,599.37254499617,599.58972871117,597.5476343794,598.80542388785,596.08756134521,598.40628983459,597.96459099765,598.01604928787,596.00385981101,599.37254499617,596.59066878038,596.59066878038,598.29289963335,598.29289963335,-0.24507260409507,-0.13250952257455,-2.8929794854035,3.442100580343,3.5743551778647,2.1853776161047,-2.2776590596488,0.060853873364017,2.4673612641749,0.028422424620624,0.46786177206678,-10.097166764387,0.1019293832509,-0.97173717594475,3.7542196712761,-5.5379184455336,-0.88029179693396,7.4172007981298,-1.7395124664505,-4.147495002639,-0.433493179138,2.030693690064,0.30833887559424,-5.9049139975797,1.6081785682256,-6.2837415834844,0.63325720583161,1.4389170485223,-0.75727541383916,-0.48458067445454,1.3504347364321,0.33363716209907,0.097939938136726,-5.9208936564115,-0.8211006179696,-2.3885622128761,8.9603573446061,-1.6358134862864,0.92462949681397,-0.15455110263706,0.65830392326349,-10.98273658338,-1.3619734281161,-1.9038335296536,-7.3182792415768,1.2506151651919,4.7389200355519,-4.7978525105387,722.93165612808,722.93165612808,721.06121257368,721.06121257368,725.69662467136,724.05372733775,723.63751621777,721.36695683757,724.21353932005,723.98418909467,722.43145166047,720.50455979406,724.00183954609,725.6036554721,724.29389102971,724.81995097171,722.3880486543,725.38314652126,724.38664308474,722.62785692227,721.03034478169,724.54593390916,724.17292079089,724.00183954609,721.81711047316,720.33282895178,725.8851986371,723.67860573706,724.58892627948,721.89554756243,723.76359952571,723.8975425547,723.06977246686,721.12026021286,725.798728417,726.015912132,723.97381780023,725.23160730868,722.51374476604,724.83247325542,724.39077441848,724.4422327087,722.43004323184,725.798728417,723.01685220121,723.01685220121,724.71908305418,724.71908305418,1780.245916819,1622.420515107,798.99090503579,1892.1303242505,780.65484877916,0
5.7800000000001e-05,89227768.853243,4.0084936691714e-06,1.7173614342276e-05,4.2974542160495e-06,1.0097302366543,596.37297082893,596.37297082893,594.49168359099,594.49168359099,599.13007915983,597.45831195555,597.07556293741,594.7847718048,597.65086962477,597.40356516326,595.86868314106,593.93376502607,597.43250515135,599.05410903878,597.71157415783,598.26277572847,595.81705517559,598.81006195028,597.79425706699,596.06298377312,594.45254027043,597.97738295359,597.59011207552,597.43250515135,595.2534149469,593.76091264586,599.32499757373,597.08330325537,598.03011943662,595.30982258099,597.20463624092,597.32048593359,596.50599162945,594.55276783738,599.24556542971,599.46634503033,597.38771517569,598.67766228282,595.93620026993,598.28107660169,597.81317425891,597.8808794661,595.8648158321,599.24556542971,596.42815704641,596.42815704641,598.13764175444,598.13764175444,-0.24341246090997,-0.13154610916942,-2.9230429256072,3.4727731418128,3.599627365882,2.206073156628,-2.2964844799828,0.060878085055913,2.4935302525798,0.028327609061963,0.472017285517,-10.105440436692,0.10527347267534,-0.99065178431295,3.7856529477355,-5.5678455535568,-0.8758000833763,7.4820315258245,-1.7659129024249,-4.1808268884425,-0.44164049930699,2.0538575738157,0.31123438351738,-5.9461621868731,1.6224758662351,-6.2800148081736,0.63419249361251,1.4542758029666,-0.76464773940036,-0.48674295293361,1.3651911398912,0.33573953733161,0.09947188010007,-5.917608696206,-0.83123991652313,-2.4347539646994,9.0506638635244,-1.6438331957907,0.95646905172081,-0.15705677997193,0.65910867768734,-11.056990148766,-1.3688606998096,-1.9379413027749,-7.3918729365715,1.2740722783608,4.7845350395292,-4.8527198417472,722.82642160023,722.82642160023,720.94513436228,720.94513436228,725.58352993112,723.91176272684,723.5290137087,721.23822257609,724.10432039606,723.85701593455,722.32213391235,720.38721579737,723.88595592264,725.50755981007,724.16502492912,724.71622649976,722.27050594688,725.26351272157,724.24770783828,722.51643454441,720.90599104172,724.43083372488,724.04356284681,723.88595592264,721.70686571819,720.21436341716,725.77844834502,723.53675402667,724.48357020791,721.76327335229,723.65808701221,723.77393670489,722.95944240074,721.00621860867,725.699016201,725.91979580162,723.84116594698,725.13111305411,722.38965104122,724.73452737298,724.2666250302,724.33433023739,722.3182666034,725.699016201,722.88160781771,722.88160781771,724.59109252573,724.59109252573,1783.2750240255,1623.9432663772,802.17307634836,1892.3491931595,783.77449919781,0
5.7900000000001e-05,89985779.174379,4.0243104816866e-06,1.7203530551664e-05,4.3082337285983e-06,1.0098046798787,596.23953539047,596.23953539047,594.34760453799,594.34760453799,598.98840399095,597.2875638601,596.93886782862,594.62774410926,597.51328636826,597.24790428127,595.73133943679,593.78839539479,597.28829659482,598.92963830723,597.55408117233,598.13075984786,595.67118348401,598.66179407424,597.62655625974,595.92345377604,594.30002351199,597.83381355428,597.43219275728,597.28829659482,595.11519571263,593.61445595922,599.18974025202,596.91269416215,597.89648792426,595.14911756589,597.07084741654,597.16846460602,596.36754566233,594.41064698762,599.11747448316,599.3418273683,597.22638837708,598.5488626786,595.78367419704,598.15480642427,597.66048875564,597.74468562456,595.72478887567,599.11747448316,596.26428746657,596.26428746657,597.98100280152,597.98100280152,-0.24175973752959,-0.13049540241526,-2.9530594313493,3.5029122072633,3.6245351184127,2.2268747620159,-2.3152768291639,0.060902447929292,2.5195276879914,0.028224949473025,0.47616513231971,-10.11367963816,0.10869803559116,-1.0096838887496,3.8165140594134,-5.597480454853,-0.87084582244361,7.5462474875627,-1.7920036756194,-4.2138830858333,-0.44982567636163,2.076948362645,0.31409513848108,-5.9870895765911,1.6367246773757,-6.2763444986002,0.63503672337386,1.4696852370005,-0.77203355510265,-0.48879247748603,1.3798550291324,0.33782725519248,0.10102224784009,-5.9142707282356,-0.84134556924384,-2.4812551328527,9.1402577185881,-1.6517255613899,0.9887963798323,-0.1595496364245,0.65961941966288,-11.13080007591,-1.375396855125,-1.9721538721015,-7.4649692943462,1.2976334021628,4.8297587525345,-4.9071783190592,722.72048657815,722.72048657815,720.82855572568,720.82855572568,725.46935517863,723.76851504779,723.4198190163,721.10869529694,723.99423755594,723.72885546896,722.21229062447,720.26934658247,723.76924778251,725.41058949491,724.03503236001,724.61171103554,722.15213467169,725.14274526192,724.10750744742,722.40440496373,720.78097469967,724.31476474196,723.91314394497,723.76924778251,721.59614690031,720.0954071469,725.67069143971,723.39364534983,724.37743911195,721.63006875357,723.55179860422,723.6494157937,722.84849685001,720.89159817531,725.59842567084,725.82277855598,723.70733956476,725.02981386628,722.26462538472,724.63575761195,724.14143994332,724.22563681225,722.20574006335,725.59842567084,722.74523865425,722.74523865425,724.4619539892,724.4619539892,1786.1902306187,1625.4195209395,805.33919860541,1892.5675587014,786.90151958413,0
5.8000000000001e-05,90748193.786064,4.0401728731724e-06,1.7233448444724e-05,4.3190010473505e-06,1.0098791860578,596.10517061189,596.10517061189,594.202799868,594.202799868,598.84542462715,597.11531353561,596.80125544836,594.46969925357,597.37461335102,597.09103613614,595.59324546095,593.64227353117,597.14304074068,598.80406419433,597.39523979435,597.99772668644,595.52425579511,598.51216962775,597.45737123092,595.78309167468,594.14661953004,597.68905133808,597.27299265719,597.14304074068,594.97627729488,593.46728230606,599.05325099058,596.74060808952,597.76185588531,594.98725851368,596.936055323,597.01530759107,596.2282600986,594.26771951736,598.98827854276,599.21618070022,597.06366488758,598.41903129836,595.62999021509,598.02748329093,597.50654560667,597.60747557253,595.58378356077,598.98827854276,596.0990702529,596.0990702529,597.82299499198,597.82299499198,-0.24011465054485,-0.12935720227118,-2.9830212127118,3.5325105561783,3.6490743947487,2.2477859633915,-2.3340351361214,0.060927555437297,2.545345171204,0.028114574074405,0.4803041034297,-10.121886762148,0.11220428806885,-1.0288280385558,3.8467895252093,-5.6268218532627,-0.86542942411991,7.6098345522183,-1.8177715765393,-4.2466584209096,-0.45804617702161,2.0999592044578,0.31692023996043,-6.027689722231,1.6509205019966,-6.2727334132427,0.63579175577612,1.4851461944268,-0.77943212372981,-0.49072885560888,1.3944208410134,0.33989978175261,0.10259096621333,-5.9108817527752,-0.85141353688445,-2.5280535501947,9.2291148163403,-1.6594889393372,1.02160141286,-0.16202802705394,0.65983066168884,-11.204160153561,-1.3815780907115,-2.0064592213794,-7.5375520761607,1.3212886156107,4.8745805814564,-4.9612150790774,722.61385429568,722.61385429568,720.71148355179,720.71148355179,725.35410831094,723.6239972194,723.30993913215,720.97838293736,723.88329703481,723.59971981993,722.10192914474,720.15095721496,723.65172442447,725.31274787812,723.90392347814,724.50641037023,722.0329394789,725.02085331154,723.96605491471,722.29177535847,720.65530321383,724.19773502187,723.78167634098,723.65172442447,721.48496097867,719.97596598985,725.56193467437,723.24929177331,724.2705395691,721.49594219747,723.44473900679,723.52399127486,722.73694378239,720.77640320115,725.49696222655,725.72486438401,723.57234857137,724.92771498215,722.13867389888,724.53616697472,724.01522929046,724.11615925632,722.09246724456,725.49696222655,722.60775393669,722.60775393669,724.33167867577,724.33167867577,1788.9935921248,1626.8482225808,808.48932812086,1892.7853483305,790.03591473468,0
5.8100000000001e-05,91514980.772567,4.0560802173821e-06,1.726336800983e-05,4.3297562792466e-06,1.0099537509552,595.96988093635,595.96988093635,594.05727759633,594.05727759633,598.70115024261,596.94157521158,596.66273394479,594.31064638767,597.23485805012,596.93297408344,595.45440966973,593.49540565643,596.99674806224,598.67739128492,597.2350614411,597.86368319707,595.37627798973,598.36119907062,597.28671629175,595.64190578751,593.99233696126,597.54310562662,597.11252528922,596.99674806224,594.83666775744,593.31939867466,598.91553779819,596.56705840951,597.62623107365,594.82425510043,596.80026589085,596.86102755121,596.08814403011,594.12399089054,598.85798421843,599.08941024521,596.89955590462,598.28817455203,595.47515567531,597.89911143399,597.35135617852,597.46925729227,595.44180473684,598.85798421843,595.93251591255,595.93251591255,597.66363084626,597.66363084626,-0.23847741299824,-0.12813132726773,-3.0129204529599,3.5615614735528,3.6732414188164,2.2688101365535,-2.3527584238265,0.060954002723315,2.5709744229728,0.027996620714259,0.48443300477063,-10.130063998056,0.11579346634594,-1.0480789666126,3.8764664812077,-5.6558685382895,-0.8595516181589,7.6727790575766,-1.8432040354343,-4.2791479306964,-0.46629949869603,2.1228832286423,0.31970881989863,-6.0679562058221,1.6650588598381,-6.2691840772097,0.63645950662387,1.5006594299479,-0.7868426819205,-0.49255179602276,1.4088831076565,0.34195656908606,0.10417796009102,-5.9074436532878,-0.86143982073328,-2.575137204689,9.3172121592489,-1.6671217285365,1.0548737379558,-0.16449041511296,0.65973705875533,-11.277064307503,-1.387400818172,-2.0408454247697,-7.6096058921337,1.345027931876,4.9189903183411,-5.0148181172009,722.50652814852,722.50652814852,720.59392480849,720.59392480849,725.23779745477,723.47822242374,723.19938115695,720.84729359983,723.77150526229,723.4696212956,721.99105688189,720.03205286859,723.5333952744,725.21403849708,723.77170865326,724.40033040924,721.91292520189,724.89784628279,723.82336350392,722.17855299967,720.52898417343,724.07975283879,723.64917250138,723.5333952744,721.3733149696,719.85604588682,725.45218501036,723.10370562168,724.16287828581,721.36090231259,723.33691310301,723.39767476338,722.62479124227,720.66063810271,725.39463143059,725.62605745738,723.43620311678,724.82482176419,722.01180288747,724.43575864615,723.88800339068,724.00590450443,721.978451949,725.39463143059,722.46916312471,722.46916312471,724.20027805843,724.20027805843,1791.6872523965,1628.2283255442,811.62352432802,1893.0024810514,793.17768542187,0
5.8200000000001e-05,92286108.406282,4.0720319047355e-06,1.7293289235106e-05,4.3404995342146e-06,1.0100283704512,595.83367102572,595.83367102572,593.91104587481,593.91104587481,598.55559029367,596.76636342616,596.52331163127,594.15059487971,597.09402819134,596.7737317127,595.31484063605,593.34779815699,596.8494292114,598.54962440588,597.07355779177,597.72863650225,595.22725618615,598.20889315666,597.11460606045,595.49990458198,593.83718462786,597.39598600648,596.95080442582,596.8494292114,594.69637527793,593.17081220216,598.77660894577,596.39205879792,597.48962142802,594.66011725082,596.66348528435,596.705637359,595.9472066799,593.97946675627,598.72659833831,598.96152146114,596.73407290543,598.15629903111,595.31917818267,597.76969532465,597.1949320729,597.33003893208,595.29885747819,598.72659833831,595.76463523523,595.76463523523,597.50292317505,597.50292317505,-0.23684823513928,-0.12681761233042,-3.0427493176153,3.590058744519,3.697032686552,2.2899504834581,-2.3714457022854,0.060982384383213,2.5964072960383,0.027871236564879,0.48855066024996,-10.138213338893,0.11946682892329,-1.0674316139133,3.9055326928429,-5.6846193812076,-0.85321344525667,7.735067841273,-1.8682891402305,-4.3113468563967,-0.47458317339577,2.1457135564988,0.32246004436619,-6.1078826350382,1.6791352987819,-6.2656987897701,0.63704194007125,1.516225597607,-0.79426443837138,-0.49426110508202,1.4232364669566,0.34399705521071,0.10578315543204,-5.9039582002947,-0.87142047012822,-2.6224942705221,9.4045278677924,-1.6746223737149,1.0886026214189,-0.16693538553925,0.65933341026369,-11.349506594096,-1.3928616642279,-2.0753006679178,-7.6811162088825,1.3688413171008,4.962978159174,-5.0679762886471,722.39851170757,722.39851170757,720.47588655666,720.47588655666,725.12043097552,723.33120410801,723.08815231312,720.71543556156,723.65886887319,723.33857239455,721.8796813179,719.91263883884,723.41426989325,725.11446508773,723.63839847362,724.2934771841,721.792096868,724.77373383851,723.6794467423,722.06474526383,720.40202530971,723.96082668833,723.51564510767,723.41426989325,721.26121595978,719.73565288402,725.34144962762,722.95689947977,724.05446210987,721.22495793267,723.2283259662,723.27047804085,722.51204736175,720.54430743812,725.29143902016,725.52636214299,723.29891358728,724.72113971297,721.88401886452,724.3345360065,723.75977275475,723.89487961393,721.86369816004,725.29143902016,722.32947591708,722.32947591708,724.06776385691,724.06776385691,1794.2734350554,1629.5587968532,814.74184954346,1893.2188682474,796.32682841684,0
5.8300000000001e-05,93061545.195947,4.0880273425567e-06,1.7323212108442e-05,4.3512309249459e-06,1.0101030405444,595.69654575579,595.69654575579,593.76411298697,593.76411298697,598.40875450977,596.58969301016,596.38299698095,593.98955430755,596.95213174169,596.61332283391,595.17454704412,593.19945757993,596.70109500875,598.42076862076,596.91074077407,597.59259388811,595.0771967328,598.05526292298,596.9410554466,595.35709666934,593.6811715307,597.24770231979,596.78784408399,596.70109500875,594.55540814325,593.02153017002,598.63647295884,596.21562321891,597.35203506651,594.49485512803,596.52571989564,596.54915008459,595.80545739545,593.83415294426,598.59412794318,598.83252003911,596.56722763337,598.02341150335,595.16206558676,597.63923966782,597.03728511421,597.18982879915,595.15494707815,598.59412794318,595.59543928054,595.59543928054,597.34088506622,597.34088506622,-0.23522732506918,-0.12541590592354,-3.0724999626855,3.6179966501007,3.7204449533807,2.311210011461,-2.3900959625026,0.061013292432499,2.6216357842967,0.027738577477596,0.49265591438946,-10.1463365883,0.12322565871017,-1.0868811523889,3.933976553833,-5.7130733328681,-0.84641623948651,7.796688229843,-1.8930156570567,-4.3432506377744,-0.48289477087558,2.1684433088379,0.32517311280739,-6.1474626428537,1.69314540267,-6.262279630989,0.6375410572767,1.5318452387651,-0.80169657230051,-0.49585668267326,1.4374756706867,0.34602066400413,0.10740648037618,-5.9004270550253,-0.88135158896426,-2.6701131381027,9.4910411797036,-1.6819893685083,1.122777036089,-0.16936165738831,0.65861465855248,-11.42148119604,-1.3979574619615,-2.1098132685957,-7.752069345242,1.3927187091052,5.0065346921567,-5.1206793130344,722.28980871624,722.28980871624,720.35737594742,720.35737594742,725.00201747022,723.18295597061,722.9762599414,720.582817268,723.54539470214,723.20658579436,721.76781000457,719.79272054038,723.2943579692,725.01403158121,723.50400373452,724.18585684856,721.67045969325,724.64852588343,723.53431840705,721.95035962979,720.27443449115,723.84096528024,723.38110704444,723.2943579692,721.1486711037,719.61479313047,725.22973591929,722.80888617936,723.94529802696,721.08811808848,723.11898285609,723.14241304504,722.3987203559,720.42741590471,725.18739090363,725.42578299956,723.16049059382,724.6166744638,721.75532854721,724.23250262827,723.63054807466,723.7830917596,721.7482100386,725.18739090363,722.18870224099,722.18870224099,723.93414802667,723.93414802667,1796.7544355805,1630.8386187689,817.84436872277,1893.4344145618,799.48333649977,0
5.8400000000001e-05,93841259.931703,4.1040659551219e-06,1.7353136617497e-05,4.3619505667686e-06,1.0101777573536,595.55851021136,595.55851021136,593.61648734321,593.61648734321,598.26065288445,596.41157907113,596.24179862146,593.8275344503,596.80917690201,596.4517614641,595.03353768405,593.05039062848,596.55175643372,598.29082922427,596.74662255078,597.45556279838,594.92610620084,597.90031967939,596.76607963566,595.21349079949,593.5243068425,597.0982646549,596.62365851144,596.55175643372,594.4137747449,592.87155999939,598.49513860996,596.03776590969,597.21348028098,594.32847912351,596.38697633865,596.39157898331,595.66290564187,593.68805546022,598.46058028069,598.70241189773,596.39903208423,597.88951890729,595.00382597261,597.5077493968,596.87842733695,597.0486353524,595.01007904307,598.46058028069,595.42493936527,595.42493936527,597.17752987183,597.17752987183,-0.23361488934711,-0.12392606961852,-3.1021645471401,3.6453699585348,3.7434752274052,2.3325915181929,-2.4087081690951,0.061047313725138,2.6466520352094,0.02759880772542,0.49674763533337,-10.15443537071,0.12707126503668,-1.1064230046088,3.9617870903024,-5.7412294166178,-0.8391616200836,7.8576280465717,-1.9173730399806,-4.3748549048718,-0.49123190319945,2.1910656183136,0.3278472602412,-6.1866898863496,1.7070848007932,-6.2589284713239,0.63795888567902,1.5475187724829,-0.80913823158599,-0.49733851808539,1.4515955940178,0.34802680531759,0.10904786628968,-5.896851774879,-0.89122934274185,-2.7179824412618,9.5767324567043,-1.6892212575057,1.1573856859854,-0.17176809449442,0.65757588883962,-11.492982411505,-1.4026852534407,-2.1443716966298,-7.8224524676797,1.416650036056,5.0496509099718,-5.1729177654788,722.18042308937,722.18042308937,720.23840022122,720.23840022122,724.88256576246,723.03349194914,722.86371149947,720.44944732831,723.43108978002,723.07367434211,721.65545056205,719.67230350649,723.17366931173,724.91274210228,723.36853542878,724.07747567639,721.54801907885,724.5222325574,723.38799251366,721.8354036775,720.14621972051,723.72017753291,723.24557138944,723.17366931173,721.03568762291,719.49347287739,725.11705148796,722.65967878769,723.83539315898,720.95039200151,723.00888921666,723.01349186132,722.28481851988,720.30996833822,725.08249315869,725.32432477574,723.02094496223,724.5114317853,721.62573885061,724.12966227481,723.50034021496,723.6705482304,721.63199192107,725.08249315869,722.04685224328,722.04685224328,723.79944274983,723.79944274983,1799.1326117451,1632.0667911008,820.93114925929,1893.6490186836,802.64719852907,0
5.8500000000001e-05,94625221.727501,4.1201471837326e-06,1.738306274971e-05,4.3726585773792e-06,1.0102525171191,595.41956968105,595.41956968105,593.4681774759,593.4681774759,598.11129566608,596.23203697758,596.09972532948,593.66454527977,596.66517209928,596.28906181396,594.89182144633,592.90060415716,596.40142461477,598.15981173646,596.58121550631,597.3175508283,594.77399137655,597.74407499765,596.58969407349,595.06909585577,593.36659990089,596.9476833369,596.45826217283,596.40142461477,594.27148357433,592.72090924634,598.35261491099,595.85850136517,597.07396553149,594.16099984671,596.24726144293,596.23293748325,595.51956099512,593.54118048094,598.32596279953,598.5712031773,596.22949849246,597.75462834677,594.84446765124,597.37522966767,596.71837097321,596.90646719524,594.86425908606,598.32596279953,595.25314705073,595.25314705073,597.01287119519,597.01287119519,-0.23201113331697,-0.12234797569718,-3.131735239853,3.6721739199062,3.7661207643843,2.3540975772186,-2.4272812553207,0.061085027982592,2.6714483590392,0.027452099458441,0.50082471736161,-10.162511137148,0.13100498578857,-1.126052861061,3.9889539613507,-5.7690867288575,-0.83145147452274,7.917875616964,-1.9413514453844,-4.4061554731127,-0.49959222659987,2.2135736371926,0.33048175702943,-6.2255580491864,1.7209491752221,-6.2556469779386,0.63829746892757,1.5632464873024,-0.81658853162626,-0.49870668610802,1.4655912430559,0.35001487518297,0.1107072489638,-5.8932338161318,-0.90104996505754,-2.766091082576,9.661583185581,-1.6963166396252,1.1924170325114,-0.17415371454835,0.65621232858814,-11.564004655485,-1.4070422809529,-2.1789645929031,-7.8922535847442,1.4406252337662,5.0923182071581,-5.2246830785774,722.07035891718,722.07035891718,720.11896671203,720.11896671203,724.76208490221,722.88282621371,722.75051456562,720.3153345159,723.31596133541,722.9398510501,721.54261068246,719.55139339329,723.0522138509,724.81060097259,723.23200474244,723.96834006443,721.42478061268,724.39486423378,723.24048330962,721.7198850919,720.01738913702,723.59847257303,723.10905140897,723.0522138509,720.92227281046,719.37169848247,725.00340414712,722.5092906013,723.72475476762,720.81178908285,722.89805067906,722.88372671938,722.17035023125,720.19196971707,724.97675203566,725.22199241343,722.88028772859,724.4054175829,721.49525688737,724.0260189038,723.36916020934,723.55725643137,721.51504832219,724.97675203566,721.90393628687,721.90393628687,723.66366043132,723.66366043132,1801.4103755305,1633.2423336724,824.00226076085,1893.8625741634,805.81839947812,0
5.8600000000001e-05,95413400.061712,4.1362704866908e-06,1.7412990492308e-05,4.3833550766825e-06,1.0103273162038,595.27972965181,595.27972965181,593.3191920344,593.3191920344,597.96069334858,596.05108234309,595.95678602523,593.50059695183,596.52012597875,596.12523827447,594.74940731637,592.75010516687,596.25011081947,598.0277218967,596.41453223325,597.17856571831,594.62085925349,597.58654070062,596.41191445091,594.92392084969,593.20806020141,596.79596891793,596.29166973599,596.25011081947,594.12854321819,592.56958559701,598.20891110525,595.67784432275,596.93349944053,593.99242811486,596.10658224712,596.07323917283,595.37543313516,593.39353434928,598.19028314337,598.43890023361,596.05863931748,597.61874708521,594.68399915024,597.24168585342,596.55712844007,596.76333306835,594.71749312055,598.19028314337,595.08007412996,595.08007412996,596.84692287774,596.84692287774,-0.23041626138326,-0.1206815070756,-3.1612042308066,3.6984042572489,3.78837905418,2.3757305251144,-2.4458141172924,0.061127005445303,2.6960172393095,0.027298632285871,0.50488608327087,-10.170565174806,0.13502818944153,-1.1457666941249,4.0154674553769,-5.7966444349337,-0.82328794818132,7.9774197582115,-1.9649417370874,-4.4371483359647,-0.50797344502733,2.2359605483386,0.3330759087612,-6.2640608422796,1.7347342687206,-6.2524366236894,0.63855885482126,1.5790285334247,-0.82404655414727,-0.49996134272911,1.4794577623024,0.35198425615875,0.11238456969242,-5.889574538988,-0.9108097636822,-2.8144282558768,9.7455759712416,-1.7032741701635,1.2278593185806,-0.17651769614815,0.65451934574071,-11.634542453624,-1.4110259867625,-2.2135807876063,-7.9614615348395,1.4646342626971,5.1345283701676,-5.2759675294205,721.95962044731,721.95962044731,719.9990828299,719.9990828299,724.64058414408,722.73097313859,722.63667682073,720.18048774733,723.20001677425,722.80512906997,721.42929811187,719.42999596237,722.93000161496,724.7076126922,723.09442302875,723.85845651381,721.30075004899,724.26643149612,723.09180524641,721.60381164519,719.88795099691,723.47585971343,722.97156053149,722.93000161496,720.80843401369,719.24947639251,724.88880190075,722.35773511825,723.61339023603,720.67231891036,722.78647304262,722.75312996833,722.05532393066,720.07342514478,724.87017393887,725.11879102911,722.73853011298,724.29863788071,721.36388994574,723.92157664892,723.23701923556,723.44322386385,721.39738391605,724.87017393887,721.75996492545,721.75996492545,723.52681367324,723.52681367324,1803.5901872387,1634.3642888216,827.05777483414,1894.0749702032,808.99692050283,0
5.8700000000001e-05,96205764.814706,4.1524353392655e-06,1.7442919832311e-05,4.3940401866564e-06,1.0104021510937,595.13899580339,595.13899580339,593.16953978006,593.16953978006,597.8088566621,595.8687310108,595.81298976694,593.33569979787,596.37404739603,595.96030540369,594.60630436899,592.59890079986,596.0978264447,597.89456565752,596.24658551899,597.03861534785,594.46671702463,597.42772885146,596.23275668846,594.77797491565,593.04869739054,596.64313216764,596.12389605826,596.0978264447,593.98496235359,592.41759686263,598.06403665955,595.49580974717,596.79209078729,593.82277494264,595.96494599242,595.91249778856,595.23053183916,593.24512356888,598.05354914471,598.30550963176,595.88646722998,597.48188253991,594.52242920417,597.10712353798,596.39471232713,596.61924184234,594.5697872537,598.05354914471,594.90573261505,594.90573261505,596.67969898619,596.67969898619,-0.22883047708876,-0.11892655649174,-3.1905637411973,3.7240571594818,3.8102478142228,2.3974924515216,-2.4643056089139,0.061173804708246,2.7203513428318,0.02713859286381,0.50893068681067,-10.178598615523,0.13914227694248,-1.1655607694761,4.0413184903193,-5.8239017662394,-0.81467342938224,8.0362497871392,-1.9881354938104,-4.467829659246,-0.51637331242019,2.258219574797,0.33562905733257,-6.3021920060462,1.7484358926842,-6.2492986951058,0.63874508440907,1.5948649169891,-0.83151134613015,-0.50110272151881,1.4931904416634,0.3539343177839,0.11407977637859,-5.8858752119892,-0.92050512657791,-2.8629834672157,9.8286945384247,-1.7100925629063,1.2637005946341,-0.17885938392543,0.65249244810977,-11.704590438908,-1.4146340078086,-2.248209317918,-8.0300659800662,1.4886671246791,5.1762735834433,-5.3267642348658,721.8482120839,721.8482120839,719.87875606057,719.87875606057,724.51807294261,722.57794729131,722.52220604746,720.04491607838,723.08326367654,722.6695216842,721.3155206495,719.30811708037,722.80704272521,724.60378193803,722.9558017995,723.74783162836,721.17593330514,724.13694513197,722.94197296897,721.48719119616,719.75791367105,723.35234844815,722.83311233877,722.80704272521,720.6941786341,719.12681314314,724.77325294006,722.20502602768,723.5013070678,720.53199122315,722.67416227293,722.62171406907,721.93974811967,719.95433984939,724.76276542522,725.01472591227,722.59568351049,724.19109882042,721.23164548468,723.81633981849,723.10392860764,723.32845812285,721.27900353421,724.76276542522,721.61494889556,721.61494889556,723.3889152667,723.3889152667,1805.674546972,1635.4317237815,830.09776489375,1894.2860924102,812.1827390195,0
5.8800000000001e-05,97002286.304761,4.1686412335318e-06,1.7472850756549e-05,4.4047140310218e-06,1.0104770183988,594.99737400236,594.99737400236,593.01922958118,593.01922958118,597.65579656353,595.68499903776,595.66834574535,593.16986431611,596.226945409,595.79427791359,594.46252176286,592.44699833449,595.94458300688,597.76034917817,596.07738833235,596.89770772895,594.31157207422,597.26765174278,596.05223692117,594.63126730562,592.88852125864,596.48918406333,595.9549561729,595.94458300688,593.84074974328,592.26495097442,597.91800125611,595.31241281553,596.64974850178,593.65205153192,595.82236011572,595.75072720277,595.08486697465,593.09595479878,597.91576881864,598.17103813963,595.71299509831,597.34404227613,594.35976674493,596.97154850986,596.23113538406,596.47420251038,594.42114777948,597.91576881864,594.73013472451,594.73013472451,596.51121379955,596.51121379955,-0.22725398296571,-0.11708302636278,-3.2198060322857,3.7491292693761,3.8317249768405,2.4193851924086,-2.4827545373197,0.061225970723068,2.7444435291931,0.026972174534158,0.51295751470955,-10.186612443132,0.14334868349107,-1.1854316545225,4.0664986011795,-5.8508580194197,-0.80561053645639,8.0943555136559,-2.0109250046595,-4.4981957736297,-0.52478963456552,2.2803439903517,0.33814058100087,-6.3399453143481,1.7620499338322,-6.2462343008552,0.63885817985306,1.6107554954352,-0.83898191920735,-0.50213112929859,1.5067847226453,0.35586441728371,0.11579282464532,-5.882137015454,-0.93013252743015,-2.911746553549,9.9109237076063,-1.7167705922878,1.2999287429682,-0.18117829162756,0.65012728003991,-11.774143352154,-1.4178641721444,-2.2828394449352,-8.0980573846079,1.5127138786359,5.2175464224969,-5.3770671315081,721.73613838757,721.73613838757,719.75799396638,719.75799396638,724.39456094873,722.42376342297,722.40711013056,719.90862870132,722.96570979421,722.53304229879,721.20128614806,719.18576271969,722.68334739209,724.49911356337,722.81615271756,723.63647211416,721.05033645943,724.00641612799,722.79100130638,721.37003169082,719.62728564385,723.22794844853,722.69372055811,722.68334739209,720.57951412848,719.00371535963,724.65676564132,722.05117720073,723.38851288699,720.39081591713,722.56112450093,722.48949158798,721.82363135986,719.83471918399,724.65453320385,724.90980252483,722.45175948352,724.08280666134,721.09853113014,723.71031289507,722.96989976927,723.21296689559,721.15991216469,724.65453320385,721.46889910972,721.46889910972,723.24997818475,723.24997818475,1807.6659894629,1636.4437331405,833.12230597581,1894.495823566,815.37582878821,0
5.8900000000001e-05,97802935.321747,4.1848876783733e-06,1.7502783251655e-05,4.4153767352623e-06,1.0105519148537,594.85487029614,594.85487029614,592.86827040791,592.86827040791,597.50152422703,595.49990267977,595.52286327802,593.00310116304,596.07882926962,595.62717065705,594.318068735,592.29440517988,595.79039213223,597.62507881796,595.9069538104,596.75585099977,594.15543196967,597.10632188575,595.87037148367,594.48380738381,592.72754173293,596.33413578024,595.78486527571,595.79039213223,593.69591423086,592.11165597849,597.77081478445,595.12766890245,596.50648165892,593.48026926159,595.6788322427,595.58794141163,594.93844849278,592.94603484784,597.77695035638,598.03549272126,595.53823597499,597.20523400116,594.19602089207,596.83496675575,596.06641050828,596.32822418088,594.2715811718,597.77695035638,594.5532928707,594.5532928707,596.34148179631,596.34148179631,-0.22568698027075,-0.11515082875638,-3.2489234158432,3.7736176787011,3.8528086814059,2.4414103213013,-2.5011596588212,0.06128403276703,2.7682868610454,0.026799576948501,0.5169655887575,-10.194607503101,0.14764887997562,-1.2053762230356,4.0909999438293,-5.8775125519745,-0.79610210437707,8.1517272436255,-2.0333032754958,-4.5282431706378,-0.53322027079335,2.3023271298789,0.34060989472091,-6.3773145763303,1.7755723615775,-6.2432443797071,0.63890013360466,1.6266999733107,-0.84645724890067,-0.50304694244977,1.5202362050463,0.35777390026275,0.11752367888149,-5.8783610466308,-0.93968853086464,-2.9607076978386,9.9922494005604,-1.7233070946714,1.3365315016701,-0.18347410274927,0.64741962349818,-11.843196036097,-1.42071449506,-2.3174606689156,-8.1654270052375,1.5367646553158,5.2583398522441,-5.4268709679015,721.62340407015,721.62340407015,719.63680418192,719.63680418192,724.27005800104,722.26843645378,722.29139705202,719.77163493705,722.84736304363,722.39570443106,721.08660250901,719.06293895389,722.55892590624,724.39361259197,722.67548758441,723.52438477378,720.92396574368,723.87485565976,722.63890525767,721.25234115782,719.49607550693,723.10266955425,722.55339904972,722.55892590624,720.46444800487,718.8801897525,724.53934855846,721.89620267645,723.27501543293,720.2488030356,722.4473660167,722.35647518564,721.70698226679,719.71456862185,724.54548413039,724.80402649527,722.306769749,723.97376777517,720.96455466608,723.60350052975,722.83494428229,723.09675795489,721.0401149458,724.54548413039,721.32182664471,721.32182664471,723.11001557032,723.11001557032,1809.5670778111,1637.3994412123,836.13147454457,1894.7040442914,818.57616001137,0
5.9000000000001e-05,98607683.159632,4.2011741991639e-06,1.7532717304088e-05,4.4260284263097e-06,1.0106268373173,594.71149090666,594.71149090666,592.71667132713,592.71667132713,597.34605103447,595.31345837609,595.3765518037,592.83542114484,595.92970841557,595.458998615,594.1729545952,592.14112887051,595.63526554707,597.48876112949,595.73529524528,596.61305341817,593.99830445322,596.94375199922,595.68717689526,594.33560462131,592.56576887039,596.17799868169,595.61363871165,595.63526554707,593.55046473593,591.95772003051,597.62248733305,594.94159356541,596.36229947254,593.30743967735,595.53437018059,595.42415452306,594.79128642146,592.795370669,597.63710211875,597.89888053002,595.36220308326,597.06546555821,594.03120094307,596.6973844537,595.90055073263,596.18131607008,594.12109407726,597.63710211875,594.37521964732,594.37521964732,596.17051764169,596.17051764169,-0.22412966844942,-0.11312988560415,-3.277908263021,3.7975199143291,3.8734972614544,2.4635691476901,-2.5195196759944,0.061348502621308,2.7918746111849,0.026621005757941,0.52095396749563,-10.202584510015,0.15204437431916,-1.2253916582324,4.1148152834928,-5.903864783665,-0.78615117067364,8.2083557738876,-2.0552640194961,-4.5579684958019,-0.54166313527171,2.3241623976837,0.3430364504463,-6.4142936433959,1.7889992339642,-6.2403297091966,0.63887289625456,1.6426979005649,-0.8539362746851,-0.50385060370699,1.5335406508398,0.35966210181093,0.11927231329203,-5.8745483232499,-0.94916979717764,-3.0098574440654,10.072658624904,-1.7297009702392,1.3734964885794,-0.18574666952209,0.64436539474776,-11.911743440924,-1.4231831738994,-2.352062744523,-8.2321668801843,1.5608096717726,5.2986472227386,-5.4761712848165,721.51001399578,721.51001399578,719.51519441626,719.51519441626,724.14457412359,722.11198146521,722.17507489283,719.63394423396,722.72823150469,722.25752170412,720.97147768432,718.93965195963,722.4337886362,724.28728421861,722.5338183344,723.41157650729,720.79682754234,723.74227508834,722.48569998438,721.13412771043,719.36429195951,722.97652177081,722.41216180078,722.4337886362,720.34898782505,718.75624311963,724.42101042217,721.74011665453,723.16082256167,720.10596276647,722.33289326971,722.22267761218,721.58980951058,719.59389375812,724.43562520787,724.69740361914,722.16072617238,723.86398864733,720.82972403219,723.49590754283,722.69907382175,722.9798391592,720.91961716638,724.43562520787,721.17374273644,721.17374273644,722.96904073081,722.96904073081,1812.1148721824,1638.2980044159,839.12534831889,1894.9106337716,821.78369943332,0
5.9100000000001e-05,99416501.647257,4.2175003377535e-06,1.7562652900133e-05,4.4366692324363e-06,1.0107017827733,594.56724222391,594.56724222391,592.56444149732,592.56444149732,597.18938856578,595.12568273451,595.22942087668,592.66683520876,595.77959246183,595.2897768836,594.02718872046,591.98717706056,595.47921506821,597.35140285157,595.56242607116,596.46932335504,593.84019743351,596.77995499878,595.50266984531,594.18666859066,592.40321285075,596.02078430912,595.44129196169,595.47921506821,593.40441024915,591.80315139046,597.473029181,594.75420253024,596.21721128935,593.13357448154,595.38898191097,595.25938074491,594.64339085863,592.64396935335,597.4962326295,597.76120890156,595.18490980378,596.92474492026,593.86531636352,596.55880796635,595.73356921322,596.03348749458,593.96969330792,597.4962326295,594.195927817,594.195927817,595.9983361749,595.9983361749,-0.22258224456704,-0.11102012923212,-3.3067530140898,3.8208339312942,3.8937892338268,2.4858627134636,-2.537833234199,0.061419872742985,2.8152002729629,0.026436672292367,0.5249217479147,-10.210544056148,0.15653671241261,-1.2454754518864,4.1379379787995,-5.929914194424,-0.77576096296803,8.264232389045,-2.0768016531193,-4.587368544144,-0.55011619784513,2.3458432787377,0.34541973706887,-6.4508764131493,1.802326704095,-6.2374909133417,0.6387783653053,1.6587486708283,-0.86141789958231,-0.50454261766138,1.5466939903779,0.36152834758441,0.1210387128912,-5.8706997879141,-0.95857308683489,-3.0591867084216,10.152139437836,-1.7359511842032,1.4108112239368,-0.187996009371,0.64096064179529,-11.97978062235,-1.4252685850518,-2.3866356945319,-8.2982697941383,1.5848392446462,5.3384622630466,-5.5249643979936,721.39597316418,721.39597316418,719.39317243759,719.39317243759,724.01811950605,721.95441367478,722.05815181695,719.49556614902,722.6083234021,722.11850782387,720.85591966073,718.81590800082,722.30794600848,724.18013379184,722.39115701143,723.29805429531,720.66892837378,723.60868593904,722.33140078558,721.01539953093,719.23194379102,722.84951524939,722.27002290195,722.30794600848,720.23314118942,718.63188233073,724.30176012127,721.58293347051,723.04594222961,719.96230542181,722.21771285124,722.08811168518,721.4721217989,719.47270029362,724.32496356977,724.58993984183,722.01364074404,723.75347586053,720.69404730379,723.38753890662,722.56230015348,722.86221843485,720.79842424819,724.32496356977,721.02465875727,721.02465875727,722.82706711517,722.82706711517,1815.2142850944,1639.1386136229,842.1040061266,1895.1154704371,824.99841045185,0
5.9200000000001e-05,100229363.17814,4.2338656521781e-06,1.7592590025907e-05,4.4472992830381e-06,1.0107767483303,594.42213079931,594.42213079931,592.41159016333,592.41159016333,597.03154858932,594.93659251671,595.08148016099,592.49735443469,595.62849119214,595.11952066182,593.88078054946,591.83255751831,595.32225259346,597.21301090207,595.38835985145,596.32466928779,593.68111897722,596.61494398596,595.31686717882,594.03700896045,592.23988396947,595.86250437226,595.2678406298,595.32225259346,593.25775982746,591.64795841721,597.32245078958,594.56551167696,596.07122658274,592.95868552321,595.24267558224,595.09363437335,594.49477196549,592.4918381242,597.35435056851,597.62248534668,595.00636966153,596.78308018376,593.69837677748,596.4192438337,595.56547921745,595.88474786404,593.81738583383,597.35435056851,594.01543029916,594.01543029916,595.82495239667,595.82495239667,-0.22104490227728,-0.10882150293863,-3.3354501874537,3.8435580995643,3.9136832859341,2.5082917944441,-2.5560989198778,0.061498614859968,2.8382575674661,0.026246793337956,0.52886806673433,-10.218486619179,0.16112747864135,-1.2656254012607,4.1603619846881,-5.9556603232466,-0.76493488679948,8.3193488554057,-2.0979112817458,-4.6164402543065,-0.55857748466611,2.3673633480852,0.34775928065723,-6.4870568358807,1.8155510253898,-6.2347284711755,0.63861837363864,1.6748515214864,-0.86890099068004,-0.50512354791083,1.5596923262886,0.36337195524766,0.12282287438063,-5.8668163117146,-0.96789526437877,-3.1086867887925,10.230680953719,-1.7420567676005,1.4484631519791,-0.19022229954421,0.63720154601977,-12.047302743451,-1.4269692802305,-2.421169822277,-8.3637292744185,1.6088438026953,5.3777790750683,-5.5732473710213,721.28128670452,721.28128670452,719.27074606853,719.27074606853,723.89070449452,721.79574842191,721.94063606619,719.3565103399,722.48764709735,721.97867656703,720.73993645467,718.69171342351,722.18140849867,724.07216680728,722.24751575666,723.183825193,720.54027488242,723.47409989117,722.17602308403,720.89616486566,719.09903987467,722.72166027747,722.12699653501,722.18140849867,720.11691573267,718.50711432241,724.18160669478,721.42466758217,722.93038248795,719.81784142842,722.10183148745,721.95279027856,721.3539278707,719.3509940294,724.21350647372,724.48164125189,721.86552556673,723.64223608897,720.55753268269,723.27839973891,722.42463512266,722.74390376925,720.67654173903,724.21350647372,720.87458620436,720.87458620436,722.68410830188,722.68410830188,1818.2005142934,1639.9204963602,845.0675276915,1895.3184325473,828.2202532449,0
5.9300000000001e-05,101046240.7397,4.2502697165223e-06,1.7622528667375e-05,4.4579187085175e-06,1.0108517312216,594.2761633389,594.2761633389,592.25812665125,592.25812665125,596.87254305223,594.74620462374,594.93273942469,592.32699002669,595.47641455043,594.94824523899,593.73373957699,591.67727812035,595.16439009216,597.0735923705,595.21311026607,596.17909979361,593.52107730046,596.44873223742,595.12978588229,593.88663548994,592.07579263067,595.70317073921,595.09330043024,595.16439009216,593.11052258906,591.49214956307,597.17076279371,594.37553702573,595.92435494673,592.78278478814,595.09545950211,594.92692978131,594.34543995984,592.33898433082,597.21146476491,597.48271754397,594.82659631284,596.64047956233,593.53039195766,596.27869876597,595.39629411213,595.73510667365,593.6641787755,597.21146476491,593.83374015783,593.83374015783,595.6503814568,595.6503814568,-0.21951783088943,-0.10653396066982,-3.3639923880673,3.8656911975474,3.9331782656761,2.5308569012935,-2.574315259423,0.061585178298606,2.8610404518842,0.02605159089199,0.53279210166948,-10.226412569964,0.1658182961095,-1.2858396036658,4.1820818356117,-5.9811027691623,-0.7536765088159,8.3736974204193,-2.1185886940517,-4.6451807066259,-0.56704507830411,2.3887162792931,0.35005464449129,-6.522828922996,1.8286685567199,-6.2320427239824,0.63839467873148,1.6910055348633,-0.87638437955661,-0.50559401416559,1.572531938065,0.3651922360779,0.12462480704412,-5.8628986980374,-0.97713330224148,-3.1583493727627,10.308273316637,-1.7480168184231,1.4864396643044,-0.1924258698476,0.63308441885201,-12.114305080107,-1.4282839778927,-2.4556557236005,-8.4285395705441,1.6328138987064,5.416592130052,-5.621018003127,721.165959882,721.165959882,719.14792319436,719.14792319436,723.76233959533,721.63600116685,721.82253596779,719.2167865698,722.36621109354,721.83804178209,720.62353612009,718.56707466345,722.05418663527,723.9633889136,722.10290680917,723.06889633671,720.41087384357,723.33852878052,722.01958242539,720.77643203304,718.96558917377,722.59296728232,721.98309697334,722.05418663527,720.00031913217,718.38194610617,724.06055933681,721.26533356883,722.81415148984,719.67258133125,721.98525604521,721.81672632441,721.23523650295,719.22878087392,724.10126130802,724.37251408707,721.71639285595,723.53027610543,720.42018850076,723.16849530907,722.28609065523,722.62490321675,720.5539753186,724.10126130802,720.72353670093,720.72353670093,722.54017799991,722.54017799991,1821.0771449068,1640.6429189877,848.01599353817,1895.5193988135,831.44918488632,0
5.9400000000001e-05,101867107.94243,4.2667121207442e-06,1.7652468810348e-05,4.4685276401162e-06,1.0109267288054,594.12934669634,594.12934669634,592.1040603632,592.1040603632,596.71238407069,594.55453608182,594.78320853407,592.1557533046,595.32337263212,594.77596598264,593.58607534839,591.52134684573,595.00563959587,596.9331545105,595.03669109885,596.03262354275,593.36008076027,596.28133319406,594.94144306966,593.73555802356,591.9109493402,595.54279542648,594.91768717481,595.00563959587,592.96270770857,591.3357333683,597.0179759934,594.18429472306,595.77660608962,592.60588438901,594.94734212985,594.75928140711,594.19540510935,592.18541544227,597.06758419005,597.34191333234,594.64560353259,596.49695138025,593.36137181571,596.13717963605,595.22602735166,595.58457349678,593.51007939625,597.06758419005,593.65087058973,593.65087058973,595.47463864187,595.47463864187,-0.21800121415213,-0.10415746850824,-3.3923723167041,3.887232397062,3.9522731697757,2.5535582823983,-2.5924807170857,0.061679988783123,2.8835431272043,0.025851292003159,0.53669307248789,-10.234322180596,0.17061082636105,-1.3061164490281,4.2030926344937,-6.0062411893821,-0.74198954769052,8.4272708077935,-2.1388303423925,-4.6735871157004,-0.57551711781653,2.4098958556661,0.35230542900803,-6.5581867533218,1.8416757673007,-6.2294338839818,0.63810895213608,1.7072096392083,-0.88386686280238,-0.50595468846117,1.5852092856793,0.36698849678619,0.126444533543,-5.8589476864185,-0.98628428373791,-3.2081665436717,10.384907675774,-1.7538305017883,1.5247281190937,-0.19460719376095,0.62860570143398,-12.180783021046,-1.4292115629457,-2.4900842972883,-8.4926956270613,1.6567402203473,5.4548962619807,-5.6682747945185,721.04999808096,721.04999808096,719.02471174783,719.02471174783,723.63303545532,721.47518746644,721.70385991869,719.07640468922,722.24402401674,721.69661736726,720.50672673302,718.44199823035,721.9262909805,723.85380589512,721.95734248347,722.95327492737,720.28073214489,723.20198457868,721.86209445428,720.65620940818,718.83160072482,722.46344681111,721.83833855943,721.9262909805,719.88335909319,718.25638475292,723.93862737802,721.10494610768,722.69725747425,719.52653577363,721.86799351447,721.67993279174,721.11605649398,719.1060668269,723.98823557467,724.26256471696,721.56625491721,723.41760276487,720.28202320033,723.05783102067,722.14667873628,722.5052248814,720.43073078087,723.98823557467,720.57152197435,720.57152197435,722.39529002649,722.39529002649,1823.847902203,1641.305188797,850.9494848257,1895.7182489667,834.68515948919,0
5.9500000000001e-05,102691939.04822,4.2831924704812e-06,1.7682410440498e-05,4.4791262097063e-06,1.0110017385646,593.98168786581,593.98168786581,591.94940077209,591.94940077209,596.55108392027,594.36160402837,594.63289744783,591.98365569572,595.16937567536,594.60269832658,593.43779745406,591.36477177003,594.84601318915,596.79170473214,594.85911622525,595.88524929183,593.19813784596,596.11276045036,594.75185596869,593.58378648551,591.7453646987,595.38139058909,594.74101676054,594.84601318915,592.81432441205,591.17871845558,596.86410134506,593.99180102837,595.62798982777,592.42799655567,594.79833206848,594.59070374341,594.04467772496,592.03113904097,596.92271795038,597.20008070339,594.46340520159,596.35250406601,593.19132639257,595.99469347195,595.05469246656,595.43315797754,593.35509509443,596.92271795038,593.46683491254,593.46683491254,595.29773936308,595.29773936308,-0.21649522889764,-0.10169200444441,-3.4205827778649,3.9081812550516,3.9709671288031,2.5763959307592,-2.6105936956342,0.061783447353632,2.9057600442884,0.025646128635265,0.54057024169208,-10.242215630664,0.17550676855588,-1.3264546097323,4.2233900419704,-6.0310753029422,-0.72987785959932,8.4800622054221,-2.1586333268558,-4.7016568287879,-0.5839917982474,2.4308959772105,0.35451127164065,-6.5931244837721,1.8545692405221,-6.2269020408515,0.63776276852262,1.7234626121619,-0.8913472031616,-0.5062062923731,1.5977210130449,0.36876004164042,0.12828209056744,-5.8549639553998,-0.99534540578736,-3.2581307836913,10.460576165919,-1.7594970509851,1.5633158616234,-0.19676687775817,0.62376196432707,-12.246732077755,-1.4297510794059,-2.5244467538312,-8.556193064925,1.6806136001423,5.4926866574438,-5.7150169244801,720.93340680056,720.93340680056,718.90111970684,718.90111970684,723.50280285502,721.31332296312,721.58461638258,718.93537463047,722.12109461011,721.55441726133,720.38951638881,718.31649070478,721.7977321239,723.74342366689,721.81083516001,722.83696822658,720.14985678071,723.06447938511,721.70357490344,720.53550542026,718.69708363345,722.33310952384,721.69273569529,721.7977321239,719.7660433468,718.13043739034,723.81582027981,720.94351996312,722.57970876252,719.37971549042,721.75005100323,721.54242267816,720.99639665971,718.98285797572,723.87443688513,724.15179963814,721.41512413634,723.30422300076,720.14304532732,722.9464124067,722.00641140131,722.38487691229,720.30681402918,723.87443688513,720.41855384729,720.41855384729,722.24945829784,722.24945829784,1826.5166448353,1641.9066560272,853.86808320078,1895.9148643146,837.92812833974,0
5.9600000000001e-05,103520708.99957,4.2997103869033e-06,1.7712353543362e-05,4.4897145497039e-06,1.0110767581072,593.83319397482,593.83319397482,591.79415741644,591.79415741644,596.38865502622,594.16742569845,594.4818162113,591.81070872667,595.01443405233,594.4284577592,593.28891552389,591.20756105943,594.68552300045,596.64925059414,594.68039960026,595.73698587701,593.03525717059,595.94302774373,594.56104190758,593.43133087433,591.5790493947,595.21896851077,594.56330515755,594.68552300045,592.66538197209,591.02111352446,596.7091499529,593.79807230082,595.47851607929,592.24913362564,594.64843805691,594.42121132619,593.89326815432,591.8761628163,596.77687528033,597.05722779373,594.28001529427,596.20714614573,593.0202658489,595.85124744912,594.88230305208,595.28086982346,593.19923339566,596.77687528033,593.28164655333,593.28164655333,595.11969914443,595.11969914443,-0.2150000435974,-0.099137559001124,-3.4486166875138,3.9285377029207,3.989259398732,2.5993695896399,-2.6286525363452,0.061895929372453,2.9276859108589,0.02543633757322,0.54442291530426,-10.250093014797,0.18050785813491,-1.3468530296427,4.242970266927,-6.055604889209,-0.71734542670119,8.532065265616,-2.1779953787455,-4.7293873224293,-0.59246736963891,2.4517106699321,0.35667184667779,-6.6276363582174,1.8673456780371,-6.224447169304,0.63735759662919,1.7397630841218,-0.89882413061521,-0.50634959485815,1.610063951318,0.37050617480921,0.13013752946813,-5.8509481260891,-1.0043139814185,-3.3082349766793,10.535271893351,-1.7650157672641,1.6021902433894,-0.19890564956158,0.61854990761132,-12.312147886645,-1.4299017266881,-2.5587346237125,-8.6190281683012,1.7044250248646,5.5299588513779,-5.7612442259177,720.81619165514,720.81619165514,718.77715509677,718.77715509677,723.37165270655,721.15042337878,721.46481389163,718.793706407,721.99743173266,721.41145543952,720.27191320422,718.19055873976,721.66852068077,723.63224827446,721.66339728059,722.71998355733,720.01825485091,722.92602542406,721.54403958791,720.41432855465,718.56204707502,722.2019661911,721.54630283788,721.66852068077,719.64837965242,718.00411120478,723.69214763323,720.78106998114,722.46151375961,719.23213130597,721.63143573724,721.40420900652,720.87626583464,718.85916049663,723.75987296066,724.04022547405,721.2630129746,723.19014382606,720.00326352923,722.83424512944,721.86530073241,722.26386750378,720.18223107598,723.75987296066,720.26464423366,720.26464423366,722.10269682476,722.10269682476,1829.087364272,1642.4467157212,856.77187067916,1896.1091282217,841.17804004617,0
5.9700000000001e-05,104353393.44947,4.316265506583e-06,1.774229810435e-05,4.5002927928879e-06,1.0111517851659,593.68387227683,593.68387227683,591.63833989518,591.63833989518,596.22510995389,593.97201841134,594.32997495056,591.63692401523,594.85855826043,594.25325981195,593.13943922183,591.04972296463,594.52418119316,596.50579979592,594.50055524638,595.58784220723,592.87144746226,595.77214894394,594.36901830177,593.2782012574,591.41201419778,595.05554159409,594.38456839709,594.52418119316,592.51588970291,590.86292734571,596.55313306022,593.6031249863,595.32819485768,592.06930803463,594.49766896196,594.2508187241,593.74118677524,591.72049455804,596.63006553503,596.91336287711,594.09544786651,596.06088623653,592.84820045547,595.70684888254,594.70887275701,595.12771879809,593.04250194492,596.63006553503,593.0953190372,593.0953190372,594.94053361083,594.94053361083,-0.21351581681167,-0.096494135037093,-3.4764670808345,3.9483020348682,4.0071493474285,2.6224787609152,-2.6466555200254,0.0620177837557,2.9493156975499,0.025222160374705,0.54825044317595,-10.257954349637,0.18561586487356,-1.3673109112182,4.2618300502262,-6.0798297907434,-0.70439634084906,8.5832740953698,-2.196914838911,-4.7567761993692,-0.60094213636076,2.4723340944105,0.35878686504089,-6.6617167188008,1.8800019027084,-6.222069136578,0.63689478952409,1.7561095424009,-0.90629634380875,-0.5063854085495,1.6222351218876,0.3722262030042,0.13201091673115,-5.8469007652804,-1.0131874415859,-3.3584724083522,10.608988898416,-1.7703860202373,1.641338642695,-0.20102434520245,0.61296636120332,-12.377026218007,-1.4296628509735,-2.5929397637106,-8.6811978491385,1.7281656439719,5.5667087185185,-5.8069571552126,720.69835836042,720.69835836042,718.65282597878,718.65282597878,723.23959603749,720.98650449493,721.34446103415,718.65141009882,721.87304434402,721.26774589554,720.15392530542,718.06420904823,721.53866727675,723.52028587951,721.51504132998,722.60232829083,719.88593354586,722.78663502753,721.38350438536,720.292687341,718.42650028137,722.07002767768,721.39905448069,721.53866727675,719.5303757865,717.8774134293,723.56761914381,720.6176110699,722.34268094128,719.08379411822,721.51215504556,721.2653048077,720.75567285883,718.73498064163,723.64455161862,723.9278489607,721.1099339501,723.07537232013,719.86268653906,722.72133496613,721.7233588406,722.14220488168,720.05698802851,723.64455161862,720.10980512079,720.10980512079,721.95501969443,721.95501969443,1831.5641813287,1642.9248094953,859.66092952065,1896.3009265993,844.43484068873,0
5.9800000000001e-05,105189968.79225,4.33285748132e-06,1.7772244108754e-05,4.5112700861932e-06,1.0112268175991,593.53373014389,593.53373014389,591.48195786246,591.48195786246,596.06046139907,593.77539955755,594.17738386661,591.46231326236,594.70175891349,594.07712004817,592.98937824039,590.89126581487,594.36199995682,596.36136016965,594.31959724207,595.43782725744,592.70671755569,595.60013804266,594.17580264115,593.1244077656,591.24426995184,594.89112235076,594.2048225599,594.36199995682,592.36585695539,590.70416875579,596.3960620407,593.40697560497,595.17703626552,591.88853230727,594.34603377036,594.07954052794,593.58844398928,591.56414214983,596.482298183,596.76849435657,593.90971704373,595.9137330399,592.6751405838,595.56150521889,594.53441527274,594.97371471378,592.88490849871,596.482298183,592.90786597616,592.90786597616,594.76025847666,594.76025847666,-0.21204269554501,-0.093761748407637,-3.5041271194547,3.9674748977489,4.0246364429881,2.6457227151497,-2.6646008684904,0.062149332283392,2.970644643159,0.025003843371371,0.55205221930585,-10.265799579028,0.19083259041336,-1.387827701597,4.2799666554603,-6.1037499144985,-0.69103479917142,8.6336832483138,-2.2153906346032,-4.7838211862904,-0.60941445576289,2.4927605537828,0.36085607391941,-6.6953600180169,1.8925348615898,-6.2197677084113,0.63637557597074,1.7725003364296,-0.91376251170236,-0.506314588715,1.6342317389882,0.37391943843139,0.13390233437495,-5.8428223876003,-1.0219633366443,-3.4088367651496,10.681722149535,-1.7756072475772,1.680748478333,-0.2031238952209,0.60700828474559,-12.44136298341,-1.4290339462481,-2.6270543620724,-8.7426996452503,1.751826777285,5.602932464732,-5.8521567613629,720.57991273183,720.57991273183,718.52814045041,718.52814045041,723.10664398702,720.8215821455,721.22356645456,718.5084958503,721.74794150143,721.12330263612,720.03556082834,717.93744840281,721.40818254477,723.40754275759,721.36577983001,722.48400984539,719.75290014363,722.6463206306,721.2219852291,720.17059035355,718.29045253978,721.93730493871,721.25100514784,721.40818254477,719.41203954334,717.75035134374,723.44224462865,720.45315819291,722.22321885347,718.93471489521,721.3922163583,721.12572311588,720.63462657723,718.61032473778,723.52848077095,723.81467694451,720.95589963167,722.95991562785,719.72132317174,722.60768780684,721.58059786069,722.01989730172,719.93109108665,723.52848077095,719.95404856411,719.95404856411,721.8064410646,721.8064410646,1833.9513447572,1643.3404271931,862.53534212813,1896.490148394,847.6984739774,0
5.9900000000001e-05,106030412.19557,4.3494859780675e-06,1.7802191541758e-05,4.522650770403e-06,1.0113018533906,593.38277505911,593.38277505911,591.32502102245,591.32502102245,595.89472217851,593.5775865861,594.0240532296,591.28688824427,594.54404673304,593.9000540521,592.83874229526,590.73219801178,594.1989914984,596.21593967216,594.1375397102,595.2869500618,592.54107638351,595.42700914313,593.98141247759,592.96996058782,591.07582756835,594.72572339198,594.0240837648,594.1989914984,592.2152931122,590.54484665122,596.23794838979,593.20964073881,595.02505048805,591.70681904798,594.19354158065,593.90739134039,593.43505021537,591.40711356256,596.33358279886,596.62263075645,593.72283700925,595.76569533499,592.50109669676,595.4152240285,594.35894432251,594.81886742436,592.72646091706,596.33358279886,592.71930105819,592.71930105819,594.57888953437,594.57888953437,-0.2105808135853,-0.09094042725383,-3.531590098107,3.9860572795182,4.0417202431576,2.6691005022584,-2.6824867465055,0.062290869316586,2.9916682596814,0.02478163771336,0.55582768184135,-10.273628580181,0.19615986492876,-1.4084030782241,4.2973778577441,-6.1273652342247,-0.67726508512198,8.6832877186396,-2.2334222559295,-4.810520131482,-0.61788273665045,2.5129845014988,0.36287925643748,-6.7285608313156,1.9049416280847,-6.2175425558121,0.63580105247622,1.7889336835045,-0.92122127532977,-0.50613802964082,1.6460512123019,0.37558520202716,0.13581188019204,-5.8387134581531,-1.0306393376855,-3.4593221322095,10.753467507938,-1.7806789550867,1.7204072304482,-0.20520531044743,0.60067277189143,-12.505154244199,-1.4280146431,-2.6610709426135,-8.8035316831404,1.7753999216754,5.6386266199869,-5.8968446551591,720.46086067838,720.46086067838,718.40310664172,718.40310664172,722.97280779779,720.65567220537,721.10213884887,718.36497386355,721.62213235231,720.97813967137,719.91682791453,717.81028363105,721.27707711767,723.29402529144,721.21562532947,722.36503568107,719.61916200278,722.5050947624,721.05949809686,720.04804620709,718.15391318763,721.80380901126,721.10216938407,721.27707711767,719.29337873147,717.62293227049,723.31603400906,720.28772635808,722.10313610732,718.78490466725,721.27162719993,720.98547695967,720.51313583465,718.48519918183,723.41166841813,723.70071637572,720.80092262852,722.84378095426,719.57918231604,722.49330964777,721.43702994178,721.89695304364,719.80454653634,723.41166841813,719.79738667746,719.79738667746,721.65697515364,721.65697515364,1836.2532299759,1643.6931083497,865.39519092468,1896.6766859063,850.96888141336,0
6.0000000000001e-05,106874701.63395,4.3661506788837e-06,1.7832140388438e-05,4.534027120402e-06,1.0113768906503,593.23101460921,593.23101460921,591.16753912424,591.16753912424,595.72790522049,593.37859699213,593.86999337297,591.11066080473,594.38543253961,593.72207741822,592.68754111988,590.57252802339,594.03516803384,596.06954637688,593.95439680695,595.13521970693,592.37453296791,595.25277645003,593.78586541269,592.81486996562,590.9066980198,594.55935741891,593.84236815765,594.03516803384,592.06420758292,590.384969983,596.07880371602,593.01113701979,594.87224778686,591.52418093206,594.04020159525,593.73438576608,593.2810158835,591.24941684771,596.18392905596,596.47578071447,593.53482199291,595.61678197199,592.32607933943,595.26801299735,594.18247365087,594.66318681807,592.5671671557,596.18392905596,592.52963803659,592.52963803659,594.39644264347,594.39644264347,-0.20913028983879,-0.088030212019463,-3.5588494507073,4.0040504994629,4.0584003840734,2.6926109635716,-2.7003112646948,0.062442661406892,3.0123823360965,0.024555799403636,0.55957631318727,-10.281441169487,0.20159954334991,-1.429036932889,4.3140619279517,-6.1506757928265,-0.66309156038775,8.7320829310747,-2.2510097341882,-4.8368710040115,-0.62634543738556,2.5330005467886,0.36485623113899,-6.7613138710166,1.9172194042438,-6.2153932613201,0.63517217614202,1.8054076750628,-0.92867124977259,-0.50585666349163,1.6576911489855,0.37722282696507,0.13773966793,-5.8345743950814,-1.0392132370831,-3.5099229882037,10.824221709028,-1.7856007162809,1.7603024551846,-0.20726966710903,0.59395704951463,-12.568396220889,-1.4266047061814,-2.6949823663417,-8.8636926688145,1.7988767574312,5.6737880285083,-5.941022985917,720.34120819649,720.34120819649,718.27773271152,718.27773271152,722.83809880777,720.48879057941,720.98018696025,718.22085439201,721.49562612689,720.8322710055,719.79773470716,717.68272161067,721.14536162112,723.17973996416,721.06459039423,722.24541329421,719.48472655519,722.36297003731,720.89605899997,719.9250635529,718.01689160708,721.66955100618,720.95256174492,721.14536162112,719.1744011702,717.49516357028,723.1889973033,720.12133060707,721.98244137414,718.63437451934,721.15039518253,720.84457935336,720.39120947077,718.35961043499,723.29412264324,723.58597430175,720.64501558019,722.72697555927,719.43627292671,722.37820658463,721.29266723815,721.77338040535,719.67736074298,723.29412264324,719.63983162387,719.63983162387,721.50663623075,721.50663623075,1838.4743390011,1643.9824435875,868.2405582679,1896.8604352506,854.24600244732,0
6.0100000000001e-05,107722815.92495,4.3828512807913e-06,1.7862090633808e-05,4.5453992749238e-06,1.0114519276154,593.07845647698,593.07845647698,591.0095219567,591.0095219567,595.56002355546,593.17844830486,593.71521468768,590.93364284735,594.22592724406,593.54320574087,592.53578446019,590.412264378,593.87054177973,595.9221884657,593.77018271087,594.98264532523,592.20709641219,595.07745425939,593.58917908597,592.65914618786,590.73689233307,594.39203721322,593.65969190044,593.87054177973,591.91260979919,590.22454775101,595.9186397325,592.81148111813,594.71863849353,591.34063069686,593.88602311232,593.56053840176,593.12635142851,591.09106013078,596.03334671911,596.3279529737,593.34568625995,595.46700186543,592.15009912993,595.11987991907,594.00501701349,594.50668281041,592.40703525813,596.03334671911,592.33889071954,592.33889071954,594.21293371962,594.21293371962,-0.20769122663354,-0.085031155175849,-3.5858987561721,4.0214561975321,4.0746765706746,2.7162527437535,-2.7180724823871,0.06260494703723,3.0327829432914,0.024326589465653,0.56329763900482,-10.28923710708,0.20715350074146,-1.4497293566708,4.3300176222258,-6.1736817044486,-0.64851865369931,8.7800647354623,-2.2681536128842,-4.86287189204,-0.63480106442316,2.5528034648758,0.36678685159912,-6.79361400084,1.9293655207968,-6.2133193246464,0.63448975802122,1.8219202829891,-0.93611102638766,-0.5054714577984,1.6691493557997,0.37883166254416,0.13968582712826,-5.8304055710639,-1.0476829490628,-3.5606342007635,10.893982336658,-1.7903721719093,1.8004218007517,-0.20931809228743,0.58685848164592,-12.631085302116,-1.4248040292231,-2.728781832856,-8.9231818620331,1.8222491537598,5.7084138425848,-5.984694400162,720.22096136378,720.22096136378,718.15202684351,718.15202684351,722.70252844226,720.32095319166,720.85771957448,718.07614773416,721.36843213086,720.68571062767,719.678289347,717.55476926481,721.01304666653,723.0646933525,720.91268759768,722.12515021203,719.34960129899,722.2199591462,720.73168397278,719.80165107466,717.87939721988,721.53454210002,720.80219678724,721.01304666653,719.05511468599,717.36705263781,723.0611446193,719.95398600494,721.86114338033,718.48313558366,721.02852799912,720.70304328856,720.26885631531,718.23356501758,723.17585160591,723.4704578605,720.48819114675,722.60950675223,719.29260401674,722.26238480587,721.14752190029,721.64918769721,719.54954014493,723.17585160591,719.48139560634,719.48139560634,721.35543860643,721.35543860643,1840.6193034263,1644.2080757527,871.07152636595,1897.0412966632,857.5297746606,0
6.0200000000001e-05,108574734.76697,4.3995874957959e-06,1.7892042262709e-05,4.5567673717962e-06,1.0115269626507,592.92510843375,592.92510843375,590.8509793434,590.8509793434,595.39109030686,592.97715807586,593.5597276165,590.75584632814,594.06554183902,593.36345460413,592.38348206934,590.25141565819,593.70512494516,595.77387422092,593.58491161229,594.82923608825,592.03877589244,594.90105694882,593.39137116334,592.50279958538,590.56642158307,594.22377562789,593.47607116085,593.70512494516,591.76050920988,590.06358899852,595.75746824835,592.61068973105,594.56423300338,591.15618113322,593.73101551783,593.38586382689,592.97106728407,590.93205160463,595.88184563719,596.17915637462,593.15544410021,595.31636398758,591.97316675058,594.97083268685,593.82658816712,594.3493653372,592.24607334781,595.88184563719,592.14707295993,592.14707295993,594.02837872412,594.02837872412,-0.20626370810257,-0.081943319438849,-3.6127317440496,4.0382763226646,4.0905485649629,2.7400243065632,-2.7357684109855,0.062777937300068,3.0528664358253,0.024094273995498,0.56699122892535,-10.297016101639,0.21282362707553,-1.470480623753,4.3452441681749,-6.1963831590879,-0.63355084308739,8.8272293926063,-2.2848549205418,-4.8885210011522,-0.64324816960976,2.5723882004222,0.3686710053325,-6.8254562525071,1.9413774403194,-6.2113201684838,0.63375445733784,1.8384693674369,-0.94353917499837,-0.50498341368677,1.6804238407362,0.38041107832428,0.14165050322237,-5.8262073153419,-1.0560465093915,-3.6114510192516,10.962747801376,-1.7949930295797,1.8407530256948,-0.2113517490727,0.57937457157846,-12.69321805788,-1.4226126227787,-2.7624628794488,-8.9819990621722,1.8455091736097,5.7425015087991,-6.0278620137215,720.10012633287,720.10012633287,718.02599724252,718.02599724252,722.56610820598,720.15217597498,720.73474551562,717.93086422725,721.24055973813,720.53847250325,719.55849996846,717.42643355731,720.88014284428,722.94889212004,720.75992951141,722.00425398737,719.21379379156,722.07607484793,720.56638906245,719.6778174845,717.74143948219,721.398793527,720.65108905997,720.88014284428,718.935527109,717.23860689764,722.93248614747,719.78570763017,721.7392509025,718.33119903234,720.90603341695,720.56088172601,720.14608518319,718.10706950374,723.05686353631,723.35417427374,720.33046199933,722.4913818867,719.1481846497,722.14585058597,721.00160606624,721.52438323632,719.42109124693,723.05686353631,719.32209085905,719.32209085905,721.20339662323,721.20339662323,1842.6928848153,1644.3697011325,873.8881772014,1897.2191750042,860.82013392928,0
6.0300000000001e-05,109430438.77954,4.4163590508531e-06,1.7921995259988e-05,4.5681315478143e-06,1.0116019942499,592.77097833198,592.77097833198,590.69192113758,590.69192113758,595.22111868209,592.77474386777,593.40354264829,590.5772832481,593.9042873905,593.1828395721,592.23064370253,590.08999049481,593.53892972383,595.62461201726,593.39859770298,594.67500120012,591.86958064941,594.72359896781,593.19245932594,592.34584052576,590.39529688637,594.0545855781,593.29152210208,593.53892972383,591.60791527637,589.90210280667,595.5953011604,592.4087795718,594.40904176917,590.97084507711,593.57518827768,593.21037659449,592.81517387666,590.77239952294,595.72943573601,596.02939984728,592.96410981764,595.1648773619,591.79529293911,594.82087928558,593.64720085993,594.19124434776,592.08428962047,595.72943573601,591.95419864549,591.95419864549,593.84279365357,593.84279365357,-0.20484779860598,-0.078766778982245,-3.6393422995491,4.0545131241689,4.1060161789226,2.7639239480293,-2.7533970186827,0.062961815017283,3.072629455143,0.023859124441479,0.57065669513269,-10.30477781357,0.21861182110482,-1.4912911755418,4.3597412581081,-6.2187804244293,-0.61819265902944,8.8735735711947,-2.3011151469723,-4.9138166557138,-0.65168534874453,2.5917498739694,0.37050861401146,-6.856835842192,1.9532527564136,-6.2093951428591,0.6329667769506,1.8550526843262,-0.95095424644773,-0.50439356434836,1.6915128145477,0.38196046864871,0.143633857084,-5.8219799145613,-1.0643020757694,-3.6623690659348,11.030517317535,-1.7994630634467,1.8812840063397,-0.21337182238241,0.57150296893973,-12.754791248113,-1.4200306220281,-2.7960193786399,-9.0401445842229,1.8686490771176,5.7760487662945,-6.0705293846208,719.97870932883,719.97870932883,717.89965213443,717.89965213443,722.42884967894,719.98247486461,720.61127364513,717.78501424495,721.11201838735,720.39057056894,719.43837469938,717.29772149166,720.74666072068,722.83234301411,720.60632869983,721.88273219696,719.07731164626,721.93132996466,720.40019032279,719.5535715226,717.60302788321,721.26231657495,720.49925309893,720.74666072068,718.81564627322,717.10983380352,722.80303215725,719.61651056865,721.61677276602,718.17857607396,720.78291927453,720.41810759134,720.0229048735,717.98013051979,722.93716673286,723.23713084413,720.17184081449,722.37260835875,719.00302393595,722.02861028243,720.85493185677,721.39897534461,719.29202061732,722.93716673286,719.16192964234,719.16192964234,721.05052465042,721.05052465042,1844.6999789026,1644.467070069,876.69059242413,1897.3939796687,864.11701460415,0
6.0400000000001e-05,110289909.5472,4.433165687848e-06,1.7951949610395e-05,4.5794919385674e-06,1.0116770210373,592.61607409779,592.61607409779,590.53235721719,590.53235721719,595.05012196356,592.57122324318,593.24667031235,590.39796564603,593.74217502954,593.00137617936,592.07727911187,589.92799756102,593.37196828633,595.47441031383,593.21125516614,594.51994989106,591.69951998038,594.54509482836,592.99246125935,592.18827940803,590.22352939489,593.88448003233,593.1060608729,593.37196828633,591.45483746778,589.74009828902,595.43215044487,592.20576735903,594.25307529497,590.78463540131,593.41855092979,593.03409122215,592.65868161969,590.61211219369,595.57612701106,595.87869240337,592.77169772004,595.01255105652,591.61648848004,594.67002778384,593.46686882199,594.03232979813,591.92169233633,595.57612701106,591.76028168908,591.76028168908,593.65619452991,593.65619452991,-0.20344354128194,-0.075501616865481,-3.6657244678318,4.0701691404136,4.1210792623103,2.7879498122537,-2.770956233996,0.063156735803779,3.0920689312585,0.023621417614704,0.57429369188636,-10.312521860028,0.22451998382561,-1.5121616051319,4.373509032542,-6.2408738486969,-0.60244866115288,8.9190943282038,-2.3169362121697,-4.9387572969301,-0.6601112388131,2.6108837882334,0.37229963145312,-6.8877481883166,1.9649891942935,-6.2075435309174,0.63212705910127,1.8716678929286,-0.95835477498025,-0.50370297360058,1.7024146917514,0.38347925732158,0.14563606465966,-5.8177236148206,-1.072447926653,-3.7133843268518,11.097290882421,-1.8037821129658,1.9220027579907,-0.21537950511523,0.56324147087063,-12.815801834284,-1.4170582694403,-2.8294455349864,-9.097619249562,1.8916613260715,5.8090536266226,-6.1127004757943,719.856716636,719.856716636,717.7729997554,717.7729997554,722.29076450178,719.8118657814,720.48731285056,717.63860818424,720.98281756775,720.24201871757,719.31792165009,717.16864009923,720.61261082454,722.71505285205,720.45189770436,721.76059242928,718.94016251859,721.78573736657,720.23310379756,719.42892194625,717.4641719331,721.12512257054,720.34670341111,720.61261082454,718.695480006,716.98074082723,722.67279298309,719.44640989724,721.49371783318,718.02527793953,720.659193468,720.27473376036,719.8993241579,717.8527547319,722.81676954927,723.11933494159,720.01234025825,722.25319359473,718.85713101825,721.91067032206,720.70751136021,721.27297233634,719.16233487454,722.81676954927,719.00092422729,719.00092422729,720.89683706812,720.89683706812,1846.6456218994,1644.4999878587,879.47885334254,1897.5656252064,867.42034968331,0
6.0500000000001e-05,111153129.6659,4.4500071635694e-06,1.7981905298616e-05,4.5908486782428e-06,1.011752041769,592.46040372368,592.46040372368,590.37229747991,590.37229747991,594.87811350008,592.36661375408,593.08912117292,590.21790559143,593.57921594407,592.8190799219,591.92339804145,589.76544556639,593.20425277261,595.32327764636,593.0228981667,594.36409141112,591.52860323124,594.36555909577,592.79139464313,592.03012665764,590.05113028983,593.71347200367,592.91970359819,593.20425277261,591.30128525639,589.57758458616,595.26802814929,592.00166980648,594.09634413003,590.59756500749,593.26111307648,592.8570221835,592.50160090785,590.45119797268,595.4219295205,595.72704312864,592.5782221092,594.85939417787,591.43676419631,594.51828632618,593.28560575625,593.87263164453,591.75828981263,595.4219295205,591.56533601935,591.56533601935,593.46859739069,593.46859739069,-0.20205095663582,-0.072147924624592,-3.6918724573033,4.08524718665,4.1357377012781,2.8120999077399,-2.7884439509119,0.063362828312449,3.1111820844009,0.023381436019776,0.57790191458134,-10.320247817389,0.23055001098021,-1.5330926420534,4.386548069587,-6.2626638658042,-0.58632343312822,8.9637891168915,-2.3323204379288,-4.9633414827961,-0.66852451552066,2.6297854335212,0.37404404437492,-6.918188930837,1.9765846103747,-6.2057645538511,0.63123548352064,1.8883125649124,-0.96573928096859,-0.50291273382557,1.7131280918075,0.38496690266903,0.14765731634292,-5.8134386219585,-1.0804824605243,-3.7644931406837,11.163069247915,-1.8079500828118,1.9628974458057,-0.21737598511433,0.55458802829575,-12.876246992669,-1.4136959141118,-2.8627358794005,-9.1544243589874,1.9145385859006,5.841514381001,-6.1543796226815,719.73415460454,719.73415460454,717.64604836078,717.64604836078,722.15186438095,719.64036463494,720.36287205378,717.49165647229,720.85296682493,720.09283080276,719.19714892232,717.03919644726,720.47800365347,722.59702852723,720.29664904756,721.63784229199,718.8023541121,721.63930997663,720.06514552399,719.3038775385,717.3248811707,720.98722288453,720.19345447905,720.47800365347,718.57503613726,716.85133546702,722.54177903015,719.27542068735,721.3700950109,717.87131588835,720.53486395734,720.13077306437,719.77535178872,717.72494885355,722.69568040136,723.0007940095,719.85197299006,722.13314505873,718.71051507717,721.79203720704,720.55935663711,721.14638252539,719.0320406935,722.69568040136,718.83908690022,718.83908690022,720.74234827156,720.74234827156,1848.5349954795,1644.4683152788,882.25304083531,1897.7340314487,870.73007101075,0
6.0600000000001e-05,112020082.79306,4.466883249785e-06,1.8011862309286e-05,4.6022018995564e-06,1.0118270553353,592.30397526129,592.30397526129,590.21175183838,590.21175183838,594.70510669828,592.16093293147,592.93090582365,590.0371151776,593.41542137093,592.63596624831,591.76901022241,589.60234325118,593.03579528484,595.17122261944,592.83354084196,594.2074350239,591.35683978879,594.18500637966,592.58927714075,591.87139272125,589.87811077561,593.54157454133,592.73246636973,593.03579528484,591.14726811305,589.41457086043,595.1029463845,591.79650361314,593.93885886281,590.40964681832,593.10288437683,592.67918389995,592.34394211155,590.28966525724,595.26685337817,595.57446117519,592.38369727134,594.70541586439,591.25613094108,594.3656631254,593.10342532963,593.71215983699,591.59409041619,595.26685337817,591.3693755717,591.3693755717,593.28001827971,593.28001827971,-0.2006700413437,-0.068705800999161,-3.7177806439742,4.0997503501356,4.1499914058453,2.8363721219799,-2.8058580336869,0.063580194932509,3.1299664246949,0.023139467936703,0.58148109886946,-10.327955224377,0.23670378494882,-1.554085137209,4.3988593745833,-6.2841509966944,-0.56982157056639,9.0076557614655,-2.3472705237881,-4.987567889264,-0.67692389082778,2.648450490324,0.37574187024239,-6.9481539504954,1.988036992162,-6.2040573734239,0.63029206498736,1.904984191524,-0.97310627356617,-0.50202396507647,1.7236518391175,0.38642290276956,0.14969781627978,-5.8091251028692,-1.0884041947569,-3.8156921862131,11.227853901912,-1.8119669416127,2.0039563994903,-0.21936243290685,0.54554075201352,-12.936124123549,-1.4099440045337,-2.8958852628768,-9.2105616834246,1.9372737289554,5.8734295768939,-6.1955715097925,719.61102963109,719.61102963109,717.51880620818,717.51880620818,722.01216106809,719.46798730127,720.23796019345,717.34416954741,720.72247574073,719.94302061811,719.07606459221,716.90939762098,720.34284965464,722.47827698925,720.14059521176,721.5144893937,718.66389415859,721.49206074946,719.89633151055,719.17844709106,717.18516514541,720.84862891113,720.03952073954,720.34284965464,718.45432248285,716.72162523023,722.4100007543,719.10355798294,721.24591323262,717.71670118812,720.40993874664,719.98623826976,719.65099648135,717.59671962704,722.57390774798,722.88151554499,719.69075164115,722.01247023419,718.56318531088,721.6727174952,720.41047969944,721.0192142068,718.90114478599,722.57390774798,718.6764299415,718.6764299415,720.58707264952,720.58707264952,1850.3734354378,1644.3719689589,885.01323532143,1897.8991237362,874.04610941832,0
6.0700000000001e-05,112890753.70097,4.4837937332176e-06,1.8041820626995e-05,4.613551733552e-06,1.0119020607621,592.14679681434,592.14679681434,590.05073021532,590.05073021532,594.53111501435,591.95419827546,592.77203488225,589.85560651487,593.25080258807,592.4520505513,591.61412536815,589.43869938054,592.86660788035,595.01825389901,592.6431972926,594.04999000055,591.18423907312,594.0034513253,592.38612638987,591.71208806186,589.70448207391,593.36880072243,592.54436523737,592.86660788035,590.99279550268,589.25106629067,594.93691731691,591.59028545358,593.78063011507,590.22089376992,592.94387453933,592.5005907327,592.18571557148,590.12752247991,595.11090874682,595.42095575415,592.18813746791,594.55062528044,591.07459958975,594.21216645508,592.92034116465,593.55092431313,591.42910255615,595.11090874682,591.1724142794,591.1724142794,593.09047323793,593.09047323793,-0.1993007671138,-0.065175351271626,-3.7434435730315,4.1136819749177,4.1638403038855,2.8607642400106,-2.8231963227867,0.063808911646458,3.1484197520868,0.022895807570231,0.58503101886583,-10.335643584362,0.24298316611454,-1.5751400487578,4.4104443699955,-6.3053358553194,-0.55294767642274,9.0506924486765,-2.3617895148758,-5.0114353103954,-0.6853081108164,2.6668748340153,0.37739315651455,-6.9776393903898,1.99934445584,-6.202421097908,0.62929665232004,1.9216801934784,-0.98045425365811,-0.50103781394281,1.7339849632938,0.38784680087375,0.15175778135509,-5.8047831855625,-1.0962117643684,-3.8669784690631,11.291647046534,-1.8158327219362,2.0451681230228,-0.22133999051317,0.53609791884332,-12.995430866676,-1.4058030876832,-2.9288888484602,-9.2660334454674,1.9598598351838,5.9047980103874,-6.2362811346394,719.48734815218,719.48734815218,717.39128155316,717.39128155316,721.87166635219,719.2947496133,720.11258622008,717.19615785271,720.59135392591,719.79260188913,718.95467670599,716.77925071838,720.20715921819,722.35880523685,719.98374863044,721.39054133839,718.52479041096,721.34400266313,719.72667772771,719.0526393997,717.04503341175,720.70935206027,719.88491657521,720.20715921819,718.33334684052,716.5916176285,722.27746865475,718.93083679141,721.1211814529,717.56144510776,720.28442587717,719.84114207054,719.52626690931,717.46807381775,722.45146008466,722.76150709199,719.52868880575,721.89117661828,718.41515092758,721.55271779292,720.26089250249,720.89147565097,718.76965389398,722.45146008466,718.51296561724,718.51296561724,720.43102457577,720.43102457577,1852.1664407718,1644.2109215013,887.7595166965,1898.0608329992,877.36839495616,0
6.0800000000001e-05,113765128.33467,4.5007384155397e-06,1.8071780236297e-05,4.6248983094586e-06,1.0119770572144,591.98887653171,591.98887653171,589.88924253893,589.88924253893,594.35615194604,591.74642724569,592.6125189852,589.67339172398,593.08537090705,592.26734815966,591.45875316975,589.27452273899,592.69670256502,594.86438020498,592.45188157399,593.89176561394,591.01081053026,593.82090860523,592.18195999307,591.55222315383,589.53025541794,593.19516364404,592.35541620057,592.69670256502,590.83787687993,589.08708006708,594.76995316096,591.38303196881,593.62166853613,590.03131880442,592.78409331461,592.32125697514,592.02693159344,589.96477810238,594.95410583144,595.26653612843,591.9915569267,594.39503161032,590.89218103218,594.05780464223,592.7363668312,593.38893499217,591.26333467685,594.95410583144,590.97446606516,590.97446606516,592.89997829478,592.89997829478,-0.19794307977683,-0.061556685505792,-3.7688559642513,4.1270456540425,4.1772843413836,2.8852739605899,-2.8404566391505,0.064049029638341,3.1665401567837,0.022650755210751,0.58855148797996,-10.343312367561,0.24938998339592,-1.5962584283514,4.4213048849161,-6.3262191490887,-0.53570634491509,9.0928977297604,-2.3758807748124,-5.0349426576749,-0.69367595274784,2.6850545398179,0.37899798026615,-7.0066416769043,2.0105052494652,-6.2008547846082,0.62824893029713,1.9383979291066,-0.98778171629191,-0.49995545206872,1.7441266993823,0.38923819095966,0.15383744058014,-5.8004129599835,-1.1039039201261,-3.9183493072549,11.354451577169,-1.8195475185601,2.0865213124419,-0.22330976113449,0.5262579784699,-13.054165109173,-1.4012737986655,-2.9617421022361,-9.32084230667,1.9822901948513,5.9356187260949,-6.2765137783797,719.3631166443,719.3631166443,717.26348265152,717.26348265152,721.73039205863,719.12066735829,719.98675909779,717.04763183657,720.45961101964,719.64158827225,718.83299328234,716.64876285158,720.07094267761,722.23862031757,719.82612168658,721.26600572653,718.38505064285,721.19514871782,719.55620010566,718.92646326642,716.90449553054,720.56940375664,719.72965631316,720.07094267761,718.21211699252,716.46132017967,722.14419327355,718.7572720814,720.99590864872,717.40555891702,720.1583334272,719.69549708774,719.40117170603,717.33901821497,722.32834594404,722.64077624102,719.36579703929,721.76927172291,718.26642114477,721.43204475482,720.11060694379,720.76317510476,718.63757478944,722.32834594404,718.34870617775,718.34870617775,720.27421840737,720.27421840737,1853.9196862544,1643.9852016051,890.49196434657,1898.219096084,880.69685704922,0
6.0900000000001e-05,114643193.87376,4.5177171133906e-06,1.810174112172e-05,4.6362417545879e-06,1.0120520439984,591.83022260065,591.83022260065,589.72729873816,589.72729873816,594.18023102478,591.53763725206,592.45236878262,589.49048292965,592.9191376656,592.08187433047,591.30290329138,589.10982212487,592.52609128677,594.70961030408,592.2596076879,593.73277113294,590.83656362493,593.63739291106,591.97679550881,591.39180847809,589.35544204669,593.02067641544,592.16563520026,592.52609128677,590.68252168486,588.92262138619,594.60206617169,591.17475975738,593.46198479724,589.84093486275,592.6235504884,592.14119684558,591.86760044331,589.80144060944,594.79645487282,595.11121160566,591.7939698333,594.23864405246,590.70888616516,593.90258606013,592.55151583879,593.22620176914,591.09679525095,594.79645487282,590.77554483285,590.77554483285,592.7085494597,592.7085494597,-0.19659689849028,-0.057849917847912,-3.7940127107951,4.1398452200794,4.1903234742581,2.9098989132753,-2.8576367910288,0.064300575479826,3.1843260160547,0.022404617257729,0.59204235513602,-10.350961013128,0.2559260244053,-1.6174414078462,4.4314431440578,-6.3468016846529,-0.5181021564553,9.1342705003852,-2.3895479597978,-5.058088962262,-0.70202622268548,2.7029858834873,0.38055644644505,-7.0351575425291,2.0215177463062,-6.1993574440564,0.62714842040493,1.955134703467,-0.99508715384887,-0.49877807530354,1.7540764863844,0.39059672330463,0.15593703341233,-5.7960144782448,-1.1114795267572,-3.9698023148118,11.416271059058,-1.823111488381,2.1280048652345,-0.22527280004596,0.51601956048305,-13.112325000516,-1.3963568589045,-2.994440782474,-9.3749913518139,2.0045583085262,5.9658909988938,-6.3162749801868,719.23834162072,719.23834162072,717.13541775823,717.13541775823,721.58835004486,718.94575627213,719.8604878027,716.89860194972,720.32725668567,719.48999335054,718.71102231145,716.51794114494,719.93421030685,722.11772932415,719.66772670797,721.14089015301,718.244682645,721.04551193113,719.38491452888,718.79992749816,716.76356106677,720.42879543551,719.57375422033,719.93421030685,718.09064070494,716.33074040626,722.01018519176,718.58287877745,720.87010381731,717.24905388282,720.03166950847,719.54931586566,719.27571946339,717.20955962951,722.2045738929,722.51933062573,719.20208885337,721.64676307253,718.11700518523,721.31070508021,719.95963485887,720.63432078921,718.50491427102,722.2045738929,718.18366385292,718.18366385292,720.11666847977,720.11666847977,1855.6390352806,1643.6948938966,893.2106570908,1898.3738557906,884.03142468452,0
6.1000000000001e-05,115524938.79872,4.5347296583583e-06,1.8131703267771e-05,4.6475821941751e-06,1.0121270205647,591.67084324024,591.67084324024,589.56490873829,589.56490873829,594.0033658082,591.32784564582,592.29159493322,589.30689225425,592.75211422057,591.89564424178,591.14658536604,588.94460634502,592.35478592952,594.55395300293,592.06638957456,593.57301581701,590.66150783366,593.45291894563,591.7706504429,591.23085451746,589.18005319941,592.84535215066,591.97503811113,592.35478592952,590.52673933882,588.75769944595,594.43326863767,590.96548536685,593.30158958613,589.64975487763,592.46225587472,591.96042448032,591.70773234225,589.63751850316,594.63796614127,594.95499153139,591.59539032298,594.08147181387,590.52472588514,593.74651912146,592.36580162916,593.06273450938,590.92949277269,594.63796614127,590.5756644596,590.5756644596,592.51620271413,592.51620271413,-0.19526211512002,-0.054055165420458,-3.8189088826196,4.1520847343674,4.2029576673974,2.9346366773358,-2.8747345785183,0.064563551933005,3.2017759937136,0.022157706223734,0.59550350486429,-10.358588930481,0.26259302495368,-1.638690186689,4.4408617589463,-6.3670843690666,-0.50013966760335,9.1748099945342,-2.4027949880326,-5.0808733738586,-0.71035775312788,2.7206653459672,0.38206868698503,-7.0631840476245,2.0323804462357,-6.1979280430014,0.6259944844986,1.9718877777516,-1.0023690584538,-0.4975069027654,1.7638339668553,0.39192210994484,0.15805680873903,-5.7915877547677,-1.1189375609073,-4.021335384858,11.477109708148,-1.8265248492279,2.1696078942704,-0.22723010650057,0.50538148235978,-13.169908960684,-1.3910530708469,-3.0269809282184,-9.4284840768547,2.0266578880625,5.9956143277398,-6.3555705054894,719.11302962087,719.11302962087,717.00709511892,717.00709511892,721.44555218883,718.77003202644,719.73378131384,716.74907863488,720.1943006012,719.33783062241,718.58877174666,716.38679272564,719.79697231014,721.99613938356,719.50857595519,721.01520219764,718.10369421429,720.89510532625,719.21283682353,718.67304089809,716.62223958003,720.28753853129,719.41722449176,719.79697231014,717.96892571945,716.19988582657,721.87545501829,718.40767174747,720.74377596676,717.09194125825,719.90444225535,719.40261086095,719.14991872287,717.07970488378,722.08015252189,722.39717791201,719.03757670361,721.5236581945,717.96691226577,721.18870550208,719.80798800978,720.50492089,718.37167915332,722.08015252189,718.01785084022,718.01785084022,719.95838909476,719.95838909476,1857.3305558718,1643.3401386071,895.91567318401,1898.5250609988,887.37202658078,0
6.1100000000001e-05,116410352.96322,4.5517758971047e-06,1.8161666658951e-05,4.6589197512533e-06,1.0122019865121,591.51074669502,591.51074669502,589.40208245644,589.40208245644,593.8255698728,591.11706971105,592.13020809939,589.12263181175,592.5843119411,591.7086729856,590.98980899132,588.77888420955,592.18279830734,594.39741714136,591.87224110517,593.412508911,590.485652638,593.26750141545,591.56354224031,591.06937175207,589.00410011015,592.66920396141,591.78364073425,592.18279830734,590.37053924038,588.59232344086,594.26357287408,590.75522528563,593.14049360168,589.45779176681,592.30021930931,591.77895392708,591.54733746204,589.47302029723,594.47864993056,594.79788528258,591.39583247288,593.92352410477,590.33971108116,593.58961227157,592.17923756918,592.89854304326,590.7614357514,594.47864993056,590.37483878815,590.37483878815,592.32295400381,592.32295400381,-0.19393859380021,-0.050172547249943,-3.8435397267954,4.1637684781347,4.2151868937096,2.9594847950442,-2.891747801267,0.064837939108363,3.2188890354505,0.021910340699043,0.59893485530859,-10.366195499875,0.26939265815658,-1.6600060204936,4.4495637184389,-6.387068214514,-0.48182340233444,9.2145157776868,-2.4156260184765,-5.1032951637173,-0.71866940001701,2.7380896128521,0.38353485968794,-7.090718604915,2.0430919726754,-6.1965655070898,0.62478632866995,1.9886543765565,-1.0096259257006,-0.49614317581693,1.7733989843513,0.39321413029014,0.16019702332471,-5.7871327660296,-1.1262771088522,-4.0729466721148,11.536972368939,-1.8297878791444,2.2113197398996,-0.22918261711795,0.49434275761256,-13.226915694453,-1.3853633128526,-3.0593588468179,-9.4813243749212,2.0485828566105,6.0247884280695,-6.3944063239607,718.98718720678,718.98718720678,716.8785229682,716.8785229682,721.30201038456,718.59351022281,719.60664861115,716.59907232351,720.06075245285,719.18511349736,718.46624950308,716.25532472131,719.6592388191,721.87385765312,719.34868161693,720.88894942276,717.96209314976,720.74394192721,719.03998275206,718.54581226383,716.48054062191,720.14564447316,719.26008124601,719.6592388191,717.84697975214,716.06876395262,721.74001338584,718.23166579739,720.61693411344,716.93423227856,719.77665982107,719.25539443884,719.0237779738,716.94946080898,721.95509044232,722.27432579434,718.87227298464,721.39996461653,717.81615159292,721.06605278333,719.65567808093,720.37498355502,718.23787626316,721.95509044232,717.85127929991,717.85127929991,719.79939451557,719.79939451557,1859.0005403684,1642.9211311265,898.6070903086,1898.6726667843,890.71859141172,0
6.1200000000001e-05,117299427.66772,4.5688556910092e-06,1.819163127976e-05,4.6702545465342e-06,1.0122769415914,591.34994122886,591.34994122886,589.23882979725,589.23882979725,593.64685680694,590.90532665645,591.96821894251,588.93771370168,592.41574220196,591.52097556127,590.83258372544,588.61266452677,592.01014015904,594.24001158601,591.67717607471,593.25125964015,590.30900751804,593.08115502345,591.35548827727,590.90737065486,588.8275940025,592.49224495011,591.59145879007,592.01014015904,590.21393076145,588.42650255737,594.09299121608,590.54399593519,592.97870754882,589.26505842648,592.13745064321,591.59679913883,591.38642592079,589.30795451142,594.31851655215,594.63990226127,591.1953102946,593.76481013343,590.15385262805,593.43187398209,591.99183694426,592.73363716119,590.59263270522,594.31851655215,590.17308161956,590.17308161956,592.12881923133,592.12881923133,-0.19262617065745,-0.046202183666127,-3.8679006692153,4.1749009425584,4.2270111344915,2.9844407962851,-2.9086742623839,0.065123694749453,3.2356643670931,0.021662845076064,0.6023363571525,-10.373780073969,0.2763265231373,-1.6813902093337,4.4575523797027,-6.4067543403972,-0.46315784351031,9.2533877372894,-2.4280454172378,-5.125353723246,-0.72696004123397,2.7552555777941,0.38495514691296,-7.1177590023744,2.0536510713487,-6.1952687238319,0.62352300958867,2.0054316995648,-1.0168562562987,-0.49468815767266,1.7827715822957,0.39447263590923,0.16235794035569,-5.782649451014,-1.1334973639654,-4.1246345737747,11.595864497713,-1.8329009157154,2.2531299837089,-0.23113119980456,0.48290260391709,-13.283344200999,-1.3792885355457,-3.0915711003162,-9.5335165293381,2.0703273489753,6.053413221867,-6.4327885787962,718.8608209619,718.8608209619,716.74970953029,716.74970953029,721.15773653998,718.41620638949,719.47909867554,716.44859343472,719.926621935,719.03185529431,718.34346345848,716.12354425981,719.52101989208,721.75089131905,719.18805580775,720.76213937319,717.81988725108,720.59203475649,718.86636801031,718.4182503879,716.33847373554,720.00312468315,719.10233852311,719.52101989208,717.72481049449,715.93738229041,721.60387094912,718.05487566823,720.48958728186,716.77593815952,719.64833037625,719.10767887187,718.89730565383,716.81883424446,721.82939628519,722.15078199431,718.70619002764,721.27568986647,717.66473236109,720.94275371513,719.5027166773,720.24451689423,718.10351243826,721.82939628519,717.6839613526,717.6839613526,719.63969896437,719.63969896437,1860.6555215493,1642.4381213628,901.28498557797,1898.8166344832,894.07104792009,0
6.1300000000001e-05,118192155.74543,4.5859689163801e-06,1.822159711471e-05,4.6815866982958e-06,1.0123518857098,591.18843511902,591.18843511902,589.07516064874,589.07516064874,593.46724020409,590.69263360739,591.80563811828,588.75215000338,592.2464163773,591.33256686924,590.67491908338,588.44595609827,591.83682314297,594.08174522413,591.48120819518,593.08927720545,590.13158194613,592.89389446194,591.14650585387,590.74486168732,588.65054608439,592.31448820342,591.39850791181,591.83682314297,590.05692324351,588.26024596924,593.92153601238,590.33181366254,592.81624213356,589.07156772489,591.97395973671,591.41397396795,591.22500777873,589.14232966629,594.15757632952,594.48105188852,590.99383772715,593.60533910129,589.96716137993,593.27331274479,591.80361295205,592.56802660891,590.42309215508,594.15757632952,589.97040670612,589.97040670612,591.93381424919,591.93381424919,-0.19132465369009,-0.042144195782618,-3.8919873144545,4.1854868191292,4.2384303809666,3.0095022110548,-2.9255117757547,0.065420755477784,3.2521014898604,0.021415549333659,0.60570799183688,-10.381341978471,0.28339613338977,-1.7028440880942,4.4648314576872,-6.4261439754409,-0.44414742606444,9.2914260747304,-2.4400577378093,-5.1470485661247,-0.73522857352951,2.7721603429201,0.38632975424491,-7.144303426104,2.0640566076105,-6.1940365454888,0.62220344131983,2.0222169284896,-1.0240585597494,-0.49314313236285,1.791952000739,0.39569755582273,0.16453982766114,-5.7781377109966,-1.1405976241179,-4.1763977113958,11.653792130772,-1.8358643549846,2.2950284601308,-0.23307664948071,0.47106045178506,-13.339193782944,-1.3728297585677,-3.1236144920189,-9.5850651972561,2.0918857110986,6.0814888283918,-6.4707235656364,718.73393747878,718.73393747878,716.6206630085,716.6206630085,721.01274256386,718.23813596715,719.35114047804,716.29765236314,719.79191873706,718.878069229,718.22042144314,715.99145845803,719.38232550273,721.62724758389,719.02671055495,720.63477956521,717.6770843059,720.43939682171,718.69200821364,718.29036404708,716.19604844415,719.85999056318,718.94401027158,719.38232550273,717.60242560328,715.805748329,721.46703837214,717.8773160223,720.36174449332,716.61707008466,719.51946209647,718.95947632771,718.77051013849,716.68783202605,721.70307868928,722.02655424828,718.53934008692,721.15084146105,717.51266373969,720.81881510456,719.34911531182,720.11352896867,717.96859451484,721.70307868928,717.51590906588,717.51590906588,719.47931660895,719.47931660895,1862.3023065165,1641.8914129476,903.9494355458,1898.9569317209,897.42932512934,0
6.1400000000001e-05,119088531.64942,4.6031154642845e-06,1.8251564148331e-05,4.6929163222656e-06,1.0124268189355,591.02623665047,591.02623665047,588.9110848781,588.9110848781,593.28673365634,590.47900759839,591.64247627232,588.56595277034,592.07634583453,591.14346170521,590.51682453327,588.27876771413,591.66285883224,593.92262695776,591.28435108931,592.92657077911,589.95338538092,592.70573440599,590.93661218692,590.58185529518,588.47296754305,592.13594678586,591.20480363923,591.66285883224,589.89952599404,588.09356283316,593.74921961913,590.11869473311,592.65310805821,588.87733249617,591.80975645342,591.23049216077,591.06309303437,588.97615427798,593.99583959284,594.32134359867,590.7914286303,593.44512019834,589.7796481639,593.11393706562,591.61457869663,592.40172108304,590.25282261885,593.99583959284,589.76682774465,589.76682774465,591.73795485302,591.73795485302,-0.19003382281931,-0.037998704932914,-3.9157954460266,4.195530990221,4.2494446345549,3.034666590793,-2.9422581714027,0.065729037411237,3.2682001752396,0.021168788354679,0.60904976997303,-10.388880512269,0.29060290498933,-1.7243690137236,4.4714050211816,-6.4452384614025,-0.42479652814406,9.328631292698,-2.4516676921768,-5.1683793283936,-0.74347391087287,2.788801218618,0.38765890919712,-7.170350482533,2.074307563877,-6.1928677909738,0.62082640315594,2.0390072369851,-1.0312313566607,-0.4915094043333,1.8009406732248,0.39688889874929,0.16674295597248,-5.7735974095046,-1.1475772889398,-4.2282349052922,11.710761897638,-1.8386786510332,2.3370052697345,-0.23501968386363,0.45881595321968,-13.394464058446,-1.3659880659515,-3.1554860488957,-9.6359754057663,2.1132524990096,6.1090155538915,-6.508217706882,718.60654335746,718.60654335746,716.49139158509,716.49139158509,720.86704036333,718.05931430538,719.22278297931,716.14625947732,719.65665254152,718.7237684122,718.09713124026,715.85907442111,719.24316553922,721.50293366475,718.86465779629,720.50687748609,717.53369208791,720.28604111298,718.5169188939,718.16216200216,716.05327425004,719.71625349285,718.78511034622,719.24316553922,717.47983270102,715.67386954014,721.32952632611,717.6990014401,720.2334147652,716.45763920316,719.3900631604,718.81079886775,718.64339974136,716.55646098497,721.57614629983,721.90165030566,718.37173533728,721.02542690533,717.35995487088,720.69424377261,719.19488540362,719.98202779002,717.83312932583,721.57614629983,717.34713445164,717.34713445164,719.31826156,719.31826156,1863.9479973506,1641.281362342,906.60051621436,1899.0935324664,900.79335250303,0
6.1500000000001e-05,119988551.54836,4.620295240477e-06,1.828153236518e-05,4.7042435315214e-06,1.0125017415032,590.8633541105,590.8633541105,588.74661232783,588.74661232783,593.10535074822,590.26446556585,591.47874403589,588.37913402474,591.90554192861,590.95367475468,590.35830949297,588.11110814834,591.48825871028,593.76266569815,591.08661828453,592.76314950051,589.77442726155,592.51668950701,590.72582440319,590.41836190443,588.29486954014,591.95663373394,591.01036141272,591.48825871028,589.74174828298,587.92646228443,593.57605439403,589.90465532397,592.48931601687,588.68236553436,591.64485065473,591.04636735252,590.90069162084,588.80943685334,593.83331667393,594.16078683392,590.58809677824,593.28416259871,589.59132377403,592.95375545917,591.42474718299,592.23473022701,590.08183260584,593.83331667393,589.56235837003,589.56235837003,591.54125677528,591.54125677528,-0.1887534300497,-0.033765832481261,-3.9393210261081,4.2050385195107,4.2600539157625,3.0599315256495,-2.9589113012261,0.066048436996955,3.2839604609609,0.020922901627305,0.61236172990467,-10.396394947761,0.29794814452631,-1.7459663598889,4.4772774781109,-6.4640392534085,-0.40510946315065,9.365004197163,-2.4628801287825,-5.1893457690759,-0.75169498209524,2.8051757245267,0.38894285994388,-7.1958992209384,2.0844030374876,-6.1917612483667,0.61939055036921,2.0557997990294,-1.0383731815672,-0.4897882980531,1.8097382237145,0.39804675942156,0.16896759702541,-5.7690283720948,-1.1544358567485,-4.280145162358,11.766780953093,-1.8413443148903,2.3790507939028,-0.23696094157829,0.44616899069082,-13.449154966845,-1.3587646027182,-3.1871830106027,-9.686252539132,2.1344224794051,6.1359938872077,-6.5452775318605,718.4786452003,718.4786452003,716.36190341763,716.36190341763,720.72064183801,717.87975665565,719.09403512569,715.99442511454,719.5208330184,718.56896584447,717.97360058276,715.72639923814,719.10354980008,721.37795678795,718.70190937432,720.37844059031,717.38971835135,720.1319805968,718.34111549298,718.03365299423,715.91016062994,719.57192482374,718.62565250251,719.10354980008,717.35703937278,715.54175337423,721.19134548382,717.51994641376,720.10460710666,716.29765662416,719.26014174453,718.66165844232,718.51598271063,716.42472794313,721.44860776373,721.77607792372,718.20338786803,720.89945368851,717.20661486382,720.56904654897,719.04003827278,719.85002131681,717.69712369564,721.44860776373,717.17764945982,717.17764945982,719.15654786508,719.15654786508,1865.6000270598,1640.6083777293,909.23830306392,1899.2264170182,904.1630601074,0
6.1600000000001e-05,120892213.43022,4.6375081653435e-06,1.8311501749854e-05,4.7155684363882e-06,1.0125766538202,590.69979578348,590.69979578348,588.58175281182,588.58175281182,592.92310505069,590.04902434102,591.31445202174,588.19170575214,591.73401599644,590.76322058778,590.19938332681,587.94298615438,591.31303416675,593.60187036042,590.88802320748,592.59902247227,589.59471700217,592.32677438659,590.51415953303,590.25439191737,588.11626320693,591.77656205035,590.81519656781,591.31303416675,589.58359933956,587.75895343288,593.40205269066,589.68971151729,592.32487669096,588.48667958765,591.47925219442,590.86161306265,590.73781340248,588.6421858851,593.67001790131,593.99939103904,590.38385585372,593.12247545658,589.40219896561,592.7927764433,591.23413131202,592.06706362724,589.91013061148,593.67001790131,589.35701214902,589.35701214902,591.34373567921,591.34373567921,-0.18748319981649,-0.029445699893985,-3.9625601952364,4.2140146425823,4.2702582682104,3.0852946658679,-2.9754690448876,0.066378831801174,3.2993826446557,0.020678232185507,0.61564393607406,-10.403884531013,0.30543303710142,-1.7676375050653,4.4824535713686,-6.4825479225226,-0.38509047305961,9.4005458866177,-2.4737000059024,-5.2099477707859,-0.75989072911789,2.8212815888951,0.39018187376937,-7.2209491525361,2.0943422380208,-6.1907156768095,0.61789442484041,2.0725917991532,-1.0454825856043,-0.48798115750704,1.8183454621588,0.39917131885216,0.17121402159556,-5.7644303865196,-1.161172921559,-4.3321276486533,11.821856992149,-1.8438619139474,2.4211557076168,-0.23890097993084,0.43311968552101,-13.503266778272,-1.3511605721195,-3.2187028108682,-9.7359023332067,2.1553906281361,6.1624244885776,-6.5819096533772,718.35024960756,718.35024960756,716.2322066359,716.2322066359,720.57355887477,717.6994781651,718.96490584582,715.84215957622,719.38446982052,718.41367441186,717.84983715089,715.59343997846,718.96348799083,721.2523241845,718.53847703156,720.24947629635,717.24517082625,719.97722821067,718.16461335711,717.90484574145,715.76671703101,719.42701587443,718.46565039189,718.96348799083,717.23405316364,715.40940725696,721.05250651474,717.34016534137,719.97533051504,716.13713341173,719.1297060185,718.51206688673,718.38826722656,716.29263970918,721.32047172539,721.64984486312,718.0343096778,720.77292928066,717.05265278969,720.44323026738,718.8845851361,719.71751745132,717.56058443556,721.32047172539,717.0074659731,717.0074659731,718.99418950329,718.99418950329,1867.2661974555,1639.8729178254,911.86287108374,1899.3555720084,907.53837876838,0
6.1700000000001e-05,121799517.21359,4.6547541738375e-06,1.8341472286995e-05,4.7268911443469e-06,1.0126515564723,590.5355699459,590.5355699459,588.4165161116,588.4165161116,592.74001011547,589.83270064332,591.14961082013,588.00367989631,591.56177935168,590.57211365462,590.04005534262,587.77441046092,591.13719649378,593.44024985856,590.68857917888,592.43419875666,589.41426398668,592.1360036307,590.30163450429,590.08995570875,587.9371596397,591.59574469858,590.61932433003,591.13719649378,589.42508834907,587.59104535879,593.2272268531,589.47387929424,592.15980074508,588.29028735279,591.31297091354,590.67624269048,590.57446817177,588.47440984737,593.50595359561,593.83716565648,590.17871944252,592.96006790228,589.21228444965,592.63100853407,591.0427438759,591.89873080961,589.73772511223,593.50595359561,589.15080257441,589.15080257441,591.14540715307,591.14540715307,-0.18622282942421,-0.025038428957894,-3.9855092712006,4.2224647575861,4.280057762976,3.1107537392523,-2.9919293154599,0.066720081236383,3.3144672769243,0.020435125649437,0.61889647739732,-10.411348481215,0.31305863434488,-1.7893838233038,4.486938369531,-6.5007661575038,-0.36474372135586,9.4352577416112,-2.484132369733,-5.2301853402067,-0.76806010517842,2.8371167464093,0.39137623573859,-7.2455002692389,2.10412448445,-6.189729808105,0.61633646665773,2.0893804391385,-1.0525581389815,-0.4860893459184,1.8267633796788,0.40026284642577,0.17348249747291,-5.7598032024983,-1.1677881698059,-4.3841816667262,11.875998219935,-1.8462320713754,2.4633109930266,-0.24084027375445,0.41966840674074,-13.556800100956,-1.3431772324988,-3.2500430609505,-9.7849308676916,2.1761521291425,6.1883081806609,-6.6181207497061,718.22136317601,718.22136317601,716.10230934171,716.10230934171,720.42580334558,717.51849387344,718.83540405024,715.68947312642,719.24757258179,718.25790688473,717.72584857273,715.46020369103,718.8229897239,721.12604308867,718.37437240899,720.11999198677,717.10005721679,719.82179686081,717.9874277344,717.77574893886,715.62295286982,719.2815379287,718.30511756014,718.8229897239,717.11088157918,715.2768385889,720.91302008321,717.15967252435,719.84559397519,715.9760805829,718.99876414365,718.36203592059,718.26026140189,716.16020307748,721.19174682573,721.5229588866,717.86451267263,720.64586113239,716.89807767977,720.31680176418,718.72853710601,719.58452403972,717.42351834234,721.19174682573,716.83659580452,716.83659580452,718.83120038318,718.83120038318,1868.954722106,1639.0754905699,914.47429479167,1899.4809903625,910.91924021553,0
6.1800000000001e-05,122710464.86921,4.6720332154848e-06,1.8371443961307e-05,4.7382117599671e-06,1.0127279463086,590.37068486173,590.37068486173,588.25091197281,588.25091197281,592.55607946959,589.61551107388,590.98423099507,587.81506835424,591.38884327972,590.38036828089,589.88033478884,587.60538976776,590.96075688259,593.27781310072,590.48829940872,592.26868737236,589.23307756377,591.94439178408,590.08826613656,589.92506362221,587.75756989524,591.41419459778,590.42275981006,590.96075688259,589.26622444993,587.4227471091,593.05158921076,589.25717452908,591.99409882301,588.09320146973,591.14601663558,590.49026951125,590.41066564645,588.30611719126,593.34113406523,593.67412012181,589.9727010282,592.79694903879,589.02159088767,592.46846024101,590.85059755381,591.72974123634,589.56462456081,593.34113406523,588.94374305942,588.94374305942,590.94628670474,590.94628670474,-0.1849719895802,-0.020544142467882,-4.0081647484045,4.230394415635,4.2894525095446,3.136306574596,-3.0082900646896,0.067072027282311,3.3292151566824,0.02019392912568,0.62211946583391,-10.418785991374,0.32082584255853,-1.8112066803848,4.4907372589166,-6.518695765259,-0.34407328773651,9.4691414237281,-2.4941823295011,-5.2500586081342,-0.77620207319133,2.8526793392388,0.39252624730149,-7.269553059021,2.1137492027953,-6.188802349171,0.61471502821377,2.1061629485762,-1.0595984335528,-0.48411424573807,1.8349931449137,0.40132170010641,0.17577328738866,-5.7551465321154,-1.1742813769488,-4.4363066427802,11.929213335131,-1.8484554653237,2.5055079547111,-0.2427792158396,0.40581577909054,-13.609755886316,-1.3348158969587,-3.2812015378343,-9.8333445633167,2.196702374792,6.2136459419285,-6.6539175450066,718.09199249415,718.09199249415,715.97221960523,715.97221960523,720.27738710201,717.33681870631,718.7055386275,715.53637598666,719.11015091214,718.10167591331,717.60164242126,715.32669740018,718.68206451501,720.99912073315,718.20960704114,719.98999500478,716.9543851962,719.6656994165,717.80957376899,717.64637125463,715.47887752766,719.13550223021,718.14406744248,718.68206451501,716.98753208235,715.14405474152,720.77289684318,716.9784821615,719.71540645543,715.81450910215,718.86732426801,718.21157714368,718.13197327887,716.02742482369,721.06244169766,721.39542775423,717.69400866062,720.51825667122,716.7428985201,720.18976787344,718.57190518623,719.45104886876,717.28593219324,721.06244169766,716.66505069185,716.66505069185,718.66759433717,718.66759433717,1870.6742779571,1638.2166516602,917.07264828358,1899.6026712495,914.30557722487,0
6.1900000000001e-05,123625060.55169,4.6893452543771e-06,1.8401416757558e-05,4.7495303848206e-06,1.0128059813506,590.2051487779,590.2051487779,588.08495010164,588.08495010164,592.37132661014,589.39747210925,590.81832308066,587.62588297131,591.21521903291,590.18799866382,589.72023085198,587.43593274187,590.78372642041,593.11456898473,590.28719699193,592.10249729135,589.05116704211,591.75195334488,589.87407113574,589.75972596669,587.57750498644,591.23192461785,590.22551799929,590.78372642041,589.10701673091,587.25406769369,592.87515207345,589.03961298362,591.82778154383,587.89543451641,590.97839916187,590.30370667258,590.24641546686,588.1373163407,593.17556960215,593.51026385921,589.76581398733,592.63312793833,588.83012888665,592.30514006257,590.6577049081,591.56010430302,589.39083738164,593.17556960215,588.73584693233,588.73584693233,590.7463897566,590.7463897566,-0.18373032506783,-0.015962964606596,-4.0305232967503,4.2378093116635,4.2984426634958,3.1619511233388,-3.0245492882203,0.067434495060008,3.3436273223639,0.019954989642987,0.62531303483656,-10.426196227273,0.32873541112007,-1.8331074209518,4.49385593513,-6.5363386718458,-0.32308315965576,9.5021988673621,-2.5038550338026,-5.2695678295637,-0.78431560458978,2.8679677136292,0.39363222470026,-7.2931085185988,2.1232159233596,-6.1879319829554,0.61302838811954,2.1229365932005,-1.0666020850634,-0.48205725835812,1.8430360973926,0.40234832523108,0.17808664687206,-5.7504600497573,-1.1806524040511,-4.4885020945727,11.981511508077,-1.8505328284049,2.5477382341066,-0.2447181164318,0.39156269118474,-13.662135433763,-1.3260779281867,-3.3121761635109,-9.8811501741154,2.2170369639128,6.2384388972575,-6.6893067915608,717.96214414143,717.96214414143,715.84194546517,715.84194546517,720.12832197366,717.15446747278,718.57531844419,715.38287833484,718.97221439644,717.94499402734,717.4772262155,715.19292810539,718.54072178394,720.87156434826,718.04419235546,719.85949265487,716.80816240564,719.5089487084,717.63106649926,717.51672133021,715.33450034997,718.98891998137,717.98251336282,718.54072178394,716.86401209443,715.01106305721,720.63214743697,716.79660834715,719.58477690736,715.65242987993,718.73539452539,718.0607020361,718.00341083039,715.89431170423,720.93256496568,721.26725922273,717.52280935085,720.39012330185,716.58712425017,720.06213542609,718.41470027162,719.31709966655,717.14783274516,720.93256496568,716.49284229585,716.49284229585,718.50338512012,718.50338512012,1872.4340641642,1637.29700302,919.658005269,1899.7206200182,917.69732374715,0
6.2000000000001e-05,124543310.74411,4.7066902693176e-06,1.8431390660593e-05,4.7608471174244e-06,1.01288408098,590.03896992011,590.03896992011,587.91864016154,587.91864016154,592.1857649993,589.17860009539,590.65189757757,587.43613553661,591.04091782612,589.99501886855,589.55975265416,587.26604801367,590.6061160878,592.95052639391,590.08528490439,591.93563743624,588.86854168589,591.55870275961,589.65906608889,589.59395301306,587.39697587812,591.04894757479,590.02761376568,590.6061160878,588.94747422847,587.0850160818,592.69792772667,588.82121030195,591.66085949836,587.69699900375,590.81012826715,590.11656719114,590.08172719366,587.96801568851,593.00927047804,593.34560627746,589.55807158499,592.4686136393,588.63790899431,592.14105648186,590.46407838079,591.3898293361,589.21637196647,593.00927047804,588.5271274314,588.5271274314,590.54573164065,590.54573164065,-0.18249745545422,-0.011295021947934,-4.052581760182,4.2447152750194,4.3070284370205,3.1876854826898,-3.0407050305841,0.06780729357031,3.3577050455036,0.019718652595248,0.62847733794188,-10.433578327332,0.33678792125511,-1.8550873642408,4.4963003953815,-6.5536969229963,-0.3017772281883,9.5344322750105,-2.513155648288,-5.2887133835641,-0.79239967781215,2.882980418627,0.39469449757278,-7.316168162671,2.1325242782066,-6.187117370219,0.61127476674587,2.1396986832838,-1.0735677355009,-0.47991980426245,1.8508937429335,0.40334325192413,0.18042282211966,-5.7457433923931,-1.1869011940366,-4.5407676165451,12.03290236386,-1.8524649470972,2.5899938246089,-0.24665720449682,0.37691030299139,-13.71394039464,-1.3169647387301,-3.3429649923193,-9.928354787008,2.2371517018535,6.2626883102482,-6.7242952539217,717.83182467648,717.83182467648,715.71149491792,715.71149491792,719.97861975567,716.97145485176,718.44475233395,715.22899029298,718.83377258249,717.78787362492,717.35260741054,715.05890277004,718.39897084418,720.74338115028,717.87813966076,719.72849219261,716.66139644227,719.35155751598,717.45192084526,717.38680776943,715.18983063449,718.84180233117,717.82046852205,718.39897084418,716.74032898484,714.87787083817,720.49078248305,716.61406505832,719.45371425474,715.48985376013,718.60298302352,717.90942194752,717.87458195003,715.76087044488,720.80212523441,721.13846103383,717.35092634137,720.26146839568,716.43076375069,719.93391123824,718.25693313717,719.18268409247,717.00922672284,720.80212523441,716.31998218778,716.31998218778,718.33858639702,718.33858639702,1874.2438706808,1636.3171911495,922.23043911683,1899.8348481105,921.09441503042,0
6.2100000000001e-05,125465224.41557,4.7240682541276e-06,1.8461365655342e-05,4.7721620531908e-06,1.0129622490835,589.87215648881,589.87215648881,587.75199176995,587.75199176995,591.99940805954,588.95891124177,590.48496494972,587.24583777836,590.86595083238,589.80144282477,589.39890925093,587.09574417344,590.42793675624,592.78569419312,589.88257599925,591.76811667773,588.68521071054,591.3646544182,589.44326745938,589.42775499089,587.21599348286,590.86527622634,589.82906184987,590.42793675624,588.78760592428,586.91560119867,592.51992842711,588.60198200536,591.49334324562,587.49790737084,590.64121369547,589.92886394984,589.91661030562,587.79822359258,592.84224694055,593.18015676603,589.34948697062,592.3034151435,588.44494169465,591.9762179627,590.26973029053,591.21892559051,589.04123667038,592.84224694055,588.31759770009,588.31759770009,590.34432759394,590.34432759394,-0.18127297588377,-0.0065404444795049,-4.0743371555438,4.2511182602584,4.3152101098549,3.2135079242527,-3.0567553898448,0.068190216056995,3.3714498231562,0.019485259906566,0.63161254743354,-10.440931402216,0.34498377524588,-1.8771477960186,4.4980769300819,-6.5707726837568,-0.28015928181039,9.5658441121567,-2.5220893292133,-5.3074957728738,-0.80045327767237,2.8977162039949,0.39571340748942,-7.338734028496,2.1416739986914,-6.186357150853,0.60945234233186,2.1564465833331,-1.0804940552079,-0.47770332321411,1.8585677478366,0.40430709090018,0.18278204784709,-5.7409961599997,-1.1930277680682,-4.5931028570329,12.08339596231,-1.8542526611988,2.632267087436,-0.24859662866974,0.36186005281264,-13.765172773298,-1.3074777888644,-3.373566194884,-9.9749658188465,2.2570425997871,6.2863955751266,-6.7588896928646,717.70104063964,717.70104063964,715.58087592078,715.58087592078,719.82829221038,716.78779539261,718.31384910056,715.0747219292,718.69483498322,717.6303269756,717.22779340177,714.92462832427,718.25682090707,720.61457834395,717.71146015008,719.59700082856,716.51409486138,719.19353856903,717.27215161022,717.25663914172,715.04487763369,718.69416037717,717.6579460007,718.25682090707,716.61649007512,714.7444853495,720.34881257795,716.4308661562,719.32222739646,715.32679152167,718.47009784631,717.75774810068,717.74549445646,715.62710774342,720.67113109139,721.00904091686,717.17837112146,720.13229929434,716.27382584549,719.80510211354,718.09861444137,719.04780974135,716.87012082122,720.67113109139,716.14648185093,716.14648185093,718.17321174478,718.17321174478,1876.1141577104,1635.2779053871,924.79002290583,1899.9453729503,924.49678772467,0
6.2200000000001e-05,126390813.19581,4.7414792180707e-06,1.8491341726834e-05,4.783475284385e-06,1.0130404900485,589.70471665545,589.70471665545,587.58501449518,587.58501449518,591.81226916905,588.73842161562,590.31753562107,587.0550013596,590.69032917889,589.60728432366,589.23770962922,586.92502976788,590.24919918602,592.62008122507,589.67908300367,591.5999438324,588.50118327871,591.16982264938,589.2266915823,589.26114208528,587.03456865708,590.68092326775,589.62987686168,590.24919918602,588.62742074291,586.74583192223,592.34116639831,588.38194348766,591.32524330956,587.29817198024,590.47166515626,589.74060969516,589.75107419783,587.62794837236,592.67450920984,593.01392469146,589.14007317418,592.13754141344,588.25123740363,591.81063294583,590.07467282976,591.04740224771,588.86543980789,592.67450920984,588.10727078244,588.10727078244,590.14219275423,590.14219275423,-0.18005645790768,-0.0016993667560446,-4.0957866706614,4.2570243379985,4.3229880408202,3.2394169224964,-3.0726985221166,0.068583040743685,3.3848633697793,0.019255147980761,0.63471885302849,-10.448254534265,0.35332318622113,-1.8992899617923,4.4991921146219,-6.5875682385779,-0.25823300310764,9.5964371025412,-2.530661199309,-5.3259156234949,-0.80847539428402,2.912174017363,0.39668930644888,-7.3608086767529,2.1506649128881,-6.1856499451719,0.60755926780754,2.1731777207017,-1.0873797448893,-0.47540927447466,1.8660599329539,0.40524052769665,0.18516454514753,-5.7362179159335,-1.1990322215879,-4.6455074978316,12.133002779502,-1.8558968633865,2.6745507661731,-0.25053645863637,0.34641366360778,-13.81583492856,-1.2976185864564,-3.4039780431088,-10.020991016657,2.2767058741373,6.3095622088425,-6.7930968512234,717.56979855042,717.56979855042,715.45009639014,715.45009639014,719.67735106402,716.60350351058,718.18261751603,714.92008325457,718.55541107385,717.47236621862,717.10279152419,714.79011166285,718.11428108098,720.48516312004,717.54416489864,719.46502572736,716.36626517367,719.03490454434,717.09177347726,717.12622398024,714.89965055204,718.54600516272,717.49495875664,718.11428108098,716.49250263787,714.61091381719,720.20624829328,716.24702538262,719.19032520452,715.16325387521,718.33674705122,717.60569159012,717.61615609279,715.49303026733,720.5395911048,720.87900658642,717.00515506914,720.0026233084,716.11631929859,719.67571484079,717.93975472473,718.91248414267,716.73052170285,720.5395911048,715.9723526774,715.9723526774,718.00727464919,718.00727464919,1878.0561518497,1634.179876107,927.33682947243,1900.0522178309,927.90437997976,0
6.2300000000001e-05,127320091.56876,4.7589231863681e-06,1.8521318860203e-05,4.7947869000981e-06,1.0131188088071,589.53665855893,589.53665855893,587.41771785347,587.41771785347,591.6243616573,588.5171471362,590.14961997252,586.86363787389,590.51406394311,589.41255701517,589.07616270549,586.75391329691,590.06991402446,592.45369630687,589.47481851584,591.43112766069,588.31646849643,590.97422171616,589.00935466005,589.0941244339,586.85271219715,590.49590132785,589.43007327679,590.06991402446,588.46692754961,586.57571708001,592.16165382656,588.16111001059,591.15657017586,587.09780511357,590.30149232053,589.55181703489,589.58512817991,587.45719830539,592.50606747522,592.84691939393,588.92984310258,591.97100136999,588.05680646512,591.64430984537,589.87891806232,590.87526841381,588.68898964933,592.50606747522,587.89615961867,587.89615961867,589.93934215583,589.93934215583,-0.17884745036109,0.0032280709605624,-4.1169276634267,4.2624396857662,4.3303626793742,3.2654111836202,-3.0885326456791,0.068985531075398,3.3979476094146,0.019028645513269,0.63779646078592,-10.455546776719,0.36180616856423,-1.9215150603324,4.499652801827,-6.6040859904851,-0.23600196471025,9.6262142217985,-2.53887632499,-5.343973683833,-0.81646502284,2.9263530011764,0.39762255537221,-7.3823951866452,2.159496943584,-6.1849943548033,0.60559368802597,2.1898895942941,-1.0942235375652,-0.47303913719704,1.8733722681206,0.40614431527683,0.18757051938906,-5.7314081874898,-1.2049147204154,-4.697981234767,12.181733690982,-1.8573984987265,2.7168380026482,-0.25247668665162,0.33057314880364,-13.865929572276,-1.2873886862637,-3.4341988962803,-10.066438460176,2.296137946749,6.3321898418903,-6.8269234405819,717.43810489975,717.43810489975,715.3191641943,715.3191641943,719.52580799813,716.41859347703,718.05106631334,714.76508421471,718.41551028393,717.31400335599,716.97760904632,714.65535963773,717.97136036528,720.3551426477,717.37626485666,719.33257400151,716.21791483725,718.87566805699,716.91080100087,716.99557077472,714.75415853798,718.39734766868,717.33151961762,717.97136036528,716.36837389043,714.47716342083,720.06310016738,716.06255635141,719.05801651668,714.99925145439,718.20293866135,717.45326337572,717.48657452074,715.35864464622,720.40751381604,720.74836573475,716.8312894434,719.87244771081,715.95825280594,719.54575618619,717.78036440314,718.77671475464,716.59043599015,720.40751381604,715.79760595949,715.79760595949,717.84078849665,717.84078849665,1880.0819581661,1633.0238728381,929.8709314731,1900.1554117724,931.31713153179,0
6.2400000000001e-05,128253077.08291,4.7764002012745e-06,1.8551297040697e-05,4.8060969862417e-06,1.0131972108866,589.36799030222,589.36799030222,587.25011130608,587.25011130608,591.43569880083,588.2951035692,589.98122833901,586.67175884121,590.33716614908,589.2172744055,588.91427732405,586.5824032105,589.89009180436,592.28654822672,589.26979500224,591.2616768651,588.13107540956,590.77786581157,588.79127275828,588.92671212405,586.67043483572,590.31022296523,589.22966543374,589.89009180436,588.3061351483,586.40526544614,591.98140285689,587.93949669948,590.98733428896,586.89681896709,590.13070481739,589.36249843611,589.41878147465,587.28598162412,592.33693189207,592.67915018405,588.71880953642,591.80380389018,587.86165914707,591.47725704554,589.68247792127,590.70253311811,588.51189441744,592.33693189207,587.68427704106,587.68427704106,589.73579072575,589.73579072575,-0.17764548025151,0.008241721325228,-4.1377576608946,4.2673705797828,4.3373345782666,3.2914896861493,-3.1042560437736,0.069397436220516,3.4107046689344,0.018806071167038,0.64084559208289,-10.462807154137,0.37043252911445,-1.9438242366403,4.4994661134708,-6.6203284610274,-0.21346962445045,9.6551786939494,-2.5467396864524,-5.3616708228619,-0.82442116346639,2.9402524920633,0.39851352270554,-7.4034971507055,2.1681701063684,-6.1843889642213,0.60355375745788,2.2065797850142,-1.1010241998687,-0.47059441098721,1.8805068667024,0.40701926554812,0.19000015813754,-5.7265664670683,-1.2106754967533,-4.7505237577051,12.229599953136,-1.8587585644477,2.7591223530062,-0.25441722886601,0.31434081710322,-13.915459770047,-1.2767896885035,-3.4642271869693,-10.111316564266,2.3153354445486,6.3542802112713,-6.860376127604,717.30596615093,717.30596615093,715.1880871548,715.1880871548,719.37367464954,716.23307941791,717.91920418772,714.60973468992,718.2751419978,717.15525025421,716.85225317276,714.52037905922,717.82806765307,720.22452407543,717.20777085095,719.19965271381,716.06905125827,718.71584166029,716.72924860699,716.86468797276,714.60841068444,718.24819881395,717.16764128245,717.82806765307,716.24411099702,714.34324129485,719.91937870561,715.8774725482,718.92531013767,714.8347948158,718.0686806661,717.30047428482,717.35675732336,715.22395747284,720.27490774078,720.61712603277,716.65678538513,719.74177973889,715.79963499578,719.41523289425,717.62045376998,718.64050896683,716.44987026616,720.27490774078,715.62225288978,715.62225288978,717.67376657446,717.67376657446,1882.204677957,1631.8107023204,932.39240140486,1900.2549893617,934.73498377215,0
6.2500000000001e-05,129189790.58979,4.7939103236101e-06,1.8581276253694e-05,4.8174056255495e-06,1.0132757024694,589.19871994918,589.19871994918,587.0822042565,587.0822042565,591.2462938191,588.07230652097,589.81237100661,586.47937570404,590.15964676397,589.02144985484,588.75206225545,586.41050790579,589.70974294266,592.11864574082,589.06402479522,591.09160008853,587.94501300035,590.58076905446,588.57246180186,588.75891518986,586.48774723807,590.12390066464,589.02866753104,589.70974294266,588.14505227963,586.2344857385,591.80042558927,587.71711853918,590.81754604911,586.6952256476,589.95931223064,589.17266622334,589.25204321655,587.11430651284,592.16711257879,592.51062633982,588.50698512692,591.63595780513,587.66580563786,591.30948289747,589.48536420703,590.52920531166,588.33416228417,592.16711257879,587.47163576998,587.47163576998,589.53155327991,589.53155327991,-0.17645005363231,0.013341429016811,-4.1582743566135,4.2718233814944,4.3439044056995,3.3176517293009,-3.1198670691593,0.069818491374603,3.4231368671608,0.018587731043976,0.64386648279179,-10.47003466065,0.3792018591274,-1.9662185765227,4.4986394309825,-6.6362982852263,-0.19063932582489,9.6833339851346,-2.5542561408196,-5.3790080286871,-0.83234282087379,2.9538720140853,0.39936258286481,-7.4241186467722,2.176684507565,-6.1838323421455,0.60143765816775,2.2232459651453,-1.1077805340832,-0.46807661699273,1.8874659789898,0.40786623776225,0.192453629189,-5.7216922121354,-1.2163148448915,-4.8031347334248,12.276613183776,-1.8599781090621,2.8013978009161,-0.2563579270445,0.2977192763356,-13.964428925363,-1.2658232404366,-3.4940614081598,-10.155634083141,2.33429519993,6.3758351502975,-6.8934615220226,717.17338874089,717.17338874089,715.05687304821,715.05687304821,719.22096261081,716.04697531268,717.78703979832,714.45404449575,718.13431555568,716.99611864655,716.72673104716,714.3851766975,717.68441173437,720.09331453253,717.03869358693,719.06626888024,715.91968179206,718.55543784617,716.54713059357,716.73358398157,714.46241602978,718.09856945635,717.00333632275,717.68441173437,716.11972107134,714.20915453021,719.77509438098,715.69178733089,718.79221484082,714.66989443931,717.93398102235,717.14733501505,717.22671200826,715.08897530455,720.1417813705,720.48529513153,716.48165391863,719.61062659684,715.64047442957,719.28415168918,717.46003299874,718.50387410337,716.30883107588,720.1417813705,715.44630456168,715.44630456168,717.50622207162,717.50622207162,1884.4385731783,1630.5412065228,934.90131170703,1900.350990585,938.15787980745,0
6.2600000000001e-05,130130256.51882,4.8114536340946e-06,1.8611256484681e-05,4.828712897583e-06,1.0133542904605,589.02885552167,589.02885552167,586.91400604787,586.91400604787,591.05615987065,587.84877143281,589.64305820986,586.28649982351,589.98151669469,588.82509657539,588.58952619522,586.23823572429,589.5288777394,591.94999757057,588.85752009086,590.92090591297,587.7582901843,590.38294548556,588.35293757122,588.59074360966,586.30465999867,589.93694683355,588.82709362467,589.5288777394,587.98368761916,586.06338661607,591.61873407492,587.49399037006,590.64721580964,586.49303716841,589.78732409562,588.98233257711,589.08492245087,586.94218110482,591.99661961406,592.34135710378,588.29438239317,591.46747189823,587.46925604288,591.14099571635,589.28758858581,590.35529386617,588.15580136768,591.99661961406,587.25824841007,587.25824841007,589.32664451968,589.32664451968,-0.1752606565287,0.018527029148549,-4.178475609664,4.2758045378552,4.3500729579764,3.3438969662403,-3.1353641470301,0.070248418199874,3.435246708912,0.018373916124944,0.64685938243758,-10.477228259982,0.38811352720287,-1.9886990997723,4.4971803891215,-6.6519982162469,-0.16751429621385,9.7106837994679,-2.5614304079218,-5.395986409964,-0.84022900462641,2.9672112779352,0.4001701148398,-7.4442642340377,2.1850403425431,-6.1833230405081,0.59924361765792,2.2398859074807,-1.1144913793502,-0.46548729822113,1.8942519875112,0.4086861277368,0.19493107858325,-5.7167848469661,-1.2218331170511,-4.8558137876449,12.322785349594,-1.8610582328969,2.8436587715681,-0.25829854961637,0.28071143694451,-14.012840791819,-1.2544910363455,-3.5237001013981,-10.199400119947,2.3530142510767,6.3968565812087,-6.9261861680218,717.04037907082,717.04037907082,714.92552959702,714.92552959702,719.0676834198,715.86029498196,717.65458175901,714.29802337266,717.99304024384,716.83662012454,716.60104974437,714.24975927344,717.54040128855,719.96152111972,716.86904364001,718.93242946212,715.76981373345,718.39446903471,716.36446112037,716.60226715881,714.31618354782,717.9484703827,716.83861717382,717.54040128855,715.99521116831,714.07491016522,719.63025762407,715.50551391921,718.65873935879,714.50456071756,717.79884764477,716.99385612625,717.09644600002,714.95370465397,720.00814316321,720.35288065293,716.30590594232,719.47899544738,715.48077959203,719.1525192655,717.29911213496,718.36681741532,716.16732491683,720.00814316321,715.26977195922,715.26977195922,717.33816806883,717.33816806883,1886.7992697845,1629.2162606148,937.3977347812,1900.4434606389,941.58576449122,0
6.2700000000001e-05,131074503.17035,4.8290302358077e-06,1.8641237719362e-05,4.8400188787691e-06,1.013432982568,588.85840499666,588.85840499666,586.74552596033,586.74552596033,590.86531004916,587.62451357488,589.47330012906,586.09314247575,589.80278678472,588.62822762946,588.4266777624,586.06559494924,589.34750637675,591.78061239973,588.65029294695,590.74960285806,587.57091580715,590.1844090636,588.13271569867,588.42220730331,586.12118363785,589.74937379886,588.62495762557,589.34750637675,587.82204977569,585.89197667626,591.43634031274,587.27012688418,590.47635387422,586.29026544546,589.61474989609,588.79150953247,588.91742813247,586.76961347963,591.82546303403,592.17135168027,588.08101371944,591.29835490337,587.27202038122,590.9718037786,589.08916258807,590.18080757298,587.97681972952,591.82546303403,587.04412744668,587.04412744668,589.1210790284,589.1210790284,-0.17407675578272,0.023798346501942,-4.1983594434331,4.2793205641394,4.3558411697215,3.3702254734949,-3.1507457761503,0.070686925027681,3.4470368760262,0.01816489997799,0.64982455380143,-10.484386885003,0.39716667315018,-2.0112667539582,4.49509686471,-6.6674311188979,-0.1440976475398,9.7372320699823,-2.5682670213212,-5.4126071894479,-0.8480787297589,2.9802701773607,0.4009365007664,-7.463938921841,2.1932378946166,-6.1828595975215,0.59696992630738,2.2564974979851,-1.1211556123727,-0.46282802048867,1.900867401555,0.4094798558222,0.19743262880838,-5.7118437632505,-1.2272307190029,-4.9085604884145,12.36812874277,-1.8620000872164,2.8859001438708,-0.26023879254955,0.26332051339805,-14.060699454185,-1.2427948184469,-3.5531418445942,-10.242624127118,2.3714898421918,6.4173465036918,-6.9585565284433,716.90694350591,716.90694350591,714.79406446959,714.79406446959,718.91384855841,715.67305208414,717.52183863831,714.141680985,717.85132529397,716.67676613871,716.47521627166,714.1141334585,717.39604488601,719.82915090899,716.6988314562,718.79814136732,715.6194543164,718.23294757285,716.18125420793,716.47074581256,714.1697221471,717.79791230811,716.67349613483,717.39604488601,715.87058828495,713.94051518552,719.48487882199,715.31866539344,718.52489238347,714.33880395472,717.66328840535,716.84004804172,716.96596664172,714.81815198888,719.87400154328,720.21989018953,716.12955222869,719.34689341262,715.32055889047,719.02034228786,717.13770109733,718.22934608224,716.02535823878,719.87400154328,715.09266595594,715.09266595594,717.16961753766,717.16961753766,1889.3039317714,1627.8367709114,939.88174305968,1900.5324497247,945.01858449925,0
6.2800000000001e-05,132022563.0594,4.8466402571636e-06,1.8671219943528e-05,4.851323642475e-06,1.0135117873972,588.68737630367,588.68737630367,586.57677320865,586.57677320865,590.67375737982,587.39954804006,589.30310688772,585.89931484832,589.62346781106,588.43085592784,588.26352549847,585.89259380315,589.1656389183,591.61049887192,588.44235528118,590.57769937999,587.38289864206,589.98517366156,587.91181166501,588.25331612968,585.93732859855,589.56119380372,588.42227329745,589.1656389183,587.6601472896,585.72026445255,591.25325624588,587.04554262172,590.30497049431,586.08692229365,589.44159906143,588.60020897787,588.74956912497,586.59661166053,591.65365282975,592.00061923287,587.86689135281,591.12861550331,587.07410858263,590.80191531929,588.8900976074,590.00575514219,587.79722537204,591.65365282975,586.82928524238,586.82928524238,588.91487126824,588.91487126824,-0.17289779993477,0.029155194388116,-4.2179240448385,4.2823780397264,4.3612101279077,3.3966378150663,-3.1660105323433,0.071133707074302,3.4585102191436,0.017960935838351,0.65276227263332,-10.491509436938,0.40636020288564,-2.0339224090873,4.4923969715398,-6.6825999691055,-0.12039237946461,9.7629829574655,-2.5747702955995,-5.4288717051289,-0.85589101764414,2.993048784963,0.40166212447199,-7.483148136811,2.2012775341674,-6.1824405371473,0.59461495519819,2.2730787469751,-1.1277721487771,-0.46010037453503,1.9073148521125,0.41024835183017,0.19995837706408,-5.7068683214471,-1.2325081060671,-4.9613743318533,12.412655975096,-1.8628048743247,2.9281172597224,-0.26217828031829,0.24555002612826,-14.108009322381,-1.2307363788301,-3.582385242202,-10.285315929917,2.3897194242552,6.43730698762,-6.9905789802724,716.77308837686,716.77308837686,714.66248528185,714.66248528185,718.75946945301,715.48526011325,717.38881896092,713.98502692152,717.70917988425,716.51656800103,716.34923757166,713.97830587634,717.25135099149,719.69621094512,716.52806735437,718.66341145319,715.46861071525,718.07088573475,715.99752373821,716.33902820287,714.02304067174,717.64690587691,716.50798537065,717.25135099149,715.74585936279,713.80597652575,719.33896831908,715.13125469491,718.3906825675,714.17263436685,717.52731113462,716.68592105107,716.83528119816,714.68232373372,719.73936490295,720.08633130607,715.952603426,719.21432757651,715.15982065582,718.88762739249,716.97580968059,718.09146721538,715.88293744524,719.73936490295,714.91499731557,714.91499731557,717.00058334143,717.00058334143,1891.9715561817,1626.4036727788,942.35340904562,1900.6180128247,948.4562882866,0
6.2900000000001e-05,132974473.30334,4.8642838556346e-06,1.8701203143151e-05,4.8626272590747e-06,1.0135907145621,588.51577732229,588.51577732229,586.40775693981,586.40775693981,590.48151481567,587.17388973716,589.13248855009,585.70502803684,589.44357048129,588.23299422822,588.10007786614,585.71924044543,588.98328530834,591.43966558812,588.23371886952,590.4052038704,587.19424738702,589.78525306307,587.69024079615,588.08407988424,585.75310524324,589.3724190045,588.21905425459,588.98328530834,587.49798863133,585.54825841214,591.06949375836,586.8202519673,590.13307586661,585.88301942323,589.26788096378,588.40844265408,588.58135419994,586.42318361216,591.48119894469,591.82916888195,587.65202740084,590.95826232818,586.87553048459,590.63133852969,588.69040489934,589.83014520185,587.61702623593,591.48119894469,586.61373403365,586.61373403365,588.70803557697,588.70803557697,-0.17172322001356,0.034597374058419,-4.237167762305,4.2849835984685,4.3661810806111,3.4231351201459,-3.181157068532,0.071588446855707,3.4696697501105,0.017762254321394,0.65567282745003,-10.498594785204,0.41569278438445,-2.0566668514561,4.4890890493844,-6.6975078506974,-0.096401383205838,9.7879408397565,-2.580944283905,-5.444781405384,-0.86366489655725,3.0055473499136,0.40234737007081,-7.5018976913442,2.2091597176856,-6.1820643703741,0.59217717270874,2.2896278010103,-1.1343399432977,-0.45730597668288,1.913597087281,0.41099254154485,0.20250839359194,-5.7018578518473,-1.2376657784564,-5.0142547278141,12.45637995571,-1.8634738472314,2.970305931098,-0.26411656608232,0.22740380090099,-14.154775120684,-1.2183175603624,-3.6114289154639,-10.327485727988,2.4077006555829,6.45674016016,-7.0222598018741,716.63881997507,716.63881997507,714.53079959259,714.53079959259,718.60455746846,715.29693238994,717.25553120287,713.82807068962,717.56661313407,716.356036881,716.22312051892,713.84228309821,717.10632796112,719.5627082409,716.3567615223,718.52824652318,715.3172900398,717.90829571585,715.81328344893,716.20712253702,713.87614789602,717.49546165728,716.34209690737,717.10632796112,715.62103128411,713.67130106492,719.19253641114,714.94329462008,718.25611851939,714.00606207601,717.39092361656,716.53148530687,716.70439685272,714.54622626494,719.60424159747,719.95221153473,715.77507005362,719.08130498096,714.99857313737,718.75438118247,716.81344755212,717.95318785463,715.74006888871,719.60424159747,714.73677668643,714.73677668643,716.83107822975,716.83107822975,1894.8232816181,1624.9179285538,944.81280536776,1900.7002094517,951.89882613067,0
6.3000000000001e-05,133930276.06422,4.8819612221752e-06,1.8731187304391e-05,4.8739297960318e-06,1.0136697748174,588.34361587988,588.34361587988,586.23848623075,586.23848623075,590.28859523414,586.94755338375,588.96145511869,585.51029304172,589.26310543077,588.03465513379,587.93634324839,585.54554297027,588.8004553714,591.26812110437,588.02439534469,590.23212465537,587.00497066239,589.58466095884,587.46801825987,587.91450829662,585.56852385096,589.18306146782,588.01531395985,588.8004553714,587.33558219994,585.37596695377,590.88506467181,586.5942691466,589.96068013061,585.6785684364,589.09360491549,588.21622215322,588.41279203622,586.24933723828,591.30811127224,591.65700970228,587.43643382944,590.78730395399,586.6762958296,590.46008155493,588.49009558047,589.65398629734,587.43623019799,591.30811127224,586.39748592772,586.39748592772,588.50058616502,588.50058616502,-0.17055243034794,0.040124674011861,-4.2560891058989,4.287143919933,4.3707554473109,3.4497191842944,-3.1961841173402,0.072050814238204,3.4805186322443,0.017569060925268,0.65855651986639,-10.505641765836,0.4251628448054,-2.0795007779217,4.4851816575904,-6.7121579542721,-0.0721274484515,9.8121103056008,-2.5867927252115,-5.4603378481041,-0.87139940340324,3.0177662919746,0.40299262059263,-7.5201937410039,2.2168849879647,-6.1817295954925,0.58965516062422,2.3061429589586,-1.1408579903897,-0.45444647118573,1.9197169673553,0.41171333152211,0.20508272026101,-5.6968116555192,-1.2427042774866,-5.0672009869206,12.499313883619,-1.8640083101905,3.012462443063,-0.26605313159417,0.20888596818013,-14.201001876856,-1.2055402593249,-3.6402714929055,-10.369144116444,2.4254314020074,6.475648195099,-7.0536051651678,716.50414455204,716.50414455204,714.39901490292,714.39901490292,718.44912390631,715.10808205592,717.12198379086,713.67082171389,717.42363410293,716.19518380596,716.09687192056,713.70607164244,716.96098404356,719.42864977654,716.18492401686,718.39265332754,715.16549933456,717.74518963101,715.62854693204,716.07503696879,713.72905252313,717.34359013999,716.17584263202,716.96098404356,715.49611087211,713.53649562594,719.04559334398,714.75479781877,718.12120880278,713.83909710857,717.25413358765,716.37675082538,716.57332070839,714.40986591044,719.46863994441,719.81753837445,715.59696250161,718.94783262615,714.83682450176,718.6206102271,716.65062425264,717.8145149695,715.59675887016,719.46863994441,714.55801459989,714.55801459989,716.66111483719,716.66111483719,1897.8827704729,1623.3805254325,947.2600048368,1900.7791034253,955.34615011579,0
6.3100000000001e-05,134890019.0591,4.8996725871743e-06,1.8761172413588e-05,4.8852313180608e-06,1.0137489802164,588.17089974945,588.17089974945,586.06897008624,586.06897008624,590.09501143355,586.7205534982,588.79001653196,585.31512076505,589.08208321991,587.83585109192,587.77232994744,585.37150940456,588.61715881176,591.09587392954,587.81439619477,590.05846999454,586.81507700869,589.38341094324,587.24515906263,587.74461102835,585.3835946145,588.99313316774,587.81106572278,588.61715881176,587.1729363217,585.2033984057,590.69998074227,586.36760822291,589.78779336619,585.47358082406,588.91878016654,588.02355891791,588.24389121921,586.07508037974,591.13439965345,591.48415072081,587.22012246084,590.61574890126,586.47641426257,590.28815249185,588.28918062754,589.47728689071,587.25484506909,591.13439965345,586.18055289954,586.18055289954,588.29253711252,588.29253711252,-0.16938482934624,0.045736869410546,-4.2746867455625,4.2888657259959,4.3749348275378,3.4763925821076,-3.2110904901577,0.072520466879078,3.4910601744503,0.017381533869977,0.66141366489079,-10.512649182785,0.43476856866112,-2.1024247906259,4.480683565298,-6.7265535759774,-0.047573273919473,9.8354961456737,-2.5923189926243,-5.4755426971787,-0.87909358471117,3.0297062011206,0.40359825653294,-7.5380427549182,2.2244539739451,-6.1814346984036,0.58704762957863,2.3226226866556,-1.1473253239243,-0.4515235320842,1.9256774610838,0.4124115957003,0.20768136910547,-5.6917290066824,-1.2476241812271,-5.1202123099064,12.541471232745,-1.8644096188298,3.0545835510602,-0.26798738684585,0.19000096032791,-14.246694917091,-1.1924064285172,-3.668911603599,-10.410302099301,2.4429097369714,6.4940332992482,-7.0846211272387,716.36906831487,716.36906831487,714.26713865166,714.26713865166,718.29317999898,714.91872206363,716.98818509739,713.51328933048,717.28025178533,716.03401965734,715.97049851286,713.56967796998,716.81532737718,719.29404249497,716.0125647602,718.25663855997,715.01324557411,717.58157950867,715.44332762806,715.94277959378,713.58176317992,717.19130173316,716.0092342882,716.81532737718,715.37110488713,713.40156697112,718.8981493077,714.56577678833,717.98596193161,713.67174938949,717.11694873197,716.22172748333,716.44205978463,714.27324894516,719.33256821887,719.68231928623,715.41829102626,718.81391746668,714.674582828,718.48632105727,716.48734919296,717.67545545614,715.45301363452,719.33256821887,714.37872146497,714.37872146497,716.49070567794,716.49070567794,1901.176683776,1621.7924733665,949.69508047307,1900.8547625709,958.79821411539,0
6.3200000000001e-05,135853756.14802,4.9174182272804e-06,1.8791158457282e-05,4.8965318872421e-06,1.0138283443008,587.99763664768,587.99763664768,585.8992174367,585.8992174367,589.90077612977,586.49290439068,588.61818266187,585.11952200766,588.90051433158,587.63659439284,587.60804618376,585.19714770605,588.43340521299,590.92293252326,587.6037327618,589.88424808011,586.62457488448,589.18151651088,587.02167804644,587.57439767052,585.19832763764,588.80264598298,587.6063226977,588.43340521299,587.0100592487,585.03056102377,590.51425365707,586.14028309378,589.61442559122,585.26806796269,588.74341590222,587.83046424047,588.0746602402,585.90042081259,590.96007387459,591.31060091448,587.00310497161,590.44360563365,586.27589532849,590.11555938691,588.0876708766,589.30005536009,587.07287859226,590.96007387459,585.96294678883,585.96294678883,588.08390236642,588.08390236642,-0.16821980018068,0.051433721928987,-4.2929595112203,4.2901557675939,4.37872100818,3.5031588113625,-3.2258750776564,0.072997050434,3.5012978208678,0.017199822038458,0.66424459172642,-10.519615805089,0.44450789715155,-2.1254393916082,4.4756037483876,-6.7406981137269,-0.02274147845885,9.8581033431269,-2.597526026987,-5.4903977185219,-0.88674649856217,3.0413678306942,0.40416465449076,-7.5554514646371,2.2318673916338,-6.1811781534984,0.58435343326802,2.3390656360746,-1.1537410167681,-0.44853886593635,1.9314816408441,0.41308816084672,0.21030432118023,-5.6866091524913,-1.2524261009393,-5.1732877767419,12.582865747522,-1.8646791807162,3.0966664737062,-0.26991866928555,0.17075351058928,-14.291859847049,-1.1789180791011,-3.6973478686749,-10.450971110009,2.4601339409966,6.5118976980222,-7.115313621806,716.23359743139,716.23359743139,714.13517822042,714.13517822042,718.13673691348,714.72886517439,716.85414344558,713.35548279138,717.1364751153,715.87255517655,715.84400696747,713.43310848976,716.66936599671,719.15889330697,715.83969354551,718.12020886382,714.86053566819,717.4174772946,715.25763883015,715.81035845423,713.43428842136,717.03860676669,715.84228348141,716.66936599671,715.24602003242,713.26652180748,718.75021444078,714.37624387749,717.85038637494,713.50402874641,716.97937668594,716.06642502418,716.31062102391,714.1363815963,719.1960346583,719.54656169819,715.23906575532,718.67956641736,714.5118561122,718.35152017063,716.32363166031,717.53601614381,715.30883937597,719.1960346583,714.19890757254,714.19890757254,716.31986315014,716.31986315014,1904.7352565067,1620.15480298,952.11810554863,1900.9272584443,962.25497376517,0
6.3300000000001e-05,136821548.01899,4.9351984742567e-06,1.8821145422227e-05,4.9078315632354e-06,1.0139078823305,587.82383423312,587.82383423312,585.72923713632,585.72923713632,589.7059019529,586.2646201529,588.44596331163,584.92350746631,588.71840916861,587.43689716843,587.44350009517,585.02246576166,588.24920403754,590.74930529386,587.39241624052,589.70946703595,586.43347266456,588.97899105334,586.79758988572,587.40387774155,585.01273293268,588.61161169426,587.40109788194,588.24920403754,586.84695915755,584.85746298966,590.32789503174,585.91230748771,589.44058675924,585.06204111138,588.56752124082,587.63694926207,587.90510749576,585.7253662464,590.78514366496,591.13636920812,586.78539289081,590.27088255661,586.07474847015,589.9423102343,587.88557702226,589.12229999906,586.89033844105,590.78514366496,585.74467929729,585.74467929729,587.87469573774,587.87469573774,-0.16705671151981,0.057214979184338,-4.3109063920288,4.2910208199153,4.3821159702572,3.530022473383,-3.240536848216,0.073480198894289,3.5112351444162,0.017024043050898,0.66704964482709,-10.526540368131,0.45437852873681,-2.1485449778071,4.4699513736981,-6.754595065436,0.002365380750521,9.8799370640644,-2.6024162574735,-5.5049047757764,-0.89435721636553,3.0527520961261,0.40469218573867,-7.5724268201774,2.2391260452773,-6.1809584241972,0.58157158184184,2.3554706673878,-1.1601041799856,-0.44549421503517,1.9371326788298,0.41374379233037,0.21295152546149,-5.6814513155544,-1.2571106775595,-5.2264263386909,12.623511426368,-1.864818456214,3.1387088761335,-0.2718462426484,0.15114864525162,-14.336502540117,-1.165077286094,-3.7255788966468,-10.491163031711,2.4771025002653,6.5292436193691,-7.145688453073,716.09773802253,716.09773802253,714.00314092573,714.00314092573,717.97980574232,714.53852394232,716.71986710104,713.19741125572,716.99231295802,715.71080095784,715.71740388458,713.29636955107,716.52310782695,719.02320908328,715.66632002993,717.98337082536,714.70737645397,717.25289484275,715.07149367513,715.67778153097,713.28663672209,716.88551548367,715.67500167135,716.52310782695,715.12086294696,713.13136677908,718.60179882115,714.18621127712,717.71449054865,713.33594490079,716.84142503023,715.91085305149,716.17901128517,713.99927003582,719.05904745437,719.41027299753,715.05929668022,718.54478634602,714.34865225957,718.21621402371,716.15948081167,717.39620378848,715.16424223046,719.05904745437,714.0185830867,714.0185830867,716.14859952715,716.14859952715,1908.5930199575,1618.4685634674,954.5291536678,1900.9966660152,965.71638642454,0
6.3400000000001e-05,137793462.98831,4.9530137255273e-06,1.8851133295395e-05,4.9191304035073e-06,1.0139876115642,587.64950010457,587.64950010457,585.55903796104,585.55903796104,589.51040144406,586.03571464622,588.2733682134,584.72708773108,588.53577805135,587.23677139099,587.27869973589,584.84747138595,588.06456462631,590.57500059652,587.18045767712,589.53413491675,586.24177863832,588.77584785585,586.57290908415,587.23306068507,584.82682041796,588.42004198168,587.19540411401,588.06456462631,586.68364414812,584.6841124093,590.14091640701,585.6836949608,589.26628675711,584.85551140909,588.39110523148,587.44302497206,587.73524128714,585.54992432276,590.60961869464,590.9614644724,586.56699759818,590.09758801607,585.87298302623,589.76841297408,587.68290961694,588.94402901611,586.70723221808,590.60961869464,585.52576198598,585.52576198598,587.66493089876,587.66493089876,-0.16589491820078,0.063080375097457,-4.3285265372062,4.2914676766326,4.3851218929128,3.5569894933099,-3.2550748465358,0.073969534961605,3.5208758376942,0.016854281616941,0.66982918533692,-10.533421571849,0.46437792064249,-2.1717418376832,4.4637358024006,-6.7682480288821,0.027744791971934,9.9010026447505,-2.6069915117455,-5.5190658276927,-0.90192482523367,3.063860070007,0.40518121468236,-7.5889759500247,2.2462308295035,-6.1807739625753,0.57870125354483,2.3718368745399,-1.1664139611257,-0.44239136150691,1.942633842489,0.41437918211211,0.21562289793067,-5.6762546944506,-1.2616785789456,-5.27962681177,12.663422530336,-1.8648289601337,3.180708847585,-0.27376929629081,0.13119168222171,-14.380629129693,-1.1508861886239,-3.7536032771807,-10.530890226036,2.493814104221,6.5460732742197,-7.1757512871792,715.96149616275,715.96149616275,713.87103401923,713.87103401923,717.82239750224,714.3477107044,716.58536427158,713.03908378926,716.84777410954,715.54876744918,715.59069579408,713.15946744414,716.3765606845,718.8869966547,715.49245373531,717.84613097494,714.55377469651,717.08784391404,714.88490514234,715.54505674325,713.13881647614,716.73203803987,715.5074001722,716.3765606845,714.9956402063,712.99610846748,718.45291246519,713.99569101899,717.57828281529,713.16750746728,716.70310128966,715.75502103025,716.04723734533,713.86192038094,718.92161475282,719.27346053059,714.87899365637,718.40958407425,714.18497908441,718.08040903226,715.99490567513,717.2560250743,715.01922827626,718.92161475282,713.83775804417,713.83775804417,715.97692695695,715.97692695695,1912.7897020819,1616.7348205441,956.92829870956,1901.0630633408,969.18241113675,0
6.3500000000001e-05,138769577.94439,4.9708644572399e-06,1.8881122063997e-05,4.9304284635844e-06,1.0140675516051,587.47464179962,587.47464179962,585.38862860685,585.38862860685,589.31428705207,585.80620148728,588.10040702601,584.53027328288,588.35263121536,587.03622887201,587.11365307562,584.67217231982,587.87949619821,590.40002673139,586.96786796798,589.35825970706,586.04950100831,588.57210009412,586.34764997151,587.06195586767,584.64059991564,588.22794842221,586.98925407184,587.87949619821,586.52012224225,584.51051731136,589.95332924579,585.4544588934,589.0915354027,584.64848987201,588.21417685219,587.24870220704,587.56506981954,585.37410261393,590.43350857223,590.78589552191,586.34793032239,589.92373029708,585.67060822938,589.59387549057,587.47967907007,588.76525053396,586.5235674538,590.43350857223,585.30620627271,585.30620627271,587.45462138031,587.45462138031,-0.16473376187534,0.069029629111589,-4.3458192551235,4.2915031422526,4.3877411557899,3.5840674020087,-3.2694881910559,0.074464670734376,3.530223704562,0.016690588357819,0.67258359288026,-10.540258080118,0.47450329163506,-2.1950301454686,4.4569665759966,-6.7816607008405,0.053394263200975,9.9213055771044,-2.6112529042936,-5.5328829227553,-0.90944842970012,3.0746929786218,0.40563209743075,-7.6051061166722,2.2531827316362,-6.1806232097553,0.57574180520222,2.3881636162107,-1.1726695422581,-0.43923213169335,1.9479884893841,0.41499493695893,0.21831832084946,-5.6710184649443,-1.2661304974737,-5.3328878694076,12.70261356586,-1.8647122637834,3.2226648658986,-0.27568694301036,0.11088822255132,-14.424245996815,-1.1363469961274,-3.7814195763391,-10.57016554902,2.5102676412471,6.5623888333455,-7.2055076456487,715.82487788065,715.82487788065,713.73886468788,713.73886468788,717.6645231331,714.1564375683,716.45064310704,712.88050936391,716.70286729638,715.38646495303,715.46388915665,713.02240840085,716.22973227924,718.75026281242,715.31810404901,717.70849578809,714.39973708933,716.92233617514,714.69788605254,715.41219194869,712.99083599667,716.57818450324,715.33949015287,716.22973227924,714.87035832328,712.86075339239,718.30356532682,713.80469497443,717.44177148373,712.99872595303,716.56441293321,715.59893828807,715.91530590057,713.72433869496,718.78374465326,719.13613160294,714.69816640342,718.27396637811,714.02084431041,717.9441115716,715.8299151511,717.11548661499,714.87380353483,718.78374465326,713.65644235373,713.65644235373,715.80485746134,715.80485746134,1917.3713709747,1614.9546544013,959.31561490992,1901.1265312167,972.65300858152,0
6.3600000000001e-05,139749979.46813,4.9887512405057e-06,1.8911111715496e-05,4.9417257973991e-06,1.0141477248308,587.29926679346,587.29926679346,585.218017688,585.218017688,589.1175711304,585.57609403085,587.92708933269,584.33307449126,588.16897880917,586.83528126086,586.94836799856,584.49657622935,587.69400784961,590.22439194196,586.75465785843,589.18184932033,585.85664788908,588.36776083107,586.12182670032,586.89057257682,584.45408114964,588.03534248716,586.78266027092,587.69400784961,586.35640138255,584.33668564606,589.76514493025,585.22461248666,588.91634244256,584.44098739115,588.03674500789,587.05399165008,587.39460120144,585.19790862185,590.25682284271,590.60967111323,586.12820213933,589.74931762248,585.46763320477,589.41870561081,587.2758956473,588.58597258893,586.33935160556,590.25682284271,585.08602342967,585.08602342967,587.24378056901,587.24378056901,-0.16357257170778,0.075062445999297,-4.362784015274,4.2911340268255,4.3899763413975,3.6112656984703,-3.2837760705959,0.07496520827771,3.5392826511404,0.016532978574543,0.67531326794989,-10.547048519878,0.48475162577391,-2.2184099594903,4.4496534157317,-6.7948368775247,0.079311296345002,9.940851495877,-2.615200700394,-5.5463581950301,-0.91692715456604,3.0852521973692,0.40604518008336,-7.6208246757426,2.2599828356268,-6.1805045958779,0.57269278135916,2.4044505542799,-1.1788701371727,-0.43601840298038,1.9532000615556,0.41559156798454,0.22103764221748,-5.6657417809735,-1.2704671489359,-5.386208040061,12.741099297207,-1.8644699980036,3.2645757527975,-0.27759821856701,0.090244144605456,-14.467359761358,-1.1214619907308,-3.8090263331744,-10.609002391748,2.5264621929362,6.5781924017289,-7.2349629017972,715.68788915951,715.68788915951,713.60664005404,713.60664005404,717.50619349644,713.96471639689,716.31571169873,712.7216968573,716.55760117521,715.2239036269,715.3369903646,712.88519859539,716.08263021565,718.613014308,715.14328022447,717.57047168638,714.24527025512,716.75638319711,714.51044906637,715.27919494287,712.84270351568,716.4239648532,715.17128263697,716.08263021565,714.74502374859,712.7253080121,718.1537672963,713.6132348527,717.3049648086,712.8296097572,716.42536737394,715.44261401612,715.78322356748,713.5865309879,718.64544520875,718.99829347928,714.51682450537,718.13793998853,713.85625557081,717.80732797685,715.66451801334,716.97459495497,714.7279739716,718.64544520875,713.47464579571,713.47464579571,715.63240293506,715.63240293506,1922.3918964847,1613.1291576828,961.69117686877,1901.1871528012,976.12814102943,0
6.3700000000001e-05,140734765.17475,5.0066747615182e-06,1.894110223762e-05,4.9530224576698e-06,1.0142281569341,587.12338249784,587.12338249784,585.04721373541,585.04721373541,588.92026593386,585.34540534832,587.75342463873,584.13550161228,587.98483089216,586.63394004346,586.78285230246,584.32069070497,587.50810855373,590.04810441338,586.5408379414,589.00491159789,585.66322730632,588.16284301367,585.89545324243,586.71892001877,584.26727374366,587.84223553976,586.57563506243,587.50810855373,586.19248943112,584.16262528402,589.57637475885,584.994168759,588.74071754955,584.23301473017,587.85881852875,586.85890382975,587.2238434438,585.02134977727,590.07957098514,590.43279994307,585.90782397036,589.57435815149,585.26406696867,589.24291110315,587.07156946956,588.40620313013,586.15459205685,590.07957098514,584.86522458113,584.86522458113,587.03242170448,587.03242170448,-0.16241066506195,0.081178515294047,-4.3794204499288,4.2903671394091,4.3918302327419,3.638596322235,-3.2979377385843,0.075470740517224,3.5480566784724,0.016381431512646,0.67801863491723,-10.553791480228,0.49511967718412,-2.2418812187868,4.4418062173769,-6.8077804549452,0.10549335736597,9.9596461584046,-2.6188341422727,-5.5594938573095,-0.92436014753329,3.0955392497881,0.40642079697693,-7.6361390363018,2.2666323269741,-6.1804165403012,0.5695539212378,2.4206977016588,-1.1850149872479,-0.43275211148497,1.9582720795445,0.41616948151086,0.22378067546231,-5.6604237754591,-1.2746892725087,-5.439585703641,12.778894745922,-1.8641038571769,3.306440616246,-0.2795020803154,0.069265596402612,-14.509977272192,-1.1062335297889,-3.8364220561884,-10.647414707777,2.5423970253795,6.5934859847685,-7.2641222705146,715.55053593633,715.55053593633,713.4743671739,713.4743671739,717.34741937235,713.77255878681,716.18057807722,712.56265505076,716.41198433065,715.06109348195,715.21000574095,712.74784414346,715.93526199221,718.47525785186,714.96799137989,717.43206503638,714.09038074481,716.58999645216,714.32260668092,715.14607345726,712.69442718215,716.26938897825,715.00278850092,715.93526199221,714.61964286961,712.58977872251,718.00352819733,713.42132219749,717.16787098804,712.66016816866,716.28597196723,715.28605726824,715.65099688229,713.44850321576,718.50672442362,718.85995338156,714.33497740885,718.00151158997,713.69122040716,717.67006454164,715.49872290805,716.83335656861,714.58174549533,718.50672442362,713.29237801962,713.29237801962,715.45957514296,715.45957514296,1927.9148460333,1611.2594334913,964.05505954928,1901.2450131878,979.60777229398,0
6.3800000000001e-05,141724045.33667,5.0246358467966e-06,1.8971093618389e-05,4.9643184963819e-06,1.0143088776118,586.94699626031,586.94699626031,584.87622519517,584.87622519517,588.72238361552,585.11414820067,587.57942236926,583.93756478665,587.8001974325,586.43221654075,586.61711369757,584.14452326078,587.32180715993,589.87117227099,586.32641865615,588.82745430786,585.46924719628,587.95735946969,585.66854338529,586.54700731638,584.08018721952,587.64863883275,586.3681906312,587.32180715993,586.02839416841,583.98834401546,589.38702994337,584.7631405424,588.56467032047,584.02458252328,587.68040616849,586.66344911902,587.05280445926,584.84443343918,589.9017624105,590.25529064648,585.68680658072,589.39885997824,585.05991842745,589.06649967605,586.86671051218,588.22595001866,585.96929611693,589.9017624105,584.64382070127,584.64382070127,586.82055787646,586.82055787646,-0.16124734824085,0.087377509860955,-4.3957283565681,4.2892092838032,4.3933058113624,3.6660742777804,-3.3119725083638,0.075980852574919,3.5565498688835,0.016235889783897,0.6807001456606,-10.560485510193,0.50560397583079,-2.2654437427353,4.433435049174,-6.8204954362321,0.13193784123555,9.9776954259628,-2.6221512315575,-5.5722921970694,-0.93174658184349,3.1055557979759,0.40675926841618,-7.6510566282983,2.2731324988673,-6.1803574508022,0.56632516448833,2.4369054828842,-1.1911033569092,-0.42943526286161,1.9632081327608,0.41672897133255,0.22654719937168,-5.6550635602067,-1.278797632334,-5.4930190919237,12.8160152043,-1.8636156057223,3.3482587780867,-0.28139740716961,0.047958987318676,-14.552105609939,-1.0906640493166,-3.8636052205369,-10.685417058487,2.5580715774229,6.608271447255,-7.2929908068331,715.41282410505,715.41282410505,713.34205303991,713.34205303991,717.18821146026,713.57997604541,716.045250214,712.40339263139,716.26602527723,714.89804438549,715.08294154231,712.61035110552,715.78763500467,718.33700011572,714.79224650089,717.2932821526,713.93507504102,716.42318731443,714.13437123003,715.01283516112,712.54601506426,716.11446667749,714.83401847594,715.78763500467,714.49422201315,712.4541718602,717.85285778811,713.22896838714,717.03049816521,712.49041036802,716.14623401323,715.12927696376,715.518632304,713.31026128392,718.36759025524,718.72111849122,714.15263442546,717.86468782298,713.52574627219,717.53232752079,715.33253835692,716.6917778634,714.43512396167,718.36759025524,713.10964854601,713.10964854601,715.2863857212,715.2863857212,1934.0159747425,1609.3465934448,966.40733826605,1901.3001990052,983.09186769882,0
6.3900000000001e-05,142717944.86767,5.042635495522e-06,1.9001085846132e-05,4.9756139654057e-06,1.0143899214539,586.77011536373,586.77011536373,584.70506042707,584.70506042707,588.52393622346,584.88233500341,587.40509186678,583.7392740381,587.61508830518,586.23012190706,586.45115980556,583.96808133422,587.13511239278,589.69360357893,586.11141028667,588.64948514396,585.27471540544,587.75132290443,585.44111072789,586.37484350704,583.89283099552,587.45456350602,586.16033899355,587.13511239278,585.8641232919,583.81384954946,589.19712160603,584.53154047837,588.3882102736,583.81570127343,587.50151660307,586.46763773404,586.88149206109,584.6671668946,589.72340645941,590.07715179516,585.46516057766,589.22283113032,584.85519637676,588.88947897708,586.66132860363,588.04522102659,585.78347102079,589.72340645941,584.42182261208,584.42182261208,586.60820202187,586.60820202187,-0.16008191738911,0.093659084690969,-4.4117077035418,4.287667253976,4.3944062517556,3.6937184760115,-3.3258797438975,0.076495122861949,3.5647663788331,0.016096259093967,0.68335828442031,-10.567129117331,0.5162008341791,-2.2890972309184,4.4245501527253,-6.8329859336321,0.15864203952287,9.9950052410148,-2.6251484448706,-5.5847555688535,-0.93908566015366,3.1153036434898,0.40706089874761,-7.6655848699178,2.2794847611714,-6.1803257232668,0.56300665463521,2.4530748126411,-1.1971345266151,-0.42606994668087,1.9680118705654,0.41727021201408,0.22933695840519,-5.6496602261543,-1.282793021406,-5.5465062897969,12.852476253144,-1.8630070852881,3.3900296914296,-0.28328299994172,0.02633098009278,-14.593752081027,-1.0747560619906,-3.8905742660142,-10.723024661952,2.5734854460072,6.6225504655026,-7.3215733994591,715.27475951349,715.27475951349,713.20970457683,713.20970457683,717.02858037321,713.38697915317,715.90973601653,712.24391818786,716.11973245494,714.73476605681,714.95580395531,712.47272548397,715.63975654253,718.19824772868,714.61605443642,717.15412929371,713.7793595552,716.25596705418,713.94575487764,714.87948765679,712.39747514527,715.95920765577,714.6649831433,715.63975654253,714.36876744165,712.31849369922,717.70176575578,713.03618462813,716.89285442335,712.32034542318,716.00616075282,714.97228188379,715.38613621085,713.17181104436,718.22805060917,718.58179594491,713.96980472741,717.72747528007,713.35984052652,717.39412312683,715.16597275339,716.54986517635,714.28811517055,718.22805060917,712.92646676183,712.92646676183,715.11284617162,715.11284617162,1940.7865466474,1607.3917556877,968.74808868321,1901.3527978505,986.58039405566,0
6.4000000000001e-05,143716605.77866,5.0606749208782e-06,1.9031078909522e-05,4.9869089171942e-06,1.0144713291108,586.59274702612,586.59274702612,584.53372770333,584.53372770333,588.32493569744,584.64997778018,587.23044238878,583.54063927181,587.42951329019,586.02766712808,586.2849981583,583.79137228598,586.94803285092,589.51540633885,585.89582296006,588.47101172413,585.07963969065,587.54474589727,585.21316867618,586.20243754047,583.70521438508,587.26002058412,585.95209199479,586.94803285092,585.6996844149,583.63914951362,589.00666077636,584.29938101349,588.21134684611,583.60638135061,587.32215842932,586.27147973254,586.7099139621,584.48955735865,589.5445123998,589.89839189567,585.24289640861,589.04627956705,584.64990950101,588.711856592,586.45543342419,587.86402383583,585.59712392938,589.5445123998,584.19924098132,584.19924098132,586.39536692155,586.39536692155,-0.15891365931351,0.1000228740901,-4.4273586355545,4.2857478294075,4.3951349112282,3.7215528888223,-3.3396588504093,0.077013125783449,3.5727104255859,0.015962408181855,0.68599357389367,-10.573720764691,0.52690635464446,-2.3128412643531,4.4151619435468,-6.8452561838518,0.1856031014092,10.011581595251,-2.6278203537767,-5.5968863864427,-0.94637661721984,3.1247847209696,0.4073259729991,-7.6797311432622,2.2856906514628,-6.1803197408041,0.55959874012953,2.4692071981709,-1.2031077848374,-0.42265835556596,1.9726869890679,0.41779325333325,0.23214966338053,-5.6442128422245,-1.2866762679681,-5.6000452373737,12.888293786058,-1.8622802270855,3.4317528395202,-0.28515758268978,0.0043884815288966,-14.634924231334,-1.0585121571091,-3.9173275936124,-10.760253457075,2.5886383655786,6.6363244577113,-7.3498747631882,715.13634796581,715.13634796581,713.07732864302,713.07732864302,716.86853663714,713.19357871987,715.77404332847,712.0842402115,715.97311422988,714.57126806778,714.82859909799,712.33497322567,715.49163379061,718.05900727854,714.43942389975,717.01461266382,713.62324063035,716.08834683696,713.75676961588,714.74603848016,712.24881532477,715.80362152381,714.49569293448,715.49163379061,714.24328535459,712.18275045331,717.55026171605,712.84298195318,716.7549477858,712.1499822903,715.86575936901,714.81508067223,715.25351490179,713.03315829834,718.0881133395,718.44199283536,713.7864973483,717.58988050674,713.1935104407,717.25545753169,714.99903436389,716.40762477552,714.14072486907,718.0881133395,712.74284192101,712.74284192101,714.93896786124,714.93896786124,1948.3378370444,1605.3960430235,971.07738672685,1901.4028978097,990.07331966062,0
6.4100000000001e-05,144720190.26125,5.0787556048237e-06,1.9061072797604e-05,4.9982034057936e-06,1.0145531488516,586.41489840076,586.41489840076,584.36223520726,584.36223520726,588.12539386558,584.41708809983,587.05548310516,583.3416702731,587.24348207068,585.82486301863,586.11863619654,583.61440340028,586.76057700561,589.33658848877,585.67966664448,588.29204158902,584.8840277195,587.33764089814,584.98473043784,586.02979827651,583.51734659547,587.06502097391,585.74346130641,586.76057700561,585.53508506521,583.46425145382,588.81565838819,584.06667439439,588.03408939141,583.39663299031,587.14234016396,586.07498501198,586.53807777326,584.31161197498,589.36508942451,589.71901938783,585.02002435912,588.86921317779,584.44406637311,588.53364004418,586.24903450421,587.68236603666,585.41026193028,589.36508942451,583.97608632048,583.97608632048,586.18206519679,586.18206519679,-0.15774185272037,0.10646848854575,-4.4426814866527,4.2834577729844,4.3954953224806,3.7496081694791,-3.3533092601177,0.077534433903912,3.5803862733976,0.0158341689116,0.68860658376962,-10.580258868051,0.5377164380033,-2.3366753109269,4.4052810212409,-6.8573105571038,0.21281800210776,10.027430501908,-2.6301591136389,-5.6086871150778,-0.95361872509455,3.1340010933741,0.4075547534462,-7.6935027728343,2.2917518520856,-6.1803378726756,0.55610197464134,2.485304877896,-1.2090224163488,-0.41920281284071,1.9772372148546,0.41829801527158,0.23498499296242,-5.6387204541637,-1.2904482462045,-5.6536337392627,12.923484055015,-1.86143706594,3.4734276278165,-0.28701980624373,-0.017861364582155,-14.675629853724,-1.0419349927823,-3.943863565701,-10.79712019331,2.6035301846371,6.6495945010355,-7.3778994387883,714.99759522052,714.99759522052,712.94493202702,712.94493202702,716.70809068534,712.99978491958,715.63817992491,711.92436709285,715.82617889044,714.40755983839,714.70133301629,712.19710022003,715.34327382536,717.91928530853,714.26236346424,716.87473840877,713.46672453926,715.92033771789,713.5674272576,714.61249509627,712.10004341523,715.64771779367,714.32615812617,715.34327382536,714.11778188496,712.04694827358,717.39835520795,712.64937121415,716.61678621117,711.97932981006,715.72503698371,714.65768183174,715.12077459302,712.89430879474,717.94778624427,718.30171620759,713.60272117887,717.45190999754,713.02676319286,717.11633686394,714.83173132397,716.26506285642,713.99295875003,717.94778624427,712.55878314024,712.55878314024,714.76476201655,714.76476201655,1956.8073552136,1603.3605809237,973.39530859082,1901.4505867247,993.57061433444,0
6.4200000000001e-05,156804174.01757,5.1032644188722e-06,1.9091070939173e-05,5.0095997830497e-06,1.0148691940542,586.23644411307,586.23644411307,584.19042462738,584.19042462738,587.9252459809,584.17575176905,586.88015447544,583.14179476239,587.05699311102,585.62143331824,585.9520687978,583.43698469709,586.57261372487,589.15711818347,585.46230919033,588.11254575772,584.68742935137,587.12988632463,584.75449263502,585.85682882841,583.32883698672,586.86953706243,585.53413824379,586.57261372487,585.37029441579,583.28896472106,588.62408800394,583.83037675938,587.85641026558,583.18567038713,586.96204308847,585.87792982196,586.36596799967,584.13315519584,589.18513980795,589.53902537244,584.79564457404,588.69162358726,584.23704325163,588.35476620376,586.04173296809,587.50018883603,585.22257483886,589.18513980795,583.75125437866,583.75125437866,585.96804488758,585.96804488758,-0.156613795199,0.11306432737934,-4.4610981806757,4.2809674358929,4.3946150093294,4.643106483794,-3.365510059365,0.078308495557631,3.5866579219861,0.015675642673236,0.69255986213416,-10.586319685764,0.5486539324053,-2.3613172993594,4.3967605297491,-6.8717300846131,0.24224363494281,10.039870307141,-2.5049363021097,-5.619648858417,-0.9611927671625,3.1427285928289,0.40740513179541,-7.7076103069425,2.3008067374883,-6.1802322395199,0.55215925952653,2.5240249689642,-1.2136108959094,-0.42320864806152,1.9806672810732,0.41823187489483,0.23820112432854,-5.6327856590763,-1.2958340737766,-5.7081431739076,12.966051892898,-1.8626803668998,3.5160379632556,-0.28923425819847,-0.039993254220464,-14.719677441801,-1.0233591427536,-3.9699362910632,-10.861353299525,2.6173464911133,6.6509477513712,-7.4052055149143,714.85898888533,714.85898888533,712.81296939964,712.81296939964,716.54779075316,712.79829654131,715.5026992477,711.76433953465,715.67953788328,714.2439780905,714.57461357006,712.05952946935,715.19515849713,717.77966295574,714.0848539626,716.73509052998,713.30997412363,715.75243109689,713.37703740728,714.47937360068,711.95138175898,715.49208183469,714.15668301605,715.19515849713,713.99283918806,711.91150949332,717.24663277621,712.45292153164,716.47895503785,711.8082151594,715.58458786073,714.50047459422,714.98851277194,712.75569996811,717.80768458021,718.16157014471,713.4181893463,717.31416835952,712.8595880239,716.97731097602,714.66427774035,716.12273360829,713.84511961113,717.80768458021,712.37379915092,712.37379915092,714.59058965984,714.59058965984,1966.3676238894,1601.2562084128,975.69209161228,1901.4549019978,997.08217585294,0
6.4300000000001e-05,160847586.9979,5.1235294801684e-06,1.9121067724218e-05,5.0209288746286e-06,1.0150021143738,586.05765917295,586.05765917295,584.0186037713,584.0186037713,587.7245948025,583.94199798522,586.70455512626,582.94211106465,586.87005442201,585.41784096437,585.78528731642,583.25951231236,586.38434565796,588.97707013755,585.24490829904,587.93255519793,584.49072730726,586.92168095673,584.5248578692,585.6837036926,583.14043992657,586.67360629781,585.32464473149,586.38434565796,585.20536365766,583.11367829203,588.43198738132,583.59633389359,587.6783463985,582.97499439137,586.78132361547,585.68068153629,586.19358422484,583.95456026184,589.00465002146,589.35843147572,584.57144105313,588.51350998673,584.03004163895,588.17537862419,585.83423564534,587.31757162548,585.03468737801,589.00465002146,583.52684492742,583.52684492742,585.75372777791,585.75372777791,-0.15544452917209,0.11955296134554,-4.4764785016379,4.2780165384763,4.3939192809733,4.0435872825347,-3.3785192193278,0.078934554626985,3.593631994822,0.015525196426144,0.69547000097655,-10.592573386497,0.55966749257641,-2.3854747229648,4.3864410919225,-6.8841159714792,0.27069393560965,10.053326123139,-2.5197824940117,-5.6306328249709,-0.96865088489186,3.1514071562138,0.40742961991355,-7.7208118543219,2.3072682495678,-6.1802238861006,0.54840609598478,2.5420350390298,-1.2190656331631,-0.41984304553509,1.9846256556878,0.41848693320377,0.24118179304142,-5.6270510747569,-1.2998868333846,-5.7620651299369,13.001800242876,-1.86227318769,3.5580097250911,-0.29114448576291,-0.062679281292665,-14.760586091743,-1.0055090965098,-3.9959475660108,-10.900498411044,2.6314948056478,6.6597076794179,-7.4325820445398,714.7197571232,714.7197571232,712.68070172156,712.68070172156,716.38669275275,712.60409593547,715.36665307651,711.6042090149,715.53215237226,714.07993891462,714.44738526667,711.92161026261,715.04644360821,717.63916808781,713.9070062493,716.59465314818,713.15282525751,715.58377890698,713.18695581945,714.34580164285,711.80253787682,715.33570424806,713.98674268174,715.04644360821,713.86746160791,711.77577624229,717.09408533157,712.25843184384,716.34044434875,711.63709234162,715.44342156572,714.34277948654,714.8556821751,712.61665821209,717.66674797171,718.02052942597,713.23353900338,717.17560793698,712.6921395892,716.83747657444,714.49633359559,715.97966957573,713.69678532826,717.66674797171,712.18894287767,712.18894287767,714.41582572816,714.41582572816,7179.4719277172,1599.1343495012,977.9839466289,1901.4825013082,1000.5950725472,0
6.4400000000001e-05,162643243.70676,5.1427018924066e-06,1.9151064693247e-05,5.0322396459492e-06,1.0150950450857,585.87841730335,585.87841730335,583.84664116497,583.84664116497,587.52342648407,583.70774083255,586.52866184545,582.74211100228,586.68268501291,585.21390967453,585.61831704305,583.08180280634,586.19570688268,588.79642166716,585.02694218246,587.75207656712,584.29350622123,586.7129717099,584.29474004824,585.51036128779,582.95181068156,586.47724351995,585.11478146797,586.19570688268,585.0402866731,582.93821503726,588.23936791249,583.3617415833,587.49990480506,582.76390542429,586.60016933449,585.48310422527,586.02095127463,583.77565313063,588.82364899876,589.17724415591,584.34663454766,588.33489320059,583.8224981209,587.99541823633,585.62623853038,587.13450040721,584.84630479857,588.82364899876,583.30187187917,583.30187187917,585.53896445176,585.53896445176,-0.15426114796636,0.12614368969903,-4.4908312543541,4.2746825916948,4.3930025686812,3.9240825678418,-3.3916229299059,0.079535561385392,3.6005597398494,0.015387352704714,0.69808902199068,-10.598838095425,0.57076729728492,-2.4095904998139,4.3753852970526,-6.8958436804737,0.29907882923007,10.066512469018,-2.5448272562562,-5.6413818287644,-0.97595523305515,3.1598762808054,0.40748485155311,-7.733560258568,2.3129747169003,-6.1802586783602,0.54463159725538,2.5569489286282,-1.2246756605924,-0.41501861585767,1.988712532968,0.41883074513562,0.24411228116617,-5.6213345150758,-1.303503919586,-5.8158848959551,13.035727347238,-1.8613530966502,3.599785081225,-0.29294144042195,-0.085717846152044,-14.800408554265,-0.98760223577653,-4.0217809250879,-10.933684864268,2.6455282262874,6.6701801790137,-7.4597835710398,714.58009816799,714.58009816799,712.54832202961,712.54832202961,716.2251073487,712.40942169719,715.23034271009,711.44379186691,715.38436587754,713.91559053917,714.31999790769,711.78348367097,714.89738774732,717.49810253179,713.7286230471,716.45375743175,712.99518708587,715.41465257454,712.99642091287,714.21204215243,711.6534915462,715.17892438459,713.8164623326,714.89738774732,713.74196753774,711.63989590189,716.94104877713,712.06342244793,716.20158566969,711.46558628893,715.30185019913,714.1847850899,714.72263213926,712.47733399527,717.52532986339,717.87892502054,713.04831541229,717.03657406522,712.52417898553,716.69709910096,714.32791939502,715.83618127184,713.54798566321,717.52532986339,712.0035527438,712.0035527438,714.2406453164,714.2406453164,3150.2702721773,1596.9817057751,980.26634378111,1901.5148912626,1004.1114943201,0
6.4500000000001e-05,163937621.54697,5.1614457825673e-06,1.9181062170807e-05,5.0435422999377e-06,1.0151762271812,585.69872522298,585.69872522298,583.67455140178,583.67455140178,587.32176327515,583.47302693432,586.35249243274,582.54181873502,586.49489824064,585.00967125982,585.45117270192,582.90386494647,586.00672054255,588.61518270298,584.80844528334,587.57112600347,584.09578152724,586.50378470912,584.06419508229,585.33681889074,582.76296891047,586.28046778221,584.90458238824,586.00672054255,584.87507702284,582.76258569233,588.04624858439,583.12666632454,587.32110303434,582.55243293477,586.41858954888,585.28522672773,585.84808616653,583.59644117798,588.64215217265,588.99547535936,584.12126232783,588.15578825464,583.61443474482,587.81489330097,585.41777216468,586.9509933194,584.65743760431,588.64215217265,583.07637231196,583.07637231196,585.32378763953,585.32378763953,-0.15306854440926,0.13283515198422,-4.5045308573643,4.270987590521,4.3917895175968,3.8999463289336,-3.4046887288932,0.080104994353678,3.6073118010634,0.015261058127747,0.70056936128235,-10.605076278236,0.5819512834408,-2.4337523219824,4.3637575426682,-6.9071771743146,0.32756164269818,10.07918189681,-2.566912074641,-5.6518459730218,-0.98311404255076,3.1681078471042,0.40753827527685,-7.7459412064637,2.3182767369439,-6.1803238951764,0.54079605588396,2.5708588462163,-1.2303114560175,-0.41002150024711,1.9927865695054,0.41921678759739,0.24703111310435,-5.6155999619462,-1.3068745775573,-5.8696822550793,13.068632391719,-1.8601540392843,3.6414399580666,-0.29470165933226,-0.10906458982982,-14.839512223808,-0.96949525119058,-4.0474063564222,-10.967587583139,2.6593598967174,6.681204917371,-7.4867618730419,714.44009331343,714.44009331343,712.41591949223,712.41591949223,716.0631313656,712.21439502477,715.09386052319,711.28318682547,715.2362663311,713.75103935027,714.19254079237,711.64523303692,714.748088633,717.35655079343,713.54981337379,716.31249409392,712.83714961769,715.24515279957,712.80556317274,714.07818698119,711.50433700092,715.02183587266,713.64595047869,714.748088633,713.61644511329,711.50395378278,716.78761667484,711.86803441499,716.06247112479,711.29380102522,715.15995763933,714.02659481818,714.58945425698,712.33780926843,717.3835202631,717.73684344981,712.86263041828,716.89715634509,712.35580283527,716.55626139142,714.15914025513,715.69236140985,713.39880569476,717.3835202631,711.81774040241,711.81774040241,714.06515572998,714.06515572998,2259.4038268005,1594.7963489807,982.53839482644,1901.5482917978,1007.6317276576,0
6.4600000000001e-05,165084994.5686,5.1799525913721e-06,1.9211060249325e-05,5.0548398140487e-06,1.015252325362,585.51858921151,585.51858921151,583.5023444303,583.5023444303,587.11961998201,583.23787654431,586.17605917313,582.34124645373,586.30670468014,584.80514210166,585.28386464331,582.72570560781,585.81739997252,588.43336174736,584.58943322229,587.38971443605,583.89756156632,586.29413594854,583.83324119022,585.16308822694,582.57392579929,586.08329216608,584.6940645672,585.81739997252,584.70974455173,582.58679809173,587.85264290997,582.89112239235,587.14195351634,582.34059012791,586.23659268413,585.08706442847,585.67500012803,583.41693069635,588.46017115577,588.81313480264,583.89533980597,587.97620594993,583.40586195752,587.63381125109,585.20885174941,586.7670618839,584.46809262679,588.46017115577,582.85036063781,582.85036063781,585.10821459974,585.10821459974,-0.15186732387628,0.13962796186815,-4.517722202033,4.2669435349603,4.3902634086512,3.9000834419742,-3.4176786142595,0.08065267939024,3.6138526181349,0.015144626486317,0.70296630446504,-10.611275449742,0.59321538949878,-2.4579814193085,4.3516169936672,-6.9182004449714,0.35618537780695,10.091269753835,-2.584690977513,-5.6620140240276,-0.99014509563497,3.176094894447,0.40757835560973,-7.7579747843577,2.3233023914357,-6.1804143877107,0.53688828297007,2.5844410483912,-1.2359352986516,-0.40502823265767,1.9968161446922,0.41962373235103,0.24995195610209,-5.6098359331507,-1.310057819194,-5.9234792326734,13.100720373665,-1.8587483311077,3.6829930219948,-0.29643813801989,-0.13270073494552,-14.878016918386,-0.95114945130979,-4.0728150678302,-11.001008823933,2.6729649549631,6.6923579547707,-7.5135007343926,714.29976348323,714.29976348323,712.28351870202,712.28351870202,715.90079425373,712.01905081603,714.95723344485,711.12242072545,715.08787895186,713.58631637338,714.06503891503,711.50687987953,714.59857424424,717.21453601908,713.37060749401,716.17088870777,712.67873583804,715.07531022026,712.61441546194,713.94426249867,711.35510007101,714.8644664378,713.47523883892,714.59857424424,713.49091882345,711.36797236345,716.63381718169,711.67229666407,715.92312778806,711.12176439963,715.01776695585,713.86823870019,714.45617439975,712.19810496807,717.24134542749,717.59430907436,712.67651407769,716.75738022165,712.18703622924,716.41498552281,713.99002602113,715.54823615562,713.24926689851,717.24134542749,711.63153490953,711.63153490953,713.88938887146,713.88938887146,2111.7677686957,1592.5785047918,984.79990091204,1901.5816998863,1011.1557520982,0
6.4700000000001e-05,166168919.71766,5.1983100336536e-06,1.9241058968589e-05,5.0663080609286e-06,1.0153257165891,585.3380158517,585.3380158517,583.33002920716,583.33002920716,586.91700942503,583.00230368789,585.99937271834,582.14040503555,586.11811399915,584.60033517458,585.11640168182,582.54733171917,585.62775598632,588.25096694321,584.36991873677,587.20785121175,583.69885440417,586.08403895476,583.6018924271,584.98917950552,582.38469143108,585.8857280508,584.48324151943,585.62775598632,584.54429785549,582.41085978573,587.65856279463,582.65512373493,586.96246707212,582.12838862006,586.05418688144,584.888629571,585.50170250037,583.23712825074,588.27771628665,588.63023149745,583.6688798323,587.79615572013,583.19678934873,587.4521794689,584.99948956503,586.58271574056,584.27827683608,588.27771628665,582.6238493237,582.6238493237,584.89225927402,584.89225927402,-0.15065721698035,0.14651908482795,-4.5304851648956,4.2625599877007,4.3884199883453,3.9098726719749,-3.4305755681654,0.081183067656811,3.6201687138767,0.015036523349133,0.70530881008741,-10.617428605642,0.60455495007238,-2.4822853698859,4.3389967038425,-6.9289556569468,0.3849661954921,10.102751080531,-2.5988099143223,-5.6718828723683,-0.99706505541759,3.1838355525475,0.40759890160099,-7.7696694224376,2.3281186988515,-6.1805266357792,0.53290421356576,2.5979485156444,-1.2415301050851,-0.40012485910359,2.0007858165033,0.42003828191349,0.25288171352433,-5.6040364343254,-1.3130826218271,-5.97728428885,13.132100329128,-1.8571714710336,3.7244494072453,-0.29815415089233,-0.15661308437365,-14.915983895855,-0.93254917090034,-4.0980025090919,-11.033967981702,2.6863323015104,6.7034152295995,-7.5399933422962,714.15911831374,714.15911831374,712.1511316692,712.1511316692,715.73811188707,711.82340614993,714.82047518038,710.96150749759,714.93921646119,713.42143763662,713.93750414386,711.36843418121,714.44885844836,717.07206940525,713.19102119881,716.02895367379,712.5199568662,714.90514141679,712.42299488914,713.81028196756,711.20579389312,714.70683051284,713.30434398147,714.44885844836,713.36540031753,711.23196224777,716.47966525667,711.47622619696,715.78356953416,710.9494910821,714.87528934347,713.70973203304,714.32280496241,712.05823071278,717.09881874868,717.45133395949,712.48998229434,716.61725818217,712.01789181077,716.27328193094,713.82059202707,715.4038182026,713.09937929812,717.09881874868,711.44495178574,711.44495178574,713.71336173606,713.71336173606,2064.7130165224,1590.328864186,987.05081507204,1901.6147087298,1014.6835134473,0
6.4800000000001e-05,167219244.56106,5.21656751912e-06,1.9271058347871e-05,5.0790972292057e-06,1.0153974587717,585.15701171361,585.15701171361,583.157614012,583.157614012,586.71394352162,582.7663204516,585.82244282726,581.93930434622,585.92913544718,584.39526182492,584.94879180106,582.3687500137,585.43779808653,588.06800618701,584.14991287131,587.02554482341,583.49966762285,585.87350617066,583.37016103249,584.81510206246,582.19527505095,585.68778607287,584.27212514278,585.43779808653,584.37874480811,582.2347779632,587.46401938041,582.41868238241,586.78265367369,581.91583880391,585.87138010236,584.68993283735,585.328201639,583.05704033084,588.09479724657,588.44677406325,583.44189357318,587.61564626185,582.98722567108,587.27000521079,584.78969629024,586.39796352244,584.08799698855,588.09479724657,582.39684930913,582.39684930913,584.6759341889,584.6759341889,-0.14943763680344,0.15350490260449,-4.5428694237042,4.2578454494805,4.3862595326471,3.9244982090975,-3.443370279939,0.081699693709692,3.6262551453629,0.014935452410374,0.70761387731458,-10.623530841898,0.61596497513251,-2.5066667379611,4.3259199307725,-6.9394687236163,0.41390993406331,10.113615628211,-2.6101002468561,-5.681452283895,-1.0038874634957,3.1913300910635,0.4075961186447,-7.7810306047251,2.3327653130737,-6.1806577809513,0.5288426755793,2.6114801708639,-1.2470863920939,-0.39533785987872,2.0046871747089,0.42045125736507,0.25582411646111,-5.5981975695721,-1.3159660684093,-6.0311005300063,13.162839134923,-1.8554446181572,3.7658083869188,-0.29984943027073,-0.18079046700105,-14.953451616365,-0.91368737951683,-4.1229655282868,-11.066557655246,2.6994557918642,6.7142425805054,-7.5662372211983,714.01816503924,714.01816503924,712.01876733763,712.01876733763,715.57509684725,711.62747377723,714.68359615289,710.80045767185,714.79028877281,713.25641515055,713.80994512669,711.22990333933,714.29895141216,716.92915951264,713.01106619694,715.88669814904,712.36082094848,714.73465949629,712.23131435812,713.67625538809,711.05642837658,714.5489393985,713.13327846841,714.29895141216,713.23989813374,711.09593128883,716.32517270604,711.27983570804,715.64380699932,710.77699212954,714.73253342799,713.55108616298,714.18935496463,711.91819365647,716.9559505722,717.30792738888,712.30304689881,716.47679958748,711.84837899671,716.13115853642,713.65084961587,715.25911684807,712.94915031418,716.9559505722,711.25800263476,711.25800263476,713.53708751453,713.53708751453,2023.3501812029,1588.0482862839,989.291147437,1901.6471290851,1018.2149575227,0
6.4900000000001e-05,168249338.27307,5.2347557548231e-06,1.9301058395919e-05,5.0918928298494e-06,1.0154680886919,584.97558331532,584.97558331532,582.98510667853,582.98510667853,586.51043367008,582.52993816729,585.64527869812,581.73795363308,585.73977801501,584.18993248622,584.78104245733,582.18996705822,585.24753499087,587.88448719626,583.92942568595,586.84280322951,583.30000848063,585.66254944144,583.13805844849,584.64086467991,582.00568537371,585.48947644426,584.06072646055,585.24753499087,584.21309281461,582.05855954919,587.26902335174,582.18180918339,586.60252276203,581.70295034759,585.68818017331,584.49098400831,585.15450528879,582.87667333211,587.91142330166,588.26277085775,583.21439121651,587.43468580467,582.77717915602,587.08729562146,584.5794816665,586.21281324224,583.89725966981,587.91142330166,582.16937064341,582.16937064341,584.4592511291,584.4592511291,-0.1482078511615,0.1605818674419,-4.5549073968717,4.2528078080753,4.3837845231268,3.9418826631163,-3.4560571569751,0.082205428556201,3.6321111370297,0.014840326757419,0.70989183950308,-10.629578321483,0.62744025249769,-2.5311257833786,4.3124052059067,-6.9497573510604,0.44301706731255,10.123860288948,-2.6192508044739,-5.690723379317,-1.0106228891042,3.1985799008974,0.40756759556825,-7.7920630993965,2.3372667724223,-6.1808053214356,0.52470404282885,2.6250698861595,-1.2525983295408,-0.39066570730797,2.0085154982351,0.42085605547789,0.25878107468199,-5.5923165103445,-1.3187191179024,-6.0849283310443,13.19298245924,-1.853581663038,3.8070655977033,-0.30152223962049,-0.20522267870132,-14.990447028023,-0.89456135785199,-4.1477015946729,-11.098848279949,2.7123315517607,6.7247562630737,-7.5922323125285,713.87691000858,713.87691000858,711.88643337179,711.88643337179,715.41176036333,711.43126486055,714.54660539138,710.63928032634,714.64110470827,713.09125917948,713.68236915059,711.09129375148,714.14886168413,716.78581388951,712.83075237921,715.74412992276,712.20133517388,714.56387613469,712.03938514175,713.54219137316,710.90701206696,714.39080313752,712.9620531538,714.14886168413,713.11441950786,710.95988624244,716.17035004499,711.08313587665,715.50384945529,710.60427704085,714.58950686656,713.39231070157,714.05583198205,711.77800002537,716.81274999492,717.16409755101,712.11571790977,716.33601249793,711.67850584928,715.98862231471,713.48080835976,715.1141399355,712.79858636306,716.81274999492,711.07069733667,711.07069733667,713.36057782235,713.36057782235,1988.3044744373,1585.7377090637,991.52093691847,1901.6788778085,1021.7500345721,0
6.5000000000001e-05,169266065.31371,5.2528950115349e-06,1.933105911545e-05,5.1046951516989e-06,1.0155379079739,584.79373711972,584.79373711972,582.81251473285,582.81251473285,586.30649092339,582.29316781396,585.46788914581,581.53636175409,585.55005050545,583.98435701741,584.61316074383,582.01098929256,585.05697490221,587.70041754909,583.70846662689,586.65963402514,583.09988402631,585.45118022815,582.90559572046,584.46647576181,581.81593076705,585.29080909139,583.84905595636,585.05697490221,584.04734895337,581.88221127908,587.07358507936,581.94451428627,586.42208341316,581.48973247963,585.50459480872,584.29179228723,584.98062078112,582.69603356905,587.72760342653,588.07823004561,582.98638235175,587.25328225569,582.56665771006,586.90405775039,584.36885484038,586.02727249695,583.70607134524,587.72760342653,581.94142284508,581.94142284508,584.24222142566,584.24222142566,-0.14696705189135,0.16774672346547,-4.5666207568714,4.2474545496746,4.3809986815697,3.9609919706296,-3.4686326692702,0.08270247055936,3.6377381927823,0.014750221257153,0.71214901095104,-10.635567822523,0.63897540152783,-2.5556615543445,4.2984684871711,-6.9598345565815,0.47228481086657,10.133485901299,-2.626775835158,-5.6996980208177,-1.0172794469896,3.2055870360577,0.40751179367005,-7.8027716139391,2.3416385439593,-6.1809669713789,0.52048961865383,2.6387230461759,-1.2580620976452,-0.38609545626037,2.0122683578052,0.42124778223742,0.26175336464643,-5.5863910498163,-1.3213491847975,-6.1387664685384,13.222564356144,-1.8515923372277,3.8482139502563,-0.30317016366814,-0.22990004111624,-15.026990492839,-0.87517087129939,-4.1722084949475,-11.130888332036,2.724956839767,6.7349032401033,-7.6179799727252,713.7353591238,713.7353591238,711.75413673693,711.75413673693,715.24811292747,711.23478981804,714.40951114989,710.47798375817,714.49167250953,712.9259790215,713.55478274791,710.95261129664,713.99859690629,716.64203955318,712.65008863098,715.60125602923,712.04150603039,714.39280223223,711.84721772455,713.40809776589,710.75755277113,714.23243109547,712.79067796044,713.99859690629,712.98897095745,710.82383328317,716.01520708344,710.88613629035,715.36370541724,710.43135448371,714.44621681281,713.23341429132,713.92224278521,711.63765557313,716.66922543061,717.01985204969,711.92800435584,716.19490425977,711.50827971414,715.84567975447,713.31047684447,714.96889450104,712.64769334932,716.66922543061,710.88304484916,710.88304484916,713.18384342975,713.18384342975,1959.210279344,1583.3981110035,993.74023907807,1901.7099311261,1025.2886989365,0
6.5100000000001e-05,170273352.42978,5.2709992654402e-06,1.9361060505527e-05,5.117504395756e-06,1.0156071018326,584.61147953724,584.61147953724,582.63984547787,582.63984547787,586.10212607977,582.0560201684,585.29028270586,581.33453730854,585.35996157032,583.77854488225,584.44515348889,581.8318230582,584.86612566206,587.515804709,583.48704473147,586.47604454321,582.89930116935,585.23940971547,582.6727836612,584.29194343801,581.62601935904,585.09179372594,583.63712374517,584.86612566206,583.88152006277,581.70573974717,586.87771469816,581.70680739366,586.24134443466,581.27619414757,585.32063162463,584.09236647726,584.80655514939,582.51512728848,587.54334637574,587.89315963904,582.75787617938,587.07144328525,582.35566902909,586.72029856415,584.15782455425,585.84134858742,583.51443839458,587.54334637574,581.71301509945,581.71301509945,584.02485609671,584.02485609671,-0.14571438790073,0.17499654048664,-4.5780241792093,4.2417928765839,4.3779064965115,3.9812597769522,-3.4810945344872,0.083192407773831,3.6431391392134,0.014664330437155,0.71438919229551,-10.641496505014,0.65056490776795,-2.5802724085844,4.2841242174046,-6.9697104764114,0.50170821070892,10.142495661388,-2.6330459266095,-5.708378517498,-1.0238633115667,3.212353970762,0.40742774633251,-7.8131609691543,2.3458904279451,-6.1811405846445,0.51620130697142,2.6524329891777,-1.2634750787621,-0.38161062733448,2.0159448411432,0.42162270924002,0.26474102652436,-5.5804193752577,-1.3238615009748,-6.1926126991751,13.251612021695,-1.8494838264061,3.8892440956243,-0.30479047790084,-0.25481318595436,-15.063098308629,-0.85551724547627,-4.1964841947841,-11.162711032389,2.7373294768163,6.7446499562122,-7.6434823887046,713.59351801879,713.59351801879,711.62188395941,711.62188395941,715.08416456131,711.03805864994,714.2723211874,710.31657579008,714.34200005186,712.76058336379,713.42719197043,710.81386153975,713.8481641436,716.49784319054,712.46908321302,715.45808302475,711.88133965089,714.22144819702,711.65482214275,713.27398191955,710.60805784059,714.07383220748,712.61916222671,713.8481641436,712.86355854432,710.68777822871,715.8597531797,710.6888458752,715.2233829162,710.25823262911,714.30267010618,713.07440495881,713.78859363094,711.49716577002,716.52538485729,716.87519812058,711.73991466093,716.05348176679,711.33770751063,715.70233704569,713.1398630358,714.82338706896,712.49647687612,716.52538485729,710.69505358099,710.69505358099,713.00689457825,713.00689457825,1935.368574628,1581.0304913005,995.94912001215,1901.74030121,1028.8309079123,0
6.5200000000001e-05,171273667.66204,5.2890784935298e-06,1.9391062562848e-05,5.1303207059137e-06,1.0156757931606,584.42881692958,584.42881692958,582.46710604681,582.46710604681,585.89734973418,581.81850586563,585.11246769896,581.13248871498,585.16951973179,583.57250525301,584.27702731808,581.65247461822,584.67499484432,587.3306560411,583.26516874928,586.29204191802,582.69826672405,585.02724887141,582.43963292219,584.1172756292,581.43595910385,584.89243988475,583.42493966886,584.67499484432,583.71561279652,581.52915143855,586.681422153,581.46869789512,586.06031442542,581.06234411046,585.13629814725,583.89271508628,584.63231520119,582.33396068015,587.35866072824,587.70756752358,582.52888163353,586.88917638118,582.14422066808,586.5360249554,583.9463992603,585.65504859298,583.32236713518,587.35866072824,581.48415637268,581.48415637268,583.80716592318,583.80716592318,-0.14444898255153,0.18232868062391,-4.5891276548735,4.235829779235,4.3745129606305,4.0023521320251,-3.4934412742658,0.083676319449697,3.6483175931081,0.014581936298864,0.71661458184503,-10.647361777435,0.66220314808509,-2.604956286433,4.2693858942702,-6.9793933906225,0.53128078028536,10.150894248909,-2.6383251640799,-5.7167674689376,-1.0303791438102,3.218883460371,0.40731487061113,-7.8232361146626,2.3500286078482,-6.1813241094281,0.51184141363395,2.6661887592332,-1.2688354170646,-0.37719480713267,2.0195450650177,0.42197791616827,0.26774360695978,-5.5743999391889,-1.3262599077925,-6.2464640835684,13.280148330293,-1.8472616911091,3.930144714789,-0.30638033747163,-0.27995294095203,-15.098784133995,-0.835602847204,-4.2205267674344,-11.194339452476,2.7494475297008,6.7539755211669,-7.6687422184384,713.45139215273,713.45139215273,711.48968126996,711.48968126996,714.91992495732,710.84108108878,714.13504292211,710.15506393813,714.19209495493,712.59508047616,713.29960254123,710.67504984137,713.69757006747,716.35323126425,712.28774397242,715.31461714116,711.72084194719,714.04982409456,711.46220814534,713.13985085235,710.458534327,713.9150151079,712.44751489201,713.69757006747,712.73818801967,710.5517266617,715.70399737614,710.49127311827,715.08288964857,710.0849193336,714.1588733704,712.91529030943,713.65489042434,711.35653590329,716.38123595139,716.73014274673,711.55145685668,715.91175160433,711.16679589122,715.55860017855,712.96897448344,714.67762381613,712.34494235832,716.38123595139,710.50673159583,710.50673159583,712.82974114632,712.82974114632,1916.0236332877,1578.6358584496,998.14765289092,1901.770023122,1032.3766207186,0
6.5300000000001e-05,172268693.22645,5.3071400350304e-06,1.9421065282708e-05,5.1431441872935e-06,1.0157440690136,584.24575561321,584.24575561321,582.29430343814,582.29430343814,585.69217230948,581.58063542445,584.9344522726,580.93022425963,584.97873339561,583.36624707383,584.10878869505,581.47295017108,584.48358981523,587.14497882348,583.04284721763,586.10763312711,582.49678743871,584.81470848249,582.20615402586,583.94248008893,581.24575782337,584.69275695368,583.21251335321,584.48358981523,583.54963366006,581.35245275059,586.48471722707,581.23019493419,585.87900181411,580.84819099509,584.95160181887,583.69284639234,584.45790756524,582.15253988462,587.17355491602,587.52146147526,582.29940745778,586.70648888449,581.93232008565,586.3512437497,583.73458719227,585.46837942012,583.12986383817,587.17355491602,581.2548554808,581.2548554808,583.58916149252,583.58916149252,-0.14316994358286,0.18974074364534,-4.5999379857962,4.2295720812595,4.3708234108199,4.0240598350155,-3.5056719481706,0.084154882160304,3.6532776463036,0.014502385072252,0.71882634721077,-10.653161216721,0.67388441064065,-2.62971086383,4.2542663987544,-6.9888903377329,0.56099493243535,10.158687303465,-2.6428017046166,-5.7248676696747,-1.0368304286108,3.2251784573427,0.40717284456583,-7.8330020937114,2.3540569356729,-6.1815155603284,0.50741251926981,2.6799788290574,-1.2741417572332,-0.37283316699637,2.0230698417003,0.42231104989832,0.27076031234406,-5.5683313823548,-1.3285473457071,-6.3003171802905,13.308193271373,-1.844930425117,3.9709027560303,-0.30793688051494,-0.30531026712884,-15.134059839491,-0.81543076127274,-4.2443343550423,-11.225789877337,2.7613091274424,6.7628674065761,-7.6937623656726,713.30898686159,713.30898686159,711.35753468652,711.35753468652,714.75540355785,710.64386667282,713.99768352097,709.99345550801,714.04196464398,712.4294783222,713.17201994342,710.53618141946,713.5468210636,716.20821007185,712.106078466,715.17086437549,711.56001868708,713.87793973087,711.26938527423,713.0057113373,710.30898907174,713.75598820205,712.27574460158,713.5468210636,712.61286490843,710.41568399896,715.54794847544,710.29342618256,714.94223306248,709.91142224346,714.01483306724,712.75607764071,713.52113881362,711.215771133,716.2367861644,716.58469272363,711.36263870615,715.76972013286,710.99555133403,715.41447499807,712.79781844064,714.53161066849,712.19309508654,716.2367861644,710.31808672917,710.31808672917,712.6523927409,712.6523927409,1900.476330664,1576.2152230792,1000.3359158551,1901.7991469434,1035.9257966068,0
6.5400000000001e-05,173259654.89558,5.325189439498e-06,1.9451068659446e-05,5.1559749176136e-06,1.0158119944568,584.06230186266,584.06230186266,582.12144453891,582.12144453891,585.48660407598,581.34241925871,584.75624442856,580.72775212742,584.78761085965,583.15977910102,583.94044394891,581.29325586053,584.2919177731,586.95878025531,582.8200885105,585.92282501964,582.29487001571,584.60179917543,581.97235738051,583.76756443136,581.05542323441,584.49275418262,582.9998542433,584.2919177731,583.38358903517,581.17565000761,586.28760956028,580.99130743721,585.69741488473,580.63374333151,584.76655000208,583.49276848608,584.2833387229,581.97087099941,586.98803724347,587.3348491725,582.06946225392,586.52338801359,581.71997467389,586.16596171078,583.52239641245,585.28134783525,582.93693474012,586.98803724347,581.02512113333,581.02512113333,583.37085322512,583.37085322512,-0.14187636914036,0.19723050852772,-4.6104597678458,4.2230264706227,4.3668434288608,4.0462450041036,-3.5177859949865,0.084628466674836,3.658023664371,0.014425070958454,0.72102499022323,-10.658892516792,0.68560291196848,-2.6545336448924,4.2387781903451,-6.9982075051973,0.59084228907309,10.165881115001,-2.6466104054669,-5.7326820564343,-1.0432197306185,3.2312420514528,0.40700152630735,-7.8424640024716,2.3579777526081,-6.1817129998938,0.50291738816331,2.6937928738055,-1.2793930868061,-0.36851297255124,2.0265204352981,0.42262016000648,0.2737901073924,-5.5622124844396,-1.3307261717266,-6.3541681706202,13.335764792847,-1.8424938091128,4.0115036531441,-0.30945728898885,-0.33087622538358,-15.168936050742,-0.79500458345376,-4.267905147836,-11.257073942716,2.7729123522703,6.7713186765644,-7.7185458371814,713.16630738945,713.16630738945,711.22545006571,711.22545006571,714.59060960278,710.44642478551,713.86024995535,709.83175765421,713.89161638645,712.26378462781,713.0444494757,710.39726138733,713.3959232999,716.06278578211,711.9240940373,715.02683054643,711.39887554251,713.70580470223,711.0763629073,712.87156995816,710.1594287612,713.59675970941,712.10385977009,713.3959232999,712.48759456196,710.2796555344,715.39161508707,710.095312964,714.80142041153,709.7377488583,713.87055552888,712.59677401288,713.38734424969,711.0748765262,716.09204277026,716.43885469929,711.17346778071,715.62739354038,710.82398020068,715.26996723757,712.62640193924,714.38535336204,712.04094026692,716.09204277026,710.12912666013,710.12912666013,712.47485875191,712.47485875191,1888.1246852054,1573.7695932028,1003.9009825449,1901.8277328372,1039.4783957684,0
6.5500000000001e-05,174247494.42438,5.3432310157054e-06,1.9481072686859e-05,5.1688129546737e-06,1.0158796202738,583.87846191332,583.87846191332,581.94853614056,581.94853614056,585.28065516409,581.10386768261,584.57785204152,580.52508042234,584.59616031975,582.95310992949,583.77199929317,581.11339778261,584.09998577551,586.77206746302,582.59690087128,585.73762433603,582.09252112574,584.38853143082,581.7382532871,583.59253615011,580.86496296678,584.29244069522,582.78697162631,584.09998577551,583.21748519682,580.99874947106,586.09010866134,580.75204411756,585.51556179385,580.41900957603,584.58114998297,583.29248929901,584.10861502978,581.7889600835,586.80211590058,587.14773820462,581.83905451451,586.33988088123,581.50719177884,585.98018554481,583.30983484332,585.09396048743,582.74358605166,586.80211590058,580.79496196174,580.79496196174,583.15225139071,583.15225139071,-0.1405673518546,0.20479588003738,-4.6206960604368,4.2161995199112,4.3625787713017,4.0688127603938,-3.5297831215274,0.085097218409945,3.662560164979,0.014349425020134,0.72321058343109,-10.664553457344,0.69735281213908,-2.6794220169939,4.2229334324628,-7.0073504753096,0.62081393666011,10.172482414998,-2.64984886883,-5.7402136667559,-1.0495488921288,3.2370774391962,0.40680089943864,-7.851626943015,2.3617924237096,-6.1819145276502,0.49835890463415,2.707622597716,-1.2845886294419,-0.36422361644422,2.0298983843495,0.42290358457135,0.27683177944578,-5.5560421334499,-1.3327983704769,-6.4080129376929,13.362879326572,-1.8399551408553,4.0519315619267,-0.31093882517823,-0.35664195875975,-15.203422483181,-0.77432827351969,-4.2912373719299,-11.288199994011,2.7842551805551,6.7793261614301,-7.7430956540123,713.02335890926,713.02335890926,711.0934331365,711.0934331365,714.42555216003,710.24876467856,713.72274903746,709.66997741829,713.7410573157,712.09800692544,712.91689628912,710.25829477856,713.24488277145,715.91696445897,711.74179786722,714.88252133198,711.23741812169,713.53342842676,710.88315028304,712.73743314606,710.00985996273,713.43733769117,711.93186862225,713.24488277145,712.36238219277,710.143646467,715.23500565729,709.89694111351,714.66045878979,709.56390657197,713.72604697891,712.43738629495,713.25351202572,710.93385707945,715.94701289652,716.29263520056,710.98395151045,715.48477787717,710.65208877479,715.12508254076,712.45473183927,714.23885748338,711.88848304761,715.94701289652,709.93985895768,709.93985895768,712.29714838666,712.29714838666,1878.4720657823,1571.2999708563,1007.5449802669,1901.8558477076,1043.0343773425,0
6.5600000000001e-05,175232965.92599,5.3612681973823e-06,1.9511077358357e-05,5.1816583412816e-06,1.0159469875244,583.69424196388,583.69424196388,581.77558494979,581.77558494979,585.07433557258,580.86499091313,584.3992828718,580.32221718109,584.40438987375,582.74624801054,583.60346083902,580.93338199075,583.90780075817,586.58484750492,582.37329243504,585.55203772219,581.88974741799,584.17491559197,581.50385194193,583.41740263102,580.67438457543,584.09182549543,582.57387464642,583.90780075817,583.051328325,580.82175734667,585.892223916,580.51241346115,585.33345058254,580.20399812635,584.39540897355,583.0920166228,583.93374273104,581.60681316096,586.61579897233,586.96013607813,581.60819264494,586.1559745066,581.29397871505,585.79392190379,583.09691028946,584.90622392453,582.54982396386,586.61579897233,580.56438653832,580.56438653832,582.9333661189,582.9333661189,-0.13924198179974,0.21243484133776,-4.6306488400206,4.2090977003957,4.3580353212046,4.0916953474218,-3.5416632330047,0.085561123576393,3.6668917271838,0.014274907702304,0.72538292340356,-10.670141882011,0.70912822891218,-2.7043732890424,4.2067440695951,-7.0163243996059,0.65090064132894,10.178498244639,-2.6525885979116,-5.74746561587,-1.0558191816587,3.2426878900688,0.40657103605981,-7.860495997882,2.3655016853551,-6.1821182724303,0.49374002383891,2.7214621125162,-1.2897277765183,-0.35995643814133,2.0332053621253,0.42315987097311,0.27988398086103,-5.549819304474,-1.3347656985533,-6.4618471247245,13.389552116629,-1.8373173906047,4.0921696137087,-0.31237885645934,-0.38259868629664,-15.237528190146,-0.75340605024708,-4.3143292841365,-11.319173947453,2.7953354562995,6.7868892443626,-7.7674147896784,712.88014653694,712.88014653694,710.96148952285,710.96148952285,714.26024014564,710.05089548619,713.58518744486,709.50812175415,713.59029444682,711.93215258361,712.78936541209,710.11928656382,713.09370533124,715.77075207798,711.5591970081,714.73794229525,711.07565199105,713.36082016503,710.689756515,712.60330720408,709.86028914849,713.27773006849,711.75977921948,713.09370533124,712.23723289806,710.00766191973,715.07812848906,709.69831803421,714.51935515561,709.38990269942,713.58131354661,712.27792119586,713.1196473041,710.79271773402,715.80170354539,716.1460406512,710.79409721801,715.34187907966,710.47988328811,714.97982647686,712.28281486252,714.0921284976,711.73572853693,715.80170354539,709.75029111138,709.75029111138,712.11927069196,712.11927069196,1871.1218224037,1570.21326095,1011.1940015118,1901.8835629734,1046.5936993161,0
6.5700000000001e-05,176216693.30546,5.3793037939632e-06,1.954108266718e-05,5.1945111087289e-06,1.0160141304,583.50964817837,583.50964817837,581.60259759604,581.60259759604,584.86765517429,580.62579907109,584.22054457423,580.11917038195,584.21230752455,582.53920166392,583.43483460482,580.7532144994,583.71536954858,586.39712737492,582.14927124403,585.36607173966,581.68655552754,583.96096187075,581.26916343729,583.24217116105,580.4836955486,583.89091747196,582.36057231486,583.71536954858,582.88512451302,580.64467978942,585.69396459273,580.27242369499,585.15108918476,579.98871733154,584.20933411382,582.89135812277,583.75872797227,581.42443622346,586.42909444539,586.77205022149,581.37688497876,585.97167582411,581.08034277574,585.60717738841,582.88363045285,584.71814460488,582.35565465303,586.42909444539,580.33340338897,580.33340338897,582.71420740593,582.71420740593,-0.13789934886592,0.220145414537,-4.6403193180632,4.2017273920921,4.3532190499161,4.1148427818647,-3.5534263818673,0.086020059711873,3.6710229379413,0.01420100377004,0.72754163092314,-10.675655685251,0.72092325099169,-2.729384715319,4.190221882063,-7.0251341087319,0.68109304121498,10.183935862245,-2.6548826843112,-5.7544410772151,-1.0620314127126,3.2480767308269,0.40631207129049,-7.8690761966411,2.3691058733162,-6.182322388123,0.48906373292055,2.7353081370337,-1.2948100392921,-0.35570446442491,2.0364430742104,0.42338771900961,0.28294525737076,-5.5435430458615,-1.3366297847557,-6.5156661738189,13.415797441543,-1.834583306084,4.1322001913839,-0.31377487174993,-0.40873770208718,-15.271261709961,-0.73224231192529,-4.3371791695168,-11.349999852001,2.8061508895948,6.7940090417467,-7.7915061359309,712.73667533871,712.73667533871,710.82962475638,710.82962475638,714.09468233463,709.85282623143,713.44757173458,709.34619754229,713.43933468489,711.76622882427,712.66186176516,709.98024165974,712.94239670893,715.62415453526,711.37629840437,714.5930989,710.91358268788,713.18798903109,710.49619059763,712.46919832139,709.71072270895,713.1179446323,711.58759947521,712.94239670893,712.11215167336,709.87170694977,714.92099175307,709.49945085534,714.3781163451,709.21574449188,713.43636127416,712.11838528312,712.98575513261,710.65146338381,715.65612160574,715.99907738183,710.6039121391,715.19870298445,710.30736993609,714.83420454875,712.1106576132,713.94517176522,711.58268181337,715.65612160574,709.56043054931,709.56043054931,711.94123456627,711.94123456627,1865.7672142115,1569.6771556976,1014.8477370004,1901.9109529299,1050.1563182234,0
6.5800000000001e-05,177199206.65201,5.3973401668305e-06,1.9571088606497e-05,5.2073712792403e-06,1.016081078109,583.3246866878,583.3246866878,581.42958063666,581.42958063666,584.66062371995,580.38630218136,584.04164470439,579.91594795065,584.0199211824,582.3319790863,583.26612652303,580.57290128653,583.52269887578,586.20891400552,581.92484525826,585.17973287337,581.48295208053,583.74668035145,581.03419776072,583.06684893447,580.29290331318,583.68972540156,582.14707351665,583.52269887578,582.71887977359,580.46752290696,585.49533984682,580.03208273699,584.96848543327,579.77317549836,584.02293247349,582.69052134744,583.58357680756,581.24183523226,586.24201021315,586.58348798875,581.14513978811,585.78699169002,580.86629123998,585.41995855035,582.67000294383,584.52972890597,582.16108428406,586.24201021315,580.10202100159,580.10202100159,582.49478511914,582.49478511914,-0.13653854489523,0.22792562779577,-4.6497081538573,4.194094890868,4.3481359934644,4.1382171143806,-3.5650727324581,0.086473838415103,3.6749583514691,0.014127218946278,0.72968621609811,-10.681092802852,0.73273195090919,-2.7544535128006,4.1733785225875,-7.0337841947285,0.71138181886495,10.188802686998,-2.6567710732995,-5.7611432699252,-1.068186027752,3.253247328412,0.40602418565254,-7.8773724944058,2.3726050697467,-6.1825250508348,0.48433302224158,2.7491601736754,-1.2998350154619,-0.3514621336484,2.0396131783271,0.42358593978421,0.2860140675704,-5.5372124692019,-1.338392200377,-6.5694653560684,13.441628764827,-1.8317554864859,4.1720052201603,-0.31512449388621,-0.43505037890074,-15.304631181623,-0.7108415751774,-4.3597853413763,-11.380680266551,2.8166990724305,6.8006878456365,-7.815372478985,712.5929503392,712.5929503392,710.69784428806,710.69784428806,713.92888737135,709.65456583276,713.30990835579,709.18421160205,713.2881848338,711.6002427377,712.53439017443,709.84116493793,712.79096252718,715.47717765692,711.19310890966,714.44799652477,710.75121573193,713.01494400285,710.30246141212,712.33511258587,709.56116696457,712.95798905295,711.41533716804,712.79096252718,711.98714342499,709.73578655835,714.76360349822,709.30034638839,714.23674908467,709.04143914976,713.29119612488,711.95878499883,712.85184045895,710.51009888366,715.51027386455,715.85175164015,710.41340343951,715.05525534142,710.13455489138,714.68822220175,711.93826659523,713.79799255737,711.42934793545,715.51027386455,709.37028465299,709.37028465299,711.76304877054,711.76304877054,1862.1808856819,1569.1131322451,1018.5058836264,1901.9380935563,1053.7221884522,0
6.5900000000001e-05,178180966.67852,5.4153793573678e-06,1.9601095169474e-05,5.2209216379435e-06,1.0161478561905,583.13936359139,583.13936359139,581.25654056034,581.25654056034,584.45325084092,580.14651017235,583.86259072302,579.71255776375,583.8272386668,582.1245883571,583.09734244543,580.39244829526,583.32979537769,586.0202142702,581.70002236268,584.99302753734,581.27894369742,583.5320809934,580.79896479365,582.89144305716,580.10201523793,583.48825795135,581.93338701514,583.32979537769,582.55260004315,580.29029276177,585.29635872329,579.79139812157,584.78564706404,579.55738089498,583.83621105335,582.48951373527,583.40829520553,581.05901611935,586.05455407941,586.39445666253,580.91296529074,585.60192888741,580.65183137722,585.23227189427,582.45603528871,584.34098313096,581.96611901265,586.05455407941,579.87024783136,579.87024783136,582.27510899977,582.27510899977,-0.13515866567567,0.23577348915821,-4.658815608525,4.1862064127655,4.342792226168,4.1617887809322,-3.5766025347783,0.086922235567377,3.6787024644922,0.014053077498416,0.73181612112821,-10.686451207527,0.74454839750701,-2.7795768728104,4.156225545792,-7.0422790667475,0.74175785640984,10.193106247736,-2.6582841496495,-5.7675754471366,-1.0742831722694,3.2582030803382,0.40570759226823,-7.8853897488031,2.37599919808,-6.1827244582048,0.47955086028069,2.7630207698393,-1.3048023667644,-0.34722503483307,2.0427172262767,0.42375342432575,0.28908879692806,-5.5308267430444,-1.340054508456,-6.6232397948162,13.467058852108,-1.8288364348061,4.2115664681928,-0.31642548838857,-0.46152817396192,-15.337644420359,-0.68920842712511,-4.3821461437129,-11.411216541027,2.8269775091095,6.8069287319273,-7.8390164821118,712.44897652636,712.44897652636,710.56615349531,710.56615349531,713.76286377589,709.45612310732,713.17220365799,709.02217069872,713.13685160177,711.43420129207,712.4069553804,709.70206123023,712.63940831266,715.32982720517,711.00963529765,714.30264047231,710.58855663239,712.84169392838,710.10857772863,712.20105599213,709.4116281729,712.79787088632,711.24299995011,712.63940831266,711.86221297812,709.59990569674,714.60597165826,709.10101105654,714.09525999901,708.86699382995,713.14582398833,711.79912667024,712.7179081405,710.36862905432,715.36416701438,715.7040695975,710.22257822571,714.91154182238,709.96144431219,714.54188482924,711.76564822368,713.65059606593,711.27573194762,715.36416701438,709.17986076633,709.17986076633,711.58472193475,711.58472193475,1860.2059575449,1568.5215123698,1022.168145449,1901.9650615847,1057.2912634603,0
6.6000000000001e-05,179162382.09492,5.4334231835343e-06,1.9631102349339e-05,5.235168017848e-06,1.0162144874817,582.95368495746,582.95368495746,581.0834837894,581.0834837894,584.24554605114,579.90643287493,583.68338999925,579.50900765025,583.63426770806,581.91703744264,582.92848814704,580.2118614347,583.13666560651,585.8310349854,581.47481037164,584.80596207924,581.07453699482,583.31717363278,580.56347430929,582.71596054965,579.91103863529,583.28652368072,581.71952145514,583.13666560651,582.38629118518,580.11299537254,585.09703015917,579.55037689106,584.6025817194,579.34134175264,583.64917678664,582.28834261967,583.23288905395,580.87598478818,585.86673376139,586.2049634564,580.68036965431,585.41649413008,580.43697044992,585.04412387929,582.24173493513,584.1519135137,581.77076498651,585.86673376139,579.63809230348,579.63809230348,582.05518866486,582.05518866486,-0.13375881311329,0.2436869648626,-4.6676416452203,4.1780680975731,4.3371938447549,4.1855342034331,-3.5880161036351,0.087365016982313,3.6822596974765,0.01397812050185,0.73393074830021,-10.691728905403,0.75636666825582,-2.8047519707798,4.1387744311046,-7.0506229956495,0.77221237452108,10.196854153699,-2.6594451598453,-5.7737408880568,-1.0803227487451,3.2629474050893,0.40536252771696,-7.8931326986826,2.3792880809962,-6.1829188293278,0.474720174864,2.7768959615075,-1.3097118000105,-0.34298967089099,2.0457566184568,0.42388911831276,0.29216776852638,-5.5243850878941,-1.3416182988972,-6.6769844851474,13.492099857902,-1.8258285971079,4.2508658456249,-0.31767577164627,-0.48816263620099,-15.370308979645,-0.66734748560372,-4.404259953224,-11.441609036164,2.836983654545,6.8127352848797,-7.8624406757844,712.30475885518,712.30475885518,710.43455768713,710.43455768713,713.59661994886,709.25750677266,713.03446389697,708.86008154797,712.98534160578,711.26811134037,712.27956204476,709.56293533243,712.48773950423,715.18210888312,710.82588426936,714.15703597697,710.42561089255,712.66824753051,709.91454820702,712.06703444738,709.26211253301,712.63759757845,711.07059535286,712.48773950423,711.7373650829,709.46406927026,714.44810405689,708.90145078878,713.95365561713,708.69241565037,713.00025068436,711.63941651739,712.58396295168,710.2270586859,715.21780765912,715.55603735412,710.03144355204,714.76756802781,709.78804434764,714.39519777701,711.59280883286,713.50298741142,711.12183888423,715.21780765912,708.98916620121,708.98916620121,711.40626256258,711.40626256258,1859.7498337051,1567.9026245576,1025.8342326394,1901.9919337427,1060.8634938415,0
6.6100000000001e-05,180143822.7278,5.4514733175404e-06,1.9661110139426e-05,5.2494270293289e-06,1.0162809928814,582.76765682397,582.76765682397,580.91041668119,580.91041668119,584.03751874861,579.66608002072,583.50404981294,579.3053053918,583.44101594867,581.70933419894,582.75956932918,580.03114658029,582.94331603277,585.64138291221,581.24921703123,584.61854278385,580.86973858595,583.10196798383,580.32773597001,582.54040834919,579.71998076185,583.08453104283,581.50548536489,582.94331603277,582.21995899259,579.93563671467,584.89736298523,579.30902543482,584.41929695054,579.12506626569,583.46183654007,582.08701523243,583.05736416341,580.69274711382,585.67855689205,586.01501551682,580.44736099855,585.23069406568,580.22171571437,584.85552092032,582.02710925553,583.96252622253,581.57502834561,585.67855689205,579.40556281404,579.40556281404,581.83503360825,581.83503360825,-0.13233809741683,0.25166396184286,-4.6761859932404,4.169686010894,4.3313469536575,4.2094341619796,-3.5993138031885,0.0878019589298,3.6856343801302,0.013901904257011,0.73602947900944,-10.696923934183,0.76818086142178,-2.8299759730996,4.1210366064004,-7.0588201488466,0.80273704626947,10.200054067662,-2.6602718049028,-5.779642890326,-1.086304460307,3.2674837323894,0.40498924480694,-7.9006059384541,2.3824714736514,-6.1831064053239,0.46984383935993,2.7907960211082,-1.3145630550208,-0.33875324832037,2.0487325715703,0.42399199920287,0.29524925223467,-5.5178867722395,-1.343085212191,-6.7306943109358,13.516763407941,-1.8227343928948,4.28988569019,-0.31887341676274,-0.51494541389624,-15.402632198836,-0.64526337250225,-4.4261251828896,-11.47185733389,2.8467149585252,6.8181113906266,-7.8856474492226,712.16030225048,712.16030225048,710.3030621077,710.3030621077,713.43016417512,709.05872544723,712.89669523945,708.69795081831,712.83366137518,711.10197962545,712.15221475569,709.4237920068,712.33596145928,715.03402833872,710.64186245774,714.01118821036,710.26238401246,712.49461341034,709.72038139652,711.9330537757,709.11262618836,712.47717646934,710.8981307914,712.33596145928,711.6126044191,709.32828214118,714.29000841174,708.70167086133,713.81194237705,708.5177116922,712.85448196658,711.47966065894,712.45000958992,710.08539254033,715.07120231856,715.40766094333,709.84000642506,714.62333949219,709.61436114088,714.24816634683,711.41975468204,713.35517164904,710.96767377212,715.07120231856,708.79820824055,708.79820824055,711.22767903476,711.22767903476,1860.7815131619,1567.2568030066,1029.5038622381,1902.0187861095,1064.4388283288,0
6.6200000000001e-05,181125630.17169,5.4695313535707e-06,1.9691118533214e-05,5.2636986472067e-06,1.0163473920095,582.58128519874,582.58128519874,580.73734552879,580.73734552879,583.82917821657,579.42546123966,583.32457735635,579.10145872172,583.24749094461,581.50148637345,582.59059162195,579.85030957353,582.74975304828,585.45126475775,581.02325001977,584.43077587578,580.6645550799,582.88647363974,580.0917593241,582.3647933112,579.52884881801,582.88228838587,581.29128715717,582.74975304828,582.05360918962,579.75822272035,584.69736592744,579.06734924376,584.23580021933,578.90856259016,583.27419711499,581.88553870609,582.88172627005,580.50930894277,585.49003102204,585.82461992487,580.21394739541,585.04453527807,580.00607442001,584.66646938907,581.812165549,583.77282736322,581.37891522169,585.49003102204,579.17266772892,579.17266772892,581.61465320123,581.61465320123,-0.13089563955181,0.25970231321369,-4.6844481851731,4.1610661452932,4.3252576519997,4.2334726395247,-3.6104960322111,0.088232865512759,3.6888307430403,0.013823998685666,0.73811168768961,-10.702034362297,0.77998510813344,-2.8552460436697,4.1030234740961,-7.0668746218189,0.83332410494577,10.202713679853,-2.6607772198356,-5.7852847622782,-1.0922278468043,3.2718154986664,0.40458800632688,-7.9078138856309,2.3855490796821,-6.1832854506466,0.4649246625147,2.804736699225,-1.3193558933386,-0.33451348858493,2.0516460946226,0.42406105300051,0.29833147347334,-5.5113311092211,-1.344456956557,-6.7843640613985,13.541060679174,-1.8195562414936,4.3286090418611,-0.32001665939007,-0.54186826203522,-15.434621246044,-0.6229606830313,-4.4477402854602,-11.501960453431,2.8561689122401,6.8230610696079,-7.9086390423,712.01561160914,712.01561160914,710.17167193919,710.17167193919,713.26350462697,708.85978765006,712.75890376675,708.53578513212,712.68181735501,710.93581278386,712.02491803235,709.28463598393,712.18407945869,714.88559116815,710.45757643017,713.86510228619,710.0988814903,712.32080005015,709.5260857345,711.7991197216,708.96317522842,712.31661479627,710.72561356757,712.18407945869,711.48793560002,709.19254913075,714.13169233784,708.50167565417,713.67012662973,708.34288900056,712.7085235254,711.31986511649,712.31605268046,709.94363535317,714.92435743245,715.25894633527,709.64827380582,714.47886168848,709.44040083041,714.10079579947,711.2464919594,713.20715377362,710.81324163209,714.92435743245,708.60699413932,708.60699413932,711.04897961163,711.04897961163,1863.3333387981,1566.5843866741,1033.1767581234,1902.0456935079,1068.0172135851,0
6.6300000000001e-05,190063652.80429,5.4885082767908e-06,1.972112826181e-05,5.2779965801391e-06,1.0164133644289,582.39445895355,582.39445895355,580.56409923347,580.56409923347,583.62052082975,579.18422301319,583.14490929864,578.89689477523,583.05371542101,581.2934049509,582.42154221706,579.66915952831,582.55592373029,585.26066042183,580.79654366705,584.24264649519,580.45861571041,582.67067236767,579.85494698717,582.18901084856,579.3372556742,582.67982500837,581.07683722982,582.55592373029,581.88719370811,579.58055484507,584.49704352508,578.81751686054,584.05206330111,578.6910107399,583.08624928086,581.68383420915,582.70597247295,580.32550109658,585.30116228462,585.63377654181,579.97955518949,584.85801317241,579.78953852189,584.4769202932,581.59669321997,583.58278958603,581.1821642633,585.30116228462,578.93845474593,578.93845474593,581.3939891149,581.3939891149,-0.12943179562626,0.26731580199182,-4.6910990660575,4.1522247765862,4.3190027601119,4.2478550555646,-3.6214461372356,0.089015940762632,3.6915117492899,0.013685812198974,0.74021324176018,-10.706997677321,0.79177728331766,-2.880682556307,4.0851687673202,-7.0754203548443,0.86445624791995,10.204472772672,-2.6419086641687,-5.7906228998545,-1.0980804063612,3.2758636683585,0.4040773178782,-7.9126558714851,2.3876824651283,-6.1834474927421,0.46011468812737,3.0401250959096,-1.323972299635,-0.33606684132851,2.0536466055383,0.42302353467917,0.30150262961317,-5.5046458331524,-1.3458911319701,-6.8381699344614,13.566700266728,-1.8167752213905,4.3674106149991,-0.32122785691362,-0.568863643526,-15.467177493182,-0.60008392194839,-4.4690706200816,-11.538695496202,2.8651300483706,6.8253528629032,-7.9313217655985,711.8710984086,711.8710984086,710.04073868852,710.04073868852,713.09716028479,708.66086246824,712.62154875369,708.37353423027,712.53035487606,710.77004440595,711.89818167211,709.14579898336,712.03256318534,714.73729987688,710.2731831221,713.71928595024,709.93525516546,712.14731182272,709.33158644222,711.6656503036,708.81389512925,712.15646446342,710.55347668487,712.03256318534,711.36383316315,709.05719430012,713.97368298013,708.29415631559,713.52870275616,708.16765019495,712.5628887359,711.1604736642,712.182611928,709.80214055162,714.77780173967,715.11041599686,709.45619464454,714.33465262745,709.26617797694,713.95355974825,711.07333267502,713.05942904108,710.65880371834,714.77780173967,708.41509420098,708.41509420098,710.87062856995,710.87062856995,1867.508693255,1565.8799276885,1036.8545006452,1902.0650874027,1071.6006540036,0
6.6400000000001e-05,191073322.79458,5.5070000622513e-06,1.9751138186999e-05,5.2922995834238e-06,1.016481040753,582.2074221339,582.2074221339,580.39103918686,580.39103918686,583.41157845356,578.94307155933,582.96519127789,578.6927757624,582.85966801607,581.08527316741,582.25245988577,579.48809870057,582.36193684557,585.06963120423,580.56982374328,584.05419513601,580.25267760261,582.45462407005,579.61849168767,582.01328905074,579.14599398073,582.47710520915,580.86232386858,582.36193684557,581.72082502463,579.40305006548,584.29641072855,578.57578478728,583.86816194618,578.47406375029,582.89803556518,581.4820619168,582.53011794585,580.14168305733,585.11195854635,585.44250639431,579.74533061229,584.67115130765,579.57313694559,584.28699310673,581.38111042163,583.39247505373,580.98531621066,585.11195854635,578.70483503503,578.70483503503,581.17317502966,581.17317502966,-0.1279442701844,0.27537263768315,-4.6985004006519,4.1431523792102,4.3124468138019,4.2788869325862,-3.6323190741784,0.089613933474728,3.694261934649,0.013584077081174,0.74232714142321,-10.711900892346,0.80354568006093,-2.9060744544912,4.0667337000251,-7.0834289595768,0.89535067204966,10.205900783175,-2.6414845545558,-5.795715625245,-1.1038985300996,3.2797763528399,0.40358395521917,-7.918966177192,2.3904599094023,-6.1835961549256,0.45516499918725,2.9131149042705,-1.3285782356542,-0.32909496862848,2.0563035658984,0.42283743968292,0.30461857507761,-5.497940522657,-1.3471392845348,-6.891815612763,13.590507371995,-1.8136123441314,4.4056499551982,-0.32228125662462,-0.59601193051983,-15.498850284272,-0.57720570741562,-4.4901629181444,-11.569040952039,2.8739571579444,6.828584945724,-7.9538520434638,711.72599992535,711.72599992535,709.90961697831,709.90961697831,712.93015624501,708.46164935078,712.48376906934,708.21135355385,712.37824580752,710.60385095886,711.77103767722,709.00667649202,711.88051463702,714.58820899568,710.08840153473,713.57277292746,709.77125539406,711.9732018615,709.13706947912,711.53186684219,708.66457177218,711.9956830006,710.38090166003,711.88051463702,711.23940281608,708.92162785693,713.81498852,708.09436257873,713.38673973763,707.99264154174,712.41661335663,711.00063970825,712.0486957373,709.66026084878,714.6305363378,714.96108418576,709.26390840374,714.1897290991,709.09171473704,713.80557089818,710.89968821308,712.91105284518,710.5038940021,714.6305363378,708.22341282648,708.22341282648,710.69175282111,710.69175282111,5083.0924394738,1565.1526948586,1040.5344143121,1902.0888700253,1075.1865738634,0
6.6500000000001e-05,192108653.36706,5.5252958493523e-06,1.9781148536882e-05,5.3066120858215e-06,1.0165488222136,582.02006111314,582.02006111314,580.21799389192,580.21799389192,583.20234866936,578.7016756005,582.78536090898,578.48853485942,582.66536969305,580.87701389174,582.08333356364,579.30693458379,582.16775015357,584.87815579088,580.34274521663,583.86541162311,580.04637389828,582.23831321359,579.38181981901,581.83752379803,578.95467949031,582.27415884468,580.64766801023,582.16775015357,581.55445494747,579.22550868938,584.09547255101,578.33376951758,583.68406911669,578.25691209973,582.70954367436,581.28015553812,582.35416435063,579.9576835806,584.92242675614,585.25080897107,579.51071887811,584.48394798024,579.35636907732,584.09663686633,581.16522408801,583.20186320954,580.7881106623,584.92242675614,578.47087184941,578.47087184941,580.95215952104,580.95215952104,-0.12643240775207,0.28358701081538,-4.7058545461409,4.1338560625743,4.3056516738323,4.3032463389617,-3.6431050500121,0.090109545503351,3.696922326686,0.013492318837889,0.74439942071294,-10.716726939727,0.81528599998317,-2.93148124038,4.0480404038781,-7.0911630921087,0.92618345235151,10.206891323773,-2.6445005569263,-5.8005686681645,-1.1096497093733,3.2835137226215,0.40308305631036,-7.9255179369584,2.3932544052891,-6.1837325344225,0.45015245466967,2.8799623909898,-1.3331524115621,-0.32265297395031,2.059076935984,0.42286303342905,0.30770814255067,-5.4911917397314,-1.3482516170061,-6.9453670723136,13.613818881746,-1.8102588081644,4.4434668896984,-0.32326049018216,-0.62328900063614,-15.530012482332,-0.55420002474621,-4.5110088584659,-11.59858285751,2.8825528218748,6.8319530590319,-7.976192321618,711.58066067076,711.58066067076,709.77859344954,709.77859344954,712.76294822699,708.26227515812,712.3459604666,708.04913441704,712.22596925067,710.43761344936,711.64393312126,708.86753414141,711.72834971119,714.43875534851,709.90334477425,713.42601118073,709.6069734559,711.79891277121,708.94241937663,711.39812335565,708.51527904793,711.8347584023,710.20826756785,711.72834971119,711.11505450509,708.786108247,713.65607210863,707.8943690752,713.24466867431,707.81751165735,712.27014323198,710.84075509574,711.91476390825,709.51828313822,714.48302631376,714.81140852869,709.07131843573,714.04454753786,708.91696863495,713.65723642395,710.72582364563,712.76246276716,710.34871021992,714.48302631376,708.03147140703,708.03147140703,710.51275907866,710.51275907866,2863.0245360588,1564.4012268808,1044.216567051,1902.1146006998,1078.7751527038,0
6.6600000000001e-05,193147502.42471,5.5435014442572e-06,1.9811159387628e-05,5.3209355790441e-06,1.0166162537976,581.83238090807,581.83238090807,580.04496940914,580.04496940914,582.99284123566,578.46005139574,582.60542579647,578.28418079235,582.47082751339,580.66863876618,581.91416966393,579.12567217757,581.97337357655,584.68624050234,580.11532174627,583.67630383994,579.83971191739,582.02175035456,579.14494673853,581.66172216154,578.76331978962,582.07099455543,580.43288152406,581.97337357655,581.38808931519,579.04793599869,583.89423795122,578.09148584026,583.4997927763,578.0395656026,582.52077943214,581.07812630257,582.17811912106,579.77350754103,584.73257482519,585.0586912777,579.27573322855,584.29641084345,579.1392438342,583.90585726154,580.94904686707,583.01096249123,580.5905536439,584.73257482519,578.236576747,578.236576747,580.73095424819,580.73095424819,-0.12489497170705,0.29188679823778,-4.7130020059951,4.1243428852199,4.2986340089375,4.3259927999983,-3.6537941214614,0.090517366288092,3.6994530798947,0.013402391838774,0.74643608534627,-10.721467813852,0.82699298552006,-2.9569110576903,4.0290951705907,-7.0987049304394,0.95700545158243,10.207410126392,-2.6475589199573,-5.8051816437377,-1.1153312947175,3.2870685062405,0.40256549597643,-7.9319758527679,2.3959764075563,-6.1838549303105,0.44509631075583,2.8764606721497,-1.3376831346706,-0.31773697740458,2.0618482759506,0.42293127874968,0.3107799333235,-5.4843910428948,-1.3492545297967,-6.9988380052038,13.63668641071,-1.806780273339,4.4808933180702,-0.3241704425038,-0.65068123659396,-15.560774719313,-0.53103003123142,-4.5316029006242,-11.627778290781,2.8908840478524,6.835172671367,-7.9983341134088,711.43509839486,711.43509839486,709.64768689593,709.64768689593,712.59555872245,708.06276888253,712.20814328326,707.88689827914,712.07354500018,710.27135625297,711.51688715072,708.72838966436,711.57609106334,714.28895798913,709.71803923307,713.27902132673,709.44242940418,711.62446784135,708.74766422532,711.26443964833,708.36603727641,711.67371204222,710.03559901085,711.57609106334,710.99080680198,708.65065348548,713.49695543801,707.69420332706,713.10251026309,707.64228308939,712.12349691893,710.68084378936,711.78083660785,709.37622502782,714.33529231198,714.66140876449,708.87845071534,713.89912833024,708.74196132099,713.50857474833,710.55176435386,712.61367997802,710.19327113069,714.33529231198,707.83929423379,707.83929423379,710.33367173498,710.33367173498,2112.1364524081,1563.6252347924,1047.900809806,1902.1414674847,1082.3663930762,0
6.6700000000001e-05,194183392.84389,5.561653278027e-06,1.9841170759951e-05,5.3352705117631e-06,1.0166832573833,581.64438692881,581.64438692881,579.87197158271,579.87197158271,582.78306535393,578.21820987142,582.42539304977,578.0797209186,582.27604862128,580.46015689939,581.74497398786,578.94431665233,581.77881482012,584.49389176539,579.88756316842,583.48687862707,579.63269825929,581.80494517946,578.90788360688,581.48589079204,578.5719216565,581.86762057137,580.21797396781,581.77881482012,581.221733695,578.87033730282,583.69271550928,577.84894513309,583.31534037935,577.82203200965,582.33174905064,580.87598281666,582.00198856764,579.5891601059,584.54241029321,584.86616023783,579.04038350127,584.10854683677,578.92176874943,583.71466025311,580.73258803817,582.81977989061,580.39265100028,584.54241029321,578.00195848616,578.00195848616,580.50956919875,580.50956919875,-0.12333111554458,0.30024931238561,-4.7199031238232,4.1146192026266,4.2914024298866,4.3485911469669,-3.6643830793768,0.090888760299402,3.7018440096444,0.013311563207635,0.74844061766886,-10.726119765294,0.8386612537808,-2.9823652801555,4.0099122360562,-7.1060837313207,0.98782939800078,10.20745183417,-2.6499767502408,-5.8095567166685,-1.1209441848315,3.2904405830591,0.40202817758057,-7.9382436102462,2.3986035646047,-6.1839616654165,0.44000291720344,2.8814091197813,-1.3421661398422,-0.31329066898838,2.0645816463986,0.42299059878121,0.313835894709,-5.4775354216675,-1.3501595242161,-7.0522292827253,13.659155649789,-1.8031998584496,4.5179316808034,-0.32501357312984,-0.67817906745246,-15.591177445933,-0.50768738979224,-4.5519424787353,-11.656677707562,2.8989393559081,6.8381471117427,-8.0202753597894,711.28932221063,711.28932221063,709.51690686453,709.51690686453,712.42800063575,707.86314515324,712.07032833159,707.72465620042,711.9209839031,710.10509218121,711.38990926968,708.58925193416,711.42375010194,714.13882704721,709.53249845024,713.13181390889,709.27763354111,711.44988046128,708.5528188887,711.13082607386,708.21685693832,711.51255585319,709.86290924963,711.42375010194,710.86666897682,708.51527258464,713.3376507911,707.49388041491,712.96027566117,707.46696729147,711.97668433246,710.52091809848,711.64692384946,709.23409538772,714.18734557503,714.51109551965,708.68531878309,713.75348211859,708.56670403125,713.35959553493,710.37752331999,712.46471517243,710.0375862821,714.18734557503,707.64689376798,707.64689376798,710.15450448057,710.15450448057,1850.7963011218,1562.8248600288,1051.5869171827,1902.1692597702,1085.9602302787,0
6.6800000000001e-05,195215150.29103,5.5797704569986e-06,1.9871182661022e-05,5.3496170765777e-06,1.0167498645531,581.45608478679,581.45608478679,579.69900634684,579.69900634684,582.5730299682,577.97616113536,582.24526962936,577.87516284529,582.0810401087,580.25157650135,581.57575209541,578.76287342058,581.58408080033,584.30111600376,579.65947819025,583.29714242349,579.42533960262,581.5879070196,578.67064049504,581.31003626982,578.38049203927,581.664044887,580.00295407989,581.58408080033,581.05539357424,578.69271811989,583.49091360578,577.6061576078,583.13071918325,577.60431948189,582.14245883218,580.67373275891,581.82577856486,579.40464669123,584.35194050871,584.67322268723,578.80467871702,583.92036260387,578.70395135109,583.52305188633,580.5158558016,582.62832186596,580.19440873154,584.35194050871,577.76702589662,577.76702589662,580.28801375756,580.28801375756,-0.12174010677908,0.30866465499868,-4.7265460566489,4.1046910809047,4.2839636345885,4.3714435295428,-3.6748702573769,0.091239932155204,3.704092369078,0.013218484126195,0.75041566119244,-10.730680096103,0.85028546787338,-3.0078432956834,3.9905066332258,-7.1133154740172,1.0186592882949,10.207018023258,-2.651650651843,-5.8136965486873,-1.126490287394,3.29363164397,0.40146955873496,-7.9442861659861,2.4011297187037,-6.1840510845463,0.43487580931469,2.8896695573773,-1.3465989486382,-0.30902126201392,2.0672632057507,0.42301980951532,0.31687622777595,-5.4706232201048,-1.3509738806586,-7.1055385652433,13.681261197107,-1.7995299456636,4.554578437867,-0.32579101270534,-0.70577402981887,-15.621243572576,-0.48417063923132,-4.5720258049478,-11.685321916375,2.9067129592247,6.8408285225508,-8.0420155935521,711.14333808274,711.14333808274,709.38625964279,709.38625964279,712.26028326416,707.66341443131,711.93252292532,707.56241614124,711.76829340465,709.93882979731,711.26300539136,708.45012671653,711.27133409628,713.98836929971,709.3467314862,712.98439571944,709.11259289858,711.27516031556,708.35789379099,710.99728956577,708.06774533523,711.35129818296,709.69020737584,711.27133409628,710.74264687019,708.37997141584,713.17816690173,707.29341090375,712.8179724792,707.29157277784,711.82971212813,710.36098605487,711.51303186082,709.09189998719,714.03919380466,714.36047598318,708.49193201297,713.60761589982,708.39120464704,713.21030518228,710.20310909755,712.31557516191,709.88166202749,714.03919380466,707.45427919257,707.45427919257,709.97526705352,709.97526705352,1731.1251327698,1562.0003502093,1055.2746560533,1902.1979114523,1089.5565909592,0
6.6900000000001e-05,196243174.11118,5.5978650567723e-06,1.9901195092792e-05,5.3639753647411e-06,1.0168161324799,581.26748013723,581.26748013723,579.52607956794,579.52607956794,582.36274380866,577.7339147615,582.0650623303,577.67051409466,581.88580898,580.04290527484,581.40650936913,578.58134792619,581.38917801005,584.10791959717,579.43107489784,583.10710143646,579.21764257074,581.37064493916,578.43322686072,581.13416503683,578.18903780723,581.46027531086,579.78783011923,581.38917801005,580.88907432523,578.51508397045,583.28884044512,577.36313286571,582.94593626945,577.38643611007,581.95291506691,580.47138330004,581.64949472725,579.219972761,584.16117266805,584.47988537367,578.56862738751,583.73186460245,578.48579903841,583.33103820382,580.29885778476,582.43659458178,579.99583284123,584.16117266805,577.53178759409,577.53178759409,580.06629692443,580.06629692443,-0.12012125491654,0.31712735481724,-4.7329271739126,4.0945643855278,4.2763236998198,4.3946251065094,-3.6852546684076,0.091576955625708,3.7061983176341,0.0131223239003,0.75236305595267,-10.735146550096,0.8618603751847,-3.0333435693968,3.9708926246954,-7.1204108435519,1.0494961937461,10.206112924196,-2.6526343468602,-5.8176039808869,-1.1319711926928,3.2966441251878,0.40088877504339,-7.9500907477585,2.4035534818671,-6.184121579008,0.4297176444239,2.899488132079,-1.3509798745172,-0.3048313979864,2.0698870769409,0.42300909499046,0.31990033212275,-5.4636533356969,-1.3517029626953,-7.1587621612322,13.703028811696,-1.7957786655736,4.5908288393729,-0.32650326735434,-0.73345821605887,-15.650988881841,-0.46048092913608,-4.591851423551,-11.713738907277,2.9142014679687,6.8431896755302,-8.0635549707449,710.99715122188,710.99715122188,709.25575065258,709.25575065258,712.0924148933,707.46358584615,711.79473341495,707.40018517931,711.61548006465,709.77257635948,711.13618045377,708.31101901083,711.11884909469,713.83759068182,709.16074598249,712.8367725211,708.94731365538,711.10031602381,708.16289794537,710.86383612147,707.91870889188,711.1899463955,709.51750120388,711.11884909469,710.61874540988,708.2447550551,713.01851152977,707.09280395035,712.6756073541,707.11610719472,711.68258615155,710.20105438469,711.3791658119,708.94964384564,713.89084375269,714.20955645832,708.29829847216,713.4615356871,708.21547012306,713.06070928846,710.0285288694,712.16626566642,709.72550392588,713.89084375269,707.26145867874,707.26145867874,709.79596800907,709.79596800907,1667.6227484854,1561.1519955874,1058.9637968764,1902.227409481,1093.1554010492,0
6.7000000000001e-05,197268254.6129,5.6159452610355e-06,1.9931208054498e-05,5.3783454124072e-06,1.0168821173237,581.07857863099,581.07857863099,579.35319701592,579.35319701592,582.15221542259,577.49147995538,581.884777798,577.46578204988,581.69036214575,579.83415058372,581.23725105319,578.39974558856,581.19411267214,583.91430887148,579.20236098104,582.91676171563,579.0096137138,581.15316778485,578.19565175253,580.95828339766,577.99756570859,581.25631949381,579.57261001429,581.19411267214,580.7227812109,578.33744032742,583.08650407679,577.11988011832,582.76099856845,577.16838983429,581.76312400099,580.26894128052,581.47314248893,579.03514377021,583.97011383999,584.28615496277,578.33223767994,583.54305915511,578.26731908224,583.13862521913,580.08160125736,582.24460401064,579.79692930169,583.97011383999,577.2962519703,577.2962519703,579.84442741507,579.84442741507,-0.11847389368457,0.32563379646272,-4.7390455253256,4.0842448224907,4.2684884586771,4.4181105022558,-3.6955357850644,0.091902581056856,3.708163481509,0.013022495993003,0.75428393898958,-10.739517136181,0.87338082875642,-3.0588640192237,3.9510837819848,-7.127377742659,1.0803399652567,10.20474212499,-2.6530177623978,-5.8212819758509,-1.1373879737035,3.2994808532812,0.4002853590381,-7.9556542084736,2.4058748518295,-6.1841715958062,0.42453073361394,2.9101109627355,-1.3553077414028,-0.30068032015503,2.0724508781492,0.42295374909415,0.32290714036494,-5.4566249794118,-1.3523510075,-7.2118956334806,13.724478207745,-1.7919519342671,4.6266783273174,-0.32715050265221,-0.76122411075041,-15.680425315103,-0.43662074255603,-4.6114180945848,-11.741946040913,2.9214028509347,6.8452148064989,-8.0848939347976,710.85076655134,710.85076655134,709.12538493627,709.12538493627,711.92440334294,707.26366787573,711.65696571835,707.23796997023,711.4625500661,709.60633850407,711.00943897354,708.17193350891,710.96630059249,713.68649679183,708.9745489014,712.68894963598,708.78180163416,710.9253557052,707.96783967288,710.73047131801,707.76975362894,711.02850741416,709.34479793464,710.96630059249,710.49496913125,708.10962824777,712.85869199714,706.89206803867,712.5331864888,706.94057775464,711.53531192134,710.04112920087,711.24533040928,708.80733169056,713.74230176034,714.05834288312,708.1044256003,713.31524707546,708.03950700259,712.91081313948,709.85378917771,712.016791931,709.56911722204,713.74230176034,707.06843989065,707.06843989065,709.61661533542,709.61661533542,1657.9173000857,1560.2801098467,1062.6541158895,1902.2577668058,1096.7565863803,0
6.7100000000001e-05,198291191.23753,5.6340167922885e-06,1.996122154376e-05,5.3927272209263e-06,1.0169478669646,580.88938589608,580.88938589608,579.18036436461,579.18036436461,581.94145319819,577.2488656542,581.7044225475,577.26097395979,581.49470642442,579.62531954547,581.06798228042,578.2180717856,580.99889082112,583.72029009728,578.97334385565,582.72612919479,578.80125951363,580.93548421998,577.95792392132,580.78239753336,577.806082373,581.05218494911,579.35730144672,580.99889082112,580.55651939711,578.15979260401,582.88391241318,576.87640829914,582.57591288147,576.95018844809,581.57309182532,580.0664133062,581.29672714932,578.85016514521,583.77877098381,584.09203804474,578.0955175174,583.35395247958,578.04851864486,582.94581890755,579.86409324597,582.05235598879,579.59770404639,583.77877098381,577.06042722998,577.06042722998,579.62241372118,579.62241372118,-0.11679737945016,0.33418121344617,-4.7449010284691,4.0737379575588,4.2604636251398,4.4418494411075,-3.7057134237479,0.092218148662713,3.7099903277056,0.012918545839582,0.75617890453928,-10.743790054134,0.88484180351577,-3.0844022071215,3.9310931915174,-7.1342223883407,1.1111899062901,10.202912017728,-2.6528886231793,-5.8247335867996,-1.1427412386083,3.3021448853693,0.39965910500765,-7.9609779197521,2.4080941391073,-6.1841996435695,0.41931721225032,2.9211680180227,-1.3595817422114,-0.29654924111091,2.0749539074953,0.42285159680945,0.32589529232905,-5.4495375726545,-1.3529215307461,-7.2649340774446,13.745624838491,-1.7880543509438,4.6621230610547,-0.32773270642416,-0.78906451718033,-15.709562413203,-0.41259336395141,-4.6307247461386,-11.769953740182,2.9283159954867,6.8468953091987,-8.1060330442913,710.70418883797,710.70418883797,708.99516730649,708.99516730649,711.75625614007,707.06366859608,711.51922548939,707.07577690168,711.30950936631,709.44012248736,710.88278522231,708.03287472749,710.81369376301,713.53509303917,708.78814679753,712.54093213668,708.61606245552,710.75028716187,707.77272686321,710.59720047525,707.62088531489,710.866987891,709.17210438861,710.81369376301,710.371322339,707.9745955459,712.69871535507,706.69121124103,712.39071582336,706.76499138998,711.38789476721,709.88121624809,711.11153009121,708.6649680871,713.5935739257,713.90684098663,707.91032045929,713.16875542147,707.86332158675,712.76062184943,709.67889618785,711.86715893067,709.41250698827,713.5935739257,706.87523017187,706.87523017187,709.43721666307,709.43721666307,1650.1504350327,1559.3850212949,1066.3453955614,1902.2890108005,1100.3600722659,0
6.7200000000001e-05,199312682.5558,5.6520837285731e-06,1.9991235557175e-05,5.4071207680245e-06,1.017013420255,580.69990752913,580.69990752913,579.00758719709,579.00758719709,581.73046538239,577.00608058561,581.52400297914,577.05609695085,581.29884854613,579.41641908777,580.89870809098,578.03633184715,580.80351835207,583.52586949122,578.74403073516,582.53520971822,578.59258638991,580.71760274852,577.72005188594,580.60651351448,577.61459432008,580.84787906708,579.14191190354,580.80351835207,580.39029396361,577.98214615083,582.68107324375,576.63272612789,582.39068589699,576.73183961307,581.38282467137,579.86380580599,581.12025390214,578.6650422749,583.58715096268,583.8975411406,577.85847464124,583.16455070871,577.82940479655,582.75262520277,579.64634060155,581.85985625017,579.39816296812,583.58715096268,576.82432142364,576.82432142364,579.40026414929,579.40026414929,-0.11509109464341,0.34276724792128,-4.7504938529195,4.0630492344476,4.2522548343095,4.4657920399996,-3.7157876625024,0.09252432010117,3.7116818472655,0.012810096106475,0.75804816021894,-10.747963653424,0.89623841046762,-3.1099554574706,3.9109336702401,-7.1409499036918,1.1420450898018,10.200629491331,-2.6523211049598,-5.8279619341246,-1.148031230903,3.3046394290144,0.39900998678681,-7.9660654250755,2.4102116478942,-6.1842042924293,0.41407910631065,2.9324621828881,-1.3638013459987,-0.29242917593707,2.0773963251011,0.42270177483729,0.32886324581523,-5.4423906910345,-1.3534175677733,-7.317872286008,13.76648115672,-1.784089680836,4.6971601405465,-0.32824978883003,-0.81697251439146,-15.738408105327,-0.38840260428593,-4.6497704508023,-11.797768242534,2.9349404851435,6.8482272584873,-8.1269728690422,710.5574227442,710.5574227442,708.86510241215,708.86510241215,711.58798059746,706.86359580067,711.38151819421,706.91361216592,711.1563637612,709.27393430284,710.75622330605,707.89384706221,710.66103356714,713.38338470629,708.60154595022,712.39272493329,708.45010160498,710.57511796358,707.57756710101,710.46402872955,707.47210953515,710.70539428215,708.99942711861,710.66103356714,710.24780917868,707.8396613659,712.53858845882,706.49024134296,712.24820111205,706.58935482814,711.24033988644,709.72132102106,710.97776911721,708.52255748996,713.44466617775,713.75505635567,707.71598985631,713.02206592378,707.68692001162,712.61014041784,709.50385581662,711.71737146524,709.25567818319,713.44466617775,706.68183663871,706.68183663871,709.25777936436,709.25777936436,1643.4396533079,1558.467067852,1070.0374246295,1902.3211771255,1103.9657830789,0
6.7300000000001e-05,200333309.68292,5.6701490229924e-06,2.0021250090686e-05,5.4215260147484e-06,1.0170788082542,580.51014909081,580.51014909081,578.83487101081,578.83487101081,581.51926009403,576.76313330301,581.34352539032,576.85115803733,581.10279515636,579.20745598475,580.72943344526,577.85453105193,580.60800105149,583.33105321783,578.51442867421,582.34400905787,578.3836007047,580.49953173207,577.48204397327,580.43063731114,577.42310796707,580.64340912594,578.92644871101,580.60800105149,580.22410991228,577.80450625532,582.47799424557,576.38884214927,582.20532420278,576.51335087161,581.19232860988,579.66112506834,580.94372785435,578.47978050614,583.39526055355,583.70267070718,577.62111665031,582.97485990394,577.60998452667,582.55904999577,579.42835004125,581.66711044838,579.19831191841,583.39526055355,576.58794247106,576.58794247106,579.17798684683,579.17798684683,-0.11335445281193,0.35138973816402,-4.7558242283961,4.052183987533,4.2438676520283,4.4898962023075,-3.725758777957,0.09282140994882,3.7132413684078,0.012696817781699,0.75989165509045,-10.752036407513,0.90756590972591,-3.1355209343768,3.8906179520816,-7.1475646706904,1.172904512807,10.197901745088,-2.6513740766965,-5.8309701848899,-1.1532579246917,3.3069677938609,0.39833810330777,-7.9709212718032,2.4122276136338,-6.1841841730458,0.40881835675862,2.943882760659,-1.3679662313086,-0.28831584161431,2.0797787390767,0.4225041072657,0.33180935257374,-5.4351840296035,-1.3538418298511,-7.3707048542787,13.787057400017,-1.7800611437946,4.7317876761834,-0.3287016490235,-0.84494143093763,-15.766969183863,-0.36405264185713,-4.6685544116335,-11.825393101072,2.9412764681303,6.8492098499618,-8.1477139224998,710.41047285409,710.41047285409,708.73519477409,708.73519477409,711.41958385731,706.66345706629,711.2438491536,706.75148180061,711.00311891964,709.10777974804,710.62975720854,707.75485481521,710.50832481478,713.23137698111,708.41475243749,712.24433282115,708.28392446798,710.39985549535,707.38236773655,710.33096107442,707.32343173035,710.54373288922,708.82677247429,710.50832481478,710.12443367556,707.7048300186,712.37831800885,706.28916591255,712.10564796606,706.41367463489,711.09265237316,709.56144883162,710.84405161763,708.38010426942,713.29558431683,713.60299447046,707.52144041359,712.87518366722,707.51030828995,712.45937375905,709.32867380454,711.56743421166,709.0986356817,713.29558431683,706.48826623434,706.48826623434,709.07831061011,709.07831061011,1637.5917020293,1557.5265937532,1073.7299980421,1902.3543060112,1107.5736419638,0
6.7400000000001e-05,201353549.3704,5.6882148507295e-06,2.0051265139827e-05,5.4359429101205e-06,1.0171440558387,580.32011610343,580.32011610343,578.66222122164,578.66222122164,581.30784533355,576.52003220752,581.16299598396,576.64616412906,580.90655281931,578.998436881,580.56016323269,577.67267462597,580.41234461733,583.13584739153,578.28454459536,582.15253292508,578.17430876545,580.28127940221,577.24390834341,580.25477480049,577.2316296346,580.43878229976,578.71091905722,580.41234461733,580.05797217308,577.62687814188,582.2746829914,576.14476475736,582.01983429473,576.29472965661,581.00160965079,579.45837726502,580.76715403878,578.29438514116,583.20310645443,583.50743314124,577.38345102618,582.78488606467,577.39026475107,582.36509913484,579.21012817501,581.4741241711,578.99815670735,583.20310645443,576.35129817753,576.35129817753,578.95558981997,578.95558981997,-0.11158690385777,0.36004661475282,-4.760892406532,4.04114745104,4.2353075747149,4.5141286417518,-3.7356271965059,0.093109549812532,3.7146724442915,0.012578413564358,0.76170917811973,-10.756006901027,0.91881971899719,-3.161095695275,3.8701588655882,-7.154070556923,1.2037671716634,10.194736165449,-2.6500926350379,-5.8337615351778,-1.1584211049692,3.3091333642205,0.39764364102074,-7.9755504068357,2.414142224853,-6.1841379779154,0.40353683250873,2.9553653865908,-1.3720762372805,-0.28420730920177,2.082101996483,0.42225877000377,0.33473191284052,-5.4279173818402,-1.3541968050574,-7.4234262529976,13.807362173693,-1.7759715970176,4.7660047962461,-0.3290882200396,-0.8729648190879,-15.795251615986,-0.33954792440463,-4.687075953964,-11.852830478758,2.947324577034,6.8498443720898,-8.168256613552,710.26334368846,710.26334368846,708.60544880667,708.60544880667,711.25107291858,706.46325979256,711.10622356899,706.58939171409,710.84978040434,708.94166446603,710.50339081773,707.615902211,710.35557220236,713.07907497656,708.22777218039,712.09576051011,708.11753635048,710.22450698724,707.18713592844,710.19800238552,707.17485721964,710.38200988479,708.65414664226,710.35557220236,710.00119975812,707.57010572691,712.21791057643,706.08799234239,711.96306187976,706.23795724164,710.94483723582,709.40160485005,710.71038162381,708.23761272619,713.14633403946,713.45066072627,707.32667861121,712.7281136497,707.3334923361,712.30832671987,709.15335576004,711.41735175613,708.94138429238,713.14633403946,706.29452576257,706.29452576257,708.89881740501,708.89881740501,1632.4525324595,1557.8931538035,1077.4229168802,1902.3884398569,1111.1835706948,0
6.7500000000001e-05,202373793.82014,5.7062828460497e-06,2.0081280699878e-05,5.4503713941995e-06,1.0172091831611,580.12981404957,580.12981404957,578.48964316656,578.48964316656,581.09622899016,576.27678556162,580.98242087447,576.44112203648,580.71012802074,578.78936830739,580.39090227771,577.49076774153,580.21655467212,582.94025807853,578.05438530488,581.96078697845,577.96471682668,580.06285386926,577.00565300521,580.07893177183,577.04016555061,580.2340056644,578.49533000736,580.21655467212,579.89188560805,577.44926697199,582.07114695565,575.90050221081,581.83422258298,576.07598329789,580.81067374379,579.25556846687,580.5905374226,578.10886143584,583.01069528974,583.31183478279,577.14548514897,582.59463513483,577.17025231642,582.17077842602,578.99168152266,581.2809029498,578.79770310338,583.01069528974,576.11439624421,576.11439624421,578.73308094597,578.73308094597,-0.10978793879864,0.36873585220557,-4.7656986759285,4.0299447668477,4.2265800268919,4.5384638360951,-3.7453934585284,0.093388773323544,3.7159787814141,0.012454607893017,0.76350043086677,-10.759873813529,0.92999542813654,-3.1866767288228,3.8495694919619,-7.1604710654249,1.2346320971191,10.191140241713,-2.6485105177156,-5.8363391975129,-1.1635204327399,3.3111395794524,0.39692684764107,-7.9799578542515,2.4159556657534,-6.1840644576405,0.39823634031765,2.9668717739038,-1.3761313279925,-0.28010285655931,2.0843670785221,0.42196610596769,0.337629215743,-5.4205906214352,-1.3544848235217,-7.4760308825629,13.827402813679,-1.7718236545349,4.7998116122735,-0.32940949828071,-0.90103645142251,-15.823260751703,-0.31489309923891,-4.7053345200723,-11.88008189123,2.9530858742992,6.8501335159553,-8.1886012182646,710.11603971452,710.11603971452,708.47586883152,708.47586883152,711.08245465512,706.26301122657,710.96864653942,706.42734770144,710.69635368569,708.77559397235,710.37712794266,707.47699340649,710.20278033707,712.92648374349,708.04061096983,711.9470126434,707.95094249164,710.04907953421,706.99187867016,710.06515743679,707.02639121557,710.22023132936,708.48155567232,710.20278033707,709.878111273,707.43549263694,712.0573726206,705.88672787577,711.82044824794,706.06220896285,710.79689940875,709.24179413183,710.57676308755,708.09508710079,712.99692095469,713.29806044775,707.13171081393,712.58086079979,707.15647798138,712.15700409098,708.97790718761,711.26712861476,708.78392876834,712.99692095469,706.10062190917,706.10062190917,708.71930661093,708.71930661093,1627.9040707373,1559.1029665782,1081.1159882933,1902.4236216151,1114.7954896467,0
6.7600000000001e-05,203394369.40778,5.7243542662168e-06,2.0111296765986e-05,5.4648114003489e-06,1.017274206827,579.93924837138,579.93924837138,578.31714210549,578.31714210549,580.88441884724,576.03340149755,580.80180609187,576.23603847385,580.51352717033,578.58025669173,580.22165534359,577.30881551632,580.02063677155,582.74429129848,577.82395750147,581.7687768292,577.75483109069,579.84426312872,576.76728582563,579.90311393014,576.84872185273,580.02908620197,578.27968851395,580.02063677155,579.72585501393,577.27167784408,581.86739351896,575.6560626423,581.64849539638,575.85711902619,580.61952677907,579.05270465404,580.41388291283,577.92321459859,582.81803361429,583.11588191775,576.9072263071,582.40411300739,576.94995400244,581.97609363385,578.77301652486,581.08745226611,578.59695683302,582.81803361429,575.87724427434,575.87724427434,578.51046798175,578.51046798175,-0.10795709408164,0.37745544555485,-4.7702433887494,4.0185809886442,4.2176903576984,4.5628825069652,-3.7550581892119,0.093659061637699,3.7171641956511,0.012325140911553,0.76526507938987,-10.763635916653,0.94108880437643,-3.2122609813804,3.8288633331902,-7.166769436828,1.2654983584305,10.187121505122,-2.6466524732205,-5.8387063881588,-1.1685554950352,3.3129899251632,0.3961880136065,-7.9841485539653,2.4176681561538,-6.1839624233975,0.392918633635,2.9783788298957,-1.3801315654562,-0.27600238947166,2.0865750493439,0.42162652444841,0.34049956916189,-5.4132036933864,-1.3547080982362,-7.528513112967,13.847185618287,-1.7676197661486,4.8332091613899,-0.32966556268114,-0.92915030109459,-15.85100147153,-0.29009297135505,-4.7233296661555,-11.907148738664,2.9585618141028,6.8500809059352,-8.2087478553291,709.96856535246,709.96856535246,708.34645908658,708.34645908658,710.91373582832,706.06271847864,710.83112307296,706.26535545493,710.54284415141,708.60957367281,710.25097232467,707.33813249741,710.04995375264,712.77360827957,707.85327448255,711.79809381028,707.78414807177,709.87358010981,706.79660280671,709.93243091122,706.87803883382,710.05840318306,708.30900549503,710.04995375264,709.75517199502,707.30099482516,711.89671050005,705.68537962338,711.67781237747,705.88643600727,710.64884376016,709.08202163513,710.44319989391,707.95253157967,712.84735059537,713.14519889883,706.93654328818,712.43342998848,706.97927098352,712.00541061494,708.80233350594,711.1167692472,708.6262738141,712.84735059537,705.90656125543,705.90656125543,708.53978496283,708.53978496283,1623.8580498346,1560.2971174414,1084.8090254406,1902.4598936737,1118.4093178489,0
6.7700000000001e-05,204415552.15252,5.7424301053091e-06,2.0141313333244e-05,5.4792628567779e-06,1.0173391407976,579.74842447031,579.74842447031,578.14472322223,578.14472322223,580.67242258631,575.78988802267,580.62115758461,576.03092006108,580.31675660371,578.37110836589,580.05242713499,577.12682301284,579.82459641014,582.54795302597,577.59326778019,581.57650804477,577.54465770772,579.62551506607,576.5288145352,579.72732689828,576.65730458976,579.82403080425,578.06400142389,579.82459641014,579.55988512382,577.09411579337,581.66342997169,575.41145406432,581.46265898556,575.63814397539,580.42817458823,578.8497917229,580.23719535997,577.73744978963,582.62512791628,582.91958078006,576.6686817032,582.21332552754,576.7293765229,581.78105048212,578.5541395501,580.89377755605,578.39592358056,582.62512791628,575.6398497768,575.6398497768,578.28775857002,578.28775857002,-0.10609395527739,0.38620340253209,-4.774526984666,4.0070610893244,4.2086438382055,4.587370192243,-3.7646220773057,0.093920367381766,3.7182325835149,0.012189764698234,0.76700279060198,-10.767292067879,0.95209580150303,-3.2378453768995,3.8080544810875,-7.1729687192983,1.2963650601464,10.182687484352,-2.6445362794809,-5.8408663189434,-1.1735258436248,3.3146879263911,0.39542745898901,-7.9881272772453,2.4192799821868,-6.1838307448279,0.38758542193169,2.9898725440956,-1.3840770897145,-0.27190614359544,2.0887270342175,0.42124044692774,0.34334132258277,-5.4057566054413,-1.3548687498534,-7.5808673159512,13.866715979443,-1.7633622700944,4.8661993405843,-0.32985658674837,-0.95730053637807,-15.878478288342,-0.26515246715101,-4.7410610607247,-11.93403266734,2.9637542149966,6.8496907793298,-8.2286964747878,709.82092498014,709.82092498014,708.21722373206,708.21722373206,710.74492309614,705.8623885325,710.69365809444,706.10342057091,710.38925711353,708.44360887572,710.12492764482,707.19932352267,709.89709691997,712.6204535358,707.66576829002,711.64900855459,707.61715821755,709.69801557589,706.60131504503,709.79982740811,706.72980509959,709.89653131407,708.13650193372,709.89709691997,709.63238563365,707.1666163032,711.73593048152,705.48395457415,711.53515949538,705.71064448522,710.50067509805,708.92229223273,710.3096958698,707.80995029946,712.69762842611,712.99208128989,706.74118221303,712.28582603737,706.80187703273,711.85355099195,708.62664005993,710.96627806588,708.46842409038,712.69762842611,705.71235028663,705.71235028663,708.36025907984,708.36025907984,1620.2497162531,1561.475854819,1088.5018474301,1902.4972970929,1122.0249730984,0
6.7800000000001e-05,205437579.80387,5.7605111738335e-06,2.0171330396743e-05,5.4937256877141e-06,1.0174039970662,579.55734770708,579.55734770708,577.97239162494,577.97239162494,580.46024779024,575.54625302262,580.44048122139,575.82577332471,580.11982258412,578.16192957064,579.88322229942,576.94479523789,579.6284390248,582.35124919189,577.36232263288,581.38398615121,577.33420277583,579.40661746034,576.29024673068,579.55157621847,576.46591972236,579.61884627534,577.84827548339,579.6284390248,579.39398060802,576.91658579153,581.4592635166,575.16668437273,581.27671952505,575.41906518366,580.23662294511,578.64683549053,580.06047956028,577.55157212045,582.4319846195,582.72293755351,576.42985845747,582.02227849488,576.50852652579,581.58565465473,578.33505689914,580.69988421281,578.19460898779,582.4319846195,575.40222016772,575.40222016772,578.06496024368,578.06496024368,-0.10419816018747,0.39497774188374,-4.7785500133409,3.9953899605733,4.1994456573026,4.611916082186,-3.7740858575461,0.094172626665585,3.7191879043539,0.012048240954703,0.76871325759951,-10.770841208551,0.96301256618682,-3.263426831301,3.7871578071685,-7.1790718175,1.3272313289409,10.17784566721,-2.6421743385429,-5.8428221882564,-1.1784310262186,3.3162371448408,0.3946455241426,-7.9918985933538,2.4207915190057,-6.1836683522429,0.38223837988237,3.0013444508255,-1.387968103218,-0.26781452905948,2.0908242131383,0.42080828069362,0.34615288469781,-5.3982494225784,-1.3549688212345,-7.6330878901355,13.885998437867,-1.7590534286768,4.8987848367162,-0.32998284517435,-0.98548150962153,-15.905695422475,-0.24007661025417,-4.7585284831648,-11.960735811657,2.9686652403372,6.8489677638923,-8.2484468472602,709.67312293662,709.67312293662,708.08816685448,708.08816685448,710.57602301978,705.66202825215,710.55625645093,705.94154855424,710.23559781366,708.27770480017,709.99899752895,707.06057046743,709.74421425434,712.46702442142,707.47809786242,711.49976138075,707.44997800536,709.52239268987,706.40602196022,709.66735144801,706.5816949519,709.73462150487,707.96405071292,709.74421425434,709.50975583756,707.03236102107,711.57503874614,705.28245960227,711.39249475459,705.5348404132,710.35239817464,708.76261072006,710.17625478982,707.66734734999,712.54775984904,712.83871278305,706.54563368701,712.13805372441,706.62430175533,711.70142988427,708.45083212868,710.81565944235,708.31038421733,712.54775984904,705.51799539726,705.51799539726,708.18073547322,708.18073547322,1617.0324101443,1562.6393940441,1092.1942792935,1902.5358709994,1125.6423721212,0
6.7900000000001e-05,206460661.06249,5.7785981547557e-06,2.0201347951621e-05,5.5081998140694e-06,1.0174687861613,579.36602340179,579.36602340179,577.80015234631,577.80015234631,580.24790194572,575.30250426324,580.25978279239,575.62060469818,579.92273130398,577.9527264589,579.71404542803,576.76273714208,579.43216999712,582.15418568458,577.13112844602,581.19121663475,577.12347234048,579.18757798697,576.05158987592,579.37586735308,576.27457312331,579.41353933389,577.63251734129,579.43216999712,579.22814607447,576.73909274633,581.25490127109,574.92176134867,581.09068311483,575.19988959376,580.04487756676,578.4438416977,579.88374025708,577.36558665344,582.23861008504,582.52595837319,576.19076360945,581.83097766489,576.28741059294,581.3899117965,578.11577480777,580.50577758844,577.9930186538,582.23861008504,575.16436277094,575.16436277094,577.84208042913,577.84208042913,-0.10226940138536,0.40377649563559,-4.78231314026,3.9835724161973,4.190100923062,4.6365121231523,-3.7834502973841,0.094415765171853,3.7200341683955,0.011900339611926,0.7703962161418,-10.774282356777,0.97383544430825,-3.2890022636362,3.7661891680722,-7.1850815268252,1.3580962995859,10.172603479641,-2.6395748789656,-5.8445771743317,-1.1832706074348,3.3176411775808,0.39384256303672,-7.9954668616262,2.4222032421287,-6.1834742330804,0.37687915843458,3.0127895305364,-1.3918048591428,-0.26372804843996,2.0928678215363,0.42033040849984,0.34893273703956,-5.3906822601836,-1.35501028376,-7.6851692822229,13.905036675218,-1.7546954516151,4.9309690565929,-0.33004471688499,-1.0136877550739,-15.932656855628,-0.21487049917965,-4.7757318231027,-11.987260954003,2.9732973835139,6.8479167279049,-8.2679985501314,709.5251635249,709.5251635249,707.95929246942,707.95929246942,710.40704206883,705.46164438635,710.41892291551,705.77974482129,710.0818714271,708.11186658201,709.87318555114,706.92187726519,709.59131012023,712.31332580769,707.29026856914,711.35035675786,707.28261246359,709.34671811008,706.21072999903,709.5350074762,706.43371324643,709.57267945701,707.7916574644,709.59131012023,709.38728619758,706.89823286945,711.4140413942,705.08090147178,711.24982323794,705.35902971687,710.20401768987,708.60298182082,710.04288038019,707.52472677656,712.39775020815,712.68509849631,706.34990373256,711.990117788,706.44655071605,711.54905191962,708.27491493088,710.66491771156,708.15215877691,712.39775020815,705.32350289405,705.32350289405,708.00122055224,708.00122055224,1614.1732571617,1563.7879166666,1095.8861519143,1902.5756522755,1129.261430734,0
6.8000000000001e-05,207484982.55956,5.7966916429368e-06,2.0231365993092e-05,5.5226851543533e-06,1.0175335175205,579.17445683423,579.17445683423,577.6280103434,577.6280103434,580.03539244531,575.05864939178,580.07906800999,575.41542052193,579.72548888618,577.74350509806,579.54490105599,576.58065361955,579.23579465478,581.95676835093,576.89969149642,580.99820494267,576.91247239418,578.96840422012,575.81285130143,579.20020568505,576.08327057754,579.20811661496,577.41673355165,579.23579465478,579.06238606875,576.56164150128,581.0503502689,574.67669265968,580.90455578132,574.98062405293,579.8529441143,578.2408160109,579.70698214153,577.17949840177,582.04501061257,582.32864932673,575.95140411874,581.63942874993,576.06603523941,581.19382751397,577.89629944852,580.31146299486,577.79115813474,582.04501061257,574.9262848177,574.9262848177,577.61912644878,577.61912644878,-0.10030742823848,0.41259771218918,-4.7858171569382,3.971613197048,4.1806146586264,4.6611523500325,-3.7927161853747,0.094649699671081,3.7207754300793,0.011745837972927,0.77205145628231,-10.777614613498,0.9845609844189,-3.3145686044081,3.7451656583233,-7.1910005607872,1.3889591004955,10.166968256363,-2.6367428584286,-5.8461344307054,-1.1880441883682,3.3189036552766,0.39301893839488,-7.9988362407782,2.4235157360537,-6.1832474361224,0.37150939492782,3.0242049476318,-1.3955876508312,-0.25964725349554,2.0948591555845,0.41980718777618,0.35167944493423,-5.3830552839647,-1.3549950399304,-7.7371060048801,13.92383347115,-1.7502905127984,4.962756061533,-0.3300426847127,-1.041913975055,-15.959366379007,-0.18953928997431,-4.7926710791445,-12.013611636404,2.9776534577384,6.8465426701928,-8.2873509815662,709.37705101423,709.37705101423,707.8306045234,707.8306045234,710.23798662531,705.26124357178,710.28166218999,705.61801470193,709.92808306618,707.94609927807,709.747495236,706.78324779956,709.43838883478,712.15936253093,707.10228567642,711.20079912268,707.11506657419,709.17099840013,706.01544548143,709.40279986506,706.28586475755,709.41071079496,707.61932773165,709.43838883478,709.26498024875,706.76423568128,711.25294444891,704.87928683969,711.10714996132,705.18321823294,710.05553829431,708.44341019091,709.90957632154,707.38209258177,712.24760479257,712.53124350673,706.15399829875,711.84202292993,706.26862941941,711.39642169398,708.09889362852,710.51405717486,707.99375231474,712.24760479257,705.12887899771,705.12887899771,707.82172062879,707.82172062879,1611.6499029425,1564.9215698404,1099.5773020324,1902.6166751492,1132.8820640728,0
6.8100000000001e-05,208510714.16109,5.8147921736958e-06,2.0261384516467e-05,5.537181624836e-06,1.0175981997734,578.98265324417,578.98265324417,577.4559704974,577.4559704974,579.82272658915,574.81469593741,579.89834250916,575.21022704312,579.52810138523,577.53427147149,579.37579366244,576.39854950763,579.03931827222,581.75900299724,576.66801794476,580.80495648379,576.70120887605,578.7491036345,575.57403820275,579.02459651801,575.89201778195,579.00258467147,577.20093057542,579.03931827222,578.89670507394,576.38423683522,580.84561746165,574.43148586019,580.718343478,574.76127531248,579.66082819375,578.0377640235,579.53020985283,576.99331232919,581.85119244133,582.1310164553,575.71178686524,581.44763741974,575.84440691272,580.99740737612,577.67663693165,580.11694570428,577.58903294375,581.85119244133,574.68799344588,574.68799344588,577.39610552304,577.39610552304,-0.098312048241121,0.42143946095825,-4.7890629789929,3.9595169707824,4.1709918015163,4.6858324136347,-3.8018843202367,0.094874337725114,3.7214157870973,0.01158452022034,0.77367882938053,-10.780837151052,0.99518594549985,-3.3401228031208,3.7241058945099,-7.1968315675035,1.4198188453011,10.160947220529,-2.6336805772925,-5.8474970785188,-1.1927514199581,3.320028246715,0.39217501781545,-8.0020107046065,2.424729695826,-6.1829870657129,0.36613072443946,3.0355892826395,-1.3993168033332,-0.25557272188179,2.096799580547,0.41923895570732,0.3543916661793,-5.3753687020481,-1.3549249222284,-7.7888926545902,13.942390615974,-1.745840760692,4.9941505111856,-0.32997733315724,-1.0701550443029,-15.985827623291,-0.16408817595285,-4.8093463598082,-12.039792233758,2.9817365914895,6.8448506422859,-8.3065033443866,709.22878964198,709.22878964198,707.70210689522,707.70210689522,710.06886298696,705.06083233523,710.14447890697,705.45636344093,709.77423778305,707.78040786931,709.62193006025,706.64468590544,709.28545467003,712.00513939506,706.91415434258,711.0510928816,706.94734527386,708.99524003232,705.82017460056,709.27073291582,706.13815417976,709.24872106929,707.44706697324,709.28545467003,709.14284147176,706.63037323303,711.09175385946,704.677622258,710.96447987581,705.00741171029,709.90696459157,708.28390042132,709.77634625065,707.239448727,712.09732883915,712.37715285312,705.95792326305,711.69377381756,706.09054331054,711.24354377394,707.92277332947,710.36308210209,707.83516934157,712.09732883915,704.93412984369,704.93412984369,707.64224192086,707.64224192086,1609.4481295473,1566.0404656255,1103.2675721759,1902.6589710107,1136.5041868008,0
6.8200000000001e-05,209538013.05374,5.8329002430605e-06,2.0291403517184e-05,5.5516891402921e-06,1.0176628409579,578.79061783171,578.79061783171,577.2840376133,577.2840376133,579.60991158636,574.57065131152,579.71761184763,575.00503041533,579.3305747884,577.32503147961,579.20672767018,576.21642958661,578.84274607093,581.56089539,576.43611382697,580.6114766285,576.48968767127,578.52968360699,575.33515763798,578.84904507618,575.70082034514,578.79694997567,576.98511478187,578.84274607093,578.73110751021,576.20688346201,580.64070971996,574.18614839151,580.53205208586,574.54185002719,579.46853535676,577.83469125657,579.35342797813,576.80703335009,581.65716175083,581.93306575444,575.47191864884,581.25560930172,575.62253199198,580.80065691502,577.45679330567,579.92223094927,577.38664855082,581.65716175083,574.44949569885,574.44949569885,577.17302477194,577.17302477194,-0.096283127990161,0.43029983454987,-4.7920516432967,3.947288334255,4.1612372025596,4.7105492392557,-3.8109555029102,0.095089575772382,3.7219593745634,0.011416177123279,0.77527825276161,-10.783949222844,1.0057072950096,-3.3656618323683,3.7030303714789,-7.2025771492089,1.4506746211731,10.154547464419,-2.6303881109298,-5.8486682030684,-1.1973920145877,3.3210186561591,0.39131117109498,-8.0049940657914,2.4258459265943,-6.1826922882887,0.36074479169112,3.0469420599926,-1.4029926656434,-0.2515050444896,2.0986905343154,0.41862603806941,0.35706815795646,-5.3676227669483,-1.3548016896766,-7.8405239235451,13.960708795569,-1.7413483269444,5.0251576085374,-0.32984934380908,-1.0984059909978,-16.012044096282,-0.13852237408093,-4.825757880972,-12.065808007993,2.985550224821,6.8428456928886,-8.3254546514546,709.08038361537,709.08038361537,707.57380339696,707.57380339696,709.89967737002,704.86041709518,710.00737763129,705.294796199,709.62034057206,707.61479726327,709.49649345384,706.50619537027,709.13251185459,711.85066117366,706.72587961063,710.90124241216,706.77945345493,708.81944939065,705.62492342165,709.13881085984,705.9905861288,709.08671575933,707.27488056554,709.13251185459,709.02087329387,706.49664924568,710.93047550362,704.47591417517,710.82181786952,704.83161581085,709.75830114042,708.12445704023,709.64319376179,707.09679913375,711.94692753449,712.22283153811,705.7616844325,711.54537508539,705.91229777564,711.09042269868,707.74655908934,710.21199673293,707.67641433448,711.94692753449,704.73926148251,704.73926148251,707.4627905556,707.4627905556,1607.5601770724,1567.1446803388,1106.9568106611,1902.7025683042,1140.1277133467,0
6.8300000000001e-05,210567026.96044,5.8510163230988e-06,2.0321422990828e-05,5.5662076140404e-06,1.0177274486915,578.59835575765,578.59835575765,577.11221641946,577.11221641946,579.39695455638,574.32652280772,579.53688150587,574.79983669822,579.13291501661,577.11579094073,579.0377074453,576.03429857959,578.64608321938,581.36245125651,576.2039850429,580.41777070862,576.27791461075,578.31015141807,575.09621652446,578.67355650422,575.50968378715,578.59121892029,576.76929244964,578.64608321938,578.56559773431,576.0295860302,580.43563383457,573.94068758182,580.34568741354,574.3223547547,579.27607110139,577.63160315934,579.17664105218,576.62066632948,581.46292466131,581.73480317469,575.23180618914,581.06334998089,575.400416787,580.60358162637,577.23677455765,579.72732392248,577.18401038271,581.46292466131,574.2107985243,574.2107985243,576.94989121657,576.94989121657,-0.094220593310978,0.43917695309237,-4.794784302158,3.9349318152617,4.1513556249528,4.7353007988587,-3.8199305256776,0.095295296256718,3.7224103705834,0.01124060574336,0.77684971254015,-10.786950151716,1.0161222132354,-3.3911826916811,3.6819618863949,-7.208239873242,1.4815254849673,10.147775928938,-2.6268635788059,-5.8496508469011,-1.2019657561933,3.3218786290446,0.39042776770885,-8.0077900010214,2.4268653411054,-6.1823623251089,0.35535326410059,3.0582634622688,-1.4066156022055,-0.24744481867192,2.100533540223,0.41796876066454,0.35970778243665,-5.3598177680671,-1.3546270232443,-7.8919946135322,13.97878744917,-1.7368153322199,5.0557830563026,-0.32965948843475,-1.1266619945428,-16.038019206864,-0.11284710716011,-4.8419059656684,-12.091665155741,2.9890981107551,6.8405328230936,-8.344203726437,708.93183711302,708.93183711302,707.44569777484,707.44569777484,709.73043591175,704.6600041631,709.87036286125,705.1333180536,709.46639637198,707.4492722961,709.37118880068,706.36777993497,708.97956457476,711.69593261189,706.53746639827,710.751252064,706.61139596613,708.64363277344,705.42969787983,709.0070378596,705.84316514253,708.92470027567,707.10277380501,708.97956457476,708.89907908969,706.36306738558,710.76911518994,704.2741689372,710.67916876892,704.65583611008,709.60955245676,707.96508451472,709.51012240756,706.95414768486,711.79640601669,712.06828453006,705.56528754451,711.39683133626,705.73389814238,710.93706298175,707.57025591303,710.06080527786,707.51749173809,711.79640601669,704.54427987968,704.54427987968,707.28337257195,707.28337257195,1605.9836158953,1568.2342538445,1110.6448715441,1902.7474922436,1143.75255813,0
6.8400000000001e-05,211597896.75094,5.8681598105631e-06,2.0351445481954e-05,5.5807377503685e-06,1.0177926659081,578.40582027571,578.40582027571,576.94039347373,576.94039347373,579.18382729436,574.08179300779,579.35602955482,574.59458307145,578.93503215084,576.90569921797,578.86833526257,575.85208190248,578.44832420104,581.16361337392,575.96492219265,580.22342174938,576.06574291848,578.09043654961,574.85680564539,578.49800700809,575.31855944223,578.3852579059,576.55287906031,578.44832420104,578.39990630633,575.85225466034,580.23036751,573.69450745925,580.1591346318,574.10266081529,579.08337471724,577.42741388052,578.9992878134,576.43415034851,581.26838761267,581.53615971681,574.98934091228,580.87059170053,575.17782524653,580.40613245747,577.01425835456,579.53161807768,576.9810290521,581.26838761267,573.97142795057,573.97142795057,576.72645880082,576.72645880082,-0.092051847422492,0.44776543781706,-4.796912862406,3.9226551960164,4.1420882928806,4.7666000759076,-3.8269710909991,0.094407996549365,3.7247875081673,0.010696512588838,0.77864349371389,-10.789515434054,1.0264388003613,-3.4158155842096,4.1606476380651,-7.2155252958901,1.5130103118251,10.138801580929,-2.6200682001971,-5.8496385120246,-1.2077767307615,3.3235936183644,0.38939003681637,-8.0072483311636,2.4284106599946,-6.1818377166713,0.35284580741265,3.0762040221807,-1.408444138051,-0.24299328429279,2.1045935704666,0.41613971372493,0.36238597242897,-5.3517109443437,-1.3528808592313,-7.9436387959348,13.96608248997,-1.7331765013385,5.0876789672979,-0.32827816710073,-1.1543361036689,-16.066784421919,-0.086744732299469,-4.8577855286138,-12.142792975874,2.9928676016987,6.8369784696554,-8.3633679505286,708.78345143238,708.78345143238,707.3180246304,707.3180246304,709.56145845102,704.45942416446,709.73366071148,704.97221422811,709.31266330751,707.28333037464,709.24596641924,706.22971305915,708.8259553577,711.54124453058,706.34255334931,710.60105290605,706.44337407514,708.46806770628,705.23443680206,708.87563816475,705.69619059889,708.76288906256,706.93051021697,708.8259553577,708.777537463,706.229885817,710.60799866667,704.07213861591,710.53676578847,704.48029197196,709.4610058739,707.80504503719,709.37691897007,706.81178150518,711.64601876934,711.91379087347,705.36697206895,711.24822285719,705.5554564032,710.78376361414,707.39188951122,709.90924923435,707.35866020877,711.64601876934,704.34905910724,704.34905910724,707.10408995749,707.10408995749,1604.720644089,1569.3154449216,1114.3348060188,1903.2552270444,1147.383192874,0
6.8500000000001e-05,212640546.69485,5.8861014708792e-06,2.0381466631811e-05,5.5952787563197e-06,1.0178578231017,578.21310035377,578.21310035377,576.76879112757,576.76879112757,578.97058563364,573.83746020576,579.17529609901,574.38936918949,578.73710631231,576.69643808083,578.69939975988,575.66992635948,578.25145650761,580.96448934345,575.73255166623,580.02924902818,575.853438617,577.87067800096,574.61771705527,578.32263957988,575.12752910084,578.17933388079,576.33702818357,578.25145650761,578.23456852944,575.67506618337,580.02495496736,573.44875167394,579.97262042989,573.88298748623,578.8905673088,577.22427246169,578.82247880117,576.24760478419,581.07373452714,581.3372677586,574.7486872342,580.67786008324,574.95518932494,580.20840058635,576.79384208043,579.3363075519,576.77786668501,581.07373452714,573.73227683064,573.73227683064,576.50321199632,576.50321199632,-0.089896815057253,0.45673864315657,-4.798750714047,3.9100883739955,4.13208164432,4.7920705357282,-3.8354314167449,0.094404818376467,3.7254693128219,0.010461659953009,0.78018971480593,-10.792217439789,1.0366350012589,-3.4411109251393,3.7968410233831,-7.221399036113,1.5440325973894,10.130737451558,-2.6162056102385,-5.8500869609013,-1.212381929803,3.3244567190262,0.38844075665204,-8.0113434857731,2.4291178807707,-6.1814054087737,0.34812816029181,3.0878644918953,-1.4116713071253,-0.23909805042352,2.1070332132931,0.41641992900479,0.3649809330684,-5.3437281397824,-1.3521844866548,-7.9948502553072,13.979510808317,-1.728764167087,5.1178855021805,-0.32767514311955,-1.182460139341,-16.092925813222,-0.060738040742788,-4.8734141731065,-12.170501050194,2.9960013648696,6.8336890220149,-8.3817582420636,708.63470731824,708.63470731824,707.19039809204,707.19039809204,709.3921925981,704.25906717022,709.59690306347,704.81097615396,709.15871327678,707.1180450453,709.12100672435,706.09153332394,708.67306347207,711.38609630792,706.15415863069,710.45085599265,706.27504558147,708.29228496542,705.03932401974,708.74424654435,705.54913606531,708.60094084525,706.75863514804,708.67306347207,708.6561754939,706.09667314783,710.44656193183,703.8703586384,710.39422739435,704.30459445069,709.31217427326,707.64587942616,709.24408576564,706.66921174865,711.49534149161,711.75887472307,705.17029419866,711.0994670477,705.3767962894,710.63000755081,707.21544904489,709.75791451636,707.19947364948,711.49534149161,704.1538837951,704.1538837951,706.92481896078,706.92481896078,6063.5811059382,1570.3779619815,1118.0220347682,1904.989499314,1151.0133411113,0
6.8600000000001e-05,213685004.5022,5.904208005595e-06,2.041148783929e-05,5.6098302936369e-06,1.0179228330433,578.02016631665,578.02016631665,576.59731336853,576.59731336853,578.75722005777,573.59305689704,578.99457717918,574.18417162905,578.53906198336,576.48718834978,578.53052076365,575.48777256147,578.05450804056,580.76504175994,575.49996968265,579.83486137346,575.64089427826,577.65082564331,574.37858138611,578.14734863341,574.93657319912,577.97332949954,576.1211843915,578.05450804056,578.06933009273,575.497946434,579.81939151431,573.20288464159,579.78604772285,573.66325692799,578.69760196295,577.02112651894,578.64567483704,576.0609840323,580.8788900018,581.13807772555,574.50779960345,580.48490975356,574.73232446841,580.01035632995,576.57326195132,579.14081497585,576.57446264113,580.8788900018,573.4929366293,573.4929366293,576.27992918801,576.27992918801,-0.08771823265308,0.46575365384762,-4.8004195928045,3.8973714335673,4.1218469670357,4.8165463209233,-3.8440969325911,0.094551211472557,3.7258114218242,0.010270016596957,0.78168147835445,-10.79485814673,1.046716078374,-3.4664747468074,3.7023272609873,-7.2269295379504,1.5749637919277,10.122576029583,-2.6126816986804,-5.8504867786197,-1.21674188685,3.3250646752714,0.38749458493284,-8.0150802257695,2.4296596849217,-6.180961916612,0.34297697708974,3.0984709624911,-1.4151295339045,-0.23522038192102,2.1091165052198,0.41632743570156,0.36752926345609,-5.3357258751121,-1.3516717241819,-8.0458210132626,13.995650069338,-1.7241658591423,5.1475787309701,-0.32716695529291,-1.2106661001855,-16.11837255693,-0.034689115976289,-4.8887860089577,-12.194759738117,2.9988534695859,6.8302503472788,-8.3998318575397,708.48577471795,708.48577471795,707.06292176983,707.06292176983,709.22282845908,704.05866529834,709.46018558048,704.64978003035,709.00467038467,706.95279675108,708.99612916495,705.95338096277,708.52011644186,711.23065016124,705.96557808395,710.30046977477,706.10650267957,708.11643404461,704.84418978741,708.61295703471,705.40218160042,708.43893790085,706.58679279281,708.52011644186,708.53493849403,705.96355483531,710.28499991561,703.66849304289,710.25165612415,704.12886532929,709.16321036425,707.48673492025,709.11128323834,706.5265924336,711.34449840311,711.60368612686,704.97340800475,710.95051815486,705.19793286971,710.47596473125,707.03887035262,709.60642337715,707.04007104244,711.34449840311,703.95854503061,703.95854503061,706.74553758932,706.74553758932,2453.5055271312,1571.4247873879,1121.7073786593,1906.7244867596,1154.6441310039,0
6.8700000000001e-05,214729893.82829,5.9223713853389e-06,2.0441509359221e-05,5.6243922897155e-06,1.0179877175762,577.82702599701,577.82702599701,576.42596709961,576.42596709961,578.54374062154,573.34860030376,578.81388085719,573.97900269963,578.34090727005,576.27796237923,578.36170539064,575.30562716491,577.85749084562,580.5652797574,575.26719369462,579.64026900425,575.42812260109,577.43089007244,574.13941322762,577.97214177955,574.74570152473,577.76725374927,575.90535976215,577.85749084562,577.90419739051,575.32090198482,579.61368669137,572.95692571259,579.59942502774,573.44348429366,578.50448624274,576.81798853758,578.4688843842,575.87429504796,580.68386317465,580.93859891191,574.26669946326,580.29175036525,574.50924623611,579.81200846401,576.35253544137,578.94515126417,576.37082720564,580.68386317465,573.25342688851,573.25342688851,576.05662179112,576.05662179112,-0.085509858143253,0.47477519767893,-4.8018957102512,3.8845319342305,4.1114565102761,4.840890630095,-3.8527520695919,0.094741842042486,3.7259725803218,0.010077716730868,0.78313719355571,-10.797403757478,1.0566808561448,-3.4918603171431,3.6568793699318,-7.2322880524586,1.6058470658962,10.114167856297,-2.6088938945212,-5.8507470501849,-1.2209757036763,3.3255058677071,0.38653739788726,-8.0174309085855,2.4301094730437,-6.1804895077846,0.33765918317491,3.1089570835541,-1.418613038082,-0.23132488370486,2.1109896375461,0.41556834446143,0.37003155080858,-5.3276797916646,-1.3511997086189,-8.096593427299,14.012343857113,-1.7194804481116,5.1768110643285,-0.32667205038525,-1.2388895860444,-16.143412380585,-0.0085680175604162,-4.9038937282203,-12.217854485256,3.0014285833755,6.826590252465,-8.4176598422651,708.33670478854,708.33670478854,706.93564589114,706.93564589114,709.05341941307,703.85827909529,709.32355964871,704.48868149116,708.85058606157,706.78764117076,708.87138418216,705.81530595644,708.36716963714,711.07495854893,705.77687248615,710.14994779577,705.93780139262,707.94056886397,704.64909201914,708.48182057107,705.25538031625,708.2769325408,706.41503855368,708.36716963714,708.41387618203,705.83058077635,710.1233654829,703.46660450411,710.10910381926,703.95316308519,709.01416503426,707.32766732911,708.97856317573,706.38397383948,711.19354196618,711.44827770344,704.77637825479,710.80142915678,705.01892502763,710.32168725553,706.8622142329,709.4548300557,706.88050599717,711.19354196618,703.76310568003,703.76310568003,706.56630058265,706.56630058265,1674.2054759234,1572.4563757407,1125.3908676435,1908.462520299,1158.2756646498,0
6.8800000000001e-05,215775491.1774,5.940566073337e-06,2.0471531253869e-05,5.6389646762528e-06,1.0180525099934,577.63368539777,577.63368539777,576.25475709663,576.25475709663,578.3301551638,573.1040995537,578.63321279529,573.77386999682,578.14264863771,576.068766054,578.19295771394,575.12349517155,577.66040991372,580.36521015403,575.03423332186,579.44547778289,575.21513126517,577.21087930955,573.90022069146,577.79702426004,574.55492048051,577.5611135133,575.68956099196,577.66040991372,577.73917448942,575.14393763113,579.40784796955,572.71088457806,579.41275846377,573.22367836831,578.31122627691,576.61486365823,578.29211175657,575.68754315562,580.48866079082,580.73883823298,574.02539363409,580.09838809925,574.28596332368,579.61336358951,576.13166671917,578.74932198024,576.16696718049,580.48866079082,573.01375751297,573.01375751297,575.8332975248,575.8332975248,-0.083270335091109,0.48378816425106,-4.8031754693665,3.8715804579261,4.100936919582,4.8652736506735,-3.8613438227921,0.094946418344661,3.7260043984004,0.0098811740562103,0.78456315717593,-10.79984518466,1.0665278408143,-3.5172448954168,3.6236201042022,-7.2375243227311,1.6366959551493,10.105478632355,-2.6047277036805,-5.8508476253294,-1.2251207290425,3.3258064981516,0.38556561259769,-8.0193236258605,2.4304886458784,-6.1799831385469,0.33225212524791,3.1194874857525,-1.4220709775096,-0.22740558292832,2.112707161799,0.41461058291205,0.37248832817825,-5.3195838289474,-1.350732262825,-8.1471732775413,14.029208011624,-1.7147368583157,5.2056287539505,-0.32616419611901,-1.2671106026704,-16.168139345402,0.017624738283052,-4.9187370767117,-12.240526491798,3.0037410860996,6.8226896039935,-8.4352606060399,708.18751089267,708.18751089267,706.80858259154,706.80858259154,708.88398065871,703.6579250486,709.18703829019,704.32769549172,708.69647413262,706.62259154891,708.74678320885,705.67732066645,708.21423540862,710.91903564894,705.58805881677,709.9993032778,705.76895676007,707.76470480445,704.45404618636,708.35084975494,705.10874597542,708.1149390082,706.24338648686,708.21423540862,708.29299998433,705.69776312604,709.96167346445,703.26471007297,709.96658395868,703.77750386321,708.86505177182,707.16868915314,708.84593725148,706.24136865052,711.04248628573,711.29266372789,704.579219129,710.65221359415,704.83978881859,710.16718908441,706.68549221407,709.30314747515,706.7207926754,711.04248628573,703.56758300788,703.56758300788,706.3871230197,706.3871230197,1608.6045230037,1573.4727167317,1129.0724120915,1910.2042467212,1161.907891042,0
6.8900000000001e-05,216822266.00975,5.9587833346483e-06,2.0501553546503e-05,5.6535473859373e-06,1.018117240345,577.4401499409,577.4401499409,576.08368772271,576.08368772271,578.11647081947,572.859562188,578.45257823282,573.56877960511,577.94429215896,575.85960519435,578.02428189651,574.94138114678,577.46327049213,580.16483911517,574.80109578578,579.25049328806,575.00192650332,576.99080063834,573.66101056794,577.62200089654,574.36423540816,577.35491524417,575.47379438631,577.46327049213,577.57426543318,574.96705775487,579.20188217797,572.46476895448,579.22605371142,573.00384598365,578.11782778955,576.41175730077,578.11536141513,575.5007332018,580.29328908468,580.5388019917,573.7838889192,579.90482875636,574.06248254258,579.4144276504,575.91066149766,578.55333254879,575.96288831822,580.29328908468,572.77393607493,572.77393607493,575.6099634221,575.6099634221,-0.080999353296788,0.49278994458189,-4.8042549383178,3.858523839331,4.0903025052838,4.8897351211152,-3.8698534828964,0.09515262548357,3.725932129445,0.0096777817638779,0.78596194386336,-10.802178572583,1.0762556055827,-3.5426162784072,3.5949483741743,-7.2426609204118,1.6675167588501,10.096497724792,-2.6001588024062,-5.8507829909798,-1.2291919324453,3.3259800423841,0.38457799760345,-8.0209423129448,2.4308036599113,-6.1794404948094,0.32678994874458,3.1300852949376,-1.4254853763981,-0.22346506813559,2.1143011905954,0.41354848930749,0.37489989616334,-5.3114357752107,-1.3502550746894,-8.1975601810559,14.046239782033,-1.7099486054526,5.234059568741,-0.32563213373455,-1.2953188599616,-16.192592878772,0.04388702573833,-4.933317106992,-12.263055478679,3.005801238899,6.8185407764908,-8.4526404546858,708.03819960199,708.03819960199,706.6817373838,706.6817373838,708.71452048056,703.45761184909,709.05062789391,704.1668292662,708.54234182006,706.45765485544,708.62233155761,705.53943080787,708.06132015322,710.76288877627,705.39914544687,709.84854294915,705.59997616441,707.58885029943,704.25906022903,708.22005055763,704.96228506925,707.95296490526,706.07184404741,708.06132015322,708.17231509427,705.56510741596,709.79993183906,703.06281861557,709.82410337252,703.60189564474,708.71587745065,707.00980696186,708.71341107622,706.09878286289,710.89133874577,711.1368516528,704.38193858029,710.50287841745,704.66053220367,710.0124773115,706.50871115875,709.15138220988,706.56093797931,710.89133874577,703.37198573602,703.37198573602,706.20801308319,706.20801308319,1607.4924627095,1574.473675896,1132.7519092448,1911.94996016,1165.5407404929,0
6.9000000000001e-05,217870656.01825,5.9770197962595e-06,2.0531576247496e-05,5.6681403497329e-06,1.0181819338524,577.24642476917,577.24642476917,575.91276310049,575.91276310049,577.90269436213,572.61499493061,578.27198215057,573.36373697463,577.74584364781,575.65048527046,577.85568195858,574.75928942956,577.26607756765,579.96417248337,574.56778734472,579.05532081796,574.78851394061,576.77066095232,573.42178887575,577.44707625637,574.17365118702,577.14866510428,575.2580658501,577.26607756765,577.40947412099,574.79026651241,578.99579581658,572.2185856042,579.03931618648,572.78399315327,577.92429625964,576.20867459914,577.93863764921,575.31386979561,580.09775400521,580.33849617782,573.54219149386,579.71107786187,573.83880990698,579.21520627187,575.68952531029,578.35718811218,575.75859592477,580.09775400521,572.53396910322,572.53396910322,575.38662609507,575.38662609507,-0.078696967000746,0.50178089625705,-4.8051303580164,3.8453675527956,4.0795630953274,4.91428196044,-3.8782738906012,0.095354372649731,3.7257714508077,0.0094663066302541,0.78733483091189,-10.804401909459,1.0858628690067,-3.5679659981631,3.5683525245909,-7.2477109032015,1.6983130291312,10.087222266171,-2.5951845379501,-5.8505524969879,-1.233196367089,3.3260354775483,0.38357413470367,-8.0223524942451,2.4310561013944,-6.1788602483008,0.32129193490126,3.1407419445846,-1.4288493341943,-0.21950927239234,2.1157943749329,0.41241613874885,0.37726647701444,-5.3032347541438,-1.3497610981736,-8.2477517088554,14.06344838903,-1.7051237553502,5.2621252608762,-0.32506970521223,-1.3235074264031,-16.216794511539,0.070215818029344,-4.9476352799397,-12.285565553583,3.0076184367572,6.8141404762979,-8.4698013085886,707.88877599597,707.88877599597,706.55511432728,706.55511432728,708.54504558892,703.2573461574,708.91433337736,704.00608820143,708.3881948746,706.29283649726,708.49803318538,705.40164065635,707.90842879444,710.60652371016,705.21013857151,709.69767204475,705.43086516741,707.41301217911,704.06414010255,708.08942748317,704.81600241381,707.79101633108,705.9004170769,707.90842879444,708.05182534779,705.43261773921,709.63814704337,702.86093683099,709.68166741327,703.42634438006,708.56664748643,706.85102582593,708.58098887601,705.95622102241,710.740105232,710.98084740462,704.18454272065,710.35342908867,704.48116113377,709.85755749866,706.33187653709,708.99953933897,706.40094715156,710.740105232,703.17632033002,703.17632033002,706.02897732187,706.02897732187,1607.1283644433,1575.4590502477,1136.4292577347,1913.6998322631,1169.1741416764,0
6.9100000000001e-05,218921038.90515,5.9952742808985e-06,2.0561599361708e-05,5.6827434968002e-06,1.0182466117515,577.05251486021,577.05251486021,575.74198720517,575.74198720517,577.68883233645,572.37040405523,578.09142936646,573.15874722654,577.54730873668,575.44141151378,577.68716180812,574.57722422314,577.06883594013,579.76321590805,574.3343137873,578.85996549887,574.57489889706,576.55046689861,573.18256112835,577.27225474854,573.9831724482,576.94236905604,575.04238102923,577.06883594013,577.24480434357,574.61356792341,578.78959517682,571.97234079206,578.85255113718,572.56412547339,577.73063699769,576.00562047611,577.76194461684,575.12695740543,579.9020613235,580.13792659154,573.30030714529,579.51714077301,573.61495103392,579.01570488933,575.46826349284,578.16089363443,575.55409507547,579.9020613235,572.29386259682,572.29386259682,575.16329189088,575.16329189088,-0.076363411693845,0.51076198067499,-4.805798514284,3.8321164229715,4.0687262893878,4.9389128250954,-3.8866026701225,0.095548322803571,3.7255334948473,0.0092462359042875,0.78868259703789,-10.806514032148,1.0953485173061,-3.5932874991228,3.5427666627248,-7.2526830235189,1.729086826534,10.077652602969,-2.5898037881364,-5.8501574726802,-1.2371375776111,3.3259797428481,0.38255395807143,-8.0235850887443,2.4312458773392,-6.1782415338866,0.31577061617348,3.1514432705144,-1.4321605423296,-0.2155449583586,2.1172037594086,0.41122960390913,0.37958828458779,-5.2949804926905,-1.3492464458947,-8.2977446737904,14.080836316152,-1.7002678892133,5.2898441561603,-0.32447319982583,-1.351670873536,-16.240757945948,0.096607617498283,-4.9616932203203,-12.308114112247,3.0092016874758,6.8094875701597,-8.4867430408203,707.73924460612,707.73924460612,706.42871695108,706.42871695108,708.37556208236,703.05713380114,708.77815911237,703.84547697245,708.23403848259,706.12814125969,708.37389155403,705.26395396905,707.75556568604,710.44994565396,705.02104353321,709.54669524478,705.26162864297,707.23719664451,703.86929087426,707.95898449445,704.66990219411,707.62909880195,705.72911077514,707.75556568604,707.93153408948,705.30029766932,709.47632492273,702.65907053797,709.53928088309,703.2508552193,708.4173667436,706.69235022201,708.44867436275,705.81368715134,710.58879106941,710.82465633745,703.9870368912,710.20387051892,704.30168077983,709.70243463524,706.15499323875,708.84762338034,706.24082482138,710.58879106941,702.98059234273,702.98059234273,705.85002163679,705.85002163679,1607.501685337,1576.4285830874,1140.1043604846,1915.4539788807,1172.8080245505,0
6.9200000000001e-05,219973741.732,6.0135466732999e-06,2.0591622891304e-05,5.6973567554512e-06,1.0183112924877,576.85842508178,576.85842508178,575.57136390849,575.57136390849,577.47489112199,572.12579555702,577.91092458161,572.95381528681,577.34869291967,575.23238899141,577.51872526623,574.39518963832,576.87155028289,579.56197490842,574.10068064556,578.66443234441,574.36108652208,576.33022494811,572.94333244508,577.09754066946,573.79280366876,576.73603291151,574.82674539182,576.87155028289,577.08025980706,574.43696591302,578.58328639952,571.72604049488,578.66576369133,572.34424829924,577.5368551878,575.80259970755,577.58528637904,574.94000040521,579.70621668505,579.93709890354,573.05824142578,579.32302273433,573.39091132061,578.81592881115,575.24688124001,577.96445396334,575.34939071217,579.70621668505,572.05362225625,572.05362225625,574.93996697167,574.93996697167,-0.073999035199835,0.51973405154015,-4.806256905681,3.8187749047501,4.0577983773096,4.9636257155618,-3.8948396059126,0.095732520094455,3.7252269379356,0.009017410781745,0.79000585368423,-10.808514241364,1.104711610073,-3.6185753789325,3.5176748254692,-7.2575837922731,1.7598393069035,10.067790560079,-2.5840097934081,-5.849600112514,-1.2410174100112,3.3258187211757,0.38151756658629,-8.0246566840016,2.4313724727956,-6.1775837497644,0.31023495144179,3.1621765486582,-1.4354187729967,-0.21157865519657,2.1185426096417,0.40999744496421,0.38186556244656,-5.2866730349088,-1.3487088405426,-8.3475356256923,14.098402224648,-1.695385290654,5.317232416894,-0.32384031089786,-1.3798045529945,-16.264492900674,0.12305871276005,-4.9754926256009,-12.330728013381,3.0105598738588,6.8045821039759,-8.5034644075587,707.58960969936,707.58960969936,706.30254852607,706.30254852607,708.20607573957,702.8569801746,708.64210919919,703.68499990439,708.07987753725,705.96357360898,708.24990988381,705.1263742559,707.60273490047,710.293159526,704.83186526314,709.39561696199,705.09227113966,707.06140956569,703.67451706266,707.82872528704,704.52398828634,707.46721752909,705.5579300094,707.60273490047,707.81144442464,705.1681505306,709.3144710171,702.45722511246,709.39694830891,703.07543291682,708.26803980538,706.53378432513,708.31647099662,705.67118502279,710.43740130263,710.66828352112,703.78942604336,710.05420735191,704.12209593819,709.54711342873,705.97806585759,708.69563858092,706.08057532975,710.43740130263,702.78480687383,702.78480687383,705.67115158925,705.67115158925,1608.6018464877,1577.3819692223,1143.7771254468,1917.2124865291,1176.4423209435,0
6.9300000000001e-05,221029056.61,6.0318374645226e-06,2.0621646837068e-05,5.7119800543977e-06,1.0183759928085,576.66416022154,576.66416022154,575.40089699938,575.40089699938,577.26087696748,571.88117523635,577.73047240266,572.74894595,577.15000157853,575.02342264649,577.35037608034,574.21318971514,576.67422517521,579.36045490758,573.86689329538,578.46872628558,574.14708185946,576.10994143334,572.70410758449,576.92293822471,573.60254921641,576.52966236132,574.6111642716,576.67422517521,576.91584414489,574.26046433239,578.3768755058,571.47969050239,578.47895887976,572.12436682954,577.34295591275,575.59961695811,577.4086669181,574.75300309845,579.51022563706,579.73601868711,572.81599973177,579.12872890587,573.16669602936,578.61588325285,575.02538364091,577.7678738623,575.14448769117,579.51022563706,571.81325359496,571.81325359496,574.71665735721,574.71665735721,-0.071604266211258,0.52869762618202,-4.8065037736534,3.8053472164748,4.0467847776366,4.9884204918831,-3.9029854691951,0.095905754773739,3.7248589862484,0.0087798451143738,0.79130519897663,-10.81040212023,1.1139513796307,-3.643825023106,3.4928069390525,-7.2624184579821,1.7905710392405,10.057638647507,-2.577787304195,-5.8488829786431,-1.2448368675985,3.3255576902649,0.38046513277987,-8.0255769488945,2.4314354850329,-6.1768864592964,0.30469179850468,3.1729321460822,-1.4386247578971,-0.20761626791436,2.1198214447685,0.40872456911001,0.38409860787344,-5.2783126076335,-1.3481469201975,-8.3971210800255,14.116144208189,-1.6904795118178,5.3443046989885,-0.32316964663999,-1.4079042641844,-16.288006905223,0.14956532619344,-4.989035228353,-12.353419995475,3.0117018892557,6.7994247430947,-8.5199634806789,707.43987539575,707.43987539575,706.17661217359,706.17661217359,708.03659214169,702.65689041056,708.50618757687,703.5246611242,707.92571675274,705.7991378207,708.12609125455,704.98890488935,707.44994034942,710.13617008179,704.64260846959,709.24444145979,704.92279703367,706.88565660755,703.4798227587,707.69865339891,704.37826439062,707.30537753553,705.38687944581,707.44994034942,707.6915593191,705.0361795066,709.15259068001,702.25540567659,709.25467405397,702.90008200375,708.11867108696,706.37533213232,708.18438209231,705.52871827266,710.28594081127,710.51173386131,703.59171490598,709.90444408008,703.94241120357,709.39159842706,705.80109881512,708.54358903651,705.92020286538,710.28594081127,702.58896876917,702.58896876917,705.49237253142,705.49237253142,1610.4363379467,1578.3188570781,1147.4474658096,1918.975425029,1180.0769647057,0
6.9400000000001e-05,222087255.72018,6.050147565975e-06,2.0651671199095e-05,5.7266133241309e-06,1.0184407286934,576.46972500466,576.46972500466,575.23059019367,575.23059019367,577.04679601085,571.63654874045,577.5500773527,572.54414391094,576.95123999949,574.81451731971,577.18211793027,574.03122843426,576.47686511883,579.15866125264,573.63295700537,578.27285218594,573.93288988037,575.88962257017,572.46489093117,576.74845153918,573.41241337134,576.32326299248,574.39564289136,576.47686511883,576.751560923,574.08406696895,578.17036841502,571.23329646704,578.29214164844,571.90448614875,577.14894417051,575.39667679994,577.23209014646,574.56596973142,579.31409364346,579.53469143683,572.57358734338,578.93426437773,572.94231033003,578.41557335753,574.8037756973,577.57115802615,574.93939080841,579.31409364346,571.57276199466,571.57276199466,574.49336894873,574.49336894873,-0.069179597558365,0.53765283388384,-4.8065380746311,3.7918374094361,4.0356902722684,5.0132997250553,-3.9110414450691,0.096067234536578,3.7244358950032,0.0085336334284481,0.79258129662278,-10.812177439802,1.1230672273597,-3.6690324047527,3.4680143604433,-7.2671915308243,1.8212822111451,10.047199647453,-2.5711110287475,-5.8480087582512,-1.2485965608157,3.3252015533392,0.37939685215165,-8.0263519675294,2.4314348569336,-6.176149342313,0.29914668208187,3.1837035779679,-1.4417796431146,-0.20366300820536,2.1210487103056,0.40741396676967,0.38628778897678,-5.2698995475572,-1.347559890835,-8.4464976353895,14.13406171079,-1.6855536788666,5.3710745581134,-0.32246046670267,-1.4359660823326,-16.311306249768,0.17612371209201,-5.0023227797228,-12.376196769343,3.0126367258288,6.7940164006355,-8.5362378767903,707.29004572281,707.29004572281,706.05091091183,706.05091091183,707.86711672901,702.45686945861,708.37039807086,703.3644646291,707.77156071765,705.63483803787,708.00243864842,704.85154915241,707.29718583699,709.9789819708,704.45327772353,709.0931729041,704.75321059853,706.70994328833,703.28521164933,707.56877225733,704.2327340895,707.14358371064,705.21596360952,707.29718583699,707.57188164116,704.90438768711,708.99068913318,702.0536171852,709.1124623666,702.72480686691,707.96926488867,706.2169975181,708.05241086461,705.38629044958,710.13441436162,710.35501215499,703.39390806154,709.75458509589,703.76263104819,709.23589407568,705.62409641546,708.39147874431,705.75971152657,710.13441436162,702.39308271282,702.39308271282,705.31368966689,705.31368966689,1613.0373771578,1579.2388496312,1151.1153000999,1920.7428544256,1183.7118918619,0
6.9500000000001e-05,223148604.51789,6.0684782477355e-06,2.0681695977194e-05,5.7412564984039e-06,1.0185055161565,576.27512410488,576.27512410488,575.06044713804,575.06044713804,576.83265429121,571.39192158286,577.36974387616,572.33941378017,576.75241338479,574.60567776026,577.01395443043,573.84930972324,576.2794745455,578.95659922734,573.39887696001,578.07681484883,573.71851550039,575.66927447089,572.22568644614,576.57408466133,573.22240033667,576.1168403001,574.18018637548,576.2794745455,576.58741364158,573.90777755146,577.96377095547,570.98686392792,578.10531686437,571.68461124789,576.95482488561,575.19378372182,577.05555991038,574.37890450102,579.11782609341,579.33312257997,572.33100944287,578.73963417741,572.71775932109,578.21500420885,574.58206233166,577.37431108852,574.73410481319,579.11782609341,571.33215273234,571.33215273234,574.27010754248,574.27010754248,-0.06672557654997,0.54659943192611,-4.806359429317,3.7782494084439,4.0245191391136,5.0382690624483,-3.9190088376437,0.09621639964471,3.7239632643733,0.008278903021403,0.79383492098938,-10.813840104267,1.1320587183901,-3.6941939635855,3.4432123245237,-7.2719070929868,1.8519727735146,10.036476370094,-2.5639440785406,-5.846980138179,-1.2522969632607,3.3247549669299,0.378312910998,-8.0269859143038,2.4313709766997,-6.1753721663879,0.29360422895078,3.1944871626834,-1.4448847106536,-0.19972347803557,2.1222312564911,0.40606758174163,0.38843355836014,-5.2614342582629,-1.346947340333,-8.4956620386723,14.152156441421,-1.6806106746381,5.3975547223001,-0.32171252386494,-1.4639862603495,-16.33439653988,0.20273022725903,-5.0153570413217,-12.399063187835,3.0133735383912,6.7883579574907,-8.5522848854378,707.14012464945,707.14012464945,705.92544768261,705.92544768261,707.69765483578,702.25692212744,708.23474442073,703.20441432474,707.61741392936,705.47067830484,707.878954975,704.71431026781,707.14447509007,709.82159977191,704.26387750458,708.9418153934,704.58351604496,706.53427501546,703.09068699072,707.4390852059,704.08740088124,706.98184084467,705.04518692005,707.14447509007,707.45241418615,704.77277809603,708.82877150004,701.85186447249,708.97031740895,702.54961179246,707.81982543018,706.05878426639,707.92056045495,705.24390504559,709.98282663799,710.19812312454,703.19600998744,709.60463472198,703.58275986566,709.08000475342,705.44706287623,708.23931163309,705.59910535776,709.98282663799,702.19715327692,702.19715327692,705.13510808705,705.13510808705,1616.4656014334,1580.1415048468,1154.7805522865,1922.5148291939,1187.3470408468,0
6.9600000000001e-05,224213373.55131,6.0868311446747e-06,2.0711721171158e-05,5.755909515897e-06,1.0185703719888,576.080362152,576.080362152,574.89047141115,574.89047141115,576.61845775629,571.14729915037,577.18947634046,572.13476009076,576.55352686088,574.39690863068,576.84588912987,573.66743746001,576.08205781933,578.75427406024,573.16465826911,577.88061902016,573.50396358804,575.448903152,571.98649757904,576.39984156425,573.03251424278,575.91039969506,573.96479975595,576.08205781933,576.42340573487,573.7315997524,577.75708887094,570.74039832036,577.91848931815,571.46474703394,576.76060291743,574.99094213269,576.87907999066,574.19181155962,578.92142830603,579.13131748352,572.08827112133,578.54484327309,572.49304803949,578.01418083976,574.36024838885,577.17733762434,574.52863441578,578.92142830603,571.09143099206,571.09143099206,574.04687883725,574.04687883725,-0.064242799289236,0.55553684489996,-4.8059680671377,3.7645870372465,4.0132752297952,5.0633375761537,-3.9268889102792,0.09635281057789,3.7234462175416,0.0080157883253699,0.79506698822192,-10.815390114759,1.1409255752753,-3.7193065311385,3.4183510865375,-7.2765690019723,1.8826425614467,10.025471491489,-2.5562356717096,-5.8457997359781,-1.2559385709832,3.3242224144077,0.37721346222338,-8.0274819599667,2.4312447199217,-6.1745547677108,0.28806843057789,3.205281672953,-1.4479412302197,-0.19580182608602,2.1233746954012,0.4046867742099,0.39053646555645,-5.2529171804588,-1.3463091357846,-8.5446112282534,14.170432710184,-1.6756532595472,5.4237572914664,-0.3209259621223,-1.4919611669115,-16.357283056362,0.22938139480047,-5.028139781036,-12.422024475113,3.0139216932871,6.7824500222765,-8.5681015509443,706.99011610655,706.99011610655,705.8002253657,705.8002253657,707.52821171083,702.05705310491,708.099230295,703.0445140453,707.46328081542,705.30666258522,707.75564308441,704.57719141456,706.99181177388,709.66402801478,704.07441222365,708.7903729747,704.41371754259,706.35865710654,702.89625153359,707.30959551879,703.94226819733,706.82015364961,704.8745537105,706.99181177388,707.33315968942,704.64135370695,708.66684282548,701.6501522749,708.8282432727,702.37450098848,707.67035687198,705.90069608724,707.7888339452,705.10156551416,709.83118226057,710.04107143806,702.99802507588,709.45459722764,703.40280199404,708.9239347943,705.2700023434,708.08709157888,705.43838837033,709.83118226057,702.00118494661,702.00118494661,704.95663279179,704.95663279179,1620.8142725339,1581.026335949,1158.4431519344,1924.291401118,1190.9823528521,0
6.9700000000001e-05,225281849.78336,6.1052083101622e-06,2.0741746780987e-05,5.7705723222262e-06,1.0186353145134,575.88544373709,575.88544373709,574.72066652314,574.72066652314,576.40421226669,570.90268670195,577.00927903562,571.93018730039,576.35458548428,574.18821450758,576.67792551085,573.48561547496,575.88461923598,578.55169093013,572.93030596947,577.68426938854,573.28923896878,575.22851453863,571.74732713057,576.22572614482,572.84275914838,575.7039465092,573.74948797414,575.88461923598,576.25954056991,573.55553718892,577.55032782448,570.49390497742,577.73166372439,571.24489833292,576.56628306636,574.78815636145,576.7026541013,574.00469501836,578.72490553259,578.92928145865,571.84537737838,578.34989657441,572.26818146437,577.8131082384,574.13833863385,576.9802421494,574.32298429168,578.72490553259,570.85060186809,570.85060186809,573.82368843771,573.82368843771,-0.061731908082139,0.56446420570122,-4.8053647811523,3.7508540358782,4.0019620123006,5.0885183438069,-3.9346827946988,0.096476072899241,3.7228895127086,0.0077444163302589,0.79627858600607,-10.816827545997,1.1496676710598,-3.7443672837141,3.3934006868477,-7.2811810379346,1.9132913974967,10.014187427341,-2.5479174237987,-5.8444700617022,-1.2595220161492,3.323608251305,0.37609860311249,-8.0278427783587,2.4310574763574,-6.1736970416259,0.2825428082444,3.2160881267654,-1.4509503761847,-0.19190194319486,2.1244836744857,0.40327257159063,0.39259717065483,-5.24434876995,-1.3456453707244,-8.5933423650766,14.188897467692,-1.6706841631386,5.4496938856564,-0.32010124886075,-1.5198872419926,-16.379971008254,0.25607396173822,-5.0406727680581,-12.445087479339,3.0142908043625,6.7762926935628,-8.5836847273292,706.84002400156,706.84002400156,705.67524678761,705.67524678761,707.35879253116,701.85726696642,707.96385930009,702.88476756487,707.30916574876,705.14279477205,707.63250577532,704.44019573944,706.83919950046,709.5062711946,703.88488623394,708.63884965301,704.24381923325,706.1830948031,702.70190739505,707.18030640929,703.79733941285,706.65852677368,704.70406823861,706.83919950046,707.21412083438,704.51011745339,708.50490808895,701.4484852419,708.68624398886,702.1994785974,707.52086333083,705.74273662592,707.65723436578,704.95927528283,709.67948579706,709.88386172313,702.79995764286,709.30447683888,703.22276172885,708.76768850288,705.09291889832,707.93482241387,705.27756455615,709.67948579706,701.80518213256,701.80518213256,704.77826870218,704.77826870218,1626.2159770395,1581.8928116944,1162.1030344303,1926.0726215317,1194.617772286,0
6.9800000000001e-05,226354348.53042,6.1236123161608e-06,2.0771772807048e-05,5.7852448725757e-06,1.018700364447,575.69037341646,575.69037341646,574.55103591412,574.55103591412,576.18992359798,570.65808936183,576.82915617257,571.72569979054,576.15559424579,573.97959987944,576.51006698647,573.30384755219,575.68716301949,578.34885496958,572.69582502175,577.48777058344,573.07434642628,575.00811446632,571.50817704061,576.0517422217,572.65313903951,575.49748599835,573.53425587936,575.68716301949,576.09582144441,573.37959342305,577.34349340022,570.24738912596,577.54484472061,571.0250698889,576.37187007848,574.58543065408,576.52628588694,573.81755894952,578.52826295717,578.72701976324,571.60233311725,578.15479893143,572.04316451715,577.61179135236,573.91633774644,576.78302911788,574.11715908397,578.52826295717,570.60967036273,570.60967036273,573.60054185484,573.60054185484,-0.059193591688222,0.57338038924556,-4.8045509004561,3.7370540755725,3.9905825882278,5.1138294585868,-3.9423914260915,0.096585779085943,3.7222976162413,0.0074648969208981,0.79747101003594,-10.818152519817,1.1582850221218,-3.7693737186998,3.3683426685314,-7.2857470342548,1.9439192026398,10.002626213965,-2.538897334344,-5.842993488031,-1.2630481671705,3.3229167342871,0.37496835024281,-8.0280708627773,2.4308111838367,-6.1727989270908,0.2770305203863,3.2269097784085,-1.4539131728423,-0.18802769097165,2.1255620924454,0.40182580172172,0.39461646157575,-5.235729474832,-1.3449563460672,-8.6418528668267,14.207560219349,-1.6657061674122,5.4753757695523,-0.31923913052521,-1.5477609591531,-16.402465757555,0.28280496780226,-5.05295776794,-12.468261470384,3.0144907585852,6.7698852859887,-8.5990311219247,706.68985223045,706.68985223045,705.55051472811,705.55051472811,707.18940241198,701.65756817583,707.82863498657,702.72517860454,707.15507305979,704.97907869343,707.50954580046,704.30332636619,706.68664183349,709.34833378357,703.69530383574,708.48724939743,704.07382524028,706.00759328032,702.50765585461,707.05122103569,703.65261785351,706.49696481235,704.53373469335,706.68664183349,707.0953002584,704.37907223705,708.34297221421,701.24686793995,708.5443235346,702.0245487029,707.37134889248,705.58490946808,707.52576470094,704.81703776352,709.52774177116,709.72649857723,702.60181193124,709.15427774542,703.04264333114,708.61127016636,704.91581656044,707.78250793188,705.11663789796,709.52774177116,701.60914917673,701.60914917673,704.60002066883,704.60002066883,1632.8536925286,1582.7403567942,1165.7601413294,1927.8585434771,1198.2532474052,0
