time,disloc_density_0,disloc_density_1,disloc_density_10,disloc_density_11,disloc_density_2,disloc_density_3,disloc_density_4,disloc_density_5,disloc_density_6,disloc_density_7,disloc_density_8,disloc_density_9,disp_y,fp_yy,slip_increment_0,slip_increment_1,slip_increment_10,slip_increment_11,slip_increment_2,slip_increment_3,slip_increment_4,slip_increment_5,slip_increment_6,slip_increment_7,slip_increment_8,slip_increment_9,stress_vm,stress_yy,total_twin_volume_fraction
6.25e-07,20000000,20000000,20000000,20000000,20000000,20000000,20000000,20000000,20000000,20000000,20000000,20000000,1.8353783099306e-07,1,-3.9902205456349e-309,0,0,-1.2413783625041e-307,3.4587288936686e-287,-1.7929824876852e-241,2.1058092826819e-238,0,-2.2460367320884e-230,1.8101899772847e-228,0,0,14.67072731522,14.670727327293,0
1.875e-06,20000000,20000000,20000000,20000000,20000000,20000000,20000000,20000000,20000000,20000000,20000000,20000000,5.5061452531776e-07,1,-2.0602190945786e-261,1.2092153935536e-279,-6.0267002137991e-280,-6.4773762561448e-260,1.8168919438913e-239,-9.2217257002913e-194,1.0962999110828e-190,2.5192791554725e-307,-1.1585560709791e-182,9.4577712558569e-181,0,3.9608064778797e-303,44.02372827567,44.023728318518,0
4.375e-06,20000000,20000000,20000000,20000000,20000000,20000000,20000000,20000000,20000000,20000000,20000000,20000000,1.2847720323478e-06,1,-1.2978136375785e-224,7.7873285522411e-243,-3.869178529511e-243,-4.1668995563633e-223,1.1846623193842e-202,-5.7639456742741e-157,7.0206597195485e-154,1.5650705330068e-270,-7.2836679885753e-146,6.1001642369598e-144,9.8515904863536e-281,2.7626762868703e-266,102.77593429201,102.77593457753,0
9.375e-06,20000000,20000000,20000000,20000000,20000000,20000000,20000000,20000000,20000000,20000000,20000000,20000000,2.7531034127726e-06,1,-1.6440838675525e-191,1.0307502896915e-209,-5.0903755037649e-210,-5.5029746240234e-190,1.6074996006533e-169,-7.1867500447653e-124,9.1887542665754e-121,1.9279638760664e-237,-9.1875941518705e-113,8.0986009553955e-111,1.2381102020292e-247,4.2872923647392e-233,220.46531363189,220.46531771043,0
1.9375e-05,20000000,20000000,20000000,20000000,20000000,20000000,20000000,20000000,20000000,20000000,20000000,20000000,5.6898315349564e-06,1,-5.6285936437029e-160,3.8464602764279e-178,-1.8784780682416e-178,-2.0444349310417e-158,6.304827820986e-138,-2.3807935101781e-92,3.3509083850988e-89,6.2371236979036e-206,-3.1147242232722e-81,3.0385643478961e-79,4.1688967362975e-216,2.1957022831249e-201,456.58518158988,456.58516660281,0
2.9375e-05,20000000,20000000,20000000,20000000,20000000,20000000,20000000,20000000,20000000,20000000,20000000,20000000,8.6266454974426e-06,1,-6.7955471352935e-142,5.0541352067415e-160,-2.4428350472427e-160,-2.673556779708e-140,8.7093374600685e-120,-2.7776059249947e-74,4.3012529599026e-71,7.1105101940754e-188,-3.7182705754811e-63,4.0121577535894e-61,4.946372766024e-198,3.9487665393031e-183,693.69550493579,693.69545300156,0
3.9375e-05,20000000,20000000,20000000,20000000,20000000,20000000,20000000,20000000,20000000,20000000,20000000,20000000,1.1563544212163e-05,1,-3.676945162868e-129,2.9713433686124e-147,-1.4226499998617e-147,-1.5639909138121e-127,5.384182365172e-107,-1.4503165882855e-61,2.4692930572244e-58,3.630116767814e-175,-1.9863125349931e-50,2.3690097836174e-48,2.6280719172793e-185,3.1692284440663e-170,931.79909639656,931.79897202346,0
4.9375e-05,20000000,20000000,20000000,20000000,20000000,20000000,20000000,20000000,20000000,20000000,20000000,20000000,1.4500526545344e-05,1,-2.5345872161532e-119,2.2218131433311e-137,-1.0547249727343e-137,-1.1634262383874e-117,4.2345460237206e-97,-9.6344783706914e-52,1.8023085952253e-48,2.359218908907e-165,-1.3498016334359e-40,1.7781550472076e-38,1.7774488249948e-175,3.2268520531397e-160,1170.8987786881,1170.8985348287,0
5.9375e-05,20000000,20000000,20000000,20000000,20000000,20000000,20000000,20000000,20000000,20000000,20000000,20000000,1.7437591296405e-05,1,-2.6551184425765e-111,2.5207194053504e-129,-1.1874555562421e-129,-1.3128403503688e-109,5.0550161499678e-89,-9.7134616734038e-44,1.9952607661435e-40,2.32833842134e-157,-1.391929886592e-32,2.0240161249656e-30,1.8254509917292e-167,4.9720716186858e-152,1410.9973800665,1410.9969723613,0
6.4375e-05,20000000,20000000,20000000,20000000,20000000,20000000,20000000,20000000,20000000,20000000,20000000,20000000,1.8906154338602e-05,1,-8.7293752273622e-108,8.6196644961149e-126,-4.0462549097651e-126,-4.4768974213538e-106,1.7728937777762e-85,-3.1315172502844e-40,6.7384259381434e-37,7.4281938864108e-154,-4.538124626793e-29,6.931026905869e-27,5.9408146114382e-164,1.9795492577447e-148,1531.422176183,1531.4216446738,0
6.9375e-05,20000000,20000000,20000000,20000000,20000000,20000000,20000000,20000000,20000000,20000000,20000000,20000000,2.0374737575777e-05,1,-1.5677817048468e-104,1.6094596978124e-122,-7.530266884968e-123,-8.3358026614923e-103,3.3959158742287e-82,-5.5130687500412e-37,1.2425598671572e-33,1.2943141544505e-150,-8.0794160849137e-26,1.2958606528847e-23,1.0559382740383e-160,4.3007026179841e-145,1652.0977725351,1652.0971080661,0
7.4375e-05,20000000,20000000,20000000,20000000,20000000,20000000,20000000,20000000,20000000,20000000,20000000,20000000,2.1843340898929e-05,1,-1.6712005279151e-101,1.7852780869241e-119,-8.3224458428857e-120,-9.2200526782406e-100,3.8645013839667e-79,-5.7663389641069e-34,1.3610483301523e-30,1.3400591847837e-147,-8.5455065110295e-23,1.4391326870644e-20,1.1152044399209e-157,5.5471543735819e-142,1773.0245301522,1773.0237126761,0
7.9375e-05,20000000,20000000,20000000,20000000,20000000,20000000,20000000,20000000,20000000,20000000,20000000,20000000,2.331196417736e-05,1,-1.1325338965004e-98,1.2589891793076e-116,-5.843728518424e-117,-6.4832053559589e-97,2.7960569812881e-76,-3.8346846756887e-31,9.4772397812207e-28,8.822464528222e-145,-5.7465151961607e-20,1.0159680943191e-17,7.4894135687798e-155,4.5458298262371e-139,1894.2028088021,1894.2018167853,0
8.4375e-05,20000000,20000000,20000000,20000000,20000000,20000000,20000000,20000000,20000000,20000000,20000000,20000000,2.4780607352712e-05,1,-5.1581674960956e-96,5.965861004774e-114,-2.7573262259237e-114,-3.0631476987395e-94,1.3594505400422e-73,-1.7136917993743e-28,4.4339274726183e-25,3.9038279604935e-142,-2.5967532662834e-17,4.8190833329794e-15,3.3804134363301e-152,2.5017179129708e-136,2015.6329710021,2015.6317927731,0
8.9375e-05,20000000,20000000,20000000,20000000,20000000,20000000,20000000,20000000,20000000,20000000,20000000,20000000,2.6249270134696e-05,1,-1.6529567952033e-93,1.9886809511346e-111,-9.1524442634628e-112,-1.0180298732133e-91,4.6499066132905e-71,-5.3876984857886e-26,1.4591415411846e-22,1.2153782440245e-139,-8.2548868794366e-15,1.6080019963418e-12,1.073523268738e-149,9.6779932219361e-134,2137.3153777648,2137.313963448,0
9.4375e-05,20000000,20000000,20000000,20000000,20000000,20000000,20000000,20000000,20000000,20000000,20000000,20000000,2.7717952485199e-05,1,-3.8724207385044e-91,4.8454315785489e-109,-2.2206365151926e-109,-2.4729143774717e-89,1.1626008423023e-68,-1.2381723611162e-23,3.5095171340939e-20,2.7662982816137e-137,-1.9181622665302e-12,3.9214007207504e-10,2.4923754624295e-147,2.7349131104307e-131,2259.2503848892,2259.2487254851,0
9.6875e-05,20000000,20000000,20000000,20000000,20000000,20000000,20000000,20000000,20000000,20000000,20000000,20000000,2.8452300969271e-05,1,-5.3248620313674e-90,6.794380006191e-108,-3.1073328580832e-108,-3.462264538255e-88,1.6514338749576e-67,-1.686227406013e-22,4.8892361081082e-19,3.7493850251865e-136,-2.626718369081e-11,5.5009108846276e-09,3.4117712177658e-146,4.1290890545913e-130,2320.3127294526,2320.3109358855,0
9.9375e-05,20000000,20000000,20000000,20000000,20000000,20000000,20000000,20000000,20000000,20000000,20000000,20000000,2.9186654293341e-05,1.0000000000001,-6.8505341077429e-89,8.9132581817083e-107,-4.0679233225519e-107,-4.534995121467e-87,2.1946870017772e-66,-2.1484712263221e-21,6.3723100653918e-18,4.7545996625682e-135,-3.3652435916351e-10,7.2191838898445e-08,4.3695679042459e-145,5.8313110792038e-129,2381.438363565,2381.4364300407,0
0.000101875,20000000,20000000,20000000,20000000,20000000,20000000,20000000,20000000,20000000,20000000,20000000,20000000,2.9921012438294e-05,1.0000000000011,-8.2730874872062e-88,1.097569921237e-105,-4.9988418613983e-106,-5.5756668957855e-86,2.7377808251265e-65,-2.5695637479067e-20,7.7956916192129e-17,5.6597730092824e-134,-4.0469839783909e-09,8.8928103221503e-07,5.2532204495008e-144,7.7288638099887e-128,2442.6273249826,2442.6252528704,0
0.000104375,20000000,20000000,20000000,20000000,20000000,20000000,20000000,20000000,20000000,20000000,20000000,20000000,3.0655375406662e-05,1.0000000000126,-9.4075075814367e-87,1.2725312725046e-104,-5.7837828526174e-105,-6.4543655821439e-85,3.2156727960885e-64,-2.8936031119433e-19,8.9792378728737e-16,6.3437385489043e-133,-4.5822255094735e-08,1.0313834427335e-05,5.9466934880302e-143,9.643523609447e-127,2503.8796719342,2503.8774377948,0
0.000106875,20000000,20000000,20000000,20000000,20000000,20000000,20000000,20000000,20000000,20000000,20000000,20000000,3.138974316638e-05,1.0000000001391,-1.010137723382e-85,1.3931079432001e-103,-6.3188499310284e-104,-7.054810116139e-84,3.566412114985e-63,-3.0768501854836e-18,9.7655826523679e-15,6.7142050466237e-132,-4.8989728837035e-07,0.00011294593257854,6.3566194152003e-142,1.1359715752022e-125,2565.1954337776,2565.1930385463,0
0.000109375,20000000,20000000,20000000,20000000,20000000,20000000,20000000,20000000,20000000,20000000,20000000,20000000,3.2124115724166e-05,1.0000000014503,-1.0269201708222e-84,1.4438807284823e-102,-6.5357701570909e-103,-7.3003087335245e-83,3.7447803457171e-62,-3.0975032272227e-17,1.0054882758027e-13,6.7281538100564e-131,-4.9586951057132e-06,0.0011709514902785,6.4332183944528e-141,1.2666656837882e-124,2626.5744817963,2626.5719180692,0
0.000110625,20000000,20000000,20000000,20000000,20000000,20000000,20000000,20000000,20000000,20000000,20000000,20000000,3.2491303807453e-05,1.00000000352,-3.2102997474703e-84,4.5575196341078e-102,-2.0608653792776e-102,-2.3024465694716e-82,1.1897303273535e-61,-9.6358642153539e-17,3.1632679706702e-13,2.0882324013421e-130,-1.5467606409103e-05,0.0036965034284099,2.0066021460913e-140,4.1467634754148e-124,2657.28763522,2657.2849858192,0
0.000111875,20000000,20000000,20000000,20000000,20000000,20000000,20000000,20000000,20000000,20000000,20000000,20000000,3.2858493126223e-05,1.0000000099707,-9.9084676099011e-84,1.4202806597514e-101,-6.4157424811551e-102,-7.1693599503534e-82,3.7317980483392e-61,-2.9595004086443e-16,9.8251602936556e-13,6.3990382103853e-130,-4.7635013065579e-05,0.011520847452499,6.1794450278957e-140,1.3402743357118e-123,2688.0160805126,2688.0133510026,0
0.000113125,20000000,20000000,20000000,20000000,20000000,20000000,20000000,20000000,20000000,20000000,20000000,20000000,3.3225683755216e-05,1.0000000298242,-3.0201156914824e-83,4.3709578939798e-101,-1.9723707810175e-101,-2.2045173327079e-81,1.1559225704542e-60,-8.9763790960904e-16,3.0136615536013e-12,1.936478938961e-129,-0.0001448713069586,0.035458058382158,1.879338070268e-139,4.2779463065638e-123,2718.7586047997,2718.7558398769,0
0.000114375,20000000,20000000,20000000,20000000,20000000,20000000,20000000,20000000,20000000,20000000,20000000,20000000,3.3592876215359e-05,1.0000000901722,-9.0925516711895e-83,1.3286844344492e-100,-5.9885687891086e-101,-6.6948266873377e-81,3.5362482351558e-60,-2.6891230254018e-15,9.1288337304578e-12,5.7883520631435e-129,-0.0004351728745595,0.10777902131948,5.6457620090409e-139,1.348789044741e-122,2749.5116797035,2749.5087555061,0
0.000115625,20000000,20000000,20000000,20000000,20000000,20000000,20000000,20000000,20000000,20000000,20000000,20000000,3.3960071329355e-05,1.0000002712969,-2.7037037294965e-82,3.9893989195894e-100,-1.795397759522e-100,-2.0075685694089e-80,1.0682540562993e-59,-7.9563761245678e-15,2.7306440585727e-11,1.7089718373104e-128,-0.0012910011621221,0.3234764130361,1.6754403699536e-138,4.2016759134617e-122,2780.2646402021,2780.2616200177,0
0.000116875,20000000,20000000,20000000,20000000,20000000,20000000,20000000,20000000,20000000,20000000,20000000,20000000,3.4327272170613e-05,1.000000807448,-7.9356279639099e-82,1.1825635537979e-99,-5.3091356548276e-100,-5.9379602526693e-80,3.183288814907e-59,-2.3233427996697e-14,8.057001054746e-11,4.981163761005e-128,-0.0037797182606996,0.9575129962782,4.9102418167182e-138,1.2933940657556e-121,2810.9867201012,2810.9835996539,0
0.000118125,20000000,20000000,20000000,20000000,20000000,20000000,20000000,20000000,20000000,20000000,20000000,20000000,3.4694487346128e-05,1.0000023669845,-2.2939919689023e-81,3.4544287087825e-99,-1.5429819888014e-99,-1.7262769549989e-79,9.3256258507805e-59,-6.6795321877563e-14,2.3369796874429e-10,1.4306024885437e-127,-0.010893240258194,2.7850999911928,1.4193758264801e-137,3.9340937380132e-121,2841.5901969702,2841.5869677965,0
0.000119375,20000000,20000000,20000000,20000000,20000000,20000000,20000000,20000000,20000000,20000000,20000000,20000000,3.5061740605805e-05,1.000006778931,-6.4891821253434e-81,9.8903730730719e-99,-4.3629028840069e-99,-4.8836866962616e-79,2.6603151940164e-58,-1.8773441900062e-13,6.5994058012507e-10,4.0263573020869e-127,-0.030678312290236,7.8838784119002,4.0310157833735e-137,1.1817163871202e-120,2871.8335712253,2871.8302157251,0
0.000120625,20000000,20000000,20000000,20000000,20000000,20000000,20000000,20000000,20000000,20000000,20000000,20000000,3.5429092252574e-05,1.0000186590367,-1.7665534748072e-80,2.7367760356167e-98,-1.1698181171262e-98,-1.3106858287981e-78,7.2160116027407e-58,-5.0649940743268e-13,1.7707047868243e-09,1.0952590335716e-126,-0.082846117860178,21.217665319764,1.1124497866307e-136,3.4980971664314e-120,2901.0983253234,2901.0947819912,0
0.000121875,20000000,20000000,20000000,20000000,20000000,20000000,20000000,20000000,20000000,20000000,20000000,20000000,3.5796699400206e-05,1.0000475953055,-4.4573784225358e-80,7.100477536379e-98,-2.8186447625884e-98,-3.1625148651519e-78,1.7737706760572e-57,-1.2595580891726e-12,4.2935590696627e-09,2.8098526736089e-126,-0.20594317003085,51.672357272918,2.9000976074054e-136,1.0143196160851e-119,2928.0351975857,2928.03135041,0
0.000123125,20000000,20000000,20000000,20000000,20000000,20000000,20000000,20000000,20000000,20059985.766347,20000000,20000000,3.6164778299975e-05,1.0001073904226,-9.7003299171406e-80,1.6487316895515e-97,-5.6469699345472e-98,-6.3394150137658e-78,3.7006928077597e-57,-2.699991019911e-12,8.765682980255e-09,6.6105393665032e-126,-0.44245863155693,106.75425736622,6.7503295912072e-136,2.8407240795066e-119,2950.5162091548,2950.5118317116,0
0.000124375,20000000,20000000,20000000,20000000,20000000,20000000,20000000,20000000,20000000,20258733.180006,20000000,20000000,3.6533412845561e-05,1.0002001671224,-1.64740082176e-79,3.3242860329153e-97,-8.9998047586685e-98,-1.0055019896646e-77,6.8498937030838e-57,-4.7720636502904e-12,1.4650289006647e-08,1.357372946488e-125,-0.78695389511686,165.31335708423,1.4228683906374e-135,7.5516376375952e-119,2966.8076459061,2966.8025077784,0
0.000125625,20000000,20000000,20000000,20000000,20000000,20000000,20000000,20000000,20000000,20606380.986932,20000000,20000000,3.6902074384879e-05,1.0003038302832,-2.3782948094423e-79,5.8974281703321e-97,-1.2355772920437e-97,-1.3817253138011e-77,1.116139642473e-56,-7.2408930731269e-12,2.1632128263491e-08,2.4551574368146e-125,-1.2219271018053,183.34054947707,2.7852955335256e-135,1.7767421868022e-118,2978.445695191,2978.4398259514,0
0.000126875,20000000,20000000,20000000,20000000,20000000,20000000,20000000,20000000,20000000,21002410.492858,20000000,20000000,3.727014377939e-05,1.000395909724,-3.320197715267e-79,9.6002703134498e-97,-1.7074975686255e-97,-1.8970335683906e-77,1.6831312252696e-56,-1.0342524678777e-11,3.1278534019791e-08,4.4605037122343e-125,-1.8426708187651,160.0908919406,4.9821880921198e-135,3.4688641991214e-118,2988.7984094614,2988.7921291801,0
0.000128125,20000000,20000000,20000000,20000000,20000000,20000000,20000000,20000000,20000000,21339865.471504,20000000,20000000,3.7637580264689e-05,1.0004756616455,-4.8954715448834e-79,1.4783568429842e-96,-2.5255456257182e-97,-2.7704654654852e-77,2.56905793444e-56,-1.4699019353975e-11,4.5907210845174e-08,7.3145899466555e-125,-2.8605509104742,143.5130585925,8.8746388471327e-135,5.6258973650568e-118,2999.7607607065,2999.7543665456,0
0.000129375,20000000,20000000,20000000,20000000,20000000,20000000,20000000,20000000,20000000,21607659.942413,20000000,20000000,3.8004825041386e-05,1.0005538950937,-7.47351353999e-79,2.2120165109202e-96,-3.9054597273564e-97,-4.2164652991244e-77,3.9734686730002e-56,-2.0690294321305e-11,6.7430935028391e-08,1.1464534829326e-124,-4.5853096453373,143.34005738252,1.6114860523704e-134,8.1956728206653e-118,3011.2534252915,3011.2469955366,0
0.000130625,20000000,20000000,20000000,20000000,20000000,20000000,20000000,20000000,20000000,21846741.714625,20000000,20000000,3.8372363712275e-05,1.0006395177124,-1.1261012240997e-78,3.2844519190002e-96,-6.0710492253455e-97,-6.436673665682e-77,6.1228124885631e-56,-2.8969831738881e-11,9.7658683309827e-08,1.920137028198e-124,-7.3787807334434,136.36134192878,2.9166743738857e-134,1.1619614317119e-117,3022.5301407524,3022.5235981733,0
0.000131875,20000000,20000000,20000000,20000000,20000000,20000000,20000000,20000000,20020123.21653,22087425.619106,20000000,20000000,3.8740350759099e-05,1.0007366494585,-1.6286052072957e-78,4.8532112327169e-96,-9.3087076272992e-97,-9.6599513009639e-77,9.325020951334e-56,-3.9796834742421e-11,1.4048569858052e-07,3.2005527224851e-124,-11.691351095596,127.57002395918,5.1713905744921e-134,1.6479848807139e-117,3032.9897938213,3032.983019764,0
0.000133125,20000000,20000000,20000000,20000000,20000000,20000000,20000000,20000000,20089385.945237,22334635.536072,20000000,20000000,3.9108764028398e-05,1.0008451043215,-2.2458158479921e-78,7.0459185677171e-96,-1.396198766434e-96,-1.4226173472257e-76,1.3651484990413e-55,-5.2910055171004e-11,1.9342359580285e-07,5.2941024556928e-124,-17.784541474825,124.98385763812,9.3273725660371e-134,2.300174149999e-117,3042.2646556775,3042.257549652,0
0.000134375,20000000,20000000,20000000,20000000,20000000,20000000,20000000,20000000,20218534.719736,22576818.031624,20000000,20000000,3.9477571143072e-05,1.000961149183,-2.9448116226884e-78,9.8882417085962e-96,-2.0475920871787e-96,-2.0599157680277e-76,1.894041158929e-55,-6.7635472165968e-11,2.5294920889798e-07,8.2341768438431e-124,-25.681173098949,117.45960929042,1.8179334850262e-133,3.1013386343786e-117,3050.1179710946,3050.1104725919,0
0.000135625,20000000,20000000,20000000,20000000,20000000,20000000,20000000,20000000,20401520.393511,22802328.689639,20000000,20000000,3.9846573727103e-05,1.0010793994411,-3.687697867188e-78,1.3339169484755e-95,-2.9223758607136e-96,-2.8983439005325e-76,2.5087643405863e-55,-8.3788952155299e-11,3.1431455354605e-07,1.1644129239783e-123,-35.824114030941,108.17250946595,3.1721393740941e-133,4.1300645073903e-117,3056.6212669239,3056.6133537442,0
0.000136875,20000000,20000000,20000000,20000000,20000000,20000000,20000000,20000000,20614711.976995,23009230.916973,20000000,20000000,4.0215438666641e-05,1.0011952192326,-4.5605167561432e-78,1.857323507775e-95,-4.0375278716326e-96,-3.9209980067809e-76,3.2328147186057e-55,-1.0193156811389e-10,3.7653990506248e-07,1.4870547109652e-123,-48.97330819705,102.86916292578,4.8033911519535e-133,5.595789937654e-117,3062.1831018259,3062.1748284593,0
0.000138125,20000000,20000000,20000000,20000000,20000000,20000000,20000000,20000000,20829613.578874,23203857.76719,20000000,20000000,4.0583867720467e-05,1.0013066919107,-5.684124453321e-78,2.5623094690877e-95,-5.4191410512682e-96,-5.1153074849155e-76,4.0935451436398e-55,-1.2301138952235e-10,4.4359607154163e-07,1.7745695534917e-123,-63.983510781854,100.50066547507,6.5958513695917e-133,7.7318020113867e-117,3067.3224671527,3067.313937942,0
0.000139375,20000000,20000000,20000000,20000000,20000000,20000000,20000000,20000000,21029263.082557,23393809.278864,20000000,20000000,4.0951749240145e-05,1.0014143350979,-7.1844584064683e-78,3.3643005703101e-95,-7.1398158954337e-96,-6.5331817344374e-76,5.1601344473002e-55,-1.475570107197e-10,5.2078195207491e-07,2.072253068476e-123,-78.387818912857,99.760270354271,8.7802881350185e-133,1.0645767324127e-116,3072.3851036534,3072.3764257334,0
0.000140625,20000000,20000000,20000000,20000000,20000000,20000000,20000000,20000000,21211895.657041,23583141.866594,20000000,20000000,4.1319165693512e-05,1.001519461386,-9.1858993767614e-78,4.2437609280176e-95,-9.3338959066872e-96,-8.315821543415e-76,6.5005887962011e-55,-1.7560100535694e-10,6.121658831273e-07,2.4335035424567e-123,-89.382239379056,99.446170255441,1.1776534513684e-132,1.4268798382998e-116,3077.4855768858,3077.4768296383,0
0.000141875,20000000,20000000,20000000,20000000,20000000,20000000,20000000,20000000,21383472.154107,23772100.498841,20000000,20000000,4.168629831568e-05,1.0016231359001,-1.1757578992432e-77,5.2410097362291e-95,-1.2188544476845e-95,-1.065467235487e-75,8.1825825890833e-55,-2.0743625666652e-10,7.2072806400088e-07,2.8926861288571e-123,-92.611327710353,98.87181003095,1.6039075145909e-132,1.8528699362068e-116,3082.6272487751,3082.6184772364,0
0.000143125,20000000,20000000,20000000,20000000,20000000,20000000,20000000,20000000,21550386.141112,23959379.324678,20000000,20000000,4.2053316873702e-05,1.0017260168053,-1.503191733705e-77,6.4363179606781e-95,-1.5941412799009e-95,-1.3755432798875e-75,1.029051157083e-54,-2.4400414829126e-10,8.4921311279966e-07,3.4683334964038e-123,-91.903227191512,98.387813179428,2.2041726607011e-132,2.3523947999321e-116,3087.7993039154,3087.7905271373,0
0.000144375,20000000,20000000,20000000,20000000,20000000,20000000,20000000,20000000,21716625.929394,24144153.285273,20000000,20000000,4.2420322745719e-05,1.0018284903162,-1.9207758136501e-77,7.9129713090225e-95,-2.0892894188455e-95,-1.7843349291548e-75,1.2936584789521e-54,-2.8665999562837e-10,1.0007292540968e-06,4.1715528090418e-123,-92.177615594341,97.978120788606,3.0308090194999e-132,2.9529433913261e-116,3092.9992296913,3092.9904527623,0
0.000145625,20000000,20000000,20000000,20000000,20000000,20000000,20000000,20000000,21883797.81417,24326687.855494,20000000,20000000,4.2787351828026e-05,1.0019307782238,-2.4547431842544e-77,9.7471422351317e-95,-2.7424961240922e-95,-2.3190966722729e-75,1.6264741271084e-54,-3.3689856825386e-10,1.1791239074449e-06,5.0142675511111e-123,-92.733103910905,97.768760212425,4.1486671525975e-132,3.6937752245158e-116,3098.2273569058,3098.2185793296,0
0.000146875,20000000,20000000,20000000,20000000,20000000,20000000,20000000,20000000,22052054.178347,24507917.272362,20000000,20000000,4.3154403631526e-05,1.0020329919431,-3.138666333725e-77,1.201846740081e-94,-3.6025887427638e-95,-3.0147954217865e-75,2.045533891799e-54,-3.9629202859783e-10,1.3892085532569e-06,6.0164608116976e-123,-93.101612030307,97.555501993426,5.64802014743e-132,4.6227352812649e-116,3103.48345751,3103.4746772088,0
0.000148125,20000000,20000000,20000000,20000000,20000000,20000000,20000000,20000000,22220979.73635,24688807.549735,20000000,20000000,4.3521466898738e-05,1.0021351688564,-4.0147717128927e-77,1.4823181110927e-94,-4.7328134168245e-95,-3.9173128763127e-75,2.5733868074571e-54,-4.6653015728766e-10,1.6368682499904e-06,7.2098680211138e-123,-93.126786202244,97.198735482483,7.6594220077754e-132,5.7954757563958e-116,3108.7669990217,3108.7582138693,0
0.000149375,20000000,20000000,20000000,20000000,20000000,20000000,20000000,20000000,22390139.002059,24869977.894003,20000000,20000000,4.3888532679435e-05,1.0022373046452,-5.1363935692788e-77,1.8283546802626e-94,-6.2162729042263e-95,-5.0872707604002e-75,3.2383208957594e-54,-5.4949679703389e-10,1.9291251527606e-06,8.6376596518489e-123,-92.993149670224,96.756282022259,1.0367290114844e-131,7.2769511842733e-116,3114.0775082396,3114.068716503,0
0.000150625,20000000,20000000,20000000,20000000,20000000,20000000,20000000,20000000,22559288.659764,25051644.223895,20000000,20000000,4.4255597496629e-05,1.0023393794277,-6.5715178442079e-77,2.2554607188212e-94,-8.1628704428982e-95,-6.6045172091235e-75,4.0759265238908e-54,-6.4738044504616e-10,2.2742347798103e-06,1.0352498846269e-122,-92.841798041308,96.413828974243,1.4023150220171e-131,9.1457236330509e-116,3119.4145069195,3119.4057072513,0
0.000151875,20000000,20000000,20000000,20000000,20000000,20000000,20000000,20000000,22728375.130404,25233751.439995,20000000,20000000,4.4622661661307e-05,1.002441374217,-8.4073169203629e-77,2.7830134912837e-94,-1.0717847492609e-94,-8.5734681045521e-75,5.1310629987998e-54,-7.6279403251474e-10,2.681864704574e-06,1.2415563648141e-122,-92.692605484094,96.219510137784,1.8962354852782e-131,1.1500124273643e-115,3124.7774707933,3124.7686621045,0
0.000153125,20000000,20000000,20000000,20000000,20000000,20000000,20000000,20000000,22897448.206922,25416143.517138,20000000,20000000,4.4989726668385e-05,1.002543277714,-1.0755701022191e-76,3.4349614154556e-94,-1.4072512651785e-94,-1.1129860527591e-74,6.4603139496463e-54,-8.9887562985798e-10,3.1633662258711e-06,1.4897626971641e-122,-92.574313472888,96.159266680832,2.5628502754747e-131,1.4465012892552e-115,3130.1658642299,3130.1570455871,0
0.000154375,20000000,20000000,20000000,20000000,20000000,20000000,20000000,20000000,23066578.276312,25598681.973038,20000000,20000000,4.5356793586681e-05,1.0026450863543,-1.3760141847751e-76,4.2407930583005e-94,-1.8478136250237e-94,-1.4449628630642e-74,8.1350471691783e-54,-1.0593706371053e-09,3.7321252474353e-06,1.788196823224e-122,-92.48403356414,96.093549889257,3.4609219020669e-131,1.8198983833362e-115,3135.5791588173,3135.5703293814,0
0.000155625,20000000,20000000,20000000,20000000,20000000,20000000,20000000,20000000,23235811.64621,25781291.800301,20000000,20000000,4.5723862670224e-05,1.0027468013846,-1.7604262702683e-76,5.2368650717158e-94,-2.4264259446776e-94,-1.8760651774391e-74,1.0245251147011e-53,-1.2487152702251e-09,4.4039754044824e-06,2.1468368537409e-122,-92.405188849574,96.008251554704,4.6686372892248e-131,2.2902763824037e-115,3141.0168309603,3141.0079899474,0
0.000156875,20000000,20000000,20000000,20000000,20000000,20000000,20000000,20000000,23405161.969369,25963955.63235,20000000,20000000,4.6090933645915e-05,1.0028484258426,-2.2522854998076e-76,6.4681066680034e-94,-3.1862951769379e-94,-2.4358221969036e-74,1.2904373074227e-53,-1.4721404576983e-09,5.1976670686934e-06,2.5777534970988e-122,-92.326126641779,95.90392908994,6.2903652705999e-131,2.8829752296648e-115,3146.4783622008,3146.4695088545,0
0.000158125,20000000,20000000,20000000,20000000,20000000,20000000,20000000,20000000,23574621.193664,26146687.416761,20000000,20000000,4.6458006118257e-05,1.0029499627218,-2.8816080235553e-76,7.9901191166632e-94,-4.1840891927532e-94,-3.1625258948661e-74,1.6255428105153e-53,-1.7358069872546e-09,6.1354003759974e-06,3.095569448274e-122,-92.242462343366,95.791355218075,8.4655178661059e-131,3.6299581298385e-115,3151.9632442009,3151.9543777738,0
0.000159375,20000000,20000000,20000000,20000000,20000000,20000000,20000000,20000000,23744174.297481,26329508.147067,20000000,20000000,4.6825079812271e-05,1.0030514143503,-3.6867724278007e-76,9.8717359867584e-94,-5.4941602126185e-94,-4.1058564567578e-74,2.0478706537864e-53,-2.0469757404261e-09,7.2434421364643e-06,3.7179519482539e-122,-92.154918262647,95.680136573704,1.1380078582914e-130,4.5715513467926e-115,3157.4709817562,3157.4621015013,0
0.000160625,20000000,20000000,20000000,20000000,20000000,20000000,20000000,20000000,23913809.193466,26512432.627562,20000000,20000000,4.7192154623833e-05,1.0031527824726,-4.7168558560268e-76,1.2198159239884e-93,-7.214083185999e-94,-5.3302791480382e-74,2.5801487303779e-53,-2.414213429831e-09,8.5528526769512e-06,4.4661809892277e-122,-92.066156071145,95.581892873919,1.5281654571158e-130,5.7586537233466e-115,3163.001092433,3162.9921976033,0
0.000161875,20000000,20000000,20000000,20000000,20000000,20000000,20000000,20000000,24083520.0612,26695466.489563,20000000,20000000,4.7559230560741e-05,1.0032540685371,-6.0346162531454e-76,1.5074823936301e-93,-9.4719045942075e-94,-6.9194342889017e-74,3.2510275225501e-53,-2.8476345358426e-09,1.0100350075409e-05,5.3658413952133e-122,-91.978543241567,95.511761604394,2.0499260498848e-130,7.2555219092254e-115,3168.5531049122,3168.5441947633,0
0.000163125,20000000,20000000,20000000,20000000,20000000,20000000,20000000,20000000,24253306.203995,26878608.810172,20000000,20000000,4.7926307664026e-05,1.0033552739196,-7.7202974006542e-76,1.86321772732e-93,-1.2435627630231e-93,-8.9818137048113e-74,4.0966217317956e-53,-3.3591830476884e-09,1.1929338746312e-05,6.4476795989387e-122,-91.893293496118,95.441968728548,2.7469431197282e-130,9.1432748916722e-115,3174.1265575989,3174.1176313938,0
0.000164375,20000000,20000000,20000000,20000000,20000000,20000000,20000000,20000000,24423169.340318,27061855.998949,20000000,20000000,4.8293385957966e-05,1.0034564000196,-9.8764855708867e-76,2.3031594965983e-93,-1.6325630074333e-93,-1.1658107818032e-73,5.1624524916345e-53,-3.9629612408035e-09,1.4091129956691e-05,7.7486565882086e-122,-91.810581079748,95.372424493718,3.6770707791158e-130,1.1524310776544e-114,3179.7209978644,3179.7120548759,0
0.000165625,20000000,20000000,20000000,20000000,20000000,20000000,20000000,20000000,24593111.339757,27245204.580447,20000000,20000000,4.866046543621e-05,1.0035574482669,-1.2634310919297e-75,2.8476332380683e-93,-2.1430930115678e-93,-1.5130721395354e-73,6.5058942022282e-53,-4.6756156057937e-09,1.6646385275412e-05,9.3132252212275e-122,-91.727211045136,95.303576548722,4.9169101538056e-130,1.4527884110496e-114,3185.3359817622,3185.3270212738,0
0.000166875,20000000,20000000,20000000,20000000,20000000,20000000,20000000,20000000,24763133.129782,27428652.333297,20000000,20000000,4.9027546070136e-05,1.0036584200965,-1.6161366611052e-75,3.5232932283656e-93,-2.8130496862118e-93,-1.963610000206e-73,8.1992567578147e-53,-5.5167918769135e-09,1.966682028917e-05,1.1194865290899e-121,-91.644580721205,95.23590002775,6.5677881672671e-130,1.8317154078824e-114,3190.9710739694,3190.9620952744,0
0.000168125,20000000,20000000,20000000,20000000,20000000,20000000,20000000,20000000,24933234.60132,27612198.250508,20000000,20000000,4.939462782304e-05,1.0037593169257,-2.0671819638595e-75,4.3596058387936e-93,-3.6921166908952e-93,-2.548069378951e-73,1.0333667543697e-52,-6.5096724013158e-09,2.3237214369772e-05,1.345792152354e-121,-91.563500023525,95.169665077213,8.7636032695766e-130,2.3098089079739e-114,3196.6258477534,3196.6168501543,0
0.000169375,20000000,20000000,20000000,20000000,20000000,20000000,20000000,20000000,25103415.007522,27795842.015068,20000000,20000000,4.9761710660338e-05,1.0038601401445,-2.6439316298501e-75,5.3947925444344e-93,-4.8454203957178e-93,-3.3061623946888e-73,1.3023959919598e-52,-7.6816105305184e-09,2.745778200472e-05,1.6179804848411e-121,-91.46812481109,95.104925967256,1.168110560066e-129,2.9130709772661e-114,3202.2998848652,3202.2908676725,0
0.000170625,20000000,20000000,20000000,20000000,20000000,20000000,20000000,20000000,25273673.416189,27979583.48966,20000000,20000000,5.0128794553407e-05,1.0039608911157,-3.3813450484273e-75,6.6761642866268e-93,-6.3583161299463e-93,-4.289342689099e-73,1.6436863860457e-52,-9.0648787776058e-09,3.2446971825123e-05,1.9453633295429e-121,-91.373318232138,95.041610762476,1.555335286959e-129,3.6743278244382e-114,3207.9927753497,3207.9837378807,0
0.000171875,20000000,20000000,20000000,20000000,20000000,20000000,20000000,20000000,25444008.994652,28163422.42664,20000000,20000000,5.0495879478924e-05,1.0040615711782,-4.3240773902276e-75,8.2622795354919e-93,-8.3426522730445e-93,-5.5642652820967e-73,2.0753296507351e-52,-1.0697550345497e-08,3.8344771158434e-05,2.3391405030083e-121,-91.280239176081,94.979615274223,2.0687307589598e-129,4.6350202209684e-114,3213.7041173111,3213.69505889,0
0.000173125,20000000,20000000,20000000,20000000,20000000,20000000,20000000,20000000,25614421.098944,28347358.393611,20000000,20000000,5.0862965416577e-05,1.0041621816503,-5.529159590919e-75,1.0225612753889e-92,-1.0944966453206e-92,-7.2172614514358e-73,2.6203239656608e-52,-1.2624537272868e-08,4.5316607267206e-05,2.8127813236829e-121,-91.188811063881,94.9188578642,2.7486829465207e-129,5.8474627134181e-114,3219.4335166747,3219.4244366322,0
0.000174375,20000000,20000000,20000000,20000000,20000000,20000000,20000000,20000000,25784909.237787,28531390.82228,20000000,20000000,5.1230052347091e-05,1.0042627238303,-7.0694162064183e-75,1.2655853978835e-92,-1.4357207453695e-92,-9.3601252120683e-73,3.3084082028498e-52,-1.4898812778322e-08,5.3557952109074e-05,3.3824832411138e-121,-91.099025952018,94.859293469414,3.6482686893463e-129,7.3776944916177e-114,3225.1805869649,3225.1714846379,0
0.000175625,20000000,20000000,20000000,20000000,20000000,20000000,20000000,20000000,25955472.996004,28715519.089618,20000000,20000000,5.1597140251264e-05,1.0043631989973,-9.0378234334833e-75,1.5663988601087e-92,-1.8830758174905e-92,-1.2137594289645e-72,4.1771099233318e-52,-1.7582850384972e-08,6.3299756125245e-05,4.0677229930131e-121,-91.010892470878,94.800903940873,4.837168789393e-129,9.3090768199485e-114,3230.944949105,3230.9358238364,0
0.000176875,20000000,20000000,20000000,20000000,20000000,20000000,20000000,20000000,26126111.972141,28899742.5789,20000000,20000000,5.1964229109849e-05,1.0044636084106,-1.1553064736712e-74,1.9387341288073e-92,-2.4694771947022e-92,-1.5737019666833e-72,5.273780230255e-52,-2.0750318146321e-08,7.4814858788821e-05,4.8919186816227e-121,-90.924406614925,94.743682373933,6.4067644481675e-129,1.1746832161298e-113,3236.7262312331,3236.7170823713,0
0.000178125,20000000,20000000,20000000,20000000,20000000,20000000,20000000,20000000,26296825.748531,29084060.706551,20000000,20000000,5.2331318903833e-05,1.0045639533101,-1.4766611631801e-74,2.3995810946854e-92,-3.2380143341593e-92,-2.0400861004615e-72,6.6581585650734e-52,-2.4488072932039e-08,8.842554994408e-05,5.883224845624e-121,-90.839545322957,94.687621643399,8.476767501034e-129,1.4823770800695e-113,3242.524068527,3242.5148954261,0
0.000179375,20000000,20000000,20000000,20000000,20000000,20000000,20000000,20000000,26467708.537216,29268472.922968,20000000,20000000,5.2698409614746e-05,1.0046642349163,-1.8871746297059e-74,2.9699576649278e-92,-4.2450837216282e-92,-2.6442829745643e-72,8.4056049264752e-52,-2.8898507481607e-08,0.00010451248690533,7.0754870480034e-121,-90.756272624695,94.632709700589,1.1203836603243e-128,1.8707514639071e-113,3248.3381030343,3248.3289050535,0
0.000180625,20000000,20000000,20000000,20000000,20000000,20000000,20000000,20000000,26638844.677701,29452978.701616,20000000,20000000,5.3065501224827e-05,1.0047644544307,-2.411505594006e-74,3.6758619885704e-92,-5.5644824371884e-92,-3.4268739375479e-72,1.0611172513154e-51,-3.41023120308e-08,0.00012352520857686,8.5093878279524e-121,-90.674548382686,94.578929798434,1.4792762161339e-128,2.3609608366055e-113,3254.1679835052,3254.1587600083,0
0.000181875,20000000,20000000,20000000,20000000,20000000,20000000,20000000,20000000,26810056.65319,29637577.527417,20000000,20000000,5.3432593717051e-05,1.0048646130365,-3.0811072714626e-74,4.5494489264791e-92,-7.2927555841761e-92,-4.440342837964e-72,1.3394738442336e-51,-4.0241723010265e-08,0.00014599453040148,1.0233822197776e-120,-90.594334244678,94.526262724411,1.9510970362419e-128,2.9797009692385e-113,3260.0133652285,3260.0041155839,0
0.000183125,20000000,20000000,20000000,20000000,20000000,20000000,20000000,20000000,26981344.043231,29822268.88945,20000000,20000000,5.3799687075072e-05,1.0049647118986,-3.9360915673131e-74,5.6304833330142e-92,-9.5561798253846e-92,-5.7525515453157e-72,1.6907466309514e-51,-4.7484343869783e-08,0.0001725471538358,1.2307548427573e-120,-90.515595765125,94.474688931245,2.5707311285016e-128,3.7606578014408e-113,3265.8739098712,3265.8646334516,0
0.000184375,20000000,20000000,20000000,20000000,20000000,20000000,20000000,20000000,27152706.437797,30007052.278361,20000000,20000000,5.4166781283141e-05,1.0050647521642,-5.0276023162601e-74,6.9681349787131e-92,-1.2519881215207e-91,-7.4512253562626e-72,2.1339944852865e-51,-5.6027637798566e-08,0.00020392288260803,1.4801168881139e-120,-90.438301956576,94.424189706076,3.3836370726636e-128,4.7463341632067e-113,3271.749285323,3271.7399815052,0
0.000185625,20000000,20000000,20000000,20000000,20000000,20000000,20000000,20000000,27324143.436117,30191927.186715,20000000,20000000,5.4533876326051e-05,1.0051647349626,-6.4208358412869e-74,8.6231950470111e-92,-1.6399736439954e-91,-9.6497401736997e-72,2.6932435545545e-51,-6.6104209338691e-08,0.00024099490673921,1.7799506454624e-120,-90.36242394171,94.374747429513,4.4489896453582e-128,5.9903525817287e-113,3277.6391655451,3277.6298337097,0
0.000186875,20000000,20000000,20000000,20000000,20000000,20000000,20000000,20000000,27495654.644385,30376893.11032,20000000,20000000,5.49009721891e-05,1.0052646614064,-8.1988844512733e-74,1.0670812733111e-91,-2.1477902962344e-91,-1.2494587229222e-71,3.3987773155963e-51,-7.798801203932e-08,0.00028479369598267,2.1404455073822e-120,-90.287933803647,94.326345333901,5.8437377923898e-128,7.56035783435e-113,3283.5432304232,3283.5338699545,0
0.000188125,20000000,20000000,20000000,20000000,20000000,20000000,20000000,20000000,27667239.673815,30561949.549297,20000000,20000000,5.5268068858075e-05,1.005364532591,-1.0467625868584e-73,1.3203873366114e-91,-2.8123079029673e-91,-1.6174998956694e-71,4.2887602960132e-51,-9.2001642869027e-08,0.00033653513896583,2.573839814026e-120,-90.214804007664,94.278967150881,7.6678390497717e-128,9.5416749025665e-113,3289.4611656248,3289.4517759103,0
0.000189375,20000000,20000000,20000000,20000000,20000000,20000000,20000000,20000000,27839052.876284,30747096.008466,20000000,20000000,5.563516631924e-05,1.0054643495956,-1.3361941643751e-73,1.6337167655589e-91,-3.6816926719804e-91,-2.0935358217527e-71,5.4112813586367e-51,-1.0852491166287e-07,0.00039765367533002,3.0948307261151e-120,-90.143007299503,94.232596859225,1.0051004406785e-127,1.2041918203514e-112,3295.3926624594,3295.38324289,0
0.000190625,20000000,20000000,20000000,20000000,20000000,20000000,20000000,20000000,28011208.257529,30932331.997165,20000000,20000000,5.6002264559332e-05,1.005564113483,-1.7053623765941e-73,2.0212536337792e-91,-4.8188523072973e-91,-2.7091191135825e-71,6.8269244460201e-51,-1.2800490609997e-07,0.00046984129826754,3.7210655659458e-120,-90.072516832493,94.187218576913,1.3161380396408e-127,1.5196798568511e-112,3301.3374177428,3301.3279677122,0
0.000191875,20000000,20000000,20000000,20000000,20000000,20000000,20000000,20000000,28183439.918481,31117657.028766,20000000,20000000,5.6369363565544e-05,1.0056638253006,-2.1761425174652e-73,2.5005217171687e-91,-6.3059265624497e-91,-3.504977249206e-71,8.6120022827981e-51,-1.5096781037791e-07,0.00055509345734131,4.4737306960868e-120,-90.003306319547,94.142816556793,1.7216713206406e-127,1.9177438007237e-112,3307.2951336633,3307.2856525682,0
0.000193125,20000000,20000000,20000000,20000000,20000000,20000000,20000000,20000000,28355747.517335,31303070.620144,20000000,20000000,5.673646332552e-05,1.0057634860803,-2.7763832141784e-73,3.0931673698899e-91,-8.2501387820991e-91,-4.5336666243985e-71,1.0862623154781e-50,-1.7803277975946e-07,0.00065576307015201,5.378257150921e-120,-89.935350115665,94.099375221946,2.2498689508968e-127,2.4199582218474e-112,3313.2655176513,3313.2560048909,0
0.000194375,20000000,20000000,20000000,20000000,20000000,20000000,20000000,20000000,28528130.715536,31488572.291224,20000000,20000000,5.7103563827341e-05,1.0058630968393,-3.5415291330439e-73,3.8259249730927e-91,-1.0791418678356e-90,-5.8629900598201e-71,1.3699804297973e-50,-2.0992822458473e-07,0.0007746240606206,6.4651659856381e-120,-89.868623221316,94.056879197647,2.9371338949748e-127,3.053520120172e-112,3319.2482822506,3319.2387372265,0
0.000195625,20000000,20000000,20000000,20000000,20000000,20000000,20000000,20000000,28700589.177558,31674161.564619,20000000,20000000,5.747066505951e-05,1.0059626585803,-4.5166820391652e-73,4.7318072843455e-91,-1.4112329538145e-90,-7.5803960580573e-71,1.7275899859898e-50,-2.4751091738695e-07,0.00091494608671386,7.7710807838059e-120,-89.80310123629,94.015313322823,3.8304624400221e-127,3.8527094460958e-112,3325.2431449919,3325.2335671081,0
0.000196875,20000000,20000000,20000000,20000000,20000000,20000000,20000000,20000000,28873122.570581,31859837.965325,20000000,20000000,5.7837767010954e-05,1.0060621722919,-5.7592179097501e-73,5.8515727664766e-91,-1.8450992614624e-90,-9.7986401216507e-71,2.1782679612865e-50,-2.9178840683442e-07,0.0010805824072052,9.3399401033069e-120,-89.738760298668,93.97466264126,4.9904651489353e-127,4.8607275687253e-112,3331.2498282676,3331.2402169302,0
0.000198125,20000000,20000000,20000000,20000000,20000000,20000000,20000000,20000000,29045730.564156,32045601.02045,20000000,20000000,5.8204869671007e-05,1.0061616389496,-7.3421092001365e-73,7.2355339551415e-91,-2.4117908483203e-90,-1.2663067957602e-70,2.7461480079006e-50,-3.4394530401802e-07,0.0012760731727237,1.1224449006783e-119,-89.675577026823,93.934912380666,6.4952315325959e-127,6.1320110738824e-112,3337.2680592083,3337.2584138253,0
0.000199375,20000000,20000000,20000000,20000000,20000000,20000000,20000000,20000000,29218412.829864,32231450.258918,20000000,20000000,5.8571973029419e-05,1.0062610595156,-9.3581410759629e-73,8.9457856376028e-91,-3.1517843617899e-90,-1.6360982305959e-70,3.4615956804097e-50,-4.05374102021e-07,0.0015067668189149,1.3487816409831e-119,-89.613528470654,93.896047928095,8.4452690621403e-127,7.7351432421203e-112,3343.2975695586,3343.2878895399,0
0.000200625,20000000,20000000,20000000,20000000,20000000,20000000,20000000,20000000,29391169.040985,32417385.21115,20000000,20000000,5.8939077076347e-05,1.0063604349402,-1.1925260647989e-72,1.1058949691294e-90,-4.1178298537201e-90,-2.1133685702735e-70,4.3628100618519e-50,-4.7771130098001e-07,0.0017789626988014,1.6205834029235e-119,-89.552592069869,93.858054803376,1.0969808789687e-126,9.7565168987662e-112,3349.3380955545,3349.3283803117,0
0.000201875,20000000,20000000,20000000,20000000,20000000,20000000,20000000,20000000,29563998.872178,32603405.408719,20000000,20000000,5.930618180236e-05,1.0064597661618,-1.5193361726622e-72,1.3669555613084e-90,-5.37865249841e-90,-2.7291958718141e-70,5.4978348613996e-50,-5.6287974055853e-07,0.0021000786281345,1.9469363474826e-119,-89.492745612606,93.820918633139,1.4234847601744e-126,1.2304941666932e-111,3355.3893777989,3355.379626745,0
0.000203125,20000000,20000000,20000000,20000000,20000000,20000000,20000000,20000000,29736901.999142,32789510.383956,20000000,20000000,5.9673287198448e-05,1.006559054108,-1.9352887837408e-72,1.6894203004836e-90,-7.0237644034394e-90,-3.5235947313129e-70,6.9270830713487e-50,-6.6313819292668e-07,0.0024788476450202,2.3387310863239e-119,-89.433967190642,93.784625123516,1.8453395088742e-126,1.5517437979398e-111,3361.4511611366,3361.4413736862,0
0.000204375,20000000,20000000,20000000,20000000,20000000,20000000,20000000,20000000,29909878.098251,32975699.669538,20000000,20000000,6.0040393256026e-05,1.0066582996963,-2.4645737573103e-72,2.0876685696104e-90,-9.169717388432e-90,-4.5480706961431e-70,8.7265055660039e-50,-7.8113944543636e-07,0.002925549018049,2.8090183592076e-119,-89.376235149919,93.749160029295,2.3898516310188e-126,1.9566522124935e-111,3367.5231945265,3367.5133700954,0
0.000205625,20000000,20000000,20000000,20000000,20000000,20000000,20000000,20000000,30082926.846168,33161972.798024,20000000,20000000,6.0407499966942e-05,1.0067575038348,-3.1379084301105e-72,2.57942981459e-90,-1.1968225569401e-89,-5.86890017148e-70,1.0991566914221e-49,-9.1999830777737e-07,0.0034522793920651,3.3734342095543e-119,-89.31952817364,93.714508986898,3.0919916783472e-126,2.4669364244246e-111,3373.6052309115,3373.5953689164,0
0.000206875,20000000,20000000,20000000,20000000,20000000,20000000,20000000,20000000,30256101.379477,33348329.301226,20000000,20000000,6.0774607323528e-05,1.0068566674238,-3.99428839768e-72,3.1865595199832e-90,-1.5616713497096e-89,-7.5713404632824e-70,1.3842232852683e-49,-1.0833712133088e-06,0.0040732709687805,4.0507080851752e-119,-89.263824644583,93.680658011221,3.9965010605497e-126,3.109929827468e-111,3379.6970270832,3379.6871269425,0
0.000208125,20000000,20000000,20000000,20000000,20000000,20000000,20000000,20000000,30429359.681538,33534768.710009,20000000,20000000,6.1141715318578e-05,1.0069557913562,-5.0832048103418e-72,3.9359937452843e-90,-2.0372009245717e-89,-9.7650318985492e-70,1.7429225191092e-49,-1.2755493731883e-06,0.0048052647613349,4.8632698984535e-119,-89.209103403293,93.647592662384,5.1605657345563e-126,3.9200285598936e-111,3385.7983435414,3385.788404674,0
0.000209375,20000000,20000000,20000000,20000000,20000000,20000000,20000000,20000000,30602690.230683,33721290.553343,20000000,20000000,6.15088239454e-05,1.0070548765194,-6.4674516917505e-72,4.860923071307e-90,-2.6568114464523e-89,-1.2590927175547e-69,2.1941864368486e-49,-1.5015677465952e-06,0.0056679483633328,5.8379750645597e-119,-89.155343211123,93.615298431437,6.6572058959212e-126,4.9405085908621e-111,3391.908944348,3391.898966174,0
0.000210625,20000000,20000000,20000000,20000000,20000000,20000000,20000000,20000000,30776092.703794,33907894.357616,20000000,20000000,6.1875933197853e-05,1.0071539237963,-8.2266791268851e-72,6.0022359952379e-90,-3.4639256940673e-89,-1.6230176594994e-69,2.7617900045969e-49,-1.767332483924e-06,0.0066844692214252,7.0069702159714e-119,-89.10252267208,93.583760649195,8.5795692084999e-126,6.225808159771e-111,3398.0285969709,3398.0185789108,0
0.000211875,20000000,20000000,20000000,20000000,20000000,20000000,20000000,20000000,30949566.77496,34094579.64584,20000000,20000000,6.2243043070388e-05,1.0072529340676,-1.046188908653e-71,7.4102931889511e-90,-4.5149785589658e-89,-2.0915517192298e-69,3.4755830535954e-49,-2.0797699255822e-06,0.0078820362744763,8.4087265509602e-119,-89.050620153473,93.552964391616,1.1046363039898e-125,7.8443941521922e-111,3404.1570721171,3404.1470135926,0
0.000213125,20000000,20000000,20000000,20000000,20000000,20000000,20000000,20000000,31123112.114694,34281345.93673,20000000,20000000,6.2610153558106e-05,1.007351908213,-1.3301122136753e-71,9.1471079077942e-90,-5.8832924892539e-89,-2.6945866099666e-69,4.3730337126465e-49,-2.4470007493861e-06,0.0092926249724096,1.0089272873995e-118,-88.999613676479,93.522894383153,1.4208721120581e-125,9.8823611157934e-111,3410.2941435542,3410.2840439873,0
0.000214375,20000000,20000000,20000000,20000000,20000000,20000000,20000000,20000000,31296728.38901,34468192.743636,20000000,20000000,6.2977264656822e-05,1.0074508471143,-1.6906648145319e-71,1.1289024836279e-89,-7.6640995914374e-89,-3.4705012720384e-69,5.5011615763201e-49,-2.8785434475583e-06,0.010953803202387,1.2103666415281e-118,-88.949480780516,93.493534893417,1.8258874862916e-125,1.2447949305562e-110,3416.4395879153,3416.4294467286,0
0.000215625,20000000,20000000,20000000,20000000,20000000,20000000,20000000,20000000,31470415.258348,34655119.573301,20000000,20000000,6.3344376363146e-05,1.0075497516574,-2.1484055750752e-71,1.3930010463945e-89,-9.981047231925e-89,-4.4685551925101e-69,6.9189583732023e-49,-3.3855519970149e-06,0.012909698577244,1.45177466528e-118,-88.900198362956,93.464869621212,2.3441092851734e-125,1.5677215399329e-110,3422.5931844856,3422.5830011025,0
0.000216875,20000000,20000000,20000000,20000000,20000000,20000000,20000000,20000000,31644172.37634,34842125.92443,20000000,20000000,6.3711488674577e-05,1.0076486227355,-2.7293738121602e-71,1.7185693537555e-89,-1.2994622136937e-88,-5.7519515961752e-69,8.7004182492502e-49,-3.9810933786565e-06,0.01521213094896,1.7410225798458e-118,-88.851742493019,93.436881561021,3.0065468214034e-125,1.9741148674549e-110,3428.7547149672,3428.7444888115,0
0.000218125,20000000,20000000,20000000,20000000,20000000,20000000,20000000,20000000,31817999.388386,35029211.286037,20000000,20000000,6.407860158962e-05,1.0077474612529,-3.4665401779506e-71,2.1198325276101e-89,-1.691305448588e-88,-7.401756451151e-69,1.0938330150307e-48,-4.6804715181905e-06,0.017921937975648,2.0875179577895e-118,-88.804088195244,93.409552849455,3.8525278107036e-125,2.4854599575913e-110,3434.9239632166,3434.9136937128,0
0.000219375,20000000,20000000,20000000,20000000,20000000,20000000,20000000,20000000,31991895.93002,35216375.135536,20000000,20000000,6.444571510791e-05,1.0078462681288,-4.401638778047e-71,2.6142867120153e-89,-2.2006426413024e-88,-9.5219103482216e-69,1.3749022647445e-48,-5.5016052890653e-06,0.021110526179269,2.5025013676809e-118,-88.757209202183,93.382864575115,4.9318819172262e-125,3.1287480478862e-110,3441.1007149515,3441.0904015243,0
0.000220625,20000000,20000000,20000000,20000000,20000000,20000000,20000000,20000000,32165861.624989,35403616.936475,20000000,20000000,6.4812829230381e-05,1.007945044302,-5.5858453079346e-71,3.2234460301618e-89,-2.862491904142e-88,-1.2245635345137e-68,1.7278298749749e-48,-6.4654694332145e-06,0.02486168530531,2.9993995106753e-118,-88.711077660755,93.356796581866,6.3076845773293e-125,3.9378814770721e-110,3447.2847574199,3447.2743994947,0
0.000221875,20000000,20000000,20000000,20000000,20000000,20000000,20000000,20000000,32339896.08308,35590936.135987,20000000,20000000,6.5179943959449e-05,1.0080437907368,-7.0830642419464e-71,3.9737588487995e-89,-3.7222401916713e-88,-1.574362146543e-68,2.1708857027138e-48,-7.5966087035919e-06,0.029273710007554,3.5942453979921e-118,-88.665663798939,93.331327215034,8.0597014096175e-125,4.9554356370935e-110,3453.4758790255,3453.4654760282,0
0.000223125,20000000,20000000,20000000,20000000,20000000,20000000,20000000,20000000,32513998.897574,35778332.161779,20000000,20000000,6.5547059299236e-05,1.0081425084292,-8.9791274929605e-71,4.8977314174912e-89,-4.8386915448398e-88,-2.0234482495958e-68,2.7269568611812e-48,-8.9237371509002e-06,0.034461880138337,4.3061780327282e-118,-88.620935533945,93.30643303657,1.0288707739373e-124,6.2348684426811e-110,3459.6738689014,3459.6634202588,0
0.000224375,20000000,20000000,20000000,20000000,20000000,20000000,20000000,20000000,32688169.642294,35965804.418629,20000000,20000000,6.5914175255824e-05,1.0082411984147,-1.1379577807101e-70,6.0353054490357e-89,-6.2880042307857e-88,-2.599810385122e-68,3.4247070810276e-48,-1.0480436390712e-05,0.04056135931574,5.1580362963119e-118,-88.57685801858,93.282088492458,1.3121900059143e-124,7.8432907488486e-110,3465.8785164232,3465.8680215626,0
0.000225625,20000000,20000000,20000000,20000000,20000000,20000000,20000000,20000000,32862407.868181,36153352.284321,20000000,20000000,6.6281291837568e-05,1.0083398617767,-1.4417685387851e-70,7.4355465715936e-89,-8.1687735263365e-88,-3.3392674061521e-68,4.300025153609e-48,-1.2305968870965e-05,0.047730581190951,6.1770643537511e-118,-88.533393111894,93.258265525998,1.6719668465986e-124,9.864939901934e-110,3472.08961065,3472.0790689997,0
0.000226875,20000000,20000000,20000000,20000000,20000000,20000000,20000000,20000000,33036713.099325,36340975.104906,20000000,20000000,6.6648409055451e-05,1.0084384996574,-1.8261674342704e-70,9.1587132447066e-89,-1.0608590169113e-87,-4.287640519993e-68,5.3978339946378e-48,-1.4446224682175e-05,0.056155204143155,7.3957489366841e-118,-88.49049876449,93.23493312789,2.1284063485417e-124,1.2405534753748e-109,3478.306939682,3478.2963506714,0
0.000228125,20000000,20000000,20000000,20000000,20000000,20000000,20000000,20000000,33211084.828348,36528672.189191,20000000,20000000,6.7015526923506e-05,1.0085371132693,-2.3123815523862e-70,1.1278791182895e-88,-1.3772498352467e-87,-5.5035217974871e-68,6.7743494239154e-48,-1.6954823353269e-05,0.066052728227407,8.852812393442e-118,-88.448128302148,93.212056812472,2.70693699148e-124,1.5597735860466e-109,3484.5302899194,3484.519652979,0
0.000229375,20000000,20000000,20000000,20000000,20000000,20000000,20000000,20000000,33385522.511053,36716442.802323,20000000,20000000,6.7382645459316e-05,1.0086357039094,-2.9271862627135e-70,1.3886597182054e-88,-1.7873897208808e-87,-7.0618008877108e-68,8.4998995827303e-48,-1.9894395407934e-05,0.077677883369454,1.0594389478742e-117,-88.406229592709,93.189598008638,3.4395297626353e-124,1.9607991693266e-109,3490.7594452062,3490.7487597681,0
0.000230625,20000000,20000000,20000000,20000000,20000000,20000000,20000000,20000000,33560025.560203,36904286.158317,20000000,20000000,6.7749764684586e-05,1.0087342729757,-3.7043428576829e-70,1.7093579249501e-88,-2.3188583131108e-87,-9.0581547835964e-68,1.0662443031994e-47,-2.3338072276206e-05,0.091328915351581,1.2675420543576e-117,-88.364744076214,93.167513351854,4.3663418601309e-124,2.4645123595989e-109,3496.9941858388,3496.9834513368,0
0.000231875,20000000,20000000,20000000,20000000,20000000,20000000,20000000,20000000,33734593.338298,37092201.411361,20000000,20000000,6.8116884625832e-05,1.0088328219862,-4.6864049085726e-70,2.103646799149e-88,-3.0072825996011e-87,-1.1614759784245e-67,1.3371957261739e-47,-2.7371217527694e-05,0.10735491642597,1.5161299148461e-117,-88.323605636513,93.145753860866,5.5377625465755e-124,3.0971092892505e-109,3503.2342874167,3503.223503287,0
0.000233125,20000000,20000000,20000000,20000000,20000000,20000000,20000000,20000000,33909225.149189,37280187.645693,20000000,20000000,6.8484005315166e-05,1.0089313526014,-5.9269866961811e-70,2.5882968428208e-88,-3.8986621638061e-87,-1.4887553076151e-67,1.6765911165698e-47,-3.209343738296e-05,0.12616437082657,1.8129818195372e-117,-88.28273928865,93.124263981637,7.016956498558e-124,3.891450808383e-109,3509.4795195092,3509.4686851904,0
0.000234375,20000000,20000000,20000000,20000000,20000000,20000000,20000000,20000000,34083920.228335,37468243.863818,20000000,20000000,6.8851126791235e-05,1.0090298666502,-7.493610296132e-70,3.1838723117599e-88,-5.05235798168e-87,-1.9075457025021e-67,2.1016086934991e-47,-3.762091414015e-05,0.14823511249588,2.167346550798e-117,-88.242059651566,93.102980475741,8.883021696245e-124,4.8887574995422e-109,3515.7296441058,3515.7187590398,0
0.000235625,20000000,20000000,20000000,20000000,20000000,20000000,20000000,20000000,34258677.731493,37656368.972792,20000000,20000000,6.9218249100303e-05,1.0091283661604,-9.4712767433845e-70,3.9155828329247e-88,-6.5449308902749e-87,-2.4432086500221e-67,2.6337081197439e-47,-4.4089112601563e-05,0.17412592350819,2.5902127366773e-117,-88.201469174572,93.081831130021,1.1234905229726e-123,6.1407376579524e-109,3521.9844138156,3521.9734774477,0
0.000236875,20000000,20000000,20000000,20000000,20000000,20000000,20000000,20000000,34433496.721578,37844561.768265,20000000,20000000,6.9585372297522e-05,1.0092268533944,-1.1966942469311e-69,4.8143246992709e-88,-8.4750667135224e-87,-3.1280593400888e-67,3.2996895027982e-47,-5.1655916870075e-05,0.20449003755074,3.0946266811608e-117,-88.160856074441,93.060733259268,1.4196252258886e-123,7.7122602848259e-109,3528.2435697725,3528.2325815527,0
0.000238125,20000000,20000000,20000000,20000000,20000000,20000000,20000000,20000000,34608376.153409,38032820.915903,20000000,20000000,6.9952496448416e-05,1.0093253308902,-1.5115126463778e-69,5.9179537710204e-88,-1.0969889196689e-86,-4.0032469059887e-67,4.1330121325368e-47,-6.0505263084296e-05,0.24009085405095,3.6960652440302e-117,-88.120091940285,93.039591967687,1.7921401759622e-123,9.6847149659903e-109,3534.506839199,3534.4957985824,0
0.000239375,20000000,20000000,20000000,20000000,20000000,20000000,20000000,20000000,34783314.855983,38221144.929782,20000000,20000000,7.0319621630612e-05,1.0094238015104,-1.9084928264156e-69,7.2728411190604e-88,-1.419304257234e-86,-5.1211331548923e-67,5.1754360472156e-47,-7.0851342834083e-05,0.28182021586467,4.4128722778534e-117,-88.079028954134,93.018298133573,2.2602788743328e-123,1.216023867444e-108,3540.7739325705,3540.7628390181,0
0.000240625,20000000,20000000,20000000,20000000,20000000,20000000,20000000,20000000,34958311.511891,38409532.147229,20000000,20000000,7.0686747935852e-05,1.0095222816039,-2.4088804160552e-69,8.9357737722877e-88,-1.8355026593007e-86,-6.5482979432508e-67,6.4790646688736e-47,-8.2943462185357e-05,0.33071965761518,5.2667680707819e-117,-88.037496665581,92.996726071717,2.848006763077e-123,1.5267038597361e-108,3547.0445403155,3547.0333932955,0
0.000241875,20000000,20000000,20000000,20000000,20000000,20000000,20000000,20000000,35133364.633395,38597980.699563,20000000,20000000,7.1053875472354e-05,1.009620887359,-3.0393531602093e-69,1.0976276608209e-87,-2.3726392737342e-86,-8.3693305745002e-67,8.1088854830164e-47,-9.7071652471693e-05,0.38800509371764,6.2834421533475e-117,-87.995298254294,92.974730826687,3.5851336666675e-123,1.9166103402185e-108,3553.318328976,3553.3071279645,0
0.000243125,20000000,20000000,20000000,20000000,20000000,20000000,20000000,20000000,35308472.53462,38786488.478022,20000000,20000000,7.1421004367536e-05,1.0097194970785,-3.8333892796639e-69,1.3479448104529e-87,-3.0654566246499e-86,-1.0691604641732e-66,1.0145928887729e-46,-0.00011357314123999,0.45513469423352,7.4932406162416e-117,-87.952206200469,92.952145036118,4.508692009121e-123,2.4059677506487e-108,3559.5949367388,3559.5836812209,0
0.000244375,20000000,20000000,20000000,20000000,20000000,20000000,20000000,20000000,35483633.299216,38975053.094117,20000000,20000000,7.1788134771212e-05,1.009818115415,-4.8329731483776e-69,1.6549422999404e-87,-3.9585250514413e-86,-1.3651279718306e-66,1.2691193924257e-46,-0.00013283980487565,0.53392608316538,8.9319596731997e-117,-87.907957276072,92.928775302287,5.6646254478542e-123,3.0201980066912e-108,3565.8739682374,3565.8626577089,0
0.000245625,20000000,20000000,20000000,20000000,20000000,20000000,20000000,20000000,35658844.742726,39163671.833456,20000000,20000000,7.2155266859286e-05,1.0099167477094,-6.0907185820538e-69,2.0313599708537e-87,-5.1089604422676e-86,-1.7420828309252e-66,1.5870524870454e-46,-0.00015532673830011,0.62618436650729,1.06417574445e-116,-87.862246754761,92.904397993894,7.1098529309483e-123,3.7912791047239e-108,3572.1549885068,3572.1436224747,0
0.000246875,20000000,20000000,20000000,20000000,20000000,20000000,20000000,20000000,35834104.368758,39352341.601973,20000000,20000000,7.2522400838052e-05,1.0100154001074,-7.6722786187153e-69,2.4927800592613e-87,-6.5898665742823e-86,-2.2218451451202e-66,1.9840666160666e-46,-0.00018156209137604,0.73417609735834,1.2672195654394e-116,-87.814721728068,92.878754393807,8.9147850039627e-123,4.7594712541858e-108,3578.4375159543,3578.4260939384,0
0.000248125,20000000,20000000,20000000,20000000,20000000,20000000,20000000,20000000,36009409.317893,39541058.863252,20000000,20000000,7.2889536949178e-05,1.010114079695,-9.6593787133752e-69,3.0582570095399e-87,-8.4946830298508e-86,-2.8319821842474e-66,2.4796776650666e-46,-0.00021215833576677,0.86054178781392,1.5081421938616e-116,-87.764973399356,92.851545095493,1.1166382474994e-122,5.9755160829331e-108,3584.7210141925,3584.709535726,0
0.000249375,20000000,20000000,20000000,20000000,20000000,20000000,20000000,20000000,36184756.308046,39729819.565452,20000000,20000000,7.3256675475483e-05,1.0102127946554,-1.2155321802553e-68,3.75108608536e-87,-1.094265906945e-85,-3.6072679195154e-66,3.0981750152128e-46,-0.00024782513919671,1.0083558633873,1.7937501450957e-116,-87.712528213284,92.822423535574,1.3971862131039e-122,7.5034476350618e-108,3591.0048825527,3590.9933471824,0
0.000250625,20000000,20000000,20000000,20000000,20000000,20000000,20000000,20000000,36360141.564763,39918619.056048,20000000,20000000,7.3623816747622e-05,1.0103115544521,-1.5288451381004e-68,4.599741295963e-87,-1.4085718961813e-85,-4.5914897147605e-66,3.8697770191686e-46,-0.00028938403517846,1.1811957807844,2.1319903197103e-116,-87.656837662867,92.790988537416,1.7463169840636e-122,9.4241987369023e-108,3597.2884450739,3597.2768523606,0
0.000251875,20000000,20000000,20000000,20000000,20000000,20000000,20000000,20000000,36535560.739593,40107451.982237,20000000,20000000,7.3990961151803e-05,1.0104103700398,-1.9218773714691e-68,5.6390198903794e-87,-1.8117034342002e-85,-5.8396740958573e-66,4.832062649057e-46,-0.00033778508371231,1.3832215833034,2.5321141668818e-116,-87.597266600834,92.756775722965,2.1802357500357e-122,1.1840247526314e-107,3603.5709377311,3603.5592872481,0
0.000253125,20000000,20000000,20000000,20000000,20000000,20000000,20000000,20000000,36711008.814321,40296312.174526,20000000,20000000,7.4358109138693e-05,1.0105092541105,-2.4145493912732e-68,6.9114389107558e-87,-2.3281672257249e-85,-7.4208133452318e-66,6.0317442840232e-46,-0.00039412571993795,1.6192673076333,3.004856764227e-116,-87.533079865687,92.719247633442,2.7188016058884e-122,1.4881633234228e-107,3609.8514936338,3609.8397849645,0
0.000254375,20000000,20000000,20000000,20000000,20000000,20000000,20000000,20000000,36886479.988355,40485192.510462,20000000,20000000,7.4725261233671e-05,1.0106082213764,-3.0316232317834e-68,8.4689393809105e-87,-2.9889739906149e-85,-9.4211831502822e-66,7.5268615923204e-46,-0.00045967198015563,1.894945798825,3.5626293214594e-116,-87.463427021189,92.67778237797,3.3862931061109e-122,1.8713787560561e-107,3616.129125887,3616.1173586198,0
0.000255625,20000000,20000000,20000000,20000000,20000000,20000000,20000000,20000000,37061967.545934,40674084.754928,20000000,20000000,7.50924180486e-05,1.0107072888989,-3.8038246900784e-68,1.0374966061802e-86,-3.8332492155308e-85,-1.1948346777222e-65,9.3894948400178e-46,-0.00053588227384051,2.2167686323198,4.2197225151861e-116,-87.387324994381,92.631660613688,4.2123138029926e-122,2.354779269952e-107,3622.4027077662,3622.3908814871,0
0.000256875,20000000,20000000,20000000,20000000,20000000,20000000,20000000,20000000,37237463.699127,40862979.372685,20000000,20000000,7.5459580295318e-05,1.0108064764665,-4.7692028157776e-68,1.2707005846469e-86,-4.9101895191066e-85,-1.5135940327249e-65,1.1709118491192e-45,-0.00062443383069053,2.5922829774073,4.9925167426016e-116,-87.303638393424,92.580050636227,5.2328560417341e-122,2.9653911006794e-107,3628.6709498139,3628.6590640942,0
0.000258125,20000000,20000000,20000000,20000000,20000000,20000000,20000000,20000000,37412959.401587,41051865.307989,20000000,20000000,7.582674880105e-05,1.0109058070325,-5.9747667637701e-68,1.555968642981e-86,-6.2814132909844e-85,-1.914932225069e-65,1.459674360825e-45,-0.00072725188616768,3.0302273569208,5.8996938485385e-116,-87.211057284825,92.521991344191,6.4915410184326e-122,3.7379567192088e-107,3634.9323734125,3634.9204277909,0
0.000259375,20000000,20000000,20000000,20000000,20000000,20000000,20000000,20000000,37588444.126899,41240729.725072,20000000,20000000,7.6193924525958e-05,1.0110053072175,-7.4784422041404e-68,1.9048559635286e-86,-8.0237478026585e-85,-2.4192142259381e-65,1.819003152037e-45,-0.00084654156792265,3.5407083529559,6.9624431116637e-116,-87.10807221785,92.456372822809,8.041051759332e-122,4.7173451832748e-107,3641.185280338,3641.1732742944,0
0.000260625,20000000,20000000,20000000,20000000,20000000,20000000,20000000,20000000,37763905.603851,41429557.702009,20000000,20000000,7.6561108583055e-05,1.0111050078893,-9.3513890385009e-68,2.3314721645736e-86,-1.023247934224e-84,-3.051383152572e-65,2.2659603048476e-45,-0.00098482229710466,4.1354003630534,8.204652183479e-116,-86.992946311539,92.381914281869,9.9447730252587e-122,5.9618132425853e-107,3647.4277177432,3647.4156506621,0
0.000261875,20000000,20000000,20000000,20000000,20000000,20000000,20000000,20000000,37939329.499151,41618331.868995,20000000,20000000,7.6928302260689e-05,1.0112049448277,-1.1680717544317e-67,2.8530456440247e-86,-1.3025063457746e-84,-3.8417926088102e-65,2.8216819278942e-45,-0.0011449643078894,4.8277705071178,9.6530709380807e-116,-86.863684253595,92.297139079916,1.2278648136525e-121,7.5474626478546e-107,3653.6574379594,3653.6453090786,0
0.000263125,20000000,20000000,20000000,20000000,20000000,20000000,20000000,20000000,38114699.035826,41807031.980303,20000000,20000000,7.729550704783e-05,1.0113051594892,-1.4572628927343e-67,3.4906130250954e-86,-1.6545243028879e-84,-4.8270993892109e-65,3.5123374169747e-45,-0.001330099344924,5.6333306970064,1.133743212786e-115,-86.717998126612,92.200346581772,1.5133257620078e-121,9.5744003117326e-107,3659.8718524517,3659.8596607925,0
0.000264375,20000000,20000000,20000000,20000000,20000000,20000000,20000000,20000000,38289994.532828,41995634.407132,20000000,20000000,7.7662724662307e-05,1.0114056998837,-1.815598543581e-67,4.2698615183622e-86,-2.0967445017714e-84,-6.0511724678723e-65,4.3703119867731e-45,-0.0015436468304621,6.5699186752716,1.3290505943981e-115,-86.553270069923,92.089580629855,1.8616119391809e-121,1.2175354670946e-106,3666.0679792062,3666.0557234782,0
0.000265625,20000000,20000000,20000000,20000000,20000000,20000000,20000000,20000000,38465192.847994,42184111.536226,20000000,20000000,7.8029957082165e-05,1.0115066215805,-2.2586280520434e-67,5.2221580696298e-86,-2.6501213522754e-84,-7.5659440068701e-65,5.4356647725451e-45,-0.0017903174916954,7.6580094645066,1.5548053656244e-115,-86.366511907475,91.962594481878,2.2854206954264e-121,1.5527884770968e-106,3672.2423827792,3672.2300612551,0
0.000266875,20000000,20000000,20000000,20000000,20000000,20000000,20000000,20000000,38640266.70268,42372431.056625,20000000,20000000,7.8397206580184e-05,1.0116079888621,-2.8049925751171e-67,6.3858063623213e-86,-3.3395277751064e-84,-9.4320866944684e-65,6.757927912616e-45,-0.0020749378489965,8.9210580911254,1.8148624817215e-115,-86.134478258028,91.880977066,2.7996684727662e-121,1.9871923204665e-106,3678.3911062052,3678.3787165549,0
0.000268125,20000000,20000000,20000000,20000000,20000000,20000000,20000000,20000000,38815183.861876,42560555.114245,20000000,20000000,7.8764475761531e-05,1.0117098760481,-3.4768692055479e-67,7.8075811456076e-86,-4.194064041455e-84,-1.1719347211591e-64,8.3983291323934e-45,-0.0024029453006854,10.385873596859,2.1133108437459e-115,-85.862012391151,91.791690260659,3.4217874691671e-121,2.5535364155099e-106,3684.509593939,3684.497133014,0
0.000269375,20000000,20000000,20000000,20000000,20000000,20000000,20000000,20000000,38989906.138755,42748439.311474,20000000,20000000,7.9131767604384e-05,1.0118123690165,-4.300403134422e-67,9.5445989023453e-86,-5.2471800353729e-84,-1.4506297208279e-64,1.0432543084542e-44,-0.0027792513403562,12.08302317043,2.4543896793198e-115,-85.551195427744,91.689088343356,4.1720506619118e-121,3.297199242284e-106,3690.5926050177,3690.5800685753,0
0.000270625,20000000,20000000,20000000,20000000,20000000,20000000,20000000,20000000,39164388.187614,42936031.526985,20000000,20000000,7.9499085503164e-05,1.0119155669528,-5.306085393009e-67,1.1666594225025e-85,-6.5364896886149e-84,-1.7879182246501e-64,1.2954107498056e-44,-0.0032098892325036,14.047263691497,2.8765882176304e-115,-85.182369663281,91.570783631207,5.073938159181e-121,4.2818687588519e-106,3696.63411568,3696.6214980329,0
0.000271875,20000000,20000000,20000000,20000000,20000000,20000000,20000000,20000000,39338576.044571,43123270.529997,20000000,20000000,7.9866433313779e-05,1.0120195843678,-6.5290142216312e-67,1.425868165917e-85,-8.1031201242933e-84,-2.1929461059014e-64,1.6078682720172e-44,-0.0037020391165337,16.317996123897,3.3840067594112e-115,-84.72653638563,91.43397073111,6.1545719799968e-121,5.5983320257114e-106,3702.6272107802,3702.6145043579,0
0.000274375,20000000,20000000,20000000,20000000,20000000,20000000,20000000,20000000,39686234.699643,43496898.19842,20000000,20000000,8.0601218599108e-05,1.0122443757641,-9.0571888077789e-67,1.9519834231303e-85,-1.1388350003906e-83,-3.0125995810818e-64,2.2695790527919e-44,-0.0044675771779535,19.851431577097,4.2703667085634e-115,-89.605729131244,97.831757571841,7.9104491178595e-121,8.8179765892389e-106,3711.0908251998,3711.0779270409,0
0.000275625,20000000,20000000,20000000,20000000,20000000,20000000,20000000,20000000,39882755.281868,43707600.351934,20000000,20000000,8.0968671618165e-05,1.0123460327035,-1.1398368630643e-66,2.4676284851537e-85,-1.4326093655531e-83,-3.7504738601373e-64,2.9140043647961e-44,-0.0053319296135759,24.165781104462,5.2300057901275e-115,-78.793609886509,86.059846517625,1.0359366001373e-120,1.2273710022111e-105,3718.2080310187,3718.1950027785,0
0.000276875,20000000,20000000,20000000,20000000,20000000,20000000,20000094.92547,20000000,40038503.177007,43874665.281786,20000000,20000000,8.1336180176088e-05,1.0124499092495,-1.4186699473942e-66,3.1003437183742e-85,-1.7748700297076e-83,-4.5968539268367e-64,3.7149248163475e-44,-0.0062827163590101,28.791519421727,6.2782497511881e-115,-78.525271603956,86.304060799826,1.2779333827134e-120,1.7253187255542e-105,3725.0515965602,3725.0384166857,0
0.000278125,20000000,20000000,20000000,20000000,20000000,20000000,20004331.835663,20000000,40194861.6864,44042667.01557,20000000,20000000,8.1703748751948e-05,1.0125583216473,-1.7298289800188e-66,3.829638031286e-85,-2.1472665127587e-83,-5.4987840376583e-64,4.656623220063e-44,-0.0072586705176901,33.698569108008,7.4152958048242e-115,-79.791578418497,88.566109770404,1.5423354877234e-120,2.4170638150399e-105,3731.121070416,3731.1077133403,0
0.000280625,20000000,20000000,20000000,20000000,20000000,20000000,20033401.837622,20000000,40523246.74281,44395616.172975,20000000,20000000,8.2439066545735e-05,1.0127971200119,-2.323623713786e-66,5.2873604643288e-85,-2.8298406931917e-83,-7.0661028696569e-64,6.624712327741e-44,-0.0086441046061441,40.401905383357,9.6681547658491e-115,-84.412960385357,96.052823826574,1.9705627626943e-120,4.3553065817207e-105,3739.0682852542,3739.0545014641,0
0.000281875,20000000,20000000,20000000,20000000,20000000,20000000,20065006.506729,20000000,40714186.795422,44600241.660865,20000000,20000000,8.2806822726632e-05,1.0129084037198,-2.8300521683176e-66,6.6363028749912e-85,-3.3822945192102e-83,-8.3324167048851e-64,8.4668518421356e-44,-0.010147773428742,46.533800546826,1.2011550169074e-114,-75.07160188628,85.5810711676,2.5608447494674e-120,6.5717524889843e-105,3745.3948849975,3745.3808218129,0
0.000283125,20000000,20000000,20000000,20000000,20000000,20000000,20112031.198382,20000000,40868343.949883,44765640.438554,20000000,20000000,8.3174660834799e-05,1.0130223602522,-3.4037804651688e-66,8.2835704347115e-85,-3.9710178605227e-83,-9.6338275230243e-64,1.0755716266233e-43,-0.011720468268623,51.764599196971,1.4515779801881e-114,-74.050329231633,85.348545035425,3.1687502877516e-120,1.0182925673792e-104,3751.4282233628,3751.4138378429,0
0.000284375,20000000,20000000,20000000,20000000,20000000,20000000,20172224.097771,20000000,41021205.227093,44930181.439734,20000000,20000000,8.3542572484761e-05,1.0131401322841,-4.0192493709874e-66,1.0194498877003e-84,-4.5728089219849e-83,-1.08978557261e-63,1.3461731828942e-43,-0.013323332798552,55.366738181731,1.8373323417614e-114,-74.298143680861,87.055515049982,3.9277883700054e-120,1.594629407757e-104,3756.7495322745,3756.7347923998,0
0.000286875,20000000,20000000,20000000,20000000,20000000,20000000,20310780.244173,20000000,41337942.517432,45272165.959596,20000000,20000000,8.4278594184202e-05,1.0133951119087,-5.1337247598412e-66,1.4164130836349e-84,-5.5997154207931e-83,-1.2783153640892e-63,1.9147651458491e-43,-0.015535869324259,60.398538740137,3.793025597097e-114,-76.895347431435,93.793244420397,5.5340314292217e-120,3.6560592391478e-104,3763.6474408249,3763.6318884575,0
0.000288125,20000000,20000000,20000000,20000000,20000000,20000000,20391733.528167,20000000,41518549.476978,45468712.505432,20000000,20000000,8.4646593509844e-05,1.0135111822955,-6.0519963805437e-66,1.7652528563439e-84,-6.5700287779604e-83,-1.4528460269099e-63,2.4017965832797e-43,-0.018103466053142,58.268193344985,6.0724203194768e-114,-69.871933386693,84.334425989029,7.7568485396144e-120,6.1282247286586e-104,3769.0375755617,3769.0216101825,0
0.000289375,20000000,20000000,20000000,20000000,20000000,20000000,20466587.239277,20000000,41664965.045821,45629458.596998,20000000,20000000,8.5014582046578e-05,1.013627064251,-7.0430570835391e-66,2.1784048407877e-84,-7.6343169068745e-83,-1.6310978979182e-63,2.9628052173081e-43,-0.020651631018908,59.601872106849,9.3180958905114e-114,-69.225604304869,83.779385148756,1.0283764229234e-119,1.027271988114e-103,3774.1231545616,3774.1067344017,0
0.000291875,20000000,20000000,20000000,20000000,20000000,20000000,20622763.807942,20000000,41956958.507651,45946733.609019,20000000,20000000,8.5750612545009e-05,1.0138757236955,-8.7027272395135e-66,3.0014935801664e-84,-9.1593787880247e-83,-1.8798464922212e-63,4.0542724624103e-43,-0.024084052371553,63.570640574716,1.8088559565141e-113,-72.156003683914,90.136756017212,1.5679438454911e-119,2.4422520330849e-103,3780.5396816974,3780.522205693,0
0.000294375,20000000,20000000,20000000,20000000,20000000,20000000,20799518.585384,20000000,42292208.87669,46312480.393816,20000000,20000000,8.6486428474334e-05,1.0141173096471,-1.0871583020988e-65,4.1267478942979e-84,-1.1132731797707e-82,-2.2261109286809e-63,5.5565910784649e-43,-0.029255934412026,61.739329526359,3.1457663563422e-113,-70.732729630389,87.669272180585,2.573365873214e-119,5.0220998823129e-103,3787.4010793296,3787.3825123142,0
0.000295625,20000000,20000000,20000000,20000000,20000000,20000000,20884445.472489,20000000,42450591.597525,46485991.214482,20000000,20000000,8.6854115705586e-05,1.0142251427898,-1.2785312330324e-65,5.0414318908219e-84,-1.3058395412375e-82,-2.5693516637583e-63,6.8230005276015e-43,-0.035111491810947,56.175006926492,4.223789417871e-113,-66.645472842515,77.820390521438,3.6907330494782e-119,7.0043176154662e-103,3792.7928287096,3792.7737579752,0
0.000298125,20000000,20000000,20000000,20000000,20000000,20000000,21027063.397616,20000000,42699280.519859,46757500.105079,20000000,20000000,8.7589569519373e-05,1.0144576708172,-1.5813447424868e-65,6.766785505812e-84,-1.6042218120341e-82,-3.0410436083096e-63,9.1557618995133e-43,-0.041719708617747,60.379429057167,6.0989826413904e-113,-71.012997938678,84.021671162286,5.6192127473067e-119,1.175668032123e-102,3799.7237559304,3799.7035931755,0
0.000300625,20000000,20000000,20000000,20000000,20000000,20000000,21191356.817518,20000000,42992000.22363,47076555.627712,20000000,20000000,8.8324985183482e-05,1.0146917928652,-1.9594704825642e-65,9.0404838488487e-84,-1.9677310698457e-82,-3.602214557815e-63,1.2250593222416e-42,-0.051484642872278,60.264892646,9.0277217880955e-113,-71.318679995088,84.745955973674,8.9037226270022e-119,1.8558824069681e-102,3806.3649640301,3806.3437008384,0
0.000303125,20000000,20000000,20000000,20000000,20000000,20000000,21355121.747118,20000000,43290458.847395,47401171.064113,20000000,20000000,8.9060312939913e-05,1.0149226799971,-2.4787886619959e-65,1.2237466129099e-83,-2.4564086761334e-82,-4.3554645232294e-63,1.6665760855243e-42,-0.065153421861959,59.166795527039,1.3488907571508e-112,-70.93047495579,83.534195840361,1.4365709589666e-118,2.8771620419757e-102,3813.6749477902,3813.6526007346,0
0.000305625,20000000,20000000,20000000,20000000,20000000,20000000,21513235.40348,20000000,43581228.000538,47716380.71598,20000000,20000000,8.9795575224276e-05,1.0151516278629,-3.1643812993021e-65,1.6629534000393e-83,-3.0895424677053e-82,-5.3141622841317e-63,2.2832851896662e-42,-0.083205252851049,58.650493101471,2.0159924293172e-112,-71.020406956813,82.678128851718,2.331048486597e-118,4.4624559998175e-102,3821.3197204812,3821.2962871516,0
0.000308125,20000000,20000000,20000000,20000000,20000000,20000000,21668684.945458,20000000,43866453.997858,48024879.335654,20000000,20000000,9.0530823878925e-05,1.0153805206052,-4.0340968324228e-65,2.2523296695997e-83,-3.8808557275968e-82,-6.4768632149135e-63,3.1218075765501e-42,-0.10603403564133,58.651494891497,3.0036020326568e-112,-71.266270888107,82.518461746322,3.7783521340846e-118,6.9590150005026e-102,3828.9615024005,3828.9369581058,0
0.000310625,20000000,20000000,20000000,20000000,20000000,20000000,21824155.29372,20000000,44150419.026029,48332047.422095,20000000,20000000,9.1266102174221e-05,1.01561019771,-5.1233694148619e-65,3.0415923946854e-83,-4.8619044467385e-82,-7.8677845753959e-63,4.2493093936397e-42,-0.13458272509512,58.778326912409,4.4698543212546e-112,-71.287330484079,82.716599583314,6.1204675128802e-118,1.0913953198496e-101,3836.5205927471,3836.4949024356,0
0.000313125,20000000,20000000,20000000,20000000,20000000,20000000,21980303.8205,20000000,44435237.825395,48640669.178895,20000000,20000000,9.2001427876312e-05,1.0158407734123,-6.4895587030128e-65,4.1057735340193e-83,-6.0838079374634e-82,-9.5357145646294e-63,5.7598127103384e-42,-0.17034462066328,58.836695972581,6.6504670884057e-112,-71.084664250985,82.972943785852,9.9245284777593e-118,1.7180170720675e-101,3844.0257810651,3843.9989098105,0
0.000315625,20000000,20000000,20000000,20000000,20000000,20000000,22136770.327558,20000000,44721320.058422,48951204.382528,20000000,20000000,9.273679658825e-05,1.0160721297907,-8.2075943547646e-65,5.5463286643081e-83,-7.6118957726061e-82,-1.1541914396434e-62,7.7742307539509e-42,-0.21519564262936,58.802949638634,9.8757878138292e-112,-70.839278951219,83.147938285317,1.6119137504096e-117,2.7070189043081e-101,3851.4994483948,3851.4713664441,0
0.000318125,20000000,20000000,20000000,20000000,20000000,20000000,22293065.53376,20000000,45008361.904105,49263018.471696,20000000,20000000,9.3472195637796e-05,1.0163041684724,-1.036747495849e-64,7.4949546123315e-83,-9.5243155487054e-82,-1.3954995012687e-62,1.0440716510162e-41,-0.27135051744698,58.705527629955,1.4596752739553e-111,-70.676241624885,83.214668305152,2.6229487044769e-117,4.2600719788907e-101,3858.9397800349,3858.9104636863,0
0.000320625,20000000,20000000,20000000,20000000,20000000,20000000,22448846.022284,20000000,45295870.397545,49575258.339821,20000000,20000000,9.4207617036629e-05,1.0165369161181,-1.3075573353021e-64,1.0123966741992e-82,-1.1915833991895e-81,-1.6852401424296e-62,1.3936713900875e-41,-0.34143433553738,58.569427266442,2.1425854992804e-111,-70.602868906482,83.211691493867,4.2792179007832e-117,6.6894392853672e-101,3866.3359105237,3866.3053408243,0
0.000323125,20000000,20000000,20000000,20000000,20000000,20000000,22603898.120426,20000000,45583442.29626,49887368.443674,20000000,20000000,9.4943063268703e-05,1.0167705611523,-1.6457487253468e-64,1.3663326922661e-82,-1.490408855931e-81,-2.0322909247988e-62,1.8470638182306e-41,-0.42856957971583,58.406287857396,3.118977550475e-111,-70.558714733978,83.202581089512,7.0091269004814e-117,1.0483178429387e-100,3873.6767325875,3873.6448933912,0
0.000325625,20000000,20000000,20000000,20000000,20000000,20000000,22758068.405681,20000000,45870933.726927,50199293.560436,20000000,20000000,9.5678546190973e-05,1.0170054417438,-2.0660458884496e-64,1.8423642545171e-82,-1.8636637978907e-81,-2.4467582665631e-62,2.4282279776992e-41,-0.53642636324069,58.215639873641,4.4979199789278e-111,-70.479335874636,83.241662322256,1.1549664483972e-116,1.6408843605953e-100,3880.9504736325,3880.9173496892,0
0.000328125,20000000,20000000,20000000,20000000,20000000,20000000,22911199.643172,20000000,46158503.797571,50511411.134242,20000000,20000000,9.6414082983675e-05,1.0172420150483,-2.5854090444721e-64,2.482566187889e-82,-2.3298954956042e-81,-2.9399434016429e-62,3.1644858843424e-41,-0.66922545358674,58.069561715237,6.4170207213824e-111,-70.328498025909,83.385098604047,1.9200895213315e-116,2.5676762118833e-100,3888.1419460085,3888.1075210013,0
0.000330625,20000000,20000000,20000000,20000000,20000000,20000000,23063073.903402,20000000,46446574.72656,50824366.44566,20000000,20000000,9.7149693220836e-05,1.0174808553637,-3.2227531593188e-64,3.3438651332952e-82,-2.9124066372471e-81,-3.5242029054821e-62,4.0875398525535e-41,-0.8316740338611,57.885355296663,9.0380789052692e-111,-70.097051198438,83.92075695673,3.2340464182618e-116,4.0198716659273e-100,3895.2307325187,3895.1949861245,0
0.000333125,20000000,20000000,20000000,20000000,20000000,20000000,23213364.25225,20000000,46735851.850486,51139052.220135,20000000,20000000,9.7885399238348e-05,1.0177227282256,-3.9979786354129e-64,4.5031904406699e-82,-3.6404049721132e-81,-4.2125757440841e-62,5.2360666546791e-41,-1.0287705126273,57.638091830029,1.2531591862567e-110,-69.784182410969,84.757069350521,5.555524009579e-116,6.3007234389842e-100,3902.1898064079,3902.1527086271,0
0.000335625,20000000,20000000,20000000,20000000,20000000,20000000,23361591.400195,20000000,47027605.436802,51456959.177853,20000000,20000000,9.8621230306824e-05,1.0179688181065,-4.9296700633093e-64,6.180724425378e-82,-4.5502069441743e-81,-5.0178313637454e-62,6.6598879544358e-41,-1.2653372775944,57.293008933494,1.7044640463448e-110,-69.375782205996,85.971964867349,9.8476639817245e-116,9.8960453218984e-100,3908.9829575473,3908.9444568006,0
0.000338125,20000000,20000000,20000000,20000000,20000000,20000000,23507066.373864,20000000,47324607.284813,51781289.90027,20000000,20000000,9.9357232379919e-05,1.0182215198127,-6.0296882267122e-64,1.0789998331155e-81,-5.6856669860214e-81,-5.949915151169e-62,8.4260563942083e-41,-1.5449012768841,56.79607503874,2.2645297915694e-110,-68.821293721693,87.980863085208,1.848841732848e-115,1.5599038586107e-99,3915.5583821742,3915.5183758224,0
0.000340625,20000000,20000000,20000000,20000000,20000000,20001916.579435,23648816.048235,20000000,47634568.6291,52120890.230464,20000000,20000000,0.0001000935070407,1.0184882447328,-7.2819157743756e-64,2.0280159344586e-81,-7.0899821708857e-81,-7.0052580424713e-62,1.0628206768766e-40,-1.8655722681361,56.132702638175,3.2569512966422e-110,-67.943636905813,94.271236787806,4.0105035617599e-115,2.4761871976291e-99,3921.8214199709,3921.7796031126,0
0.000343125,20000000,20000000,20000000,20000000,20000000,20009139.104203,23785527.338707,20000000,47993204.263118,52508567.885498,20000000,20000000,0.00010083018462935,1.0187595629685,-8.6420246555375e-64,3.9938575182614e-81,-8.8284406519944e-81,-8.1799331755708e-62,1.2724296650952e-40,-2.21979615963,55.774548265485,6.0822372660822e-110,-66.599909047481,101.03396649505,1.0205581983522e-114,3.9602994774913e-99,3927.639942965,3927.5959808154,0
0.000345625,20000000,20000000,20000000,20000000,20000000,20035421.233184,23903100.133196,20000000,48366536.874148,52901443.763378,20000000,20000000,0.00010156721899941,1.0190162103744,-1.0173093695738e-63,5.2604098470778e-81,-1.1049633815232e-80,-9.5119697360528e-62,1.6424491754543e-40,-2.6132052694037,55.4537161491,9.729174301175e-110,-65.281166411496,99.710051138775,1.2343950510737e-114,6.4398410624712e-99,3933.0005496659,3932.9550198932,0
0.000348125,20000000,20000000,20000000,20000000,20000000,20098901.644235,24017926.069364,20000000,48656236.696693,53201107.884183,20000000,20000000,0.00010230449839973,1.0192594207687,-1.2033329369119e-63,1.0323118700075e-80,-1.4110095584462e-80,-1.1140188613953e-61,2.269382607846e-40,-3.0510203535909,59.079235024553,1.5059256581784e-109,-64.195925579515,99.837308499613,1.5375037131255e-114,1.0550209269899e-98,3937.864409355,3937.8183044926,0
0.000350625,20000000,20000000,20000000,20000000,20000000,20212406.569638,24154116.937652,20000000,48851803.138504,53398158.135794,20000000,20000000,0.0001030416663019,1.0195001564804,-1.4368442958925e-63,2.782969773346e-80,-1.8679791992403e-80,-1.3399626451794e-61,3.1335199477922e-40,-3.5725865773966,63.686934616665,3.5725058645209e-109,-59.045848998612,96.661764135987,2.140798031416e-114,1.7909797487501e-98,3942.3858459799,3942.3392843788,0
0.000353125,20000000,20000000,20000000,20000000,20000000,20362753.628621,24325106.609349,20000000,48995259.039093,53539532.268696,20000000,20000000,0.00010377797690383,1.0197410870996,-1.6470272443675e-63,6.7490896699601e-80,-2.4076214194128e-80,-1.5704936007419e-61,4.3277385479445e-40,-4.2823784999587,66.063169653108,7.7798176763598e-109,-53.224963196304,94.686450728308,2.983422302813e-114,3.7707960471704e-98,3946.7748589046,3946.7266644874,0
0.000355625,20000000,20000000,20000000,20000000,20000000,20540643.571803,24506373.248155,20000000,49123696.323143,53690098.97876,20000000,20000000,0.00010451288076021,1.0199799605341,-1.9122480510343e-63,1.1365363286636e-79,-2.8895353335846e-80,-1.7459470329401e-61,5.5885370895352e-40,-5.2704753673832,65.020773269072,1.4359814690656e-108,-49.541895920595,95.336132665484,3.8962673148826e-114,8.2769956457245e-98,3951.7532646395,3951.7026109996,0
0.000358125,20000000,20000000,20000000,20000000,20000000,20716891.596366,24682001.58053,20000000,49250956.731983,53843093.578298,20000000,20000000,0.00010524697378092,1.0202216076318,-2.5381790608306e-63,1.4741559207996e-79,-3.4887874623336e-80,-1.7357377221095e-61,7.0825778971028e-40,-6.4521082459179,63.859654518229,2.3684840105422e-108,-48.630267902813,97.519214253343,5.0006888053511e-114,1.0469454704061e-97,3958.0758795618,3958.0243235093,0
0.000360625,20000000,20000000,20000000,20000000,20000000,20879883.170994,24856155.716978,20000000,49389145.215957,53998590.160962,20000000,20000000,0.00010598083526713,1.0204731943682,-2.8198381692226e-63,1.8528818503662e-79,-3.6123369370901e-80,-2.0404959746728e-61,9.2186210417976e-40,-7.5271135578172,65.385664164759,3.6181210735572e-108,-49.357920502489,92.744833362815,6.4830514895915e-114,1.0776684950561e-97,3964.8970209866,3964.84547301,0
0.000363125,20000000,20000000,20000000,20000000,20000000,21042818.388178,25040285.111228,20000000,49554757.255002,54181422.867584,20000000,20000000,0.00010671515225784,1.0207385364153,-3.2167042644113e-63,2.5044799917985e-79,-4.5010726279981e-80,-2.5868619699174e-61,1.229636669217e-39,-8.3698348887553,68.01038199088,5.2640008010137e-108,-49.234454456776,86.840344558619,8.4834282120608e-114,1.524097251095e-97,3971.3460688069,3971.2933888196,0
0.000365625,20000000,20000000,20000000,20000000,20000000,21215021.428627,25240514.329694,20000000,49750399.466985,54404635.409739,20000000,20000000,0.00010745139903144,1.0210114991986,-3.5718084822561e-63,3.5753538750586e-79,-5.8568885223945e-80,-3.1061972481596e-61,1.6427491331915e-39,-9.8872219708157,68.977834525099,7.5561001143599e-108,-48.289607597308,75.353770610289,1.1078369904199e-113,4.0221567570222e-97,3977.2002780918,3977.1446963011,0
0.000366875,20000000,20000000,20000000,20000000,20000000,21304348.116625,25342859.667041,20000000,49854957.38065,54526868.784399,20000000,20000000,0.00010782006693159,1.0211387624262,-3.8325387934017e-63,4.3854235017732e-79,-6.8032194383977e-80,-3.4055867837538e-61,1.9484788138459e-39,-11.726604605803,64.100433656911,1.0171459341575e-107,-47.399801112545,69.866536579342,1.2861934409092e-113,8.2792024344204e-97,3980.96390181,3980.9064506313,0
0.000368125,20000000,20000000,20000000,20000000,20000000,21384584.44862,25432298.660381,20000000,49939859.090697,54626231.865726,20000000,20000000,0.00010818879551265,1.0212661977917,-4.0611976716406e-63,5.2551152847651e-79,-7.7908656216823e-80,-3.6406329699014e-61,2.2635628460999e-39,-13.248252389746,64.165383767467,1.2571704971335e-107,-49.182106831793,69.857585962618,1.4758533621062e-113,1.720527668469e-96,3984.2249044597,3984.1655286079,0
0.000370625,20000000,20000000,20000000,20000000,20000000,21546909.799005,25612897.375542,20000000,50110672.729227,54824717.264411,20000000,20000000,0.00010892620343361,1.0215344060843,-4.3807022582657e-63,7.048536462281e-79,-9.5421950757883e-80,-3.8659047201345e-61,2.8505963407813e-39,-15.221034812854,67.317501412004,1.7425011584633e-107,-52.003589289268,74.10107009032,1.8455584833958e-113,6.1255902086507e-96,3988.2836728352,3988.2206303404,0
0.000373125,20000000,20000000,20000000,20000000,20000000,21723608.891961,25811302.08921,20000000,50310939.624107,55058221.859686,20000000,20000000,0.00010966305063997,1.0217962820986,-4.9350768009344e-63,9.330224238726e-79,-1.0897219447214e-79,-4.1045474110983e-61,3.6155848056451e-39,-18.555797027105,65.658543927211,2.6249058266576e-107,-53.47307511968,72.531490166964,2.3136130451152e-113,1.831171436995e-95,3992.6508477358,3992.5845042013,0
0.000375625,20000000,20000000,20000000,20000000,20000000,21895468.961663,26001905.607547,20000000,50498997.794046,55278303.260307,20000000,20000000,0.00011039927785321,1.022049903214,-5.7414196491838e-63,1.2286224989641e-78,-1.2336567287699e-79,-4.3806334160077e-61,4.6301092075948e-39,-23.242433465976,63.499578784683,4.0177842884141e-107,-54.313883207941,69.885010226504,2.9160583050448e-113,4.5651387420297e-95,3997.5648539654,3997.4954726225,0
0.000378125,20000000,20000000,20000000,20000000,20000000,22057687.056625,26180520.204002,20000000,50668412.020974,55475914.242611,20000000,20000000,0.00011113501743139,1.0222988403288,-6.2837660145655e-63,1.6128316876116e-78,-1.3345141966204e-79,-4.711066981966e-61,5.9372522121928e-39,-29.476994090763,62.291388974051,6.1430540124867e-107,-54.527671879276,68.409456883219,3.6723773667785e-113,9.0425443489696e-95,4002.6262128536,4002.5539546273,0
0.000380625,20000000,20000000,20000000,20000000,20000000,22213362.416918,26351885.570185,20000000,50827676.950846,55660819.577535,20000000,20000000,0.00011187043083265,1.0225466276794,-6.8504119706986e-63,2.1129939816522e-78,-1.4258620975668e-79,-5.1321945092928e-61,7.595475130143e-39,-37.212750166442,61.844754822039,9.3296251828508e-107,-54.290875744859,68.174668480957,4.6182693255426e-113,1.4475617984559e-94,4007.6383589948,4007.5633199458,0
0.000383125,20000000,20000000,20000000,20000000,20000000,22366627.107378,26520862.150499,20000000,50984813.15042,55843414.040824,20000000,20000000,0.00011260565474703,1.0227950993809,-7.6683753436139e-63,2.7652595134622e-78,-1.5222948501992e-79,-5.6742365337457e-61,9.6993605250518e-39,-45.28959891754,61.728150334704,1.4076251036421e-106,-53.893013664836,68.575567097388,5.9123057702437e-113,2.0385144110951e-94,4012.5989073686,4012.5211175751,0
0.000385625,20000000,20000000,20000000,20000000,20000000,22519359.798918,26689609.820491,20000000,51144188.90899,56029039.272219,20000000,20000000,0.00011334080663317,1.0230446093414,-8.6752287961705e-63,3.6162420314414e-78,-1.634552174022e-79,-6.3322918295736e-61,1.2379133183484e-38,-50.544406090236,61.693286813442,2.1124934587006e-106,-53.401157313291,69.091972354861,8.1540940488574e-113,2.7730767262306e-94,4017.547728499,4017.4671640603,0
0.000388125,20000000,20000000,20000000,20000000,20000000,22672016.561429,26858364.225489,20000000,51306663.09265,56218672.188681,20000000,20000000,0.00011407597238849,1.0232948464288,-9.8226795406886e-63,4.7267374001206e-78,-1.8272436759775e-79,-7.0742092861212e-61,1.5800341794034e-38,-49.935333814272,61.649460908187,3.1574833978605e-106,-53.409676003475,69.464600089487,1.1250619094561e-112,3.8278090232712e-94,4022.5058006423,4022.4224084298,0
0.000390625,20000000,20000000,20000000,20000000,20000000,22824473.693441,27026968.960855,20000000,51471383.227447,56411105.428658,20000000,20000000,0.00011481118128383,1.0235453888088,-1.1097217068142e-62,6.1769479883063e-78,-2.0832552567356e-79,-7.8735269069163e-61,2.017072728468e-38,-49.329092486173,61.576599961598,4.70562562208e-106,-53.655757443264,69.649005352911,1.5511837830694e-112,5.3804435996538e-94,4027.4760699651,4027.3897878956,0
0.000393125,20000000,20000000,20000000,20000000,20000000,22976480.796396,27195102.641324,20000000,51638091.329104,56604752.244548,20000000,20000000,0.00011554641797081,1.0237959583505,-1.2514811386524e-62,8.072001645026e-78,-2.3769287894336e-79,-8.7305839484365e-61,2.5752771910352e-38,-48.991851712144,61.47737221553,7.0385792838584e-106,-53.920182727708,69.712185497601,2.136471011224e-112,7.5900244615047e-94,4032.4555837856,4032.3663499529,0
0.000395625,20000000,20000000,20000000,20000000,20000000,23127843.007954,27362524.159488,20000000,51809933.4031,56798587.846368,20000000,20000000,0.00011628165608676,1.0240464610439,-1.4104672056416e-62,1.0548107030104e-77,-2.6688308572718e-79,-9.6679660059664e-61,3.2880237636579e-38,-48.968213432209,61.360281120428,1.0768619990729e-105,-54.1028368508,69.740448006431,2.9403362775896e-112,1.0636670618867e-93,4037.4416378635,4037.3493928268,0
0.000398125,20000000,20000000,20000000,20000000,20000000,23278462.443082,27529129.528039,20000000,51981785.118086,56992315.929977,20000000,20000000,0.00011701688217742,1.0242975664407,-1.5898079025196e-62,1.3780832968414e-77,-2.910625372065e-79,-1.0713022819565e-60,4.1978710448737e-38,-49.085774866663,61.234636301631,1.6434104063196e-105,-54.19704698185,69.788788247848,4.045115651871e-112,1.4802481142499e-93,4042.4328003788,4042.3374866519,0
0.000400625,20000000,20000000,20000000,20000000,20000000,23428317.22939,27695227.098766,20000000,52153761.159808,57186106.357479,20000000,20000000,0.00011775209810912,1.0245504783948,-1.7917353530929e-62,1.7997021665933e-77,-3.1745110406926e-79,-1.1886142362189e-60,5.3591148886428e-38,-49.131095246685,61.108346611176,2.5009922664735e-105,-54.237196406034,69.871986671905,5.5639788086204e-112,2.0547592498345e-93,4047.4283750475,4047.3299359212,0
0.000403125,20000000,20000000,20000000,20000000,20000000,23577424.540502,27861338.425593,20000000,52326068.761916,57380255.305459,20000000,20000000,0.00011848731244598,1.024803470106,-2.0182020817261e-62,2.3491357978653e-77,-3.4601092042514e-79,-1.3199513502885e-60,6.8410083997887e-38,-49.05085492559,60.986605584213,3.7950170682604e-105,-54.259480996918,69.979398404002,7.6515931507078e-112,2.8556766762828e-93,4052.4279539326,4052.3263326793,0
0.000405625,20000000,20000000,20000000,20000000,20000000,23725812.173455,28026689.558245,20000000,52498854.457974,57574969.189131,20000000,20000000,0.00011922253235584,1.0250565665716,-2.2734609150235e-62,3.0648149879101e-77,-3.7695870517945e-79,-1.4209227084624e-60,8.7318539590011e-38,-48.890269832397,60.871604530015,5.7422410453232e-105,-54.285215277001,70.093870150876,1.051898669502e-111,3.9774101553723e-93,4057.4312316201,4057.326371281,0
0.000408125,20000000,20000000,20000000,20000000,20000000,23873505.231045,28191304.477548,20000000,52672164.261072,57770308.651188,20000000,20000000,0.00011995776036666,1.0253097692452,-2.5612324057375e-62,3.9968852445685e-77,-4.1065929634604e-79,-1.5290097897022e-60,1.1144209916495e-37,-48.713968847572,60.763190889939,8.6651332995204e-105,-54.32070390725,70.203589511661,1.4454325341796e-111,5.5461226110209e-93,4062.4379169077,4062.3297603839,0
0.000410625,20000000,20000000,20000000,20000000,20000000,24020523.457566,28355200.399348,20000000,52845973.362914,57966233.515807,20000000,20000000,0.0001206929952573,1.0255630704973,-2.8857434057843e-62,5.2106550496048e-77,-4.4748967846841e-79,-1.6454835441812e-60,1.4221511518397e-37,-48.560520276963,60.659985362394,1.3042012298546e-104,-54.36375994672,70.304965390155,1.9851603941177e-111,7.7313256200281e-93,4067.4476841094,4067.3361742697,0
0.000413125,20000000,20000000,20000000,20000000,20000000,24166882.46472,28518391.600779,20000000,53020233.063776,58162672.714964,20000000,20000000,0.00012142823454161,1.0258164641264,-3.2517018028344e-62,6.790981113134e-77,-4.8777211592926e-79,-1.7616966078558e-60,1.814648939119e-37,-48.43623488252,60.560428445009,1.9580159360373e-104,-54.409866415796,70.39995641992,2.7249749858232e-111,1.0765634099636e-92,4072.4601664618,4072.3452461628,0
0.000415625,20000000,20000000,20000000,20000000,20000000,24312594.967774,28680891.369286,20000000,53194903.266809,58359571.754993,20000000,20000000,0.0001221635651958,1.0260699490652,-3.6643360383952e-62,8.847955052521e-77,-5.3178614771522e-79,-1.8863813620336e-60,2.3151874505463e-37,-48.329569555332,60.463422209636,2.9322545068619e-104,-54.455495635386,70.492130411277,3.7385546011643e-111,1.4973577770263e-92,4077.4749775373,4077.3565895803,0
0.000418125,20000000,20000000,20000000,20000000,20000000,24457671.370523,28842711.837126,20000000,53369963.117947,58556906.628833,20000000,20000000,0.00012289934483607,1.0263235283713,-4.1295018752987e-62,1.1524352219967e-76,-5.798168682548e-79,-2.020175019853e-60,2.9534009934892e-37,-48.226999492965,60.368499602607,4.3803562130446e-104,-54.498953338307,70.58406159534,5.1265208407013e-111,2.0809821740471e-92,4082.4917356699,4082.3698227525,0
0.000420625,20000000,20000000,20000000,20000000,20000000,24602120.307774,29003863.392018,20000000,53545406.783687,58754675.411806,20000000,20000000,0.00012363512846635,1.0265772067041,-4.6538131588405e-62,1.5005380600784e-76,-6.3219516006644e-79,-2.1637438950693e-60,3.7670156658338e-37,-48.12121289977,60.275663936539,6.5275757919215e-104,-54.539950853936,70.67661786265,7.0442630642259e-111,2.8908610121219e-92,4087.5100774298,4087.384582126,0
0.000423125,20000000,20000000,20000000,20000000,20000000,24745949.484299,29164354.823765,20000000,53721234.526192,58952883.654826,20000000,20000000,0.00012437092363231,1.026830988406,-5.2447594047953e-62,1.9531362950464e-76,-6.8931096241415e-79,-2.3177902299182e-60,4.8040491354481e-37,-48.011567941897,60.18511639393,9.7038903657702e-104,-54.578876358291,70.769468049146,9.9818033249129e-111,4.0149300523985e-92,4092.5296596807,4092.4005244506,0
0.000425625,20000000,20000000,20000000,20000000,20000000,24889166.572726,29324194.181536,20000000,53897445.869301,59151534.063502,20000000,20000000,0.00012510673969899,1.0270848767986,-5.9108031806515e-62,2.5414142646934e-76,-7.5160565398583e-79,-2.4830634677945e-60,6.1256058338402e-37,-47.900806502584,60.09703863332,1.4391617663076e-103,-54.616245827404,70.861902958367,1.4133422221405e-110,5.5746365724184e-92,4097.550155672,4097.4173228824,0
0.000428125,20000000,20000000,20000000,20000000,20000000,25031779.765541,29483389.687086,20000000,54074036.93603,59350623.213722,20000000,20000000,0.00012584256004235,1.0273388743537,-6.6614741869188e-62,3.3058253396769e-76,-8.1813384818978e-79,-2.6603698729937e-60,7.8094271572721e-37,-47.791781629249,60.011494923295,2.1294159237934e-103,-54.65243946556,70.953398657117,1.9996107457133e-110,7.7375463069263e-92,4102.5712503647,4102.4346623034,0
0.000430625,20000000,20000000,20000000,20000000,20000000,25173797.81477,29641950.166415,20000000,54251000.932526,59550143.128032,20000000,20000000,0.00012657838468855,1.0275929831575,-7.5074814848376e-62,4.2988243631788e-76,-8.8646363888777e-79,-2.8505780360782e-60,9.9543988159392e-37,-47.685896381973,59.928435128254,3.1435050254898e-103,-54.687649311081,71.043784970752,2.8268339068604e-110,1.0735018836784e-91,4107.5926375677,4107.452236444,0
0.000433125,20000000,20000000,20000000,20000000,20000000,25315229.708921,29800116.928112,20000000,54428329.831197,59750084.325061,20000000,20000000,0.00012731421366383,1.0278472052694,-8.4608552987552e-62,5.5883994383397e-76,-9.6057871185783e-79,-3.0546211947362e-60,1.268627173492e-36,-47.583134530199,59.847745698366,4.630042068874e-103,-54.721928433644,71.133149512964,3.993096074072e-110,1.4886781901119e-91,4112.6140190696,4112.4697470069,0
0.000435625,20000000,20000000,20000000,20000000,20000000,25456084.276691,29959083.072601,20000000,54606015.803684,59950438.054119,20000000,20000000,0.00012805004700095,1.0281015428566,-9.5351177321208e-62,7.2626418059458e-76,-1.0409689728939e-78,-3.2734987413092e-60,1.6164921780848e-36,-47.482803959665,59.769302115658,6.8043506281318e-103,-54.755262309614,71.221666873974,5.6360130405691e-110,2.0634810996798e-91,4117.6351048525,4117.486903878,0
0.000438125,20000000,20000000,20000000,20000000,20000000,25596369.938204,30117432.799162,20000000,54784051.861855,60151197.056337,20000000,20000000,0.00012878588473846,1.0283559981647,-1.0745476273388e-61,9.4356601257655e-76,-1.1281648271303e-78,-3.508278827806e-60,2.0593560577421e-36,-47.384225423882,59.69299970341,9.9777642317942e-103,-54.787623538672,71.309476925278,7.9484957649799e-110,2.8589842873998e-91,4122.6556134761,4122.5034255128,0
0.000440625,20000000,20000000,20000000,20000000,20000000,25736094.662981,30275174.720439,20000000,54962431.832437,60352355.268954,20000000,20000000,0.00012952172691717,1.0286105734329,-1.2109035941074e-61,1.2255231107735e-75,-1.2227385075811e-78,-3.7601026880553e-60,2.6230419322434e-36,-47.287044819194,59.618761005955,1.4599515574655e-102,-54.818999971017,71.39664524244,1.1200734745372e-109,3.9595221848557e-91,4127.6752721812,4127.5190390441,0
0.000443125,20000000,20000000,20000000,20000000,20000000,25875266.066463,30432317.140558,20000000,55141150.035861,60553907.18188,20000000,20000000,0.00013025757357723,1.0288652708286,-1.3645031095039e-61,1.5912689594358e-75,-1.3253072797751e-78,-4.0301902501838e-60,3.340356581952e-36,-47.191214041853,59.546528848212,2.1529330221081e-102,-54.849401117092,71.483180692163,1.577083533977e-109,5.4814673231221e-91,4132.6938166738,4132.5334800689,0
0.000445625,20000000,20000000,20000000,20000000,20000000,26013891.53868,30588868.173231,20000000,55320200.977708,60755847.344136,20000000,20000000,0.00013099342475657,1.0291200924257,-1.5375081972653e-61,2.0655706592499e-75,-1.4365379792483e-78,-4.3198462778087e-60,4.2529689636565e-36,-47.096829297951,59.47625544129,3.1837510598005e-102,-54.878852453089,71.569070804778,2.2187471100058e-109,7.585312704553e-91,4137.7109907405,4137.5464922636,0
0.000448125,20000000,20000000,20000000,20000000,20000000,26151978.331347,30744835.793674,20000000,55499579.188127,60958170.177323,20000000,20000000,0.00013172928049073,1.0293750402129,-1.7323482161767e-61,2.680479309933e-75,-1.5571520066274e-78,-4.6304665182731e-60,5.4137911219836e-36,-47.003985282347,59.407894115832,4.6978149011697e-102,-54.907386285652,71.654308153143,3.1189216158685e-109,1.0492308035745e-90,4142.7265458457,4142.5578269819,0
0.000450625,20000000,20000000,20000000,20000000,20000000,26289533.584492,30900227.839691,20000000,55679279.201952,61160870.019544,20000000,20000000,0.0001324651455536,1.0296301161131,-1.951752231157e-61,3.4774612252327e-75,-1.687930205327e-78,-4.9635437589493e-60,6.8899950175932e-36,-46.912709608283,59.341395727079,6.9169371228764e-102,-54.935034507222,71.738899790119,4.3807004867538e-109,1.4507353028846e-90,4147.7402407943,4147.5672429156,0
0.000453125,20000000,20000000,20000000,20000000,20000000,26426564.312227,31055051.990481,20000000,55859295.610517,61363941.252589,20000000,20000000,0.00013320103147021,1.0298853219988,-2.1987854067738e-61,4.5101496850612e-75,-1.8297175366291e-78,-5.3206739877164e-60,8.7668340999851e-36,-46.822966623704,59.276708780049,1.0162614663403e-101,-54.961825096432,71.822864312394,6.1478633343576e-109,2.00504736399e-90,4152.7518414636,4152.574505827,0
0.000455625,20000000,20000000,20000000,20000000,20000000,26563077.377546,31209315.746187,20000000,56039623.120071,61567378.404025,20000000,20000000,0.00013393692205828,1.0301406596992,-2.4768897754656e-61,5.8478972915724e-75,-1.9834277989159e-78,-5.7035629161218e-60,1.1152483031921e-35,-46.734691001398,59.213781274916,1.4899891252786e-101,-54.987781787249,71.906224642001,8.6207617576259e-109,2.7700065713486e-90,4157.7611205809,4157.5793883257,0
0.000458125,20000000,20000000,20000000,20000000,20000000,26699079.476447,31363026.419038,20000000,56220256.58398,61771176.186199,20000000,20000000,0.00013467281734931,1.0303961310005,-2.7899297869185e-61,7.5803608489097e-75,-2.1500487014984e-78,-6.1140330320013e-60,1.4184165226417e-35,-46.647818257265,59.152562589066,2.1800116231921e-101,-55.012925390721,71.989002326392,1.2078340434913e-108,3.8252273107082e-90,4162.7678575152,4162.5816696611,0
0.000460625,20000000,20000000,20000000,20000000,20000000,26834577.136797,31516191.136481,20000000,56401191.00596,61975329.485111,20000000,20000000,0.00013540871737386,1.0306517376441,-3.142243152195e-61,9.8234173986079e-75,-2.3306474893989e-78,-6.5540312207752e-60,1.8035908818093e-35,-46.562298797901,59.093004556113,3.1830569339511e-101,-55.037275334577,72.071215305197,1.6908637082205e-108,5.2802489559439e-90,4167.7718380704,4167.5811355155,0
0.000463125,20000000,20000000,20000000,20000000,20000000,26969576.727339,31668816.851378,20000000,56582421.526714,62179833.329461,20000000,20000000,0.00013614462216154,1.0309074813265,-3.5386976236054e-61,1.2726795937071e-74,-2.526377162592e-78,-7.0256369193113e-60,2.2928361183186e-35,-46.478097575644,59.035061640605,4.6382211715533e-101,-55.060850676765,72.152878350958,2.3650989918582e-108,7.2857190582263e-90,4172.7728542747,4172.5775777937,0
0.000465625,20000000,20000000,20000000,20000000,20000000,27104084.469438,31820910.353559,20000000,56763943.407193,62384682.86334,20000000,20000000,0.00013688053174094,1.0311633636987,-3.984754408889e-61,1.6483919969423e-74,-2.7384832463834e-78,-7.5310707605715e-60,2.9141205015556e-35,-46.395187357964,58.978690571228,6.7451444600106e-101,-55.083670427163,72.234004567896,3.3054396729545e-108,1.0048732793586e-89,4177.7707041739,4177.5707944163,0
0.000468125,20000000,20000000,20000000,20000000,20000000,27238106.446746,31972478.279389,20000000,56945752.016522,62589873.332153,20000000,20000000,0.00013761644613971,1.0314193863691,-4.4865390166668e-61,2.1344598403371e-74,-2.9683110573733e-78,-8.0727036974713e-60,3.7028861269576e-35,-46.313542387817,58.923849820908,9.7898235117515e-101,-55.105753430425,72.314606665401,4.6158137513638e-108,1.3853864787826e-89,4182.7651916309,4182.56058912,0
0.000470625,20000000,20000000,20000000,20000000,20000000,27371648.611293,32123527.118274,20000000,57127842.825989,62795400.079729,20000000,20000000,0.00013835236941796,1.0316755509049,-5.0509203760584e-61,2.7631385393946e-74,-3.2173134550695e-78,-8.6530666354117e-60,4.7040343692885e-35,-46.233135289964,58.87049920271,1.4181203359451e-100,-55.127118118181,72.394697519125,6.4403059587757e-108,1.9091993053585e-89,4187.7561261354,4187.5467712663,0
0.000473125,20000000,20000000,20000000,20000000,20000000,27504716.786976,32274063.216805,20000000,57310211.407,63001258.550435,20000000,20000000,0.00013908832669818,1.0319318588345,-5.6855991464076e-61,3.576066518626e-74,-3.4870591140231e-78,-9.2748606197287e-60,5.9744355756873e-35,-46.153936914525,58.818599688042,2.0502957009639e-100,-55.14778231056,72.474290156746,8.9785056938759e-108,2.6299784257315e-89,4192.743322624,4192.5291556623,0
0.000475625,20000000,20000000,20000000,20000000,20000000,27637316.672112,32424092.781942,20000000,57492853.430398,63207444.291126,20000000,20000000,0.00013982428890779,1.032188311649,-6.3992062550821e-61,4.6269820586276e-74,-3.7792413805197e-78,-9.9409676303687e-60,7.5861005551111e-35,-46.075917566254,58.768113376511,2.9712461493603e-100,-55.167763158819,72.553397471234,1.25066563859e-107,3.6213759740112e-89,4197.7266013071,4197.5075623876,0
0.000478125,20000000,20000000,20000000,20000000,20000000,27769453.842142,32573621.884164,20000000,57675764.665218,63413952.950568,20000000,20000000,0.0001405602560724,1.0324449108035,-7.2014127799504e-61,5.9852232611235e-74,-4.0956877809048e-78,-1.0654462019713e-59,9.6301872912966e-35,-45.99904822973,58.719003554209,4.3462609109094e-100,-55.187077163738,72.632031978736,1.7406774737334e-107,4.9844294530858e-89,4202.7057875053,4202.4818166301,0
0.000480625,20000000,20000000,20000000,20000000,20000000,27901133.752927,32722656.461149,20000000,57858940.97657,63620780.276633,20000000,20000000,0.00014129622821675,1.0327016577178,-8.1030524944758e-61,7.7402358509463e-74,-4.4383702379608e-78,-1.1418622637456e-59,1.2222061447623e-34,-45.923301209156,58.671234703956,6.3455415721458e-100,-55.205740275575,72.71020566926,2.42067096913e-107,6.857685467176e-89,4207.6807114888,4207.4517485269,0
0.000483125,20000000,20000000,20000000,20000000,20000000,28032361.744302,32871202.321736,20000000,58042378.322524,63827922.112213,20000000,20000000,0.00014203220536475,1.0329585537783,-9.1162584147279e-61,1.0007377762123e-73,-4.809416046073e-78,-1.2236945655973e-59,1.5507686088481e-34,-45.848650152478,58.624772519212,9.2471410229142e-100,-55.223767933209,72.787930043544,3.363520503982e-107,9.4310439930969e-89,4212.6512083257,4212.417193011,0
0.000485625,20000000,20000000,20000000,20000000,20000000,28163143.043796,33019265.150129,20000000,58226072.750988,64035374.391429,20000000,20000000,0.00014276818753955,1.0332156003384,-1.0254614984368e-60,1.2935391907776e-73,-5.2111196467341e-78,-1.3113158141627e-59,1.9671687530112e-34,-45.775069798592,58.579583855159,1.3450613577216e-99,-55.241175107974,72.865216187384,4.669752223152e-107,1.3235798319621e-88,4217.6171177337,4217.3779896641,0
0.000488125,20000000,20000000,20000000,20000000,20000000,28293482.770145,33166850.509883,20000000,58410020.396675,64243133.136381,20000000,20000000,0.00014350417476348,1.0334727987196,-1.153332759044e-60,1.6716024466446e-73,-5.6459552505052e-78,-1.4051232402982e-59,2.4947534215037e-34,-45.702535705738,58.535636649624,1.9529102144863e-99,-55.257976334566,72.942074831447,6.4779214494939e-107,1.8862223718143e-88,4222.5782839381,4222.3339825746,0
0.000490625,20000000,20000000,20000000,20000000,20000000,28423385.936501,33313963.847598,20000000,58594217.478332,64451194.454509,20000000,20000000,0.00014424016705818,1.0337301502133,-1.295353429626e-60,2.1596402041418e-73,-6.1165903651784e-78,-1.5055401150639e-59,3.16303786593e-34,-45.631024071282,58.492899879538,2.8303331894783e-99,-55.274185696252,73.018516423652,8.9788414225047e-107,2.6858229532295e-88,4227.5345555358,4227.2850202008,0
0.000493125,20000000,20000000,20000000,20000000,20000000,28552857.453547,33460610.496433,20000000,58778660.296476,64659554.536535,20000000,20000000,0.00014497616444453,1.0339876560808,-1.42400633978e-60,2.7894955566494e-73,-6.6259002786705e-78,-1.6130173527501e-59,4.009325470971e-34,-45.560511701163,58.451343473926,4.0946549187334e-99,-55.289816871367,73.094551103003,1.2435076673787e-106,3.8212514048271e-88,4232.4857853629,4232.2309552396,0
0.000495625,20000000,20000000,20000000,20000000,20000000,28681902.132238,33606795.67921,20000000,58963345.230931,64868209.654184,20000000,20000000,0.00014571216694274,1.0342453175551,-1.5652441716824e-60,3.6021903028699e-73,-7.176983581447e-78,-1.7280352032154e-59,5.0807501255942e-34,-45.490976007031,58.410938296162,5.9133103058903e-99,-55.304883118501,73.170188725865,1.7207627044335e-106,5.4322474324781e-88,4237.4318303687,4237.1716445004,0
0.000498125,20000000,20000000,20000000,20000000,20000000,28810524.686589,33752524.51153,20000000,59148268.738735,65077156.158138,20000000,20000000,0.00014644817457234,1.0345031358416,-1.7202713099205e-60,4.6505590483063e-73,-7.773178785752e-78,-1.8511050397879e-59,6.4368508104449e-34,-45.422395027283,58.371656118775,8.5248478191409e-99,-55.319397285574,73.24543887422,2.3792425011585e-106,7.7161577520217e-88,4242.3725514944,4242.1069487829,0
0.000500625,20000000,20000000,20000000,20000000,20000000,28938729.736399,33897802.004818,20000000,59333427.352123,65286390.47597,20000000,20000000,0.0001471841873522,1.0347611121185,-1.8904042162086e-60,6.0026359781326e-73,-8.4180821165547e-78,-1.9827712473778e-59,8.1528161978955e-34,-45.354747446668,58.333469569589,1.2268571875237e-98,-55.333371853477,73.320310829081,3.2870214683143e-106,1.0951463478082e-87,4247.3078135546,4247.0367327597,0
0.000503125,20000000,20000000,20000000,20000000,20000000,29066521.809776,34042633.069178,20000000,59518817.676351,65495909.109918,20000000,20000000,0.00014792020530058,1.0350192475386,-2.0770815094377e-60,7.7460084663705e-73,-9.1155665647306e-78,-2.1236132137788e-59,1.0323572516646e-33,-45.288012565503,58.296352128014,1.7626311335744e-98,-55.346818920355,73.394813611481,4.5374663526618e-106,1.5530826693776e-87,4252.2374851254,4251.9608648637,0
0.000505625,20000000,20000000,20000000,20000000,20000000,29193905.345704,34187022.516282,20000000,59704436.387804,65705708.634892,20000000,20000000,0.00014865622843513,1.0352775432292,-2.2818749159355e-60,9.9934123505273e-73,-9.8698022657992e-78,-2.2742474326505e-59,1.3068932414332e-33,-45.222170284944,58.260278072078,2.52811824648e-98,-55.359750241585,73.468955968572,6.2585296685127e-106,2.2007471716223e-87,4257.161438434,4256.8792171785,0
0.000508125,20000000,20000000,20000000,20000000,20000000,29320884.696436,34330975.062077,20000000,59890280.232004,65915785.696484,20000000,20000000,0.0001493922567729,1.0355360002933,-2.5065011620927e-60,1.2959100670542e-72,-1.0685278307018e-77,-2.4353297190781e-59,1.6540078429502e-33,-45.157201076167,58.225222451781,3.6200132607649e-98,-55.372177236154,73.542746390916,8.6254198117827e-106,3.1160231320379e-87,4262.0795492543,4261.7916653335,0
0.000510625,20000000,20000000,20000000,20000000,20000000,29447464.129786,34474495.329383,20000000,60076346.021675,66126137.009021,20000000,20000000,0.00015012829033037,1.0357946198105,-2.7528348861377e-60,1.6882803726529e-72,-1.1566826047404e-77,-2.6075575471481e-59,2.0927724764682e-33,-45.093085949861,58.191161065882,5.174971066089e-98,-55.384110990948,73.616193133147,1.1877860914929e-105,4.4084698957121e-87,4266.9916968053,4266.698088402,0
0.000513125,20000000,20000000,20000000,20000000,20000000,29573647.831394,34617587.850436,20000000,60262630.635003,66336759.353815,20000000,20000000,0.00015086432912348,1.0360534028374,-3.0229226523202e-60,2.1988011257609e-72,-1.2519644054321e-77,-2.7916725132296e-59,2.6472388986215e-33,-45.029806432708,58.158070438515,7.3858193031908e-98,-55.395562267002,73.689304230065,1.6343586323025e-105,6.2320866633699e-87,4271.8977636531,4271.5983688041,0
0.000515625,20000000,20000000,20000000,20000000,20000000,29699439.906959,34760257.069384,20000000,60449131.014021,66547649.57754,20000000,20000000,0.00015160037316763,1.0363123504085,-3.3189981570373e-60,2.8628568188308e-72,-1.3549324741293e-77,-2.9884629291067e-59,3.3477315512714e-33,-44.967344576588,58.125927755223,1.0524228586418e-97,-55.406541545502,73.762087459545,2.2470291655867e-105,8.8031716285994e-87,4276.7976356148,4276.4923922104,0
0.000518125,20000000,20000000,20000000,20000000,20000000,29824844.384129,34902507.344439,20000000,60635844.162617,66758804.590242,20000000,20000000,0.00015233642247769,1.0365714635367,-3.6434987246433e-60,3.7263720683678e-72,-1.4661882889077e-77,-3.1987665609848e-59,4.2324731150474e-33,-44.905682880602,58.094710919676,1.4972365333337e-97,-55.417058972291,73.834550444161,3.0869059056621e-105,1.242529150701e-86,4281.6912016724,4281.3800474548,0
0.000520625,20000000,20000000,20000000,20000000,20000000,29949865.214883,35044342.950497,20000000,60822767.145586,66970221.364341,20000000,20000000,0.00015307247706805,1.0368307432144,-3.9990831932259e-60,4.8489344167303e-72,-1.5863786015732e-77,-3.4234734994922e-59,5.3496285921342e-33,-44.844804354267,58.064398430579,2.1267021808448e-97,-55.427124444816,73.906700545845,4.2373324658775e-105,1.7524166079901e-86,4286.5783538776,4286.2612264411,0
0.000523125,20000000,20000000,20000000,20000000,20000000,30074506.277176,35185768.081033,20000000,61009897.086564,67181896.932559,20000000,20000000,0.00015380853695258,1.0370901904135,-4.3886513063085e-60,6.307837440172e-72,-1.7161986908194e-77,-3.6635291928331e-59,6.7598750024109e-33,-44.784692462152,58.034969404388,3.0161052032111e-97,-55.43674758562,73.978544922001,5.8118889407218e-105,2.4696367967238e-86,4291.4589872707,4291.1358240611,0
0.000525625,20000000,20000000,20000000,20000000,20000000,30198771.376818,35326786.850206,20000000,61197231.166508,67393828.3864,20000000,20000000,0.00015454460214471,1.0373498060864,-4.8153647279601e-60,8.2033139068706e-72,-1.8563958315474e-77,-3.9199376325326e-59,8.5396309442423e-33,-44.725331101271,58.006403569728,4.2708777555549e-97,-55.445937735185,74.050090555442,7.965239827566e-105,3.4777258004117e-86,4296.3329997982,4296.0037381117,0
0.000528125,20000000,20000000,20000000,20000000,20000000,30322664.249393,35467403.295005,20000000,61384766.622441,67606012.874856,20000000,20000000,0.00015528067265739,1.0376095911665,-5.2826698107356e-60,1.0665307410811e-71,-2.0077729974335e-77,-4.1863515501581e-59,1.0785114353906e-32,-44.666704603019,57.978681219928,6.03845464738e-97,-55.454703992575,74.12134422955,1.0907830261155e-104,4.8935682981814e-86,4301.2002922321,4300.8648692152,0
0.000530625,20000000,20000000,20000000,20000000,20000000,30446188.56197,35607621.37717,20000000,61572500.745984,67818447.602936,20000000,20000000,0.00015601674850313,1.0378695465685,-5.7943222563415e-60,1.3862232396331e-71,-2.1711928146425e-77,-4.4684731069861e-59,1.3617439468147e-32,-44.608797709728,57.951783207661,8.5247083504498e-97,-55.463055202904,74.192312552239,1.4925780274566e-104,6.8805880810985e-86,4306.060768094,4305.7191207427,0
0.000533125,20000000,20000000,20000000,20000000,20000000,30569347.914835,35747444.985129,20000000,61760430.88206,68031129.830342,20000000,20000000,0.00015675282969401,1.0381296731895,-6.3544138165291e-60,1.8012303310251e-71,-2.347581777879e-77,-4.7689230372846e-59,1.7189017371664e-32,-44.551595562011,57.925690923618,1.2016700025609e-96,-55.470999969353,74.26300196049,2.0407794846421e-104,9.6671074496707e-86,4310.9143335802,4310.5663987395,0
0.000535625,20000000,20000000,20000000,20000000,20000000,30692145.843152,35886877.935856,20000000,61948554.427653,68244056.870195,20000000,20000000,0.00015748891624168,1.038389971909,-6.9674011953481e-60,2.3398182387254e-71,-2.537934746549e-77,-5.0888300754984e-59,2.1691591333519e-32,-44.495083697806,57.900386258022,1.6914130452745e-96,-55.478546684238,74.333418700578,2.7881535864224e-104,1.3571882395736e-85,4315.7608974895,4315.4066118533,0
0.000538125,20000000,20000000,20000000,20000000,20000000,30814585.81847,36025923.976574,20000000,62136868.830385,68457226.087626,20000000,20000000,0.00015822500815739,1.0386504435896,-7.6381373250379e-60,3.0385913114003e-71,-2.7433197431249e-77,-5.4293875939297e-59,2.7366321764964e-32,-44.439248013992,57.87585162577,2.3772758299554e-96,-55.48570348284,74.403568887647,3.8062745168051e-104,1.9039591903438e-85,4320.6003711554,4320.2396712651,0
0.000540625,20000000,20000000,20000000,20000000,20000000,30936671.250401,36164586.786605,20000000,62325371.587551,68670634.898752,20000000,20000000,0.00015896110545201,1.0389110890776,-8.3719051979838e-60,3.9449386493655e-71,-2.9648830596625e-77,-5.7918569512653e-59,3.4516440074083e-32,-44.384074790078,57.852069892062,3.3364258796464e-96,-55.492478325043,74.473458440207,5.1921538462857e-104,2.6690125603239e-85,4325.4326683757,4325.0654906209,0
0.000543125,20000000,20000000,20000000,20000000,20000000,31058405.487951,36302869.978893,20000000,62514060.244673,68884280.769253,20000000,20000000,0.00015969720813599,1.0391719092032,-9.1744544560904e-60,5.120194873623e-71,-3.2038547106793e-77,-6.1775709956792e-59,4.3523121603856e-32,-44.329550640647,57.829024413117,4.6758637274083e-96,-55.498878927148,74.543093155533,7.0771803721684e-104,3.7386984788273e-85,4330.2577053508,4329.883985968,0
0.000545625,20000000,20000000,20000000,20000000,20000000,31179791.8211,36440777.101735,20000000,62702932.39459,69098161.213401,20000000,20000000,0.00016043331621944,1.039432904781,-1.005204094522e-59,6.6437223451619e-71,-3.4615542298875e-77,-6.5879377189405e-59,5.4865390965041e-32,-44.275662538049,57.806698966765,6.5437547034182e-96,-55.504912839103,74.612478648467,9.6391665700763e-104,5.2332140297541e-85,4335.0754006173,4334.6950756902,0
0.000548125,20000000,20000000,20000000,20000000,20000000,31300833.48205,36578311.640223,20000000,62891985.676105,69312273.792753,20000000,20000000,0.00016116942971202,1.0396940766108,-1.1011469459764e-59,8.6181821069871e-71,-3.7393968193527e-77,-7.024444088691e-59,6.914507766652e-32,-44.222397724855,57.785077880436,9.144989906392e-96,-55.510587405118,74.681620529418,1.3118569183792e-103,7.3197482064933e-85,4339.8856749884,4339.4986804501,0
0.000550625,20000000,20000000,20000000,20000000,20000000,31421533.646844,36715477.018001,20000000,63081217.77319,69526616.115285,20000000,20000000,0.00016190554862322,1.0399554254774,-1.2060139957243e-59,1.1176337818842e-70,-4.0389000763474e-77,-7.4886599850196e-59,8.7118094412454e-32,-44.169743913796,57.764145593211,1.2762524808543e-95,-55.51590974763,74.75052391482,1.7840312086002e-103,1.0230685719636e-84,4344.6884515001,4344.2947231232,0
0.000553125,20000000,20000000,20000000,20000000,20000000,31541895.436176,36852276.598209,20000000,63270626.413628,69741185.833984,20000000,20000000,0.00016264167296204,1.0402169521517,-1.3206097428434e-59,1.4489836309594e-70,-4.3616907795682e-77,-7.9822424177237e-59,1.0973363020622e-31,-44.117688985922,57.743887247354,1.7786609267899e-95,-55.520886828626,74.819194105007,2.4243129327583e-103,1.4288795614584e-84,4349.4836553411,4349.0831287473,0
0.000555625,20000000,20000000,20000000,20000000,20000000,31661921.917226,36988713.685494,20000000,63460209.368645,69955980.646522,20000000,20000000,0.00016337780273719,1.0404786573904,-1.445808576677e-59,1.8780535772011e-70,-4.7095124882415e-77,-8.5069398273381e-59,1.381832466188e-31,-44.066221153158,57.724288324254,2.4754767811267e-95,-55.525525414243,74.887636231026,3.2918983435829e-103,1.9942063709266e-84,4354.2712138091,4353.8638244655,0
0.000558125,20000000,20000000,20000000,20000000,20000000,31781616.104628,37124791.527123,20000000,63649964.451409,70170998.293759,20000000,20000000,0.00016411393795702,1.040740541937,-1.5825605924131e-59,2.4335117132166e-70,-5.0842334373547e-77,-9.06459660762e-59,1.7396236393202e-31,-44.015328922972,57.705334644144,3.4406421887454e-95,-55.529832185042,74.955855256934,4.4665984635806e-103,2.7811823367787e-84,4359.0510562523,4358.6367394709,0
0.000560625,20000000,20000000,20000000,20000000,20000000,31900980.961636,37260513.314279,20000000,63839889.516037,70386236.558697,20000000,20000000,0.00016485007862961,1.0410026065216,-1.7318978664567e-59,3.1523925070605e-70,-5.4878549735642e-77,-9.6571578107249e-59,2.1894724255678e-31,-43.965001108879,57.687012382012,4.7757420629653e-95,-55.533813588267,75.023856007013,6.055938031223e-103,3.8759217148196e-84,4363.8231140171,4363.4018049549,0
0.000563125,20000000,20000000,20000000,20000000,20000000,32020019.401303,37395882.183369,20000000,64029982.456764,70601693.265625,20000000,20000000,0.00016558623792879,1.0412648518615,-1.8949412259119e-59,4.082525667973e-70,-5.9225205264747e-77,-1.0286674051787e-58,2.7549133903472e-31,-43.915226790506,57.669308075923,6.6201611260762e-95,-55.537475902618,75.091643191429,8.2046715409695e-103,5.397690301618e-84,4368.5873203988,4368.1589540573,0
0.000565625,20000000,20000000,20000000,20000000,20000000,32138734.287672,37530901.217346,20000000,64220241.20726,70817366.279403,20000000,20000000,0.00016632242447842,1.041527278662,-2.072907549304e-59,5.2856664687656e-70,-6.3905251443059e-77,-1.0955306609697e-58,3.4654588013717e-31,-43.865995297942,57.652208615603,9.1649089832015e-95,-55.540825251917,75.159221412734,1.1107530014048e-102,7.5115508560541e-84,4373.343610592,4372.9081218164,0
0.000568125,20000000,20000000,20000000,20000000,20000000,32257128.43688,37665573.446915,20000000,64410663.739801,71033253.504598,20000000,20000000,0.00016705861654261,1.0417898876158,-2.2671176370041e-59,6.8415290394283e-70,-6.8943256193416e-77,-1.166533273757e-58,4.3581070166263e-31,-43.817296233648,57.635701214306,1.267141514618e-94,-55.543867629149,75.226595149264,1.5026282910489e-102,1.0445787243642e-83,4378.0919216421,4377.6492451219,0
0.000570625,20000000,20000000,20000000,20000000,20000000,32375204.61813,37799901.851659,20000000,64601248.064291,71249352.884543,20000000,20000000,0.00016779481412852,1.042052679404,-2.4790046943846e-59,8.8529817667755e-70,-7.4365512591631e-77,-1.2419151187721e-58,5.4792289823186e-31,-43.769119449099,57.619773410579,1.7497049884052e-94,-55.546608879899,75.293768775393,2.0312559306045e-102,1.4515896865051e-83,4382.8321924006,4382.3822626689,0
0.000573125,20000000,20000000,20000000,20000000,20000000,32492965.554729,37933889.361178,20000000,64791992.227439,71465662.400504,20000000,20000000,0.00016853101724299,1.0423156546964,-2.7101234719024e-59,1.145273787707e-69,-8.0200153182117e-77,-1.3219287955277e-58,6.8869269882761e-31,-43.721455034708,57.60441305987,2.4129736680031e-94,-55.549054699751,75.360746568253,2.7438350335925e-102,2.0157604047723e-83,4387.5643634797,4387.1071149133,0
0.000575625,20000000,20000000,20000000,20000000,20000000,32610413.925113,38067538.856229,20000000,64982894.312027,71682180.070916,20000000,20000000,0.00016926722589257,1.0425788141513,-2.96216010961e-59,1.4811969264381e-69,-8.6477271334818e-77,-1.4068402243214e-58,8.653983114772e-31,-43.674293322258,57.589608314718,3.323483986751e-94,-55.551210654928,75.427532698129,3.7036748901413e-102,2.7972254933852e-83,4392.2883772087,4391.8237440272,0
0.000578125,20000000,20000000,20000000,20000000,20000000,32727552.363783,38200853.16977,20000000,65173952.436086,71898903.950548,20000000,20000000,0.00017000344008357,1.0428421584163,-3.2369427381572e-59,1.9151393560749e-69,-9.3229050208642e-77,-1.4969292672052e-58,1.0871543824656e-30,-43.62762486481,57.575347628539,4.5718606539043e-94,-55.553082167189,75.494131246297,4.9956323294243e-102,3.8789193580995e-83,4397.0041775926,4396.5320938589,0
0.000580625,20000000,20000000,20000000,20000000,20000000,32844383.462333,38333835.088078,20000000,65365164.752349,72115832.129884,20000000,20000000,0.00017073965982201,1.0431056881283,-3.536452889523e-59,2.4755540857189e-69,-1.0048989939224e-76,-1.5924903708957e-58,1.3653723247266e-30,-43.581440442932,57.561619733537,6.2813908638072e-94,-55.554674533258,75.560546192289,6.7333635742464e-102,5.3751414333787e-83,4401.7117102703,4401.2321098897,0
0.000583125,20000000,20000000,20000000,20000000,20000000,32960909.770311,38466487.351718,20000000,65556529.447431,72332962.734318,20000000,20000000,0.00017147588511365,1.043369403914,-3.8628377761565e-59,3.1991107257259e-69,-1.0829659998286e-76,-1.6938332354524e-58,1.7143352713661e-30,-43.535731060958,57.548413629489,8.619599090426e-94,-55.555992939739,75.626781412174,9.0689891899867e-102,7.4433092959592e-83,4406.4109224745,4405.9237391953,0
0.000585625,20000000,20000000,20000000,20000000,20000000,33077133.796066,38598812.656501,20000000,65748044.741058,72550293.923398,20000000,20000000,0.00017221211596401,1.04363330639,-4.2184235014699e-59,4.1330559953305e-69,-1.1668845861535e-76,-1.801283508459e-58,2.1519160076966e-30,-43.490487919789,57.535718594851,1.1813854772519e-93,-55.557042427,75.692840705689,1.2205965933754e-101,1.030007528333e-82,4411.1017629948,4410.6069304076,0
0.000588125,20000000,20000000,20000000,20000000,20000000,33193058.007681,38730813.654496,20000000,65939708.885529,72767823.890236,20000000,20000000,0.00017294835237836,1.0438973961628,-4.6057292656569e-59,5.338248853682e-69,-1.2570747039379e-76,-1.9151835028608e-58,2.7004731985777e-30,-43.445702435785,57.523524157833,1.6172394524052e-93,-55.557827937203,75.758727774501,1.641621754329e-101,1.4243411569181e-82,4415.7841821384,4415.281633676,0
0.000590625,20000000,20000000,20000000,20000000,20000000,33308684.83376,38862492.954918,20000000,66131520.16496,72985550.860764,20000000,20000000,0.0001736845943617,1.0441616738297,-5.0274826396663e-59,6.8930620803881e-69,-1.3539849203589e-76,-2.0358929435991e-58,3.3879698713947e-30,-43.401366217628,57.51182010235,2.2112605461877e-93,-55.558354287365,75.824446240956,2.2062917444837e-101,1.9682853377959e-82,4420.4581316949,4419.9478006322,0
0.000593125,20000000,20000000,20000000,20000000,20000000,33424016.66427,38993853.125052,20000000,66323476.894709,73203473.093123,20000000,20000000,0.00017442084191884,1.0444261399785,-5.4866359801366e-59,8.8983963560559e-69,-1.4580942501266e-76,-2.1637897392928e-58,4.2493689766496e-30,-43.357471069635,57.500596453036,3.0199035915519e-93,-55.558626185597,75.889999641764,2.963076700598e-101,2.7180885662377e-82,4425.1235649,4424.6053843538,0
0.000595625,20000000,20000000,20000000,20000000,20000000,33539055.851321,39124896.691123,20000000,66515577.420723,73421588.877013,20000000,20000000,0.00017515709505434,1.0446907951877,-5.9863840675654e-59,1.1484122441433e-68,-1.5699140984291e-76,-2.299270782658e-58,5.3283741083916e-30,-43.314008981329,57.489843473069,4.119442284268e-93,-55.558648230213,75.955391436201,3.9766207118705e-101,3.750954191453e-82,4429.7804364017,4429.2543393307,0
0.000598125,20000000,20000000,20000000,20000000,20000000,33653804.709955,39255626.139161,20000000,66707820.118978,73639896.533089,20000000,20000000,0.00017589335377252,1.0449556400274,-6.5301830498888e-59,1.4817356083954e-68,-1.6899903159598e-76,-2.4427527782224e-58,6.6796002771686e-30,-43.270972128696,57.479551652086,5.6128119537636e-93,-55.558424922247,76.020625002802,5.3330784941341e-101,5.1727752479677e-82,4434.4287022267,4433.8946214312,0
0.000600625,20000000,20000000,20000000,20000000,20000000,33768265.518874,39386043.915817,20000000,66900203.394854,73858394.412353,20000000,20000000,0.00017662961807752,1.0452206750585,-7.1217707853684e-59,1.9113084373517e-68,-1.8189053784213e-76,-2.5946731002645e-58,8.3712801871664e-30,-43.228352859537,57.469711704649,7.6387758036177e-93,-55.55796064791,76.085703646548,7.1471930185936e-101,7.1286981091125e-82,4439.0683197481,4438.5261878699,0
0.000603125,20000000,20000000,20000000,20000000,20000000,33882440.521206,39516152.4292,20000000,67092725.682637,74077080.89561,20000000,20000000,0.00017736588797323,1.0454859008338,-7.7651886781077e-59,2.4647808283504e-68,-1.9572806895602e-76,-2.7554906776877e-58,1.0488637314679e-29,-43.186143699065,57.460314558324,1.0384190526427e-92,-55.557259704631,76.150630595431,9.5716755868052e-101,9.8175397403622e-82,4443.6992476532,4443.1489971755,0
0.000605625,20000000,20000000,20000000,20000000,20000000,33996331.925177,39645954.049629,20000000,67285385.444896,74295954.392853,20000000,20000000,0.00017810216346336,1.0457513178977,-8.4648051103212e-59,3.1777053122011e-68,-2.1057790218543e-76,-2.9256869118618e-58,1.313808894195e-29,-43.144337338072,57.451351352546,1.4100401884676e-92,-55.556326290637,76.215409008662,1.280962879049e-100,1.3511451140767e-81,4448.3214459135,4447.7630091609,0
0.000608125,20000000,20000000,20000000,20000000,20000000,34109941.904833,39775451.110426,20000000,67478181.171999,74515013.342751,20000000,20000000,0.0001788384445514,1.0460169267866,-9.2253405799346e-59,4.0957837843846e-68,-2.2651070960667e-76,-3.1057666218627e-58,1.6452482013213e-29,-43.102926632949,57.442813427395,1.9125137972703e-92,-55.555164513241,76.280041972392,1.7130988230657e-100,1.8582718669335e-81,4452.934875754,4452.3681848923,0
0.000610625,20000000,20000000,20000000,20000000,20000000,34223272.600673,39904645.908621,20000000,67671111.381509,74734256.212064,20000000,20000000,0.00017957473124066,1.0462827280291,-1.005189465964e-58,5.277750036432e-68,-2.4360183125995e-76,-3.2962590245788e-58,2.0597613875204e-29,-43.061904593002,57.434692324188,2.5911713149738e-92,-55.553778377388,76.344532509093,2.2894268144679e-100,2.5540269283406e-81,4457.5394996254,4456.9644866613,0
0.000613125,20000000,20000000,20000000,20000000,20000000,34336326.120345,40033540.705713,20000000,67864174.617769,74953681.495159,20000000,20000000,0.00018031102353423,1.046548722146,-1.0949974898425e-58,6.7990667505532e-68,-2.6193156349795e-76,-3.4977187422898e-58,2.5780351288917e-29,-43.021264388853,57.426979773924,3.5067943960271e-92,-55.55217181394,76.408883572962,3.0575302481939e-100,3.5079361654425e-81,4462.1352811743,4461.5518779556,0
0.000615625,20000000,20000000,20000000,20000000,20000000,34449104.53927,40162137.728361,20000000,68057369.451373,75173287.713507,20000000,20000000,0.00018104737232853,1.0468149096507,-1.1925527799418e-58,8.756665912226e-68,-2.8158546429773e-76,-3.7107268462369e-58,3.2258736523495e-29,-42.980999337953,57.419667694882,4.7407953585807e-92,-55.55034866013,76.473098054542,4.0805205968304e-100,4.8149180297814e-81,4466.7221852167,4466.1303234324,0
0.000618125,20000000,20000000,20000000,20000000,20000000,34561609.901275,40290439.169082,20000000,68250694.478708,75393073.415191,20000000,20000000,0.00018178373713002,1.0470812910492,-1.2984972009656e-58,1.1275025607048e-67,-3.026546754812e-76,-3.935891929824e-58,4.03545639637e-29,-42.941102905385,57.412748185604,6.402106389072e-92,-55.548312670104,76.537178781068,5.4420479243067e-100,6.6044724107048e-81,4471.300177711,4470.6997888905,0
0.000620625,20000000,20000000,20000000,20000000,20000000,34673844.219171,40418447.186894,20000000,68444148.321435,75613037.174389,20000000,20000000,0.00018252010758777,1.0473478668406,-1.4135233870074e-58,1.4513958019537e-67,-3.2523626336192e-76,-4.1738512166368e-58,5.0469026964126e-29,-42.901568700746,57.406213520651,8.6363319203486e-92,-55.546067522496,76.601128519257,7.252909853508e-100,9.0531638585438e-81,4475.8692257314,4475.2602412453,0
0.000623125,20000000,20000000,20000000,20000000,20000000,34785809.475341,40546163.907966,20000000,68637729.626012,75833177.590898,20000000,20000000,0.00018325648370412,1.0476146375166,-1.538378548291e-58,1.8678588025712e-67,-3.4943357869178e-76,-4.4252717042713e-58,6.3102179424914e-29,-42.862390466955,57.400056147831,1.1637895552928e-91,-55.543616805305,76.664949978745,9.659763092583e-100,1.2401569147188e-80,4480.4292974438,4479.8116485031,0
0.000625625,20000000,20000000,20000000,20000000,20000000,34897507.622356,40673591.426278,20000000,68831437.063346,76053493.289731,20000000,20000000,0.00018399286548122,1.0478816035625,-1.6738685460127e-58,2.4032135384548e-67,-3.7535663619758e-76,-4.69085133642e-58,7.8877136224246e-29,-42.823562087216,57.394268679855,1.5666145427639e-91,-55.540964039131,76.728645810047,1.2856598796379e-99,1.6977271410781e-80,4484.9803620796,4484.3539797362,0
0.000628125,20000000,20000000,20000000,20000000,20000000,35008940.583501,40800731.804223,20000000,69025269.328303,76273982.92064,20000000,20000000,0.00018472925292105,1.0481487654568,-1.820862252882e-58,3.0912284200978e-67,-4.0312251583763e-76,-4.9713202161385e-58,9.8570158325333e-29,-42.785077573735,57.388843891505,2.1066687058845e-91,-55.538112664877,76.792218607973,1.7099848547663e-99,2.3226037010159e-80,4489.5223899126,4488.8872050588,0
0.000630625,20000000,20000000,20000000,20000000,20000000,35120110.253341,40927587.073215,20000000,69219225.139309,76494645.157691,20000000,20000000,0.00018546564602541,1.0484161236714,-1.9802962180829e-58,3.9752141251462e-67,-4.3285578579892e-76,-5.2674418493187e-58,1.2314804436114e-28,-42.746931068054,57.383774714699,2.8299612978534e-91,-55.53506605091,76.85567091252,2.2728256517991e-99,3.1754061052105e-80,4494.0553522353,4493.4112956041,0
0.000633125,20000000,20000000,20000000,20000000,20000000,35231018.498236,41054159.23426,20000000,69413303.237907,76715478.698822,20000000,20000000,0.00018620204479594,1.0486836786719,-2.1531796561881e-58,5.1107062991872e-67,-4.6468894902871e-76,-5.5800144262349e-58,1.5381459116458e-28,-42.709116836979,57.3790542352,3.7976822891236e-91,-55.531827497132,76.919005212066,3.018900437512e-99,4.3385173559286e-80,4498.5792213361,4497.926223501,0
0.000635625,20000000,20000000,20000000,20000000,20000000,35341667.156864,41180450.258534,20000000,69607502.388366,76936482.265438,20000000,20000000,0.00018693844923409,1.0489514309177,-2.3405997809107e-58,6.5688986157915e-67,-4.9876291407516e-76,-5.9098721374463e-58,1.9206830824463e-28,-42.671629269728,57.374675686368,5.0911314571704e-91,-55.528400234853,76.982223941311,4.0072033828411e-99,5.9238255172015e-80,4503.093970477,4502.4319618519,0
0.000638125,20000000,20000000,20000000,20000000,20000000,35452058.040723,41306462.087933,20000000,69801821.377283,77157654.602,20000000,20000000,0.00018767485934117,1.0492193808622,-2.5437275059992e-58,8.4410350029755e-67,-5.3522749159007e-76,-6.25788652603e-58,2.3977409423851e-28,-42.634462871302,57.370632447064,6.8182223490177e-91,-55.524787421978,77.045329485748,5.315510964104e-99,8.083193600214e-80,4507.5995738721,4506.9284847112,0
0.000640625,20000000,20000000,20000000,20000000,20000000,35562192.934624,41432196.63562,20000000,69996259.013198,77378994.475634,20000000,20000000,0.00018841127511834,1.0494875289528,-2.763823536254e-58,1.084402764522e-66,-5.7424191786874e-76,-6.624967877387e-58,2.9925223029363e-28,-42.597612266149,57.366918037476,9.122056234524e-91,-55.520992158534,77.108324182256,7.0462945576607e-99,1.1022610140101e-79,4512.0960066663,4511.4157670645,0
0.000643125,20000000,20000000,20000000,20000000,20000000,35672073.597179,41557655.786552,20000000,70190814.12624,77600500.675754,20000000,20000000,0.00018914769656658,1.049755875631,-3.0022448739116e-58,1.3927641105856e-66,-6.1597540639462e-76,-7.0120666441428e-58,3.7338884662379e-28,-42.561072186528,57.363526113889,1.2192214320131e-90,-55.517017469999,77.171210318101,9.3344731598072e-99,1.5021302450574e-79,4516.5832449151,4515.8937848075,0
0.000645625,20000000,20000000,20000000,20000000,20000000,35781701.761278,41682841.398005,20000000,70385485.567787,77822172.013698,20000000,20000000,0.00018988412368673,1.0500244213328,-3.2604517659418e-58,1.7883676921355e-66,-6.6060772891767e-76,-7.420174906593e-58,4.657730093867e-28,-42.524837480118,57.360450469144,1.627961625864e-90,-55.512866334189,77.233990139047,1.2357572357913e-98,2.0457536712502e-79,4521.0612655641,4520.3625147263,0
0.000648125,20000000,20000000,20000000,20000000,20000000,35891079.134544,41807755.300075,20000000,70580272.210096,78044007.322364,20000000,20000000,0.0001906205564795,1.0502931664885,-3.5400151204147e-58,2.2957712871789e-66,-7.0832982769375e-76,-7.8503278734503e-58,5.8086679947305e-28,-42.488903096727,57.357685021753,2.1716053310509e-90,-55.508541654893,77.296665839102,1.6349027811115e-98,2.7843422239267e-79,4525.5300464299,4524.8219344777,0
0.000650625,20000000,20000000,20000000,20000000,20000000,36000207.399764,41932399.296151,20000000,70775172.945931,78266005.455821,20000000,20000000,0.00019135699494541,1.0505621115231,-3.8426244207042e-58,2.9464103885415e-66,-7.5934445980482e-76,-8.3036054149253e-58,7.2421627219421e-28,-42.453264095413,57.355223819449,2.8939843484988e-90,-55.504046286846,77.359239572434,2.1615595406631e-98,3.7871833198801e-79,4529.9895661807,4529.2720225702,0
0.000653125,20000000,20000000,20000000,20000000,20000000,36109088.215319,42056775.163395,20000000,70970186.688204,78488165.288965,20000000,20000000,0.0001920934390849,1.0508312568562,-4.1700961691029e-58,3.7805146166546e-66,-8.1386687616539e-76,-8.7811336399223e-58,9.0271305733612e-28,-42.417915633191,57.353061031896,3.8529496903169e-90,-55.499383020717,77.421713448001,2.8560121205401e-98,5.1479626824254e-79,4534.439804318,4533.7127583458,0
0.000655625,20000000,20000000,20000000,20000000,20000000,36217723.215627,42180884.653216,20000000,71165312.369688,78710485.717189,20000000,20000000,0.00019282988889821,1.0511006029022,-4.524382891383e-58,4.8495554082976e-66,-8.7212553530859e-76,-9.284086503355e-58,1.1249186773746e-27,-42.382852967316,57.351190948801,5.1247852864199e-90,-55.494554590507,77.484089532598,3.7711302292128e-98,6.9932765416107e-79,4538.8807411584,4538.1441219613,0
0.000658125,20000000,20000000,20000000,20000000,20000000,36326114.011558,42304729.491728,20000000,71360548.942703,78932965.656063,20000000,20000000,0.00019356634438549,1.0513701500704,-4.9075827379005e-58,6.2193715146173e-66,-9.3436285471582e-76,-9.8136874522781e-58,1.4014665195139e-27,-42.348071453795,57.349607978815,6.8099894336239e-90,-55.489563682278,77.546369855626,4.9762560227665e-98,9.4940859930635e-79,4543.3123578159,4542.566094371,0
0.000660625,20000000,20000000,20000000,20000000,20000000,36434262.190842,42428311.380194,20000000,71555895.378794,79155604.041004,20000000,20000000,0.00019430280554673,1.0516398987653,-5.3219497165917e-58,7.9741590494305e-66,-1.0008360013509e-75,-1.0371211112356e-57,1.7455599329724e-27,-42.313566540143,57.348306642263,9.0408411449874e-90,-55.484412920934,77.608556403453,6.5622785226312e-98,1.2881120902927e-78,4547.7346361848,4546.9786573095,0
0.000663125,20000000,20000000,20000000,20000000,20000000,36542169.318451,42551631.995451,20000000,71751350.668412,79378399.82695,20000000,20000000,0.00019503927238182,1.0519098493863,-5.7699045966366e-58,1.0221564017906e-65,-1.0718177226017e-75,-1.0957985008278e-57,2.1735892866091e-27,-42.279333768281,57.347281570369,1.1991293785564e-89,-55.479104884139,77.670651123186,8.6482534365733e-98,1.7465582452559e-78,4552.1475589228,4551.3817932751,0
0.000665625,20000000,20000000,20000000,20000000,20000000,36649836.937,42674692.990341,20000000,71946913.820634,79601351.988055,20000000,20000000,0.00019577574489048,1.0521800023281,-6.2540465224125e-58,1.3099180394653e-65,-1.147597218624e-75,-1.1575391306741e-57,2.7058962116794e-27,-42.245368771177,57.346527502279,1.5889900630166e-89,-55.473642105236,77.732655925295,1.1390033641003e-97,2.3666949790742e-78,4556.551109434,4555.7754855117,0
0.000668125,20000000,20000000,20000000,20000000,20000000,36757266.567074,42797495.994092,20000000,72142583.862739,79824459.517341,20000000,20000000,0.00019651222307235,1.0524503579809,-6.7771653835009e-58,1.6782839739128e-65,-1.2284810651219e-75,-1.222486865663e-57,3.3677199059784e-27,-42.211667265998,57.346039283477,2.1036686598342e-89,-55.468027046906,77.794572682035,1.4991513854859e-97,3.2050305930738e-78,4560.9452718555,4560.1597179971,0
0.000670625,20000000,20000000,20000000,20000000,20000000,36864459.70768,42920042.612767,20000000,72338359.840156,80047721.426475,20000000,20000000,0.00019724870692692,1.0527209167301,-7.34225498003e-58,2.1497183717182e-65,-1.314794172383e-75,-1.2907913959122e-57,4.1903685824082e-27,-42.178225057995,57.345811863873,2.7825152872202e-89,-55.462262142088,77.856403233634,1.9719272586886e-97,4.3376410536598e-78,4565.3300310382,4564.5344754224,0
0.000673125,20000000,20000000,20000000,20000000,20000000,36971417.836581,43042334.429658,20000000,72534240.816109,80271136.745484,20000000,20000000,0.00019798519645358,1.0529916789567,-7.9525270351562e-58,2.7529145092915e-65,-1.4068808012959e-75,-1.3626084262448e-57,5.2126692845649e-27,-42.145038035886,57.345840289712,3.6770950582809e-89,-55.456349772951,77.918149380664,2.5921625497234e-97,5.8668832632851e-78,4569.7053725335,4568.8997431793,0
0.000675625,20000000,20000000,20000000,20000000,20000000,37078142.4106,43164373.005625,20000000,72730225.871209,80494704.522394,20000000,20000000,0.00019872169165156,1.0532626450374,-8.6114260944352e-58,3.5245133185674e-65,-1.5051056305881e-75,-1.4380998669089e-57,6.4827617749313e-27,-42.112102144678,57.346119675141,4.8549215390949e-89,-55.450292279383,77.979812867375,3.4053404404047e-97,7.9303900439822e-78,4574.0712825718,4573.2555073381,0
0.000678125,20000000,20000000,20000000,20000000,20000000,37184634.86594,43286159.879478,20000000,72926314.103182,80718423.823091,20000000,20000000,0.00019945819252006,1.0535338153446,-9.3226454137205e-58,4.5112936780134e-65,-1.6098548642932e-75,-1.5174340263208e-57,8.0603176226306e-27,-42.079413484303,57.34664532163,6.4043129049239e-89,-55.444091945387,78.041395478361,4.4708161517856e-97,1.0713114789224e-77,4578.4277480726,4577.60175466,0
0.000680625,20000000,20000000,20000000,20000000,20000000,37290896.618687,43407696.568411,20000000,73122504.62691,80942293.730833,20000000,20000000,0.0002001946990581,1.0538051902464,-1.0090143777202e-57,5.7729632337405e-65,-1.7215374183841e-75,-1.6007858074481e-57,1.001928459005e-26,-42.046968166097,57.347412531631,8.4407054864423e-89,-55.437751017093,78.102898878036,5.8660000959306e-97,1.4463451054158e-77,4582.7747565969,4581.9384725457,0
0.000683125,20000000,20000000,20000000,20000000,20000000,37396929.065009,43528984.568283,20000000,73318796.573937,81166313.346049,20000000,20000000,0.00020093121126461,1.0540767701069,-1.0918163440366e-57,7.3857136493508e-65,-1.8405861415937e-75,-1.6883369085345e-57,1.2451279917096e-26,-42.014762384866,57.348416741022,1.1114852155949e-88,-55.431271700374,78.164324746537,7.6917879169752e-97,1.9514791084937e-77,4587.1122963512,4586.2656490419,0
0.000685625,20000000,20000000,20000000,20000000,20000000,37502733.581468,43650025.353993,20000000,73515189.09219,81390481.78617,20000000,20000000,0.00020166772913841,1.054348555286,-1.1811249168114e-57,9.4467485409625e-65,-1.9674591099115e-75,-1.7802760276827e-57,1.5469784848087e-26,-41.982792414336,57.34965345503,1.4623461901877e-88,-55.424656158235,78.225674749237,1.0079604984539e-96,2.6314342496343e-77,4591.4403561724,4590.5832728263,0
0.000688125,20000000,20000000,20000000,20000000,20000000,37608311.525367,43770820.37984,20000000,73711681.345823,81614798.185436,20000000,20000000,0.00020240425267823,1.0546205461398,-1.2774268464402e-57,1.2080048894366e-64,-2.1026409785582e-75,-1.8767990677878e-57,1.9215328403655e-26,-41.951054604524,57.351118246479,1.9222995349076e-88,-55.417906510883,78.286950437609,1.3200539771902e-96,3.5461623417874e-77,4595.7589255138,4594.8913331926,0
0.000690625,20000000,20000000,20000000,20000000,20000000,37713664.235031,43891371.079832,20000000,73908272.514912,81839261.694559,20000000,20000000,0.00020314078188267,1.0548927430206,-1.3812433055647e-57,1.5443712456197e-64,-2.2466444025614e-75,-1.978109347714e-57,2.3861892176107e-26,-41.919545378495,57.352806808408,2.5247538044828e-88,-55.411024841084,78.348153404813,1.7277178360357e-96,4.7759855661249e-77,4600.0679944323,4599.1898200381,0
0.000693125,20000000,20000000,20000000,20000000,20000000,37818793.03011,44011678.868006,20000000,74104961.795238,82063871.480446,20000000,20000000,0.00020387731675025,1.0551651462767,-1.4931321698215e-57,1.9739294623634e-64,-2.4000115245136e-75,-2.084417814902e-57,2.96248218868e-26,-41.888261227507,57.354714910803,3.3131938298253e-88,-55.40401319275,78.409285210304,2.2598929684659e-96,6.4284537338928e-77,4604.3675535751,4603.4787238508,0
0.000695625,20000000,20000000,20000000,20000000,20000000,37923699.211901,44131745.138767,20000000,74301748.398101,82288626.725976,20000000,20000000,0.0002046138572794,1.0554377562528,-1.6136904386354e-57,2.5223693890146e-64,-2.5633155332266e-75,-2.1959432605985e-57,3.6770597871681e-26,-41.857198709526,57.356838399173,4.3441736415752e-88,-55.39687356855,78.470347379177,2.9541859263222e-96,8.6474882986091e-77,4608.6575941685,4607.7580356973,0
0.000698125,20000000,20000000,20000000,20000000,20000000,38028384.063619,44251571.267191,20000000,74498631.550074,82513526.629758,20000000,20000000,0.00020535040346843,1.0557105732899,-1.7435568035782e-57,3.2224271515988e-64,-2.7371622971247e-75,-2.3129125389024e-57,4.5628898416588e-26,-41.826354449335,57.359173195018,5.6911848144205e-88,-55.389607936175,78.531341405355,3.8594342388797e-96,1.1625568541719e-76,4612.9381080049,4612.0277472108,0
0.000700625,20000000,20000000,20000000,20000000,20000000,38132848.850684,44371158.609339,20000000,74695610.492779,82738570.405924,20000000,20000000,0.00020608695531557,1.0559835977255,-1.8834143728359e-57,4.1158081061419e-64,-2.9221920757538e-75,-2.4355607883193e-57,5.6607490531371e-26,-41.795725134274,57.361715292209,7.4496523692833e-88,-55.38221822881,78.592268749782,5.0390224535015e-96,1.5619962481815e-76,4617.2090874318,4616.2878505795,0
0.000703125,20000000,20000000,20000000,20000000,20000000,38237094.821005,44490508.50256,20000000,74892684.482719,82963757.283933,20000000,20000000,0.00020682351281896,1.0562568298935,-2.0339935601267e-57,5.2556319289334e-64,-3.1190813089582e-75,-2.5641316538362e-57,7.0210606566575e-26,-41.765307516815,57.364460764288,9.7433818718933e-88,-55.374706343555,78.653130853891,6.5751660508255e-96,2.0974332325996e-76,4621.4705253399,4620.5383385346,0
0.000705625,20000000,20000000,20000000,20000000,20000000,38341123.205222,44609622.265768,20000000,75089852.790989,83189086.508313,20000000,20000000,0.00020756007597664,1.0565302701245,-2.1960751471692e-57,6.7095409048586e-64,-3.3285444940515e-75,-2.6988775151909e-57,8.706161740425e-26,-41.735098408662,57.367405752557,1.2732872836738e-87,-55.36707414259,78.713929127282,8.574442454988e-96,2.8147477253705e-76,4625.7224151523,4624.77920434,0
0.000708125,20000000,20000000,20000000,20000000,20000000,38444935.216981,44728501.199729,20000000,75287114.703111,83414557.338463,20000000,20000000,0.00020829664478657,1.0568039187457,-2.3704935292622e-57,8.5636503900907e-64,-3.5513361470103e-75,-2.8400597139909e-57,1.0793100024665e-25,-41.705094682164,57.370546470837,1.6626030462833e-87,-55.359323456465,78.7746649566,1.1174927985342e-95,3.7751549309345e-76,4629.9647508132,4629.0104417808,0
0.000710625,20000000,20000000,20000000,20000000,20000000,38548532.0532,44847146.587354,20000000,75484469.518854,83640169.048458,20000000,20000000,0.00020903321924662,1.0570777760808,-2.5581401537759e-57,1.0927568479692e-63,-3.788252854181e-75,-2.9879487831037e-57,1.3377082950707e-25,-41.675293270083,57.373879205943,2.1691957052083e-87,-55.351456076585,78.83533970934,1.4555401629487e-95,5.0602834693835e-76,4634.1975267773,4633.2320451524,0
0.000713125,20000000,20000000,20000000,20000000,20000000,38651914.894294,44965559.693945,20000000,75681916.55196,83865920.926799,20000000,20000000,0.00020976979935456,1.0573518424505,-2.7599671618678e-57,1.3940772810929e-63,-4.0401354227853e-75,-3.1428246820502e-57,1.6575730220094e-25,-41.645691161529,57.377400306299,2.8278695131515e-87,-55.34347376872,78.895954721386,1.8947207229241e-95,6.778919305162e-76,4638.4207379994,4637.4440092508,0
0.000715625,20000000,20000000,20000000,20000000,20000000,38755084.904451,45083741.76749,20000000,75879455.130044,84091812.276257,20000000,20000000,0.00021050638510811,1.0576261181723,-2.9769912445416e-57,1.7780709566871e-63,-4.3078711225365e-75,-3.3049770273196e-57,2.0534315763639e-25,-41.616285402998,57.381106189322,3.6836037354357e-87,-55.335378267461,78.956511308562,2.4649533047004e-95,9.0759567712654e-76,4642.6343799245,4641.6463293614,0
0.000718125,20000000,20000000,20000000,20000000,20000000,38858043.231852,45201694.038904,20000000,76077084.594329,84317842.413637,20000000,20000000,0.00021124297650488,1.0579006035603,-3.2102977243142e-57,2.267307746924e-63,-4.5923960357987e-75,-3.4747053303923e-57,2.5432227853686e-25,-41.587073093009,57.384993338598,4.7944828168042e-87,-55.327171264908,79.017010766528,3.204908176216e-95,1.2144272120243e-75,4646.8384484771,4645.83900125,0
0.000720625,20000000,20000000,20000000,20000000,20000000,38960791.008915,45319417.722292,20000000,76274804.29949,84544010.669609,20000000,20000000,0.00021197957354242,1.058175298926,-3.4610448741544e-57,2.890488326407e-63,-4.8946975107133e-75,-3.6523192345441e-57,3.1490928574688e-25,-41.55805138781,57.389058295348,6.2354576989289e-87,-55.318854444055,79.077454361002,4.1645377836971e-95,1.624046479185e-75,4651.0329400519,4650.0220211523,0
0.000723125,20000000,20000000,20000000,20000000,20000000,39063329.352528,45436914.015208,20000000,76472613.613485,84770316.38851,20000000,20000000,0.00021271617621817,1.0584502045776,-3.7304684868368e-57,3.6841011850707e-63,-5.2158167224547e-75,-3.8381387510811e-57,3.8983758521381e-25,-41.529217495648,57.393297666016,8.1031704714363e-87,-55.310429445199,79.137843340475,5.4083309113327e-95,2.1705714389273e-75,4655.2178515046,4654.1953857648,0
0.000725625,20000000,20000000,20000000,20000000,20000000,39165659.364266,45554184.098877,20000000,76670511.91734,84996758.928147,20000000,20000000,0.00021345278452949,1.0587253208204,-4.0198867010262e-57,4.6945252552506e-63,-5.5568512987359e-75,-4.0324944803064e-57,4.8248011458094e-25,-41.50056872731,57.397708132477,1.0522138876934e-86,-55.301897946795,79.1981789517,7.0194948055716e-95,2.8993399668446e-75,4659.3931801276,4658.3590922263,0
0.000728125,20000000,20000000,20000000,20000000,20000000,39267782.13081,45671229.138675,20000000,76868498.604917,85223337.659929,20000000,20000000,0.00021418939847374,1.0590006479567,-4.330705130041e-57,5.9806973392257e-63,-5.9189583297137e-75,-4.2357279301466e-57,5.9699802220629e-25,-41.472102282866,57.402489494055,1.3652675536274e-86,-55.293261386533,79.258462346182,9.1053258657234e-95,3.870565345677e-75,4663.5589236959,4662.513138143,0
0.000730625,20000000,20000000,20000000,20000000,20000000,39369698.723526,45788050.283628,20000000,77066573.082817,85450051.967657,20000000,20000000,0.00021492601804815,1.0592761862861,-4.6644222383227e-57,7.6174954256819e-63,-6.3033569765607e-75,-4.4481916368211e-57,7.3852367168514e-25,-41.443815549435,57.408134779772,1.770102795579e-86,-55.284521379722,79.318694743421,1.1804105176955e-94,5.1641711483099e-75,4667.7150803804,4666.6575215318,0
0.000733125,20000000,20000000,20000000,20000000,20000000,39471410.199385,45904648.667434,20000000,77264734.770543,85676901.248526,20000000,20000000,0.00021566264324987,1.0595519361055,-5.0226350571338e-57,9.7000288603173e-63,-6.7113317203711e-75,-4.6702494850938e-57,9.1338588401663e-25,-41.415705963322,57.413945811619,2.2932343478995e-86,-55.275679482469,79.378877329739,1.5293943512475e-94,6.8861831341647e-75,4671.8616487863,4670.7922408393,0
0.000735625,20000000,20000000,20000000,20000000,20000000,39572917.600984,46021025.40849,20000000,77462983.099959,85903884.912627,20000000,20000000,0.000216399274076,1.0598278977089,-5.4070452103448e-57,1.2349077390333e-62,-7.1442354925633e-75,-4.9022769280404e-57,1.1293870736946e-24,-41.387770982174,57.419919610954,2.9687241475869e-86,-55.266737205115,79.439011233462,1.9804122987622e-94,9.1771743129629e-75,4675.9986279359,4674.9172949289,0
0.000738125,20000000,20000000,20000000,20000000,20000000,39674221.95664,46137181.609997,20000000,77661317.514987,86131002.382582,20000000,20000000,0.00021713591052355,1.0601040713877,-5.8194652790696e-57,1.5717985129777e-62,-7.6034929939164e-75,-5.1446612277346e-57,1.3961441699298e-24,-41.360008105795,57.42605323316,3.8402978564395e-86,-55.257696027336,79.499097558408,2.5629630903988e-94,1.2223416620425e-74,4680.1260172588,4679.0326830718,0
0.000740625,20000000,20000000,20000000,20000000,20000000,39775324.280599,46253118.360178,20000000,77859737.471556,86358253.093383,20000000,20000000,0.00021787255258947,1.0603804574307,-6.2618255211368e-57,2.0001396692018e-62,-8.0906041552579e-75,-5.3978016939649e-57,1.7255079111097e-24,-41.332414872241,57.432343797268,4.9640461228568e-86,-55.248557395344,79.55913741897,3.3149773919485e-94,1.6271598359067e-74,4684.2438165842,4683.1384049386,0
0.000743125,20000000,20000000,20000000,20000000,20000000,39876225.573249,46368836.732507,20000000,78058242.437539,86585636.492274,20000000,20000000,0.00021860920027064,1.0606570561239,-6.7361809624489e-57,2.5446325274025e-62,-8.607147746867e-75,-5.6621099232148e-57,2.132078411112e-24,-41.304988867648,57.438788471663,6.4118697355923e-86,-55.239322735877,79.619131907755,4.2852004754335e-94,2.1648236694072e-74,4688.3520261326,4687.2344605912,0
0.000745625,20000000,20000000,20000000,20000000,20000000,39976926.821318,46484337.785923,20000000,78256831.89263,86813152.038609,20000000,20000000,0.00021934585356389,1.060933867751,-7.2447188783866e-57,3.2366172057397e-62,-9.1547851398473e-75,-5.9380100363591e-57,2.6338389653993e-24,-41.277727723168,57.445384473443,8.2758704686155e-86,-55.229993453244,79.679082096236,5.5362404038789e-94,2.8785268825532e-74,4692.4506465076,4691.3208504749,0
0.000748125,20000000,20000000,20000000,20000000,20000000,40077428.998085,46599622.565051,20000000,78455505.328214,87040799.203732,20000000,20000000,0.00022008251246598,1.061210892593,-7.7897666860689e-57,4.1158479953422e-62,-9.735264226837e-75,-6.2259389133892e-57,3.2529350401373e-24,-41.250629110984,57.452129068559,1.0673943338218e-85,-55.220570924365,79.738989037908,7.1484654457343e-94,3.8253769481138e-74,4696.5396786891,4695.3975754109,0
0.000750625,20000000,20000000,20000000,20000000,20000000,40177733.063536,46714692.10038,20000000,78654262.247152,87268577.470779,20000000,20000000,0.0002208191769736,1.0614881309287,-8.3738002659895e-57,5.2327411443193e-62,-1.0350423506923e-74,-6.5263464289292e-57,4.0166314894095e-24,-41.223690748042,57.459019569222,1.3756894151369e-85,-55.211056508481,79.7988537659,9.2249845609313e-94,5.0808351139205e-74,4700.6191240251,4699.464636589,0
0.000753125,20000000,20000000,20000000,20000000,20000000,40277839.964552,46829547.408467,20000000,78853102.163627,87496486.334537,20000000,20000000,0.00022155584708337,1.0617655830343,-8.9994527343568e-57,6.6512201262692e-62,-1.1002196341255e-74,-6.839695684317e-57,4.9584885228124e-24,-41.196910390664,57.466053333706,1.7717492171905e-85,-55.201451545917,79.858677294353,1.1898008411864e-93,6.744559847742e-74,4704.6889842244,4703.5220355599,0
0.000755625,20000000,20000000,20000000,20000000,20000000,40377750.635105,46944189.492137,20000000,79052024.603039,87724525.30131,20000000,20000000,0.00022229252279186,1.0620432491835,-9.6695236888789e-57,8.4523164177934e-62,-1.1692615384031e-74,-7.1664632357096e-57,6.1198061003803e-24,-41.170285833545,57.473227767503,2.2801976212605e-85,-55.191757343102,79.918460625761,1.5336969084419e-93,8.9480931586586e-74,4708.7492613499,4707.569774228,0
0.000758125,20000000,20000000,20000000,20000000,20000000,40477465.996414,47058619.340658,20000000,79251029.101823,87952693.888753,20000000,20000000,0.00022302920409559,1.0623211296481,-1.0386988948531e-56,1.0738725395411e-61,-1.2423817197054e-74,-7.5071393227686e-57,7.5513976320645e-24,-41.143814914247,57.480540317765,2.9324669324676e-85,-55.18197520319,79.97820474188,1.9758879104189e-93,1.1864965391552e-73,4712.7999578109,4711.6078548446,0
0.000760625,20000000,20000000,20000000,20000000,20000000,40576986.957111,47172837.929922,20000000,79450115.207325,88180991.625721,20000000,20000000,0.00022376589099101,1.0625992246972,-1.1155010813122e-56,1.3640569437606e-61,-1.3198047051955e-74,-7.8622280914907e-57,9.3157676014504e-24,-41.117495502943,57.487988476987,3.7686529422456e-85,-55.172106393928,80.037910611401,2.5441540056863e-93,1.5723972235698e-73,4716.8410763568,4715.6362800009,0
0.000763125,20000000,20000000,20000000,20000000,20000000,40676314.413418,47286846.222632,20000000,79649282.477667,88409418.052138,20000000,20000000,0.00022450258347451,1.0628775345978,-1.1976948865566e-56,1.7322686516645e-61,-1.4017663928086e-74,-8.2322478146112e-57,1.1489784508472e-23,-41.091325508516,57.49556978114,4.8398680295529e-85,-55.162152156893,80.097579189103,3.2740375531861e-93,2.0826610264229e-73,4720.8726200697,4719.6550526211,0
0.000765625,20000000,20000000,20000000,20000000,20000000,40775449.249304,47400645.168473,20000000,79848530.481623,88637972.718864,20000000,20000000,0.00022523928154243,1.0631560596147,-1.2856371342877e-56,2.1993846065073e-61,-1.4885145711879e-74,-8.6177311090071e-57,1.4167961093092e-23,-41.065302878878,57.503281805765,6.2112240419339e-85,-55.152113723796,80.157211411076,4.2109871216061e-93,2.7569961122146e-73,4724.8945923585,4723.6641759559,0
0.000768125,20000000,20000000,20000000,20000000,20000000,40874392.33666,47514235.704294,20000000,80047858.798501,88866655.187565,20000000,20000000,0.00022597598519105,1.0634348000106,-1.3797067102898e-56,2.7918399196138e-61,-1.5803094605434e-74,-9.0192251468158e-57,1.7466478960454e-23,-41.039425595373,57.511122168017,7.9656110200725e-85,-55.141992305994,80.216808199733,5.4130868304937e-93,3.6476710666466e-73,4728.9069969518,4727.6636535761,0
0.000770625,20000000,20000000,20000000,20000000,20000000,40973144.535443,47627618.754273,20000000,80247267.018001,89095465.030566,20000000,20000000,0.00022671269441661,1.063713756046,-1.4803058213798e-56,3.5431003105785e-61,-1.6774242748888e-74,-9.4372918636853e-57,2.1528125466449e-23,-41.013691674648,57.519088524922,1.0208480995339e-84,-55.131789097864,80.276370462611,6.9545289517634e-93,4.8234506431358e-73,4732.9098378919,4731.6534893661,0
0.000773125,20000000,20000000,20000000,20000000,20000000,41071706.693828,47740795.230072,20000000,80446754.74007,89324401.830709,20000000,20000000,0.00022744940921526,1.0639929279791,-1.5878613194017e-56,4.4955226815458e-61,-1.7801458068261e-74,-9.8725081626993e-57,2.6528348362466e-23,-40.988099169601,57.52717857155,1.3073900271815e-84,-55.121505268597,80.335899090817,8.9300298037917e-93,6.3747531096321e-73,4736.9031195286,4735.6336875179,0
0.000775625,20000000,20000000,20000000,20000000,20000000,41170079.648375,47853766.031018,20000000,80646321.574814,89553465.181248,20000000,20000000,0.00022818612958315,1.0642723160664,-1.7028260935579e-56,5.7027056291628e-61,-1.8887750350105e-74,-1.0325466109656e-56,3.2682679713075e-23,-40.962646162428,57.535390043648,1.6732201575075e-84,-55.111141966056,80.39539496578,1.1460442150495e-92,8.420404584769e-73,4740.886846513,4739.6042525247,0
0.000778125,20000000,20000000,20000000,20000000,20000000,41268264.224162,47966532.044248,20000000,80845967.142343,89782654.685698,20000000,20000000,0.00022892285551634,1.0645519205621,-1.8256805336251e-56,7.2324582653015e-61,-2.0036277556006e-74,-1.0796773127691e-56,4.0255836784702e-23,-40.937330772231,57.543720712384,2.1399652886478e-84,-55.100700326127,80.454858950688,1.4699884527889e-92,1.1116480344297e-72,4744.8610237913,4743.5651891753,0
0.000780625,20000000,20000000,20000000,20000000,20000000,41366261.234946,48079094.144881,20000000,81045691.072688,90011969.957739,20000000,20000000,0.00022965958701086,1.0648317417185,-1.956934067952e-56,9.170549188103e-61,-2.1250352381564e-74,-1.1287052180668e-56,4.9572876420121e-23,-40.912151147742,57.552168386825,2.7350666553803e-84,-55.090181462814,80.514291897658,1.8844792625907e-92,1.4667871598152e-72,4748.8256565994,4747.5165025478,0
0.000783125,20000000,20000000,20000000,20000000,20000000,41464071.483311,48191453.196171,20000000,81245493.005681,90241410.621085,20000000,20000000,0.00023039632406267,1.065111779786,-2.0971267788957e-56,1.1625439592684e-60,-2.2533449067561e-74,-1.1796941953256e-56,6.1032863308558e-23,-40.887105473694,57.560730910195,3.4933206442852e-84,-55.079586483976,80.573694643007,2.4145404863444e-92,1.9343409892143e-72,4752.780750457,4751.4581980044,0
0.000785625,20000000,20000000,20000000,20000000,20000000,41561695.760787,48303610.049643,20000000,81445372.590805,90470976.309341,20000000,20000000,0.00023113306666771,1.0653920350129,-2.2468310995516e-56,1.4734257588296e-60,-2.3889210473161e-74,-1.2327097023047e-56,7.5125615281169e-23,-40.862191959987,57.569406162974,4.4588218562596e-84,-55.068916465762,80.633068012575,3.092032905154e-92,2.549563290859e-72,4756.7263111619,4755.3902811853,0
0.000788125,20000000,20000000,20000000,20000000,20000000,41659134.848002,48415565.54525,20000000,81645329.487101,90700666.665898,20000000,20000000,0.00023186981482184,1.0656725076458,-2.4066535952734e-56,1.8670337598094e-60,-2.532145541802e-74,-1.2878188025373e-56,9.2452213975456e-23,-40.837408849357,57.578192059543,5.6874120568861e-84,-55.058172474748,80.692412818368,3.9575006949036e-92,3.3586602337674e-72,4760.6623447845,4759.3127580038,0
0.000790625,20000000,20000000,20000000,20000000,20000000,41756389.514814,48527320.51152,20000000,81845363.363055,90930481.343814,20000000,20000000,0.0002326065685209,1.0659531979292,-2.5772368335707e-56,2.3652732813599e-60,-2.6834186301264e-74,-1.3450901809214e-56,1.1375012245549e-22,-40.812754412393,57.587086549344,7.2497648043615e-84,-55.047355547899,80.751729862417,5.0625107442724e-92,4.4221608858855e-72,4764.5888576629,4763.22563464,0
0.000793125,20000000,20000000,20000000,20000000,20000000,41853460.520436,48638875.765686,20000000,82045473.89646,91160420.005687,20000000,20000000,0.00023334332776069,1.066234106106,-2.7592613462947e-56,2.9958214493465e-60,-2.8431597008245e-74,-1.404594158978e-56,1.3992393800862e-22,-40.788226953813,57.596087612255,9.2352683896566e-84,-55.036466721817,80.811019929033,6.4726148487837e-92,5.8193151535355e-72,4768.5058563966,4767.1289175365,0
0.000795625,20000000,20000000,20000000,20000000,20000000,41950348.613594,48750232.113855,20000000,82245660.774376,91390482.323583,20000000,20000000,0.00023408009253692,1.066515232417,-2.953447688226e-56,3.793640502451e-60,-3.0118081110522e-74,-1.4664027084439e-56,1.7208303691387e-22,-40.763824804488,57.605193262064,1.1756910637152e-83,-55.025507018738,80.870283793142,8.2710986569976e-92,7.6538291643679e-72,4772.4133478422,4771.0226133927,0
0.000798125,20000000,20000000,20000000,20000000,20000000,42047054.532642,48861390.351125,20000000,82445923.692987,91620667.978893,20000000,20000000,0.00023481686284532,1.0667965771016,-3.160558595882e-56,4.8028859116016e-60,-3.1898240370306e-74,-1.5305894645677e-56,2.1158764598772e-22,-40.739546320408,57.614401545001,1.4957420380142e-83,-55.014477433595,80.929522218922,1.0563723884103e-91,1.0061341072921e-71,4776.311339108,4774.9067291597,0
0.000800625,20000000,20000000,20000000,20000000,20000000,42143579.005683,48972351.261725,20000000,82646262.35749,91850976.662224,20000000,20000000,0.00023555363868152,1.0670781403971,-3.3814012512116e-56,6.0793118082891e-60,-3.3776893559484e-74,-1.5972297382472e-56,2.6010521586963e-22,-40.715389886367,57.62371053817,1.901698418418e-83,-55.003378947784,80.9887359586,1.3484723832638e-91,1.3219160265339e-71,4780.1998375494,4778.7812720355,0
0.000803125,20000000,20000000,20000000,20000000,20000000,42239922.750685,49083115.619137,20000000,82846676.481977,92081408.07328,20000000,20000000,0.00023629042004114,1.0673599225392,-3.6168296538396e-56,7.6933026937823e-60,-3.5759085598489e-74,-1.6664005273428e-56,3.1967938531071e-22,-40.691353916544,57.633118348588,2.4162936545116e-83,-54.992212533777,81.047925751074,1.7204379550317e-91,1.7358948759904e-71,4784.0788507632,4782.6462494601,0
0.000805625,20000000,20000000,20000000,20000000,20000000,42336086.475623,49193684.186242,20000000,83047165.789363,92311961.92078,20000000,20000000,0.00023702720691975,1.0676419237619,-3.8677471074941e-56,9.7336936832443e-60,-3.7850097027361e-74,-1.7381805266352e-56,3.9281433183213e-22,-40.667436848771,57.642623114325,3.0681920918769e-83,-54.980979145432,81.107092326092,2.1938588399616e-91,2.2783224824176e-71,4787.9483865836,4786.5016691106,0
0.000808125,20000000,20000000,20000000,20000000,20000000,42432070.878593,49304057.715442,20000000,83247730.011288,92542637.922347,20000000,20000000,0.00023776399931288,1.0679241442977,-4.1351088241839e-56,1.2312583364707e-59,-4.0055453823163e-74,-1.8126501373546e-56,4.8257792096344e-22,-40.643637151662,57.652223002103,3.8935142579713e-83,-54.969679725628,81.166236401076,2.7960942832924e-91,2.9886830000108e-71,4791.8084530773,4790.3475388969,0
0.000810625,20000000,20000000,20000000,20000000,20000000,42527876.647937,49414236.948804,20000000,83448368.888015,92773435.80442,20000000,20000000,0.00023850079721601,1.068206584377,-4.4199246527742e-56,1.5571395927085e-59,-4.2380937557136e-74,-1.8898914736888e-56,5.9272781461805e-22,-40.619953310405,57.661916207005,4.9377487944765e-83,-54.958315206218,81.225358682186,3.5617970089053e-91,3.918483763078e-71,4795.6590585386,4794.1838669561,0
0.000813125,20000000,20000000,20000000,20000000,20000000,42623504.462321,49524222.618128,20000000,83649082.168291,93004355.302085,20000000,20000000,0.00023923760062461,1.0684892442291,-4.7232619335934e-56,1.9688515195964e-59,-4.4832595930488e-74,-1.9699883715372e-56,7.2786562680766e-22,-40.596383839129,57.6717009543,6.258147649986e-83,-54.946886495459,81.284459868059,4.5348350214891e-91,5.1348817401083e-71,4799.5002114854,4798.0106616495,0
0.000815625,20000000,20000000,20000000,20000000,20000000,42718954.990885,49634015.445114,20000000,83849869.609297,93235396.159031,20000000,20000000,0.00023997440953408,1.0687721240813,-5.0462484883736e-56,2.488889620418e-59,-4.7416753666735e-74,-2.0530263929782e-56,8.9362531563072e-22,-40.57292727788,57.681575495877,7.9267249170219e-83,-54.935394484379,81.343540644746,5.7707138661281e-91,6.7253933494695e-71,4803.3319206542,4801.8279315568,0
0.000818125,20000000,20000000,20000000,20000000,20000000,42814228.893357,49743616.141481,20000000,84050730.976565,93466558.127465,20000000,20000000,0.0002407112239398,1.0690552241595,-5.3900757492507e-56,3.1456163913606e-59,-5.0140023271089e-74,-2.1390928091294e-56,1.0969033768207e-21,-40.549582204776,57.691538137919,1.0034009514335e-82,-54.923840071374,81.402601824769,7.3396282725136e-91,8.8040080647234e-71,4807.1541949908,4805.6356854679,0
0.000820625,20000000,20000000,20000000,20000000,20000000,42909326.820085,49853025.409189,20000000,84251666.043477,93697840.968182,20000000,20000000,0.0002414480438371,1.069338544688,-5.7560020229202e-56,3.9747840105079e-59,-5.3009318715569e-74,-2.2282766886139e-56,1.3461400550951e-21,-40.526347185493,57.701587129094,1.2693736867856e-82,-54.912224115948,81.461643776671,9.330303841279e-91,1.1519120555896e-70,4810.9670436679,4809.4339323973,0
0.000823125,20000000,20000000,20000000,20000000,20000000,43004249.412262,49962243.940129,20000000,84452674.592066,93929244.4497,20000000,20000000,0.00024218486922128,1.0696220858897,-6.1453559328558e-56,5.0214501873745e-59,-5.6031864644786e-74,-2.3206687724815e-56,1.6516628131102e-21,-40.503220828825,57.71172082217,1.6048715442047e-82,-54.900547469786,81.52066727719,1.1854833306097e-90,1.5063816153263e-70,4814.7704760478,4813.2226815514,0
0.000825625,20000000,20000000,20000000,20000000,20000000,43098997.30211,50071272.416795,20000000,84653756.412691,94160768.349228,20000000,20000000,0.00024292170008762,1.0699058479859,-6.5595399776473e-56,6.3423883592727e-59,-5.9215210658599e-74,-2.4163615584518e-56,2.0261057589769e-21,-40.480201772561,57.721937585497,2.0278152208643e-82,-54.888810996945,81.579673031414,1.5054758488831e-90,1.9689202484797e-70,4818.5645017002,4817.0019423435,0
0.000828125,20000000,20000000,20000000,20000000,20000000,43193571.112814,50180111.512169,20000000,84854911.303516,94392412.452168,20000000,20000000,0.00024365853643134,1.0701898311964,-7.0000342778525e-56,8.0091190475111e-59,-6.2567243821893e-74,-2.5154492786859e-56,2.484921729867e-21,-40.457288677633,57.732235804946,2.5606799193145e-82,-54.877015533422,81.638661686002,1.9108717497056e-90,2.5721679273268e-70,4822.349130393,4820.7717243852,0
0.000830625,20000000,20000000,20000000,20000000,20000000,43287971.458578,50288761.889749,20000000,85056139.070307,94624176.551816,20000000,20000000,0.00024439537824764,1.0704740357396,-7.4684004846392e-56,1.0111721717977e-58,-6.6096202022231e-74,-2.6180278974282e-56,3.0470073768613e-21,-40.434480217891,57.742613888233,3.2316365552082e-82,-54.865161890802,81.697633859189,2.4242054220826e-90,3.358529929684e-70,4826.1243720883,4824.5320374819,0
0.000833125,20000000,20000000,20000000,20000000,20000000,43382198.944784,50397224.203682,20000000,85257439.526504,94856060.449315,20000000,20000000,0.00024513222553168,1.0707584618323,-7.9662858630602e-56,1.2763627114265e-58,-6.981068778264e-74,-2.7241951071796e-56,3.7354660378307e-21,-40.4117750914,57.753070264252,4.0759748610156e-82,-54.853250883009,81.756590148951,3.073888782867e-90,4.3830706569104e-70,4829.8902369383,4828.2828916296,0
0.000835625,20000000,20000000,20000000,20000000,20000000,43476254.168145,50505499.09891,20000000,85458812.493303,95088063.953646,20000000,20000000,0.0002458690782786,1.07104310969,-8.4954275560396e-56,1.610764101975e-58,-7.3719682516977e-74,-2.8340503229684e-56,4.5785385929217e-21,-40.389172018713,57.763603387165,5.137877020012e-82,-54.841283315032,81.815531168784,3.8957264496848e-90,5.7172567762788e-70,4833.6467352817,4832.0242970108,0
0.000838125,20000000,20000000,20000000,20000000,20000000,43570137.716818,50613587.211287,20000000,85660257.799648,95320186.881598,20000000,20000000,0.00024660593648348,1.0713279795268,-9.0576570367506e-56,2.0323514323728e-58,-7.7832561275509e-74,-2.9476946751107e-56,5.6107390709115e-21,-40.366669730075,57.774211735752,6.4726269415503e-82,-54.829259962345,81.874457514926,4.9348169144757e-90,7.4537964857057e-70,4837.3938776399,4835.7562639906,0
0.000840625,20000000,20000000,20000000,20000000,20000000,43663850.170478,50721489.167673,20000000,85861775.2821,95552429.057656,20000000,20000000,0.00024734280014139,1.0716130715555,-9.6549047557596e-56,2.5637454384184e-58,-8.2159107958785e-74,-3.0652310005201e-56,6.874239773165e-21,-40.34426699188,57.784893811091,8.1493606613965e-82,-54.817181612059,81.933369778945,6.2479368812147e-90,9.7128928226336e-70,4841.1316747135,4839.4788031135,0
0.000843125,20000000,20000000,20000000,20000000,20000000,43757392.100389,50829205.58601,20000000,86063364.784683,95784790.313882,20000000,20000000,0.00024807966924738,1.0718983859873,-1.0289204990783e-55,3.2334073090951e-58,-8.6709531048211e-74,-3.1867638323603e-56,8.4205604207761e-21,-40.321962577134,57.795648139127,1.025448851826e-81,-54.80504901788,81.992268547092,7.9065300960722e-90,1.2650320226085e-69,4844.8601373785,4843.1919250995,0
0.000845625,20000000,20000000,20000000,20000000,20000000,43850764.069505,50936737.075437,20000000,86265026.158817,96017270.489852,20000000,20000000,0.00024881654379644,1.0721839230322,-1.0962700905853e-55,4.0771392817094e-58,-9.1494479826272e-74,-3.3123993878236e-56,1.0312627654565e-20,-40.299755286046,57.806473266219,1.2895950841599e-81,-54.792862935647,82.051154394542,1.0000452091392e-89,1.6467850604355e-69,4848.5792766833,4846.8956408406,0
0.000848125,20000000,20000000,20000000,20000000,20000000,43943966.632547,51044084.236371,20000000,86466759.263186,96249869.432533,20000000,20000000,0.00024955342378355,1.072469682899,-1.1677649828301e-55,5.1399689061897e-58,-9.652506113343e-74,-3.4422455547496e-56,1.2627285612626e-20,-40.27764393964,57.817367760888,1.6208507316353e-81,-54.780624120697,82.110027888308,1.2642659755322e-89,2.1426706230093e-69,4852.2891038443,4850.5899613976,0
0.000850625,20000000,20000000,20000000,20000000,20000000,44037000.336124,51151247.660625,20000000,86668563.963728,96482586.996251,20000000,20000000,0.00025029030920365,1.072755665795,-1.2436428750372e-55,6.4785145931578e-58,-1.0181285666457e-73,-3.5764118756287e-56,1.5458355807506e-20,-40.255627371098,57.828330212851,2.0360307465215e-81,-54.768333293068,82.168889587445,1.5975081240577e-89,2.7864908797373e-69,4855.9896302433,4854.2748979963,0
0.000853125,20000000,20000000,20000000,20000000,20000000,44129865.718802,51258227.931491,20000000,86870440.133534,96715423.042588,20000000,20000000,0.00025102720005169,1.0730418719264,-1.3241540056972e-55,8.163954778563e-58,-1.0736994079397e-73,-3.7150095304281e-56,1.8920365768378e-20,-40.233704645603,57.839359234338,2.5561048224169e-81,-54.755991357546,82.22774004547,2.017595977713e-89,3.621964289945e-69,4859.6808674245,4857.950462025,0
0.000855625,20000000,20000000,20000000,20000000,20000000,44222563.311211,51365025.623847,20000000,87072387.652805,96948377.440331,20000000,20000000,0.00025176409632255,1.0733283014979,-1.4095617541033e-55,1.0285753975036e-57,-1.1320889899292e-73,-3.8581513179037e-56,2.3153091762254e-20,-40.211874519404,57.85045345446,3.2072096476214e-81,-54.743598976555,82.286579802339,2.5469037026963e-89,4.7056068730211e-69,4863.3628270898,4861.6166650298,0
0.000858125,20000000,20000000,20000000,20000000,20000000,44315093.6361,51471641.304217,20000000,87274406.408723,97181450.065336,20000000,20000000,0.00025250099801101,1.073614954713,-1.5001432557037e-55,1.2956337714978e-57,-1.1934284679111e-73,-4.0059516339967e-56,2.8327092297085e-20,-40.1901351232,57.861611522048,4.0219043188958e-81,-54.731156066348,82.345409389514,3.2135031260496e-89,6.1104425727504e-69,4867.035521096,4865.2735187117,0
0.000860625,20000000,20000000,20000000,20000000,20000000,44407457.20841,51578075.530844,20000000,87476496.295352,97414640.800415,20000000,20000000,0.00025323790511196,1.0739018317742,-1.5961900561095e-55,1.6316956857233e-57,-1.25785449329e-73,-4.1585264493162e-56,3.4650447234039e-20,-40.168486405255,57.87283211195,5.0407265025516e-81,-54.718664380336,82.404229341068,4.0525976964002e-89,7.930778975197e-69,4870.6989614545,4868.9210349265,0
0.000863125,20000000,20000000,20000000,20000000,20000000,44499654.535424,51684328.853859,20000000,87678657.213702,97647949.535421,20000000,20000000,0.0002539748176202,1.0741889328824,-1.6980087878181e-55,2.0545042364223e-57,-1.3255094154536e-73,-4.3159932845546e-56,4.2376963636316e-20,-40.146926761065,57.884113913968,6.3141203636652e-81,-54.706124004917,82.463040176313,5.1083130598124e-89,1.0288351305284e-68,4874.3531603232,4872.5592256764,0
0.000865625,20000000,20000000,20000000,20000000,20000000,44591686.116797,51790401.815302,20000000,87880889.071556,97881376.167053,20000000,20000000,0.00025471173553052,1.0744762582377,-1.8059218673268e-55,2.5863427536826e-57,-1.3965414895771e-73,-4.4784711838521e-56,5.1816165770289e-20,-40.12545531919,57.895455639902,7.9048238354965e-81,-54.6935358047,82.521842411755,6.4359318839407e-89,1.3340222853991e-68,4877.9981300079,4876.1881031119,0
0.000868125,20000000,20000000,20000000,20000000,20000000,44683552.444664,51896294.949239,20000000,88083191.783446,98114920.598834,20000000,20000000,0.00025544865883768,1.0747638080388,-1.9202682307327e-55,3.2551909554599e-57,-1.4711050905388e-73,-4.6460806861336e-56,6.3345454861653e-20,-40.104071066139,57.906856015161,9.8908231156847e-81,-54.680900528312,82.580636549103,8.1046818187858e-89,1.7288939028035e-68,4881.6338829573,4879.8076795256,0
0.000870625,20000000,20000000,20000000,20000000,20000000,44775254.00368,52002008.781811,20000000,88285565.270517,98348582.74097,20000000,20000000,0.00025618558753643,1.0750515824832,-2.0414040941661e-55,4.0961740841043e-57,-1.5493609336352e-73,-4.8189437950233e-56,7.7424907197079e-20,-40.082773348249,57.918313788904,1.2369007286542e-80,-54.668219215632,82.63942309066,1.0201211869454e-88,2.2395571949727e-68,4885.2604317597,4883.4179673509,0
0.000873125,20000000,20000000,20000000,20000000,20000000,44866791.271156,52107543.831367,20000000,88488009.460565,98582362.510386,20000000,20000000,0.00025692252162139,1.0753395817672,-2.1697037477882e-55,5.1533789066905e-57,-1.631476302066e-73,-4.9939027318027e-56,9.4615279663223e-20,-40.061560107572,57.929827721411,1.5459686576762e-80,-54.655491450116,82.698202520247,1.2833925096313e-88,2.8996469651886e-68,4888.8777891403,4887.0189791573,0
0.000875625,20000000,20000000,20000000,20000000,20000000,44958164.717047,52212900.608451,20000000,88690524.287786,98816259.83045,20000000,20000000,0.00025765946108731,1.0756278060861,-2.3055603719094e-55,6.4821290092437e-57,-1.7176252799975e-73,-5.171347759748e-56,1.1559991397281e-19,-40.040431425049,57.941396598374,1.9312175576928e-80,-54.642718945018,82.756975328556,1.6138376095492e-88,3.7524752539238e-68,4892.4859679602,4890.6107276507,0
0.000878125,20000000,20000000,20000000,20000000,20000000,45049374.804125,52318079.615994,20000000,88893109.692922,99050274.63114,20000000,20000000,0.00025839640592881,1.075916255634,-2.4493868932798e-55,8.1518349755545e-57,-1.8079889942832e-73,-5.3539566532514e-56,1.4121137884212e-19,-40.019385358389,57.953019220776,2.4111688762363e-80,-54.629901278129,82.815741994949,2.0283991714991e-88,4.853788868322e-68,4896.0849812111,4894.1932256675,0
0.000880625,20000000,20000000,20000000,20000000,20000000,45140421.987985,52423081.349315,20000000,89095765.623046,99284406.848817,20000000,20000000,0.00025913335614056,1.076204930604,-2.6016168910939e-55,1.0249564008495e-56,-1.9027558614999e-73,-5.541835282858e-56,1.7246386907765e-19,-39.998421486386,57.964694406921,3.0087852595703e-80,-54.61703968405,82.874502993689,2.5482435589896e-88,6.2753051159145e-68,4899.6748420156,4897.7664861749,0
0.000883125,20000000,20000000,20000000,20000000,20000000,45231306.717179,52527906.296263,20000000,89298492.031617,99518656.426288,20000000,20000000,0.00025987031171715,1.0764938311879,-2.7627055047279e-55,1.2884509705435e-56,-2.0021218436371e-73,-5.7350901215513e-56,2.1059259844726e-19,-39.977538946034,57.97642099176,3.7525207697666e-80,-54.604134880827,82.933258790576,3.1998013630138e-88,8.1092430636609e-68,4903.2555636213,4901.3305222653,0
0.000885625,20000000,20000000,20000000,20000000,20000000,45322029.433248,52632554.937254,20000000,89501288.87835,99753023.31266,20000000,20000000,0.00026060727265316,1.0767829575766,-2.9331303831164e-55,1.6193587888659e-56,-2.1062907097493e-73,-5.9338281936182e-56,2.5710168733014e-19,-39.956736792928,57.988197819868,4.6776159997945e-80,-54.59118744006,82.992009834363,4.0160612521416e-88,1.0474128054713e-67,4906.8271593979,4904.8853471535,0
0.000888125,20000000,20000000,20000000,20000000,20000000,45412590.570757,52737027.745291,20000000,89704156.12906,99987507.463158,20000000,20000000,0.00026134423894317,1.0770723099597,-3.1133927169009e-55,2.0348440803239e-56,-2.2154743063038e-73,-6.1381570253019e-56,3.1382236677531e-19,-39.936013936245,58.000023764623,5.8276943781016e-80,-54.578197803273,83.050756587463,5.0381780390671e-88,1.3522223527718e-67,4910.3896428401,4908.4309741789,0
0.000890625,20000000,20000000,20000000,20000000,20000000,45502990.557459,52841325.186158,20000000,89907093.755798,100222108.83929,20000000,20000000,0.00026208121058172,1.0773618885259,-3.3040182360796e-55,2.5564202412947e-56,-2.3298928342344e-73,-6.3481845777247e-56,3.8298370832716e-19,-39.915369486893,58.011897706719,7.2567287360015e-80,-54.565166569663,83.109499493021,6.3174703499738e-88,1.7449042106421e-67,4913.943027558,4911.9674167967,0
0.000893125,20000000,20000000,20000000,20000000,20000000,45593229.814286,52945447.718397,20000000,90110101.736632,100456827.40862,20000000,20000000,0.0002628181875633,1.0776516934629,-3.5055583085764e-55,3.2110465480152e-56,-2.4497751341308e-73,-6.5640192023337e-56,4.6729856048952e-19,-39.894802582693,58.023818548764,9.0314628140538e-80,-54.55209435619,83.168238997272,7.9179011559227e-88,2.2505511894073e-67,4917.4873272807,4915.4946885809,0
0.000895625,20000000,20000000,20000000,20000000,20000000,45683308.755475,53049395.793453,20000000,90313180.05571,100691663.14481,20000000,20000000,0.00026355516988248,1.0779417249574,-3.7185910582446e-55,4.0325000799047e-56,-2.5753589803912e-73,-6.7857695769659e-56,5.7006794206491e-19,-39.874312353836,58.035785202577,1.123439146924e-79,-54.53898171566,83.226975529748,9.9191564592145e-88,2.9013531814638e-67,4921.0225558489,4919.0128032172,0
0.000898125,20000000,20000000,20000000,20000000,20000000,45773227.788575,53153169.855663,20000000,90516328.703059,100926616.02743,20000000,20000000,0.0002642921575337,1.0782319831947,-3.9437224606533e-55,5.0630915928009e-56,-2.7068913805543e-73,-7.0135446267894e-56,6.9530783447439e-19,-39.853897943455,58.047796593529,1.3967426719083e-79,-54.525829203375,83.285709512746,1.2420464649048e-87,3.738585113152e-67,4924.5487272129,4922.5217745015,0
0.000900625,20000000,20000000,20000000,20000000,20000000,45862987.314526,53256770.342351,20000000,90719547.674567,101161686.04193,20000000,20000000,0.00026502915051144,1.0785224683595,-4.1815876478124e-55,6.3558111549568e-56,-2.8446288870437e-73,-7.2474535032129e-56,8.4790315194604e-19,-39.83355844815,58.059851673077,1.7356405196591e-79,-54.512637383059,83.344441379638,1.5545332539591e-87,4.8151462887951e-67,4928.0658554382,4926.0216163439,0
0.000903125,20000000,20000000,20000000,20000000,20000000,45953528.773622,53360197.68396,20000000,90922836.972046,101396873.1797,20000000,20000000,0.00026576614881008,1.0788131806354,-4.4328520758214e-55,7.9770106640114e-56,-2.9888379130289e-73,-7.4876054633349e-56,1.0337946819661e-18,-39.813292976252,58.071949399746,2.1556627483592e-79,-54.499406839154,83.403171547266,1.9447415451398e-87,6.1988025997764e-67,4931.5739546915,4929.5123427567,0
0.000905625,20000000,20000000,20000000,20000000,20000000,46044876.32188,53463452.304072,20000000,91126196.60308,101632177.43792,20000000,20000000,0.00026650315242413,1.079104120205,-4.6982128250297e-55,1.0009756939819e-55,-3.139795061091e-73,-7.7341098636874e-56,1.2602060164757e-18,-39.793100899049,58.084088741479,2.675966221637e-79,-54.486138119329,83.461900415914,2.4317789598077e-87,7.9763242207491e-67,4935.0730392453,4932.9939678573,0
0.000908125,20000000,20000000,20000000,20000000,20000000,46136086.038213,53566534.61942,20000000,91329626.580879,101867598.8194,20000000,20000000,0.00026724016134798,1.0793952872497,-4.9783999139475e-55,1.2558022217431e-55,-3.2977874563879e-73,-7.9870760300225e-56,1.5359189815541e-18,-39.772981303589,58.09626868738,3.3201699754622e-79,-54.472831681869,83.520628393585,3.0393957700402e-87,1.0258763675504e-66,4938.5631234741,4936.4665058657,0
0.000910625,20000000,20000000,20000000,20000000,20000000,46227158.42635,53669445.040001,20000000,91533126.924301,102103137.33257,20000000,20000000,0.00026797717557598,1.0796866819502,-5.2741777522336e-55,1.575192016119e-55,-3.4631130919471e-73,-8.2466132530223e-56,1.8716078712902e-18,-39.752933310388,58.108488245756,4.1173803368571e-79,-54.459488082291,83.579355890766,3.7970995940287e-87,1.3188185521421e-66,4942.044221853,4939.9299711027,0
0.000913125,20000000,20000000,20000000,20000000,20000000,46318093.984495,53772183.969204,20000000,91736697.657914,102338792.99163,20000000,20000000,0.00026871419510252,1.0799783044863,-5.5863465240964e-55,1.9754247004077e-55,-3.636081181894e-73,-8.5128306551669e-56,2.2802449716001e-18,-39.73295615654,58.120746432307,5.1034482917994e-79,-54.44610789454,83.638083304011,4.7415345147851e-87,1.6946242787872e-66,4945.5163489566,4943.3843779878,0
0.000915625,20000000,20000000,20000000,20000000,20000000,46408893.20534,53874751.803822,20000000,91940338.811854,102574565.8163,20000000,20000000,0.00026945121992196,1.0802701550366,-5.915743658211e-55,2.4768651559453e-55,-3.8170125234122e-73,-8.7858371755531e-56,2.7775924938043e-18,-39.71304907781,58.133042273016,6.322510996735e-79,-54.432691588891,83.696811017556,5.9181865992637e-87,2.1765102230901e-66,4948.9795194521,4946.8297410338,0
0.000918125,20000000,20000000,20000000,20000000,20000000,46499556.576149,53977148.934118,20000000,92144050.421768,102810455.83184,20000000,20000000,0.0002701882500286,1.0805622337789,-6.2632453737819e-55,3.1049837786906e-55,-4.0062398680892e-73,-9.0657414388012e-56,3.3827992297983e-18,-39.693211362669,58.145374803058,7.8288807416325e-79,-54.419239726963,83.755539401592,7.383492112013e-87,2.7941355008396e-66,4952.433748099,4950.266074846,0
0.000920625,20000000,20000000,20000000,20000000,20000000,46590084.578644,54079375.743735,20000000,92347832.528496,103046463.06865,20000000,20000000,0.00027092528541678,1.0808545408901,-6.6297683344716e-55,3.8916303159853e-55,-4.2041083045863e-73,-9.3526517437765e-56,4.1191240977579e-18,-39.673442181286,58.157743091141,9.6893586044449e-79,-54.405752708235,83.814268857319,9.2074423749018e-87,3.585372077449e-66,4955.8790497547,4953.6933941272,0
0.000923125,20000000,20000000,20000000,20000000,20000000,46680477.689345,54181432.610047,20000000,92551685.178517,103282587.56278,20000000,20000000,0.0002716623260808,1.0811470765462,-7.0162711486019e-55,4.8766240004581e-55,-4.4109756479191e-73,-9.6466759339025e-56,5.0148134111646e-18,-39.653740800047,58.170146198408,1.1986066933514e-78,-54.392231125338,83.872999747739,1.147680081367e-86,4.5985569295083e-66,4959.3154393611,4957.1117136646,0
0.000925625,20000000,20000000,20000000,20000000,20000000,46770736.37947,54283319.90401,20000000,92755608.423556,103518829.35552,20000000,20000000,0.00027239937201495,1.0814398409221,-7.423756248279e-55,6.109738154101e-55,-4.6272128512954e-73,-9.9479213263593e-56,6.104164359085e-18,-39.634106501591,58.182583207098,1.4819915409351e-78,-54.378675427564,83.931732444038,1.4299074345076e-86,5.89535575886e-66,4962.7429319491,4960.5210483351,0
0.000928125,20000000,20000000,20000000,20000000,20000000,46860861.115056,54385037.990317,20000000,92959602.320688,103755188.49347,20000000,20000000,0.00027313642321348,1.081732834192,-7.8532715001868e-55,7.6531766388587e-55,-4.8532043903938e-73,-1.0256494650117e-55,7.4288139978133e-18,-39.614538585557,58.195053210486,1.8314840406932e-78,-54.365086144552,83.990467309873,1.7807413803967e-86,7.554402659357e-66,4966.1615426331,4963.9214130989,0
0.000930625,20000000,20000000,20000000,20000000,20000000,46950852.356942,54486587.227369,20000000,93163666.932125,103991665.02832,20000000,20000000,0.00027387347967063,1.0820260565293,-8.3059120265953e-55,9.5846634755786e-55,-5.0893487052515e-73,-1.0572501969378e-55,9.03930131719e-18,-39.595036252918,58.207555321609,2.2622987839304e-78,-54.351463677368,84.049204716839,2.2166658122284e-86,9.6759239271566e-66,4969.5712866161,4967.3128230045,0
0.000933125,20000000,20000000,20000000,20000000,20000000,47040710.560918,54587967.967441,20000000,93367802.325363,104228259.01708,20000000,20000000,0.00027461054138071,1.0823195081062,-8.7828222830716e-55,1.2001296712246e-54,-5.3360586472072e-73,-1.0896048618742e-55,1.0996959906192e-17,-39.575598895363,58.220088645187,2.7931046516994e-78,-54.337808515388,84.107944997619,2.7580785928895e-86,1.2387609463019e-65,4972.9721791777,4970.6952931772,0
0.000935625,20000000,20000000,20000000,20000000,20000000,47130436.177689,54689180.556616,20000000,93572008.572916,104464970.52167,20000000,20000000,0.00027534760833787,1.0826131890943,-9.2851977150915e-55,1.5024354703048e-54,-5.5937618676147e-73,-1.1227239004981e-55,1.3376210824986e-17,-39.556225793277,58.232652318615,3.4467983846635e-78,-54.3241211732,84.1666885136,3.4302098281192e-86,1.5852065236519e-65,4976.3642356821,4974.068838827,0
0.000938125,20000000,20000000,20000000,20000000,20000000,47220029.653007,54790225.334943,20000000,93776285.752451,104701799.60916,20000000,20000000,0.00027608468053634,1.0829070996642,-9.8142868321896e-55,1.8805289016176e-54,-5.8629013551648e-73,-1.156617672676e-55,1.626733981801e-17,-39.53691623856,58.245245483816,4.2514490185895e-78,-54.310402079602,84.225435612854,4.2642529866068e-86,2.0276267906152e-65,4979.7474715663,4977.4334752372,0
0.000940625,20000000,20000000,20000000,20000000,20000000,47309491.427683,54891102.636435,20000000,93980633.946636,104938746.35159,20000000,20000000,0.00027682175797034,1.0832012399857,-1.0371393719765e-54,2.3533195565236e-54,-6.143935788056e-73,-1.1912964356318e-55,1.9779860649908e-17,-39.517669581465,58.257867292792,5.2414503931161e-78,-54.296651665129,84.284186635163,5.2987575904943e-86,2.5923554554625e-65,4983.1219023497,4980.7892177726,0
0.000943125,20000000,20000000,20000000,20000000,20000000,47398821.937692,54991812.78918,20000000,94185053.24319,105175810.826,20000000,20000000,0.00027755884063402,1.0834956102279,-1.0957879021573e-54,2.9444126832959e-54,-6.4373401119361e-73,-1.2267703224143e-55,2.4046587575125e-17,-39.498485110842,58.27051691545,6.4589269356655e-78,-54.282870387401,84.342941925079,6.5813432231014e-86,3.3128820272326e-65,4986.4875436222,4984.1360818697,0
0.000945625,20000000,20000000,20000000,20000000,20000000,47488021.614195,55092356.115364,20000000,94389543.734785,105412993.11435,20000000,20000000,0.00027829592852155,1.0837902105589,-1.1575164164933e-54,3.6832696710108e-54,-6.7436059957221e-73,-1.2630493694074e-55,2.9228565645744e-17,-39.479362234527,58.283193519512,7.9554476362396e-78,-54.269058740961,84.40170180113,8.1708080961512e-86,4.2317774034637e-65,4989.8444110478,4987.4740830381,0
0.000948125,20000000,20000000,20000000,20000000,20000000,47577090.883554,55192732.931269,20000000,94594105.518903,105650293.30333,20000000,20000000,0.0002790330216271,1.0840850411458,-1.2224731116901e-54,4.6066539704905e-54,-7.0632422546153e-73,-1.3001434830945e-55,3.5521038604399e-17,-39.460300292213,58.295896285577,9.7941148134373e-78,-54.255217094892,84.460466581762,1.0139721864539e-85,5.4031324081131e-65,4993.1925203615,4990.8032368583,0
0.000950625,20000000,20000000,20000000,20000000,20000000,47666030.167377,55292943.54732,20000000,94798738.697758,105887711.48432,20000000,20000000,0.00027977011994479,1.0843801021553,-1.2908126711647e-54,5.7604323264006e-54,-7.3967754249873e-73,-1.3380624189826e-55,4.3160671523345e-17,-39.441298668382,58.308624417927,1.2052108520234e-77,-54.241345946404,84.519236603608,1.2577612571983e-85,6.8956448575583e-65,4996.5318873693,4994.1235589827,0
0.000953125,20000000,20000000,20000000,20000000,20000000,47754839.882686,55392988.268262,20000000,95003443.378508,106125247.75357,20000000,20000000,0.00028050722346876,1.0846753937529,-1.362696422606e-54,7.2018182089733e-54,-7.7447503867019e-73,-1.3768157995508e-55,5.2434290565983e-17,-39.422356701046,58.321377122179,1.4823784587757e-77,-54.22744567049,84.578012181009,1.5594882151553e-85,8.7965255109505e-65,4999.8625279384,4997.4350651258,0
0.000955625,20000000,20000000,20000000,20000000,20000000,47843520.441847,55492867.393092,20000000,95208219.672985,106362902.21196,20000000,20000000,0.00028124433219313,1.0849709161035,-1.4382925908034e-54,9.0021655008017e-54,-8.1077306850483e-73,-1.4164130976281e-55,6.3689456909822e-17,-39.403473764701,58.334153624174,1.8224445096303e-77,-54.213516689845,84.636793641503,1.93276150306e-85,1.1216438409383e-64,5003.1844580173,5000.7377710802,0
0.000958125,20000000,20000000,20000000,20000000,20000000,47932072.252727,55592581.215221,20000000,95413067.69784,106600674.96513,20000000,20000000,0.00028198144611198,1.0852666693712,-1.5177765847273e-54,1.1250446744836e-53,-8.486299196542e-73,-1.4568636183982e-55,7.7347257569501e-17,-39.384649294195,58.346953150813,2.239492533082e-77,-54.19955946837,84.695581295046,2.3943481059234e-85,1.4295746493299e-64,5006.4976936021,5004.03169269,0
0.000960625,20000000,20000000,20000000,20000000,20000000,48020495.718736,55692130.022492,20000000,95617987.574469,106838566.12342,20000000,20000000,0.00028271856521944,1.0855626537193,-1.6013312214398e-54,1.4057582911333e-53,-8.8810586753099e-73,-1.498176493344e-55,9.3917775575079e-17,-39.36588265673,58.359774932648,2.750717129948e-77,-54.18557435825,84.754375432831,2.964897863473e-85,1.8212403782118e-64,5009.8022507603,5007.3168458685,0
0.000963125,20000000,20000000,20000000,20000000,20000000,48108791.238689,55791514.097045,20000000,95822979.428612,107076575.80139,20000000,20000000,0.00028345568950955,1.0858588693102,-1.6891470245226e-54,1.7561832159762e-53,-9.2926323256735e-73,-1.5403606898696e-55,1.1401879768424e-16,-39.347173271054,58.372618224535,3.3771019212275e-77,-54.171561796472,84.813176370955,3.669831877062e-85,2.3191924601046e-64,5013.0981456248,5010.5932465941,0
0.000965625,20000000,20000000,20000000,20000000,20000000,48196959.207076,55890733.715603,20000000,96028043.390737,107314704.11828,20000000,20000000,0.0002841928189764,1.0861553163057,-1.7814225535493e-54,2.1935495353398e-53,-9.7216643640489e-73,-1.5834249559103e-55,1.3839843352204e-16,-39.328520566809,58.385482273035,4.1442431957505e-77,-54.157522185302,84.871984385213,4.5404317050796e-85,2.9519970151191e-64,5016.3853943796,5013.8609108975,0
0.000968125,20000000,20000000,20000000,20000000,20000000,48285000.013959,55989789.149345,20000000,96233179.595696,107552951.19762,20000000,20000000,0.00028492995361409,1.0864519948666,-1.8783645479858e-54,2.7393258534314e-53,-1.0168820575513e-72,-1.6273778754148e-55,1.6796245986873e-16,-39.309923907095,58.398366451552,5.0833501461238e-77,-54.143455845843,84.930799972618,5.615174200973e-85,3.7558233127802e-64,5019.6640132789,5017.1198548796,0
0.000970625,20000000,20000000,20000000,20000000,20000000,48372914.045041,56088680.664125,20000000,96438388.182463,107791317.1675,20000000,20000000,0.00028566709341659,1.0867489051532,-1.9801884138981e-54,3.4202570414151e-53,-1.0634789081154e-72,-1.6722278129364e-55,2.0380737153454e-16,-39.291382844709,58.41126984227,6.2324591385661e-77,-54.12936332792,84.989623027416,6.9413666110911e-85,4.7764476502183e-64,5022.9340186163,5020.3700946803,0
0.000973125,20000000,20000000,20000000,20000000,20000000,48460701.681895,56187408.520351,20000000,96643669.295278,108029802.16028,20000000,20000000,0.00028640423837794,1.0870460473249,-2.0871183634873e-54,4.2696548016299e-53,-1.1082074544253e-72,-1.7179828978705e-55,2.4726032396378e-16,-39.272896774541,58.424191799859,7.637906865715e-77,-54.115244981552,85.048454000349,8.577148863002e-85,6.0717800328453e-64,5026.1954267583,5023.6116465118,0
0.000975625,20000000,20000000,20000000,20000000,20000000,48548363.301998,56285972.973224,20000000,96849023.082872,108268406.31284,20000000,20000000,0.00028714138849219,1.0873434215404,-2.199387849161e-54,5.3290024697634e-53,-1.15164597668e-72,-1.7646510803992e-55,2.9992739672751e-16,-39.254465140882,58.437131657082,9.3561172907596e-77,-54.101101110709,85.107293248424,1.0593944193358e-84,7.7150488856881e-64,5029.4482541159,5026.8445266326,0
0.000978125,20000000,20000000,20000000,20000000,20000000,48635899.278509,56384374.272551,20000000,97054449.697909,108507129.76609,20000000,20000000,0.00028787854375336,1.0876410279577,-2.3172398277136e-54,6.6499501148161e-53,-1.196523612334e-72,-1.812240022378e-55,3.6375190219634e-16,-39.236087356351,58.450088721961,1.1455767951933e-76,-54.086932082998,85.166141046344,1.3079457508829e-84,9.7988134664666e-64,5032.6925171574,5030.0687513568,0
0.000980625,20000000,20000000,20000000,20000000,20000000,48723309.980399,56482612.66289,20000000,97259949.297188,108745972.66514,20000000,20000000,0.00028861570415543,1.0879388667338,-2.4409271107158e-54,8.2967944468897e-53,-1.2428769312708e-72,-1.860757182873e-55,4.4108481979138e-16,-39.217762941439,58.463062315864,1.4020415123858e-76,-54.072738349908,85.224997678287,1.6141342234666e-84,1.2440016511199e-63,5035.9282324045,5033.2843370526,0
0.000983125,20000000,20000000,20000000,20000000,20000000,48810595.772615,56580688.383688,20000000,97465522.041896,108984935.15945,20000000,20000000,0.00028935286969244,1.0882369380252,-2.5707126904241e-54,1.034956077444e-52,-1.2907429819573e-72,-1.9102097566768e-55,5.347698630183e-16,-39.199491320998,58.476051744273,1.7151673735057e-76,-54.058520205599,85.283863378924,1.9945879336399e-84,1.5786344707105e-63,5039.1554164202,5036.4913001304,0
0.000985625,20000000,20000000,20000000,20000000,20000000,48897757.01594,56678601.669125,20000000,97671168.097264,109224017.40238,20000000,20000000,0.00029009004035833,1.0885352419877,-2.7068701374333e-54,1.2907832490756e-52,-1.3401593094506e-72,-1.9606046630274e-55,6.4824620495846e-16,-39.181272036554,58.489056344168,2.0973067734977e-76,-54.044278082814,85.342738432062,2.4765870666821e-84,2.0024231957179e-63,5042.3740858299,5039.6896570606,0
0.000988125,20000000,20000000,20000000,20000000,20000000,48984794.067298,56776352.748389,20000000,97876887.632987,109463219.55158,20000000,20000000,0.0002908272161471,1.0888337787762,-2.8496839219175e-54,1.6095508530816e-52,-1.3911639330175e-72,-2.0119485911279e-55,7.8567250727975e-16,-39.163104541118,58.502075456826,2.5634690138433e-76,-54.030012313542,85.401623104161,3.0738258273351e-84,2.5388924832326e-63,5045.5842572935,5042.8794243517,0
0.000990625,20000000,20000000,20000000,20000000,20000000,49071707.27969,56873941.845608,20000000,98082680.822987,109702541.76884,20000000,20000000,0.00029156439705273,1.089132548545,-2.9994497725947e-54,2.0066712609853e-52,-1.4437953494922e-72,-2.0642478864182e-55,9.5207664894316e-16,-39.144988317877,58.515108411753,3.1318840889976e-76,-54.015238977044,85.460517624156,3.8135603733319e-84,3.2177137748218e-63,5048.7859475238,5046.0606185619,0
0.000993125,20000000,20000000,20000000,20000000,20000000,49158497.002104,56971369.179762,20000000,98288547.845107,109941984.21964,20000000,20000000,0.00029230158306916,1.0894315514478,-3.1564751327965e-54,2.5013131796698e-52,-1.4980925126167e-72,-2.1175086745266e-55,1.1535364522537e-15,-39.126922893456,58.5281545768,3.82468446657e-76,-53.999137928952,85.519422272003,4.7294232808036e-84,4.0762955164006e-63,5051.9791732785,5049.2332562958,0
0.000995625,20000000,20000000,20000000,20000000,20000000,49245163.579709,57068634.964893,20000000,98494488.881323,110181547.07355,20000000,20000000,0.00029303877419035,1.0897307876373,-3.321079455937e-54,3.1173128489065e-52,-1.5540948136051e-72,-2.1717367534176e-55,1.3973977888639e-15,-39.108907763061,58.541213319827,4.668729254135e-76,-53.983009166231,85.57833731101,5.8628988578822e-84,5.1617807985307e-63,5055.1639513592,5052.3973542019,0
0.0009978125,20000000,20000000,20000000,20000000,20000000,49320889.382134,57153601.354515,20000000,98674752.213247,110391270.07539,20000000,20000000,0.00029368378316165,1.0899907210458,-3.4820618191901e-54,3.784162446737e-52,-1.6088528250364e-72,-2.2277664769557e-55,1.6574987585345e-15,-39.110320892497,58.186562295546,5.5748721031696e-76,-53.954448103507,84.825856806918,7.0913951975823e-84,6.3544462170503e-63,5058.1149774373,5055.3302000479,0
0.001,20000000,20000000,20000000,20000000,20000000,49394111.613118,57235925.669648,20000000,98848193.751433,110592755.97307,20000000,20000000,0.00029432879786397,1.0902513616079,-3.6444554166922e-54,4.5888852701242e-52,-1.6625290902143e-72,-2.280983123959e-55,1.9630560937988e-15,-39.154592730771,58.307906552549,6.6426387698721e-76,-54.024735165182,85.042446604369,8.5657776277896e-84,7.8136474049135e-63,5060.9752741599,5058.1722266802,0
